# vtk DataFile Version 2.0
               (MEGA VTK FILE)
ASCII
DATASET UNSTRUCTURED_GRID
POINTS       1950    double
  0.92251E-03  0.67031E-03 -0.11113E-01
  0.15823E-02  0.12817E-02 -0.11080E-01
  0.21603E-02  0.69246E-03 -0.11095E-01
  0.15614E-02 -0.31224E-03 -0.11132E-01
  0.10267E-02  0.51291E-03 -0.11750E-01
  0.67012E-03  0.11759E-02 -0.11750E-01
  0.16474E-02  0.43960E-03 -0.11750E-01
  0.10988E-02 -0.51234E-03 -0.11750E-01
  0.28707E-02  0.48816E-03 -0.11114E-01
  0.26354E-02 -0.35647E-03 -0.11177E-01
  0.30703E-02  0.19406E-03 -0.11750E-01
  0.20276E-02 -0.57552E-03 -0.11750E-01
  0.11132E-02  0.19159E-02 -0.11059E-01
  0.52080E-03  0.14843E-02 -0.11096E-01
  0.12388E-02  0.18833E-02 -0.11750E-01
  0.29352E-04  0.15865E-02 -0.11750E-01
  0.76029E-04  0.28558E-03 -0.11131E-01
 -0.20446E-03  0.11662E-02 -0.11122E-01
  0.12991E-03  0.35135E-03 -0.11750E-01
 -0.62583E-03  0.11651E-02 -0.11750E-01
  0.76321E-03  0.23673E-02 -0.11028E-01
  0.93565E-03  0.29890E-02 -0.10955E-01
  0.15881E-02  0.25925E-02 -0.10998E-01
  0.84115E-03  0.24760E-02 -0.11750E-01
  0.20964E-03  0.30365E-02 -0.11750E-01
  0.10244E-02  0.26016E-02 -0.11750E-01
  0.25767E-03  0.22142E-02 -0.11044E-01
  0.20260E-03  0.30179E-02 -0.10924E-01
  0.33715E-03  0.21933E-02 -0.11750E-01
 -0.57150E-03  0.29887E-02 -0.11750E-01
 -0.77417E-03 -0.10186E-02 -0.11122E-01
 -0.88659E-03  0.71672E-04 -0.11145E-01
  0.41436E-03 -0.72096E-03 -0.11128E-01
 -0.75606E-03 -0.10162E-02 -0.11750E-01
 -0.94624E-03  0.13068E-06 -0.11750E-01
  0.24427E-03 -0.66687E-03 -0.11750E-01
 -0.18267E-02 -0.73360E-03 -0.11139E-01
 -0.18838E-02  0.78141E-04 -0.11158E-01
 -0.18284E-02 -0.73006E-03 -0.11750E-01
 -0.18580E-02  0.28040E-04 -0.11750E-01
 -0.27663E-02 -0.91583E-03 -0.11173E-01
 -0.28957E-02 -0.11859E-03 -0.11167E-01
 -0.27773E-02 -0.67099E-03 -0.11750E-01
 -0.28023E-02  0.27568E-03 -0.11750E-01
 -0.25597E-02 -0.16919E-02 -0.11176E-01
 -0.19315E-02 -0.13827E-02 -0.11138E-01
 -0.25528E-02 -0.15156E-02 -0.11750E-01
 -0.19628E-02 -0.13399E-02 -0.11750E-01
 -0.10692E-02  0.98265E-03 -0.11138E-01
 -0.97842E-03  0.95267E-03 -0.11750E-01
 -0.14527E-02 -0.17767E-02 -0.11139E-01
 -0.14663E-02 -0.16861E-02 -0.11750E-01
 -0.42866E-03  0.20190E-02 -0.11055E-01
 -0.41205E-03  0.19914E-02 -0.11750E-01
 -0.12441E-02  0.18135E-02 -0.11048E-01
 -0.12629E-02  0.18229E-02 -0.11750E-01
 -0.20847E-02  0.15656E-02 -0.11014E-01
 -0.19993E-02  0.86898E-03 -0.11132E-01
 -0.18937E-02  0.17880E-02 -0.11750E-01
 -0.27261E-02  0.98302E-03 -0.11750E-01
 -0.18551E-03 -0.19834E-02 -0.11150E-01
 -0.97721E-03 -0.23762E-02 -0.11182E-01
 -0.18517E-03 -0.19589E-02 -0.11750E-01
 -0.12898E-02 -0.21391E-02 -0.11750E-01
  0.76071E-03 -0.16910E-02 -0.11160E-01
  0.75386E-03 -0.19101E-02 -0.11750E-01
  0.16602E-02 -0.13794E-02 -0.11190E-01
  0.17014E-02 -0.14799E-02 -0.11750E-01
  0.30550E-02  0.11474E-02 -0.11065E-01
  0.26617E-02  0.14846E-02 -0.11043E-01
  0.31625E-02  0.10818E-02 -0.11750E-01
  0.20713E-02  0.13876E-02 -0.11750E-01
  0.21698E-02  0.20327E-02 -0.11022E-01
  0.22642E-02  0.19597E-02 -0.11750E-01
 -0.57593E-03  0.28849E-02 -0.10888E-01
 -0.48892E-03  0.28404E-02 -0.11750E-01
 -0.14173E-02  0.25794E-02 -0.10839E-01
 -0.13691E-02  0.25896E-02 -0.11750E-01
 -0.22280E-02  0.21141E-02 -0.10777E-01
 -0.22302E-02  0.24751E-02 -0.11750E-01
 -0.28526E-02  0.15843E-02 -0.10727E-01
 -0.29207E-02  0.11661E-02 -0.10928E-01
 -0.28922E-02  0.21230E-02 -0.11750E-01
 -0.34414E-02  0.16994E-02 -0.11750E-01
 -0.29478E-02  0.58590E-03 -0.11093E-01
 -0.28757E-02  0.11206E-02 -0.11750E-01
 -0.21244E-02 -0.23208E-02 -0.11199E-01
 -0.20829E-02 -0.22365E-02 -0.11750E-01
 -0.16200E-02 -0.28478E-02 -0.11254E-01
 -0.15168E-02 -0.26982E-02 -0.11750E-01
 -0.11992E-02 -0.32423E-02 -0.11316E-01
 -0.61295E-03 -0.30522E-02 -0.11274E-01
 -0.11269E-02 -0.29162E-02 -0.11750E-01
 -0.13215E-02 -0.28627E-02 -0.11750E-01
  0.20638E-03 -0.28302E-02 -0.11247E-01
  0.24788E-03 -0.29666E-02 -0.11750E-01
  0.10680E-02 -0.25210E-02 -0.11253E-01
  0.10907E-02 -0.27250E-02 -0.11750E-01
  0.18306E-02 -0.21145E-02 -0.11279E-01
  0.19330E-02 -0.23138E-02 -0.11750E-01
  0.24172E-02 -0.17074E-02 -0.11308E-01
  0.25066E-02 -0.11346E-02 -0.11248E-01
  0.26031E-02 -0.17451E-02 -0.11750E-01
  0.18211E-02 -0.13329E-02 -0.11750E-01
  0.36702E-02  0.16501E-02 -0.11029E-01
  0.36704E-02  0.84595E-03 -0.11124E-01
  0.39426E-02  0.23507E-02 -0.11750E-01
  0.24721E-02  0.12936E-02 -0.11750E-01
  0.33920E-02  0.23033E-02 -0.10964E-01
  0.34485E-02  0.24143E-02 -0.11750E-01
  0.28865E-02  0.29396E-02 -0.10935E-01
  0.29056E-02  0.29743E-02 -0.11750E-01
  0.21601E-02  0.35488E-02 -0.10899E-01
  0.21934E-02  0.37060E-02 -0.11750E-01
  0.12572E-02  0.39540E-02 -0.10813E-01
  0.11984E-02  0.40624E-02 -0.11750E-01
  0.28102E-03  0.40567E-02 -0.10703E-01
  0.15126E-03  0.41449E-02 -0.11750E-01
 -0.70105E-03  0.38591E-02 -0.10592E-01
 -0.71112E-03  0.38821E-02 -0.11750E-01
 -0.17013E-02  0.33503E-02 -0.10431E-01
 -0.17284E-02  0.35686E-02 -0.11750E-01
 -0.26645E-02  0.23657E-02 -0.10279E-01
 -0.27138E-02  0.21927E-02 -0.11750E-01
 -0.34414E-02  0.11500E-02 -0.10342E-01
 -0.35615E-02  0.22280E-03 -0.11750E-01
 -0.38765E-02  0.31789E-03 -0.10659E-01
 -0.38061E-02 -0.34567E-03 -0.11750E-01
 -0.40870E-02 -0.16176E-03 -0.10990E-01
 -0.38454E-02 -0.42379E-03 -0.11750E-01
 -0.41406E-02 -0.71990E-03 -0.11183E-01
 -0.39317E-02 -0.83909E-03 -0.11750E-01
 -0.39527E-02 -0.14752E-02 -0.11251E-01
 -0.36716E-02 -0.16093E-02 -0.11750E-01
 -0.35306E-02 -0.23156E-02 -0.11275E-01
 -0.32028E-02 -0.24766E-02 -0.11750E-01
 -0.29068E-02 -0.31237E-02 -0.11318E-01
 -0.25865E-02 -0.34143E-02 -0.11750E-01
 -0.21474E-02 -0.36946E-02 -0.11401E-01
 -0.16733E-02 -0.43373E-02 -0.11750E-01
 -0.13178E-02 -0.39036E-02 -0.11453E-01
 -0.73455E-03 -0.41284E-02 -0.11750E-01
 -0.40216E-03 -0.39187E-02 -0.11439E-01
  0.10115E-03 -0.39727E-02 -0.11750E-01
  0.57263E-03 -0.37457E-02 -0.11418E-01
  0.10670E-02 -0.38650E-02 -0.11750E-01
  0.15001E-02 -0.33073E-02 -0.11423E-01
  0.21470E-02 -0.30518E-02 -0.11750E-01
  0.22925E-02 -0.26446E-02 -0.11438E-01
  0.30126E-02 -0.22022E-02 -0.11750E-01
  0.29366E-02 -0.18003E-02 -0.11430E-01
  0.35575E-02 -0.97249E-03 -0.11750E-01
  0.34036E-02 -0.89361E-03 -0.11360E-01
  0.37750E-02 -0.11273E-03 -0.11750E-01
  0.36588E-02 -0.11760E-04 -0.11241E-01
  0.39616E-02  0.53297E-03 -0.11750E-01
  0.11245E-02  0.68103E-03 -0.10283E-01
  0.18499E-02  0.12765E-02 -0.10248E-01
  0.24450E-02  0.66800E-03 -0.10265E-01
  0.17769E-02 -0.30175E-03 -0.10306E-01
  0.32286E-02  0.33251E-03 -0.10295E-01
  0.29625E-02 -0.51419E-03 -0.10357E-01
  0.13952E-02  0.18959E-02 -0.10230E-01
  0.75704E-03  0.14790E-02 -0.10272E-01
  0.22199E-03  0.29275E-03 -0.10304E-01
 -0.20173E-04  0.11743E-02 -0.10304E-01
  0.10580E-02  0.23413E-02 -0.10197E-01
  0.12350E-02  0.29439E-02 -0.10104E-01
  0.18643E-02  0.25405E-02 -0.10160E-01
  0.51511E-03  0.22063E-02 -0.10215E-01
  0.48162E-03  0.30009E-02 -0.10054E-01
 -0.64928E-03 -0.10187E-02 -0.10297E-01
 -0.75605E-03  0.79388E-04 -0.10321E-01
  0.55057E-03 -0.70465E-03 -0.10303E-01
 -0.17042E-02 -0.73192E-03 -0.10316E-01
 -0.17372E-02  0.80821E-04 -0.10342E-01
 -0.26148E-02 -0.89253E-03 -0.10365E-01
 -0.27225E-02 -0.10409E-03 -0.10357E-01
 -0.24038E-02 -0.16430E-02 -0.10366E-01
 -0.17942E-02 -0.13754E-02 -0.10317E-01
 -0.89068E-03  0.99585E-03 -0.10325E-01
 -0.13013E-02 -0.17755E-02 -0.10320E-01
 -0.21834E-03  0.20324E-02 -0.10229E-01
 -0.10240E-02  0.18314E-02 -0.10221E-01
 -0.18170E-02  0.15809E-02 -0.10175E-01
 -0.17832E-02  0.87427E-03 -0.10318E-01
 -0.34345E-04 -0.19759E-02 -0.10333E-01
 -0.79174E-03 -0.23742E-02 -0.10363E-01
  0.91348E-03 -0.16771E-02 -0.10340E-01
  0.18824E-02 -0.14195E-02 -0.10366E-01
  0.34290E-02  0.96448E-03 -0.10245E-01
  0.29842E-02  0.13870E-02 -0.10216E-01
  0.24435E-02  0.19759E-02 -0.10190E-01
 -0.35112E-03  0.28894E-02 -0.99954E-02
 -0.11758E-02  0.25920E-02 -0.99275E-02
 -0.19232E-02  0.21463E-02 -0.98500E-02
 -0.24944E-02  0.16738E-02 -0.97826E-02
 -0.25990E-02  0.12310E-02 -0.10054E-01
 -0.27089E-02  0.61741E-03 -0.10262E-01
 -0.19560E-02 -0.22512E-02 -0.10385E-01
 -0.14226E-02 -0.27771E-02 -0.10430E-01
 -0.98258E-03 -0.31745E-02 -0.10470E-01
 -0.40413E-03 -0.30301E-02 -0.10424E-01
  0.37411E-03 -0.28256E-02 -0.10390E-01
  0.12401E-02 -0.25677E-02 -0.10390E-01
  0.20674E-02 -0.22687E-02 -0.10419E-01
  0.27194E-02 -0.19993E-02 -0.10456E-01
  0.28240E-02 -0.13555E-02 -0.10420E-01
  0.41296E-02  0.12682E-02 -0.10222E-01
  0.42076E-02  0.38605E-03 -0.10325E-01
  0.37396E-02  0.20642E-02 -0.10144E-01
  0.31043E-02  0.27949E-02 -0.10103E-01
  0.23240E-02  0.34374E-02 -0.10047E-01
  0.14426E-02  0.38738E-02 -0.99160E-02
  0.48547E-03  0.40070E-02 -0.97314E-02
 -0.49776E-03  0.38224E-02 -0.95322E-02
 -0.14494E-02  0.33062E-02 -0.92899E-02
 -0.23116E-02  0.24340E-02 -0.91001E-02
 -0.30111E-02  0.14064E-02 -0.92264E-02
 -0.35055E-02  0.60741E-03 -0.96746E-02
 -0.37903E-02  0.30278E-04 -0.10123E-01
 -0.38669E-02 -0.59422E-03 -0.10394E-01
 -0.37108E-02 -0.13439E-02 -0.10486E-01
 -0.33230E-02 -0.21353E-02 -0.10498E-01
 -0.27203E-02 -0.28600E-02 -0.10519E-01
 -0.19533E-02 -0.34085E-02 -0.10562E-01
 -0.11105E-02 -0.37259E-02 -0.10566E-01
 -0.23619E-03 -0.38330E-02 -0.10499E-01
  0.68989E-03 -0.37637E-02 -0.10434E-01
  0.16521E-02 -0.35246E-02 -0.10423E-01
  0.25569E-02 -0.30857E-02 -0.10468E-01
  0.32835E-02 -0.24010E-02 -0.10533E-01
  0.37639E-02 -0.15163E-02 -0.10524E-01
  0.40586E-02 -0.55824E-03 -0.10436E-01
  0.11589E-02  0.68786E-03 -0.93251E-02
  0.18868E-02  0.12587E-02 -0.93110E-02
  0.24705E-02  0.62135E-03 -0.93187E-02
  0.17905E-02 -0.31109E-03 -0.93385E-02
  0.32355E-02  0.17769E-03 -0.93364E-02
  0.29483E-02 -0.66316E-03 -0.93543E-02
  0.14416E-02  0.18749E-02 -0.93078E-02
  0.79468E-03  0.14787E-02 -0.93287E-02
  0.24091E-03  0.30899E-03 -0.93366E-02
  0.60775E-06  0.11882E-02 -0.93478E-02
  0.11077E-02  0.23176E-02 -0.92934E-02
  0.12881E-02  0.28993E-02 -0.92371E-02
  0.19035E-02  0.24883E-02 -0.92730E-02
  0.55797E-03  0.22007E-02 -0.93048E-02
  0.54122E-03  0.29859E-02 -0.91973E-02
 -0.64084E-03 -0.10026E-02 -0.93377E-02
 -0.74994E-03  0.95087E-04 -0.93500E-02
  0.56770E-03 -0.68817E-03 -0.93395E-02
 -0.16967E-02 -0.71220E-03 -0.93499E-02
 -0.17217E-02  0.96821E-04 -0.93687E-02
 -0.25645E-02 -0.83955E-03 -0.93890E-02
 -0.26567E-02 -0.53411E-04 -0.93855E-02
 -0.23603E-02 -0.15684E-02 -0.93796E-02
 -0.17778E-02 -0.13408E-02 -0.93507E-02
 -0.86673E-03  0.10145E-02 -0.93646E-02
 -0.12879E-02 -0.17451E-02 -0.93502E-02
 -0.17748E-03  0.20458E-02 -0.93123E-02
 -0.96302E-03  0.18588E-02 -0.93065E-02
 -0.17277E-02  0.16351E-02 -0.92747E-02
 -0.17387E-02  0.90258E-03 -0.93624E-02
 -0.31626E-04 -0.19633E-02 -0.93549E-02
 -0.78576E-03 -0.23464E-02 -0.93594E-02
  0.91207E-03 -0.16793E-02 -0.93529E-02
  0.18690E-02 -0.14707E-02 -0.93543E-02
  0.34430E-02  0.79689E-03 -0.93210E-02
  0.30046E-02  0.12870E-02 -0.93046E-02
  0.24688E-02  0.19148E-02 -0.92901E-02
 -0.27602E-03  0.29061E-02 -0.91447E-02
 -0.10677E-02  0.26364E-02 -0.90895E-02
 -0.17767E-02  0.22343E-02 -0.90372E-02
 -0.23188E-02  0.18291E-02 -0.89922E-02
 -0.24663E-02  0.13585E-02 -0.91862E-02
 -0.26157E-02  0.69916E-03 -0.93239E-02
 -0.19269E-02 -0.21683E-02 -0.93706E-02
 -0.14106E-02 -0.27019E-02 -0.93649E-02
 -0.98539E-03 -0.31109E-02 -0.93456E-02
 -0.41351E-03 -0.30034E-02 -0.93334E-02
  0.35646E-03 -0.28304E-02 -0.93141E-02
  0.12150E-02 -0.26168E-02 -0.93018E-02
  0.20294E-02 -0.23891E-02 -0.93090E-02
  0.26643E-02 -0.22071E-02 -0.93238E-02
  0.27853E-02 -0.15328E-02 -0.93557E-02
  0.41227E-02  0.96997E-03 -0.93268E-02
  0.41851E-02  0.14500E-04 -0.93587E-02
  0.37391E-02  0.18662E-02 -0.92927E-02
  0.31159E-02  0.26705E-02 -0.92627E-02
  0.23601E-02  0.33372E-02 -0.92136E-02
  0.15103E-02  0.37908E-02 -0.91124E-02
  0.58919E-03  0.39679E-02 -0.89564E-02
 -0.36107E-03  0.38446E-02 -0.87700E-02
 -0.12668E-02  0.33780E-02 -0.85637E-02
 -0.20655E-02  0.25963E-02 -0.84429E-02
 -0.27348E-02  0.17092E-02 -0.85757E-02
 -0.32661E-02  0.94406E-03 -0.89101E-02
 -0.35870E-02  0.26639E-03 -0.92248E-02
 -0.36803E-02 -0.43100E-03 -0.94249E-02
 -0.35527E-02 -0.11848E-02 -0.94850E-02
 -0.32166E-02 -0.19482E-02 -0.94585E-02
 -0.26760E-02 -0.26485E-02 -0.94109E-02
 -0.19536E-02 -0.32239E-02 -0.93651E-02
 -0.11247E-02 -0.36163E-02 -0.93101E-02
 -0.25899E-03 -0.37931E-02 -0.92289E-02
  0.64941E-03 -0.37958E-02 -0.91451E-02
  0.15868E-02 -0.36608E-02 -0.91027E-02
  0.24672E-02 -0.33502E-02 -0.91468E-02
  0.31836E-02 -0.27751E-02 -0.92655E-02
  0.36884E-02 -0.19413E-02 -0.93538E-02
  0.40164E-02 -0.97355E-03 -0.93760E-02
  0.10810E-02  0.68938E-03 -0.83447E-02
  0.17885E-02  0.12468E-02 -0.83423E-02
  0.23524E-02  0.59869E-03 -0.83425E-02
  0.16987E-02 -0.32100E-03 -0.83464E-02
  0.30547E-02  0.12389E-03 -0.83467E-02
  0.27689E-02 -0.70749E-03 -0.83413E-02
  0.13379E-02  0.18618E-02 -0.83463E-02
  0.70124E-03  0.14798E-02 -0.83535E-02
  0.16866E-03  0.31876E-03 -0.83495E-02
 -0.82064E-04  0.11969E-02 -0.83624E-02
  0.10035E-02  0.23027E-02 -0.83441E-02
  0.11959E-02  0.28675E-02 -0.83195E-02
  0.17997E-02  0.24543E-02 -0.83353E-02
  0.46224E-03  0.21971E-02 -0.83493E-02
  0.46428E-03  0.29744E-02 -0.82958E-02
 -0.71953E-03 -0.99154E-03 -0.83497E-02
 -0.82386E-03  0.10384E-03 -0.83578E-02
  0.49725E-03 -0.68424E-03 -0.83488E-02
 -0.17788E-02 -0.69748E-03 -0.83590E-02
 -0.17929E-02  0.10601E-03 -0.83717E-02
 -0.26464E-02 -0.79558E-03 -0.83838E-02
 -0.27238E-02 -0.12397E-05 -0.83854E-02
 -0.24620E-02 -0.15206E-02 -0.83716E-02
 -0.18706E-02 -0.13152E-02 -0.83575E-02
 -0.94205E-03  0.10232E-02 -0.83729E-02
 -0.13868E-02 -0.17232E-02 -0.83525E-02
 -0.25964E-03  0.20525E-02 -0.83521E-02
 -0.10384E-02  0.18764E-02 -0.83487E-02
 -0.17988E-02  0.16833E-02 -0.83329E-02
 -0.18074E-02  0.92226E-03 -0.83748E-02
 -0.12806E-03 -0.19620E-02 -0.83494E-02
 -0.90623E-03 -0.23329E-02 -0.83455E-02
  0.80780E-03 -0.16883E-02 -0.83452E-02
  0.17213E-02 -0.14896E-02 -0.83373E-02
  0.32327E-02  0.73716E-03 -0.83497E-02
  0.28377E-02  0.12455E-02 -0.83457E-02
  0.23449E-02  0.18820E-02 -0.83414E-02
 -0.33743E-03  0.29189E-02 -0.82593E-02
 -0.11252E-02  0.26810E-02 -0.82226E-02
 -0.18368E-02  0.23312E-02 -0.81953E-02
 -0.23787E-02  0.19975E-02 -0.81750E-02
 -0.25303E-02  0.14895E-02 -0.82858E-02
 -0.26785E-02  0.78428E-03 -0.83567E-02
 -0.20529E-02 -0.21245E-02 -0.83533E-02
 -0.15715E-02 -0.26703E-02 -0.83334E-02
 -0.11800E-02 -0.30956E-02 -0.83075E-02
 -0.57953E-03 -0.30060E-02 -0.83093E-02
  0.20550E-03 -0.28464E-02 -0.83005E-02
  0.10378E-02 -0.26360E-02 -0.82852E-02
  0.17921E-02 -0.24080E-02 -0.82776E-02
  0.23699E-02 -0.22327E-02 -0.82767E-02
  0.25517E-02 -0.15688E-02 -0.83194E-02
  0.38127E-02  0.87152E-03 -0.83612E-02
  0.38999E-02 -0.96834E-04 -0.83531E-02
  0.34810E-02  0.17933E-02 -0.83585E-02
  0.29567E-02  0.26110E-02 -0.83441E-02
  0.22697E-02  0.32710E-02 -0.83147E-02
  0.14579E-02  0.37264E-02 -0.82592E-02
  0.56047E-03  0.39391E-02 -0.81625E-02
 -0.37769E-03  0.38756E-02 -0.80299E-02
 -0.12782E-02  0.34860E-02 -0.78872E-02
 -0.20832E-02  0.28175E-02 -0.78248E-02
 -0.27726E-02  0.20532E-02 -0.79314E-02
 -0.33221E-02  0.13072E-02 -0.81328E-02
 -0.36574E-02  0.54021E-03 -0.83037E-02
 -0.37597E-02 -0.24661E-03 -0.84135E-02
 -0.36539E-02 -0.10517E-02 -0.84422E-02
 -0.33534E-02 -0.18411E-02 -0.84092E-02
 -0.28617E-02 -0.25613E-02 -0.83535E-02
 -0.21975E-02 -0.31661E-02 -0.82996E-02
 -0.13966E-02 -0.36005E-02 -0.82569E-02
 -0.50758E-03 -0.38188E-02 -0.82145E-02
  0.40833E-03 -0.38365E-02 -0.81602E-02
  0.12814E-02 -0.36826E-02 -0.81105E-02
  0.20616E-02 -0.33505E-02 -0.81176E-02
  0.27409E-02 -0.27926E-02 -0.81957E-02
  0.33081E-02 -0.20041E-02 -0.82796E-02
  0.37156E-02 -0.10727E-02 -0.83306E-02
  0.10365E-02  0.68460E-03 -0.73580E-02
  0.17425E-02  0.12415E-02 -0.73576E-02
  0.23076E-02  0.59770E-03 -0.73552E-02
  0.16611E-02 -0.32765E-03 -0.73545E-02
  0.30099E-02  0.14416E-03 -0.73548E-02
  0.27391E-02 -0.68086E-03 -0.73511E-02
  0.12897E-02  0.18550E-02 -0.73621E-02
  0.65450E-03  0.14769E-02 -0.73657E-02
  0.12881E-03  0.31628E-03 -0.73608E-02
 -0.12229E-03  0.11951E-02 -0.73713E-02
  0.95539E-03  0.22949E-02 -0.73632E-02
  0.11509E-02  0.28528E-02 -0.73527E-02
  0.17557E-02  0.24413E-02 -0.73582E-02
  0.41771E-03  0.21921E-02 -0.73665E-02
  0.42278E-03  0.29668E-02 -0.73402E-02
 -0.75634E-03 -0.99448E-03 -0.73570E-02
 -0.85860E-03  0.99533E-04 -0.73661E-02
  0.46097E-03 -0.69156E-03 -0.73556E-02
 -0.18170E-02 -0.69840E-03 -0.73650E-02
 -0.18252E-02  0.10156E-03 -0.73749E-02
 -0.26921E-02 -0.77917E-03 -0.73783E-02
 -0.27624E-02  0.26224E-04 -0.73828E-02
 -0.25120E-02 -0.15121E-02 -0.73696E-02
 -0.19138E-02 -0.13126E-02 -0.73620E-02
 -0.97625E-03  0.10189E-02 -0.73781E-02
 -0.14284E-02 -0.17231E-02 -0.73572E-02
 -0.29821E-03  0.20503E-02 -0.73685E-02
 -0.10744E-02  0.18801E-02 -0.73668E-02
 -0.18338E-02  0.17050E-02 -0.73573E-02
 -0.18384E-02  0.92378E-03 -0.73797E-02
 -0.16099E-03 -0.19715E-02 -0.73536E-02
 -0.94552E-03 -0.23394E-02 -0.73533E-02
  0.77657E-03 -0.16986E-02 -0.73518E-02
  0.16919E-02 -0.14857E-02 -0.73491E-02
  0.31784E-02  0.75809E-03 -0.73579E-02
  0.27877E-02  0.12511E-02 -0.73582E-02
  0.23009E-02  0.18757E-02 -0.73586E-02
 -0.37333E-03  0.29231E-02 -0.73169E-02
 -0.11604E-02  0.27079E-02 -0.72922E-02
 -0.18739E-02  0.23920E-02 -0.72744E-02
 -0.24168E-02  0.20967E-02 -0.72618E-02
 -0.25660E-02  0.15597E-02 -0.73290E-02
 -0.27131E-02  0.83006E-03 -0.73695E-02
 -0.21022E-02 -0.21245E-02 -0.73594E-02
 -0.16188E-02 -0.26782E-02 -0.73514E-02
 -0.12239E-02 -0.31125E-02 -0.73451E-02
 -0.61416E-03 -0.30247E-02 -0.73457E-02
  0.17944E-03 -0.28629E-02 -0.73427E-02
  0.10155E-02 -0.26350E-02 -0.73361E-02
  0.17732E-02 -0.23728E-02 -0.73312E-02
  0.23576E-02 -0.21611E-02 -0.73293E-02
  0.25324E-02 -0.15206E-02 -0.73427E-02
  0.37461E-02  0.91689E-03 -0.73627E-02
  0.38500E-02 -0.28977E-04 -0.73558E-02
  0.34245E-02  0.18137E-02 -0.73655E-02
  0.29143E-02  0.26060E-02 -0.73620E-02
  0.22328E-02  0.32466E-02 -0.73511E-02
  0.14199E-02  0.36975E-02 -0.73261E-02
  0.52107E-03  0.39265E-02 -0.72718E-02
 -0.41308E-03  0.38962E-02 -0.71827E-02
 -0.13105E-02  0.35668E-02 -0.70825E-02
 -0.21187E-02  0.29788E-02 -0.70404E-02
 -0.28121E-02  0.22636E-02 -0.71094E-02
 -0.33638E-02  0.15148E-02 -0.72361E-02
 -0.37101E-02  0.72189E-03 -0.73399E-02
 -0.38243E-02 -0.11907E-03 -0.73976E-02
 -0.37254E-02 -0.98295E-03 -0.74077E-02
 -0.34229E-02 -0.18180E-02 -0.73888E-02
 -0.29255E-02 -0.25686E-02 -0.73634E-02
 -0.22566E-02 -0.31878E-02 -0.73439E-02
 -0.14452E-02 -0.36307E-02 -0.73345E-02
 -0.53637E-03 -0.38591E-02 -0.73297E-02
  0.39666E-03 -0.38623E-02 -0.73166E-02
  0.12799E-02 -0.36489E-02 -0.72950E-02
  0.20685E-02 -0.32352E-02 -0.72868E-02
  0.27522E-02 -0.26329E-02 -0.73038E-02
  0.33126E-02 -0.18617E-02 -0.73287E-02
  0.36974E-02 -0.97270E-03 -0.73460E-02
  0.10330E-02  0.67924E-03 -0.63731E-02
  0.17408E-02  0.12376E-02 -0.63731E-02
  0.23120E-02  0.59736E-03 -0.63711E-02
  0.16645E-02 -0.33229E-03 -0.63700E-02
  0.30290E-02  0.15763E-03 -0.63712E-02
  0.27701E-02 -0.66604E-03 -0.63717E-02
  0.12840E-02  0.18488E-02 -0.63760E-02
  0.64875E-03  0.14708E-02 -0.63779E-02
  0.12385E-03  0.31067E-03 -0.63747E-02
 -0.12842E-03  0.11876E-02 -0.63813E-02
  0.94618E-03  0.22864E-02 -0.63775E-02
  0.11375E-02  0.28412E-02 -0.63738E-02
  0.17488E-02  0.24335E-02 -0.63748E-02
  0.40919E-03  0.21826E-02 -0.63796E-02
  0.40796E-03  0.29557E-02 -0.63683E-02
 -0.76235E-03 -0.10009E-02 -0.63711E-02
 -0.86467E-03  0.91400E-04 -0.63776E-02
  0.45767E-03 -0.69811E-03 -0.63700E-02
 -0.18258E-02 -0.70484E-03 -0.63762E-02
 -0.18342E-02  0.92512E-04 -0.63824E-02
 -0.27088E-02 -0.77483E-03 -0.63824E-02
 -0.27794E-02  0.38025E-04 -0.63868E-02
 -0.25265E-02 -0.15131E-02 -0.63771E-02
 -0.19238E-02 -0.13173E-02 -0.63738E-02
 -0.98458E-03  0.10089E-02 -0.63852E-02
 -0.14347E-02 -0.17288E-02 -0.63709E-02
 -0.30683E-03  0.20402E-02 -0.63814E-02
 -0.10863E-02  0.18735E-02 -0.63808E-02
 -0.18505E-02  0.17124E-02 -0.63755E-02
 -0.18508E-02  0.91783E-03 -0.63861E-02
 -0.15910E-03 -0.19797E-02 -0.63692E-02
 -0.94327E-03 -0.23471E-02 -0.63703E-02
  0.78360E-03 -0.17064E-02 -0.63693E-02
  0.17143E-02 -0.14862E-02 -0.63708E-02
  0.31980E-02  0.77313E-03 -0.63716E-02
  0.27982E-02  0.12559E-02 -0.63721E-02
  0.23024E-02  0.18728E-02 -0.63734E-02
 -0.38770E-03  0.29167E-02 -0.63559E-02
 -0.11773E-02  0.27181E-02 -0.63418E-02
 -0.18950E-02  0.24287E-02 -0.63314E-02
 -0.24403E-02  0.21628E-02 -0.63239E-02
 -0.25865E-02  0.16032E-02 -0.63606E-02
 -0.27310E-02  0.85501E-03 -0.63817E-02
 -0.21085E-02 -0.21305E-02 -0.63732E-02
 -0.16123E-02 -0.26873E-02 -0.63724E-02
 -0.12046E-02 -0.31240E-02 -0.63745E-02
 -0.59538E-03 -0.30359E-02 -0.63745E-02
  0.20118E-03 -0.28727E-02 -0.63747E-02
  0.10488E-02 -0.26380E-02 -0.63752E-02
  0.18276E-02 -0.23603E-02 -0.63762E-02
  0.24348E-02 -0.21302E-02 -0.63776E-02
  0.25870E-02 -0.14978E-02 -0.63741E-02
  0.37824E-02  0.94832E-03 -0.63726E-02
  0.38929E-02  0.15111E-04 -0.63730E-02
  0.34501E-02  0.18288E-02 -0.63737E-02
  0.29208E-02  0.26052E-02 -0.63744E-02
  0.22239E-02  0.32338E-02 -0.63728E-02
  0.13982E-02  0.36800E-02 -0.63643E-02
  0.49155E-03  0.39141E-02 -0.63379E-02
 -0.44008E-03  0.39020E-02 -0.62862E-02
 -0.13355E-02  0.36185E-02 -0.62257E-02
 -0.21460E-02  0.30949E-02 -0.62007E-02
 -0.28391E-02  0.24150E-02 -0.62389E-02
 -0.33871E-02  0.16579E-02 -0.63125E-02
 -0.37386E-02  0.83908E-03 -0.63707E-02
 -0.38625E-02 -0.41792E-04 -0.63954E-02
 -0.37626E-02 -0.94456E-03 -0.63948E-02
 -0.34470E-02 -0.18088E-02 -0.63848E-02
 -0.29295E-02 -0.25781E-02 -0.63768E-02
 -0.22378E-02 -0.32039E-02 -0.63753E-02
 -0.14088E-02 -0.36470E-02 -0.63793E-02
 -0.49133E-03 -0.38763E-02 -0.63859E-02
  0.45286E-03 -0.38738E-02 -0.63904E-02
  0.13634E-02 -0.36389E-02 -0.63912E-02
  0.21897E-02 -0.31902E-02 -0.63896E-02
  0.28907E-02 -0.25611E-02 -0.63857E-02
  0.34291E-02 -0.17898E-02 -0.63804E-02
  0.37713E-02 -0.91562E-03 -0.63757E-02
  0.10362E-02  0.67629E-03 -0.53917E-02
  0.17438E-02  0.12351E-02 -0.53919E-02
  0.23169E-02  0.59534E-03 -0.53911E-02
  0.16688E-02 -0.33430E-03 -0.53904E-02
  0.30379E-02  0.15629E-03 -0.53918E-02
  0.27823E-02 -0.66801E-03 -0.53932E-02
  0.12846E-02  0.18440E-02 -0.53932E-02
  0.64984E-03  0.14659E-02 -0.53938E-02
  0.12524E-03  0.30733E-03 -0.53923E-02
 -0.12874E-03  0.11815E-02 -0.53951E-02
  0.94400E-03  0.22793E-02 -0.53941E-02
  0.11318E-02  0.28320E-02 -0.53935E-02
  0.17465E-02  0.24280E-02 -0.53931E-02
  0.40720E-03  0.21738E-02 -0.53950E-02
  0.40102E-03  0.29443E-02 -0.53922E-02
 -0.76386E-03 -0.10047E-02 -0.53907E-02
 -0.86589E-03  0.85907E-04 -0.53934E-02
  0.45876E-03 -0.70023E-03 -0.53901E-02
 -0.18295E-02 -0.70968E-03 -0.53928E-02
 -0.18392E-02  0.85900E-04 -0.53954E-02
 -0.27184E-02 -0.77450E-03 -0.53952E-02
 -0.27911E-02  0.42884E-04 -0.53982E-02
 -0.25344E-02 -0.15151E-02 -0.53925E-02
 -0.19286E-02 -0.13210E-02 -0.53917E-02
 -0.98878E-03  0.10010E-02 -0.53966E-02
 -0.14377E-02 -0.17323E-02 -0.53905E-02
 -0.31051E-03  0.20301E-02 -0.53960E-02
 -0.10951E-02  0.18655E-02 -0.53962E-02
 -0.18664E-02  0.17155E-02 -0.53952E-02
 -0.18606E-02  0.91280E-03 -0.53975E-02
 -0.15844E-03 -0.19826E-02 -0.53900E-02
 -0.94306E-03 -0.23503E-02 -0.53905E-02
  0.78650E-03 -0.17094E-02 -0.53904E-02
  0.17232E-02 -0.14902E-02 -0.53921E-02
  0.32073E-02  0.77243E-03 -0.53914E-02
  0.28041E-02  0.12538E-02 -0.53914E-02
  0.23042E-02  0.18693E-02 -0.53921E-02
 -0.39707E-03  0.29065E-02 -0.53881E-02
 -0.11924E-02  0.27198E-02 -0.53836E-02
 -0.19172E-02  0.24513E-02 -0.53811E-02
 -0.24671E-02  0.22101E-02 -0.53802E-02
 -0.26085E-02  0.16342E-02 -0.53923E-02
 -0.27470E-02  0.87048E-03 -0.53982E-02
 -0.21122E-02 -0.21340E-02 -0.53910E-02
 -0.16102E-02 -0.26912E-02 -0.53912E-02
 -0.11976E-02 -0.31278E-02 -0.53929E-02
 -0.58927E-03 -0.30393E-02 -0.53933E-02
  0.20771E-03 -0.28765E-02 -0.53942E-02
  0.10591E-02 -0.26432E-02 -0.53959E-02
  0.18452E-02 -0.23664E-02 -0.53982E-02
  0.24594E-02 -0.21368E-02 -0.54006E-02
  0.26056E-02 -0.15019E-02 -0.53963E-02
  0.37967E-02  0.94788E-03 -0.53917E-02
  0.39089E-02  0.15937E-04 -0.53943E-02
  0.34591E-02  0.18266E-02 -0.53916E-02
  0.29214E-02  0.26007E-02 -0.53924E-02
  0.22180E-02  0.32256E-02 -0.53929E-02
  0.13867E-02  0.36673E-02 -0.53916E-02
  0.47547E-03  0.38992E-02 -0.53835E-02
 -0.45902E-03  0.38966E-02 -0.53643E-02
 -0.13599E-02  0.36483E-02 -0.53420E-02
 -0.21779E-02  0.31759E-02 -0.53356E-02
 -0.28742E-02  0.25299E-02 -0.53530E-02
 -0.34170E-02  0.17653E-02 -0.53814E-02
 -0.37648E-02  0.91158E-03 -0.54004E-02
 -0.38895E-02 -0.26292E-05 -0.54041E-02
 -0.37861E-02 -0.92751E-03 -0.53994E-02
 -0.34613E-02 -0.18050E-02 -0.53939E-02
 -0.29326E-02 -0.25810E-02 -0.53911E-02
 -0.22304E-02 -0.32090E-02 -0.53920E-02
 -0.13952E-02 -0.36515E-02 -0.53957E-02
 -0.47676E-03 -0.38805E-02 -0.54006E-02
  0.46930E-03 -0.38796E-02 -0.54054E-02
  0.13875E-02 -0.36477E-02 -0.54099E-02
  0.22253E-02 -0.32006E-02 -0.54127E-02
  0.29322E-02 -0.25694E-02 -0.54107E-02
  0.34654E-02 -0.17938E-02 -0.54049E-02
  0.37960E-02 -0.91597E-03 -0.53988E-02
  0.10373E-02  0.67560E-03 -0.44123E-02
  0.17443E-02  0.12345E-02 -0.44123E-02
  0.23174E-02  0.59472E-03 -0.44121E-02
  0.16691E-02 -0.33408E-03 -0.44120E-02
  0.30379E-02  0.15434E-03 -0.44128E-02
  0.27823E-02 -0.67007E-03 -0.44141E-02
  0.12847E-02  0.18419E-02 -0.44127E-02
  0.65021E-03  0.14641E-02 -0.44128E-02
  0.12580E-03  0.30666E-03 -0.44124E-02
 -0.12884E-03  0.11794E-02 -0.44129E-02
  0.94311E-03  0.22757E-02 -0.44130E-02
  0.11297E-02  0.28269E-02 -0.44132E-02
  0.17452E-02  0.24256E-02 -0.44126E-02
  0.40648E-03  0.21690E-02 -0.44132E-02
  0.39819E-03  0.29373E-02 -0.44137E-02
 -0.76471E-03 -0.10058E-02 -0.44121E-02
 -0.86626E-03  0.83896E-04 -0.44125E-02
  0.45859E-03 -0.69989E-03 -0.44119E-02
 -0.18312E-02 -0.71169E-03 -0.44124E-02
 -0.18415E-02  0.82782E-04 -0.44127E-02
 -0.27227E-02 -0.77519E-03 -0.44126E-02
 -0.27972E-02  0.44422E-04 -0.44140E-02
 -0.25379E-02 -0.15164E-02 -0.44117E-02
 -0.19310E-02 -0.13224E-02 -0.44121E-02
 -0.99069E-03  0.99761E-03 -0.44130E-02
 -0.14396E-02 -0.17332E-02 -0.44119E-02
 -0.31226E-03  0.20247E-02 -0.44134E-02
 -0.10999E-02  0.18608E-02 -0.44138E-02
 -0.18758E-02  0.17169E-02 -0.44151E-02
 -0.18659E-02  0.91029E-03 -0.44137E-02
 -0.15969E-03 -0.19826E-02 -0.44119E-02
 -0.94481E-03 -0.23507E-02 -0.44119E-02
  0.78508E-03 -0.17095E-02 -0.44122E-02
  0.17223E-02 -0.14918E-02 -0.44133E-02
  0.32074E-02  0.77084E-03 -0.44121E-02
  0.28040E-02  0.12523E-02 -0.44119E-02
  0.23039E-02  0.18677E-02 -0.44122E-02
 -0.40220E-03  0.28996E-02 -0.44140E-02
 -0.12019E-02  0.27198E-02 -0.44146E-02
 -0.19315E-02  0.24631E-02 -0.44166E-02
 -0.24850E-02  0.22355E-02 -0.44194E-02
 -0.26228E-02  0.16503E-02 -0.44183E-02
 -0.27566E-02  0.87787E-03 -0.44163E-02
 -0.21145E-02 -0.21353E-02 -0.44114E-02
 -0.16112E-02 -0.26923E-02 -0.44115E-02
 -0.11981E-02 -0.31287E-02 -0.44121E-02
 -0.59048E-03 -0.30395E-02 -0.44128E-02
  0.20591E-03 -0.28767E-02 -0.44136E-02
  0.10570E-02 -0.26449E-02 -0.44149E-02
  0.18429E-02 -0.23703E-02 -0.44168E-02
  0.24570E-02 -0.21432E-02 -0.44188E-02
  0.26042E-02 -0.15058E-02 -0.44163E-02
  0.37959E-02  0.94367E-03 -0.44121E-02
  0.39084E-02  0.11070E-04 -0.44150E-02
  0.34584E-02  0.18234E-02 -0.44113E-02
  0.29203E-02  0.25982E-02 -0.44116E-02
  0.22156E-02  0.32221E-02 -0.44123E-02
  0.13826E-02  0.36606E-02 -0.44133E-02
  0.46897E-03  0.38892E-02 -0.44144E-02
 -0.46977E-03  0.38916E-02 -0.44144E-02
 -0.13767E-02  0.36639E-02 -0.44146E-02
 -0.22006E-02  0.32205E-02 -0.44186E-02
 -0.28997E-02  0.25930E-02 -0.44250E-02
 -0.34394E-02  0.18216E-02 -0.44268E-02
 -0.37826E-02  0.94577E-03 -0.44234E-02
 -0.39042E-02  0.11893E-04 -0.44174E-02
 -0.37970E-02 -0.92404E-03 -0.44129E-02
 -0.34673E-02 -0.18059E-02 -0.44106E-02
 -0.29346E-02 -0.25832E-02 -0.44098E-02
 -0.22301E-02 -0.32112E-02 -0.44104E-02
 -0.13946E-02 -0.36529E-02 -0.44123E-02
 -0.47748E-03 -0.38811E-02 -0.44151E-02
  0.46708E-03 -0.38812E-02 -0.44181E-02
  0.13841E-02 -0.36527E-02 -0.44215E-02
  0.22209E-02 -0.32100E-02 -0.44247E-02
  0.29280E-02 -0.25807E-02 -0.44252E-02
  0.34628E-02 -0.18032E-02 -0.44227E-02
  0.37951E-02 -0.92236E-03 -0.44190E-02
  0.10373E-02  0.67587E-03 -0.34333E-02
  0.17442E-02  0.12349E-02 -0.34333E-02
  0.23171E-02  0.59505E-03 -0.34331E-02
  0.16687E-02 -0.33320E-03 -0.34333E-02
  0.30371E-02  0.15416E-03 -0.34338E-02
  0.27816E-02 -0.66989E-03 -0.34351E-02
  0.12846E-02  0.18413E-02 -0.34333E-02
  0.65010E-03  0.14641E-02 -0.34331E-02
  0.12573E-03  0.30724E-03 -0.34332E-02
 -0.12905E-03  0.11797E-02 -0.34327E-02
  0.94264E-03  0.22745E-02 -0.34333E-02
  0.11289E-02  0.28246E-02 -0.34337E-02
  0.17447E-02  0.24248E-02 -0.34332E-02
  0.40619E-03  0.21672E-02 -0.34332E-02
  0.39707E-03  0.29343E-02 -0.34347E-02
 -0.76520E-03 -0.10061E-02 -0.34333E-02
 -0.86644E-03  0.83647E-04 -0.34328E-02
  0.45808E-03 -0.69906E-03 -0.34332E-02
 -0.18318E-02 -0.71241E-03 -0.34328E-02
 -0.18423E-02  0.81469E-04 -0.34322E-02
 -0.27239E-02 -0.77592E-03 -0.34322E-02
 -0.27997E-02  0.44611E-04 -0.34327E-02
 -0.25386E-02 -0.15173E-02 -0.34323E-02
 -0.19318E-02 -0.13229E-02 -0.34330E-02
 -0.99143E-03  0.99701E-03 -0.34321E-02
 -0.14403E-02 -0.17333E-02 -0.34332E-02
 -0.31295E-03  0.20226E-02 -0.34330E-02
 -0.11019E-02  0.18588E-02 -0.34333E-02
 -0.18803E-02  0.17173E-02 -0.34354E-02
 -0.18682E-02  0.90922E-03 -0.34325E-02
 -0.16032E-03 -0.19822E-02 -0.34334E-02
 -0.94560E-03 -0.23505E-02 -0.34333E-02
  0.78384E-03 -0.17091E-02 -0.34336E-02
  0.17212E-02 -0.14918E-02 -0.34345E-02
  0.32069E-02  0.77108E-03 -0.34329E-02
  0.28036E-02  0.12522E-02 -0.34327E-02
  0.23038E-02  0.18672E-02 -0.34330E-02
 -0.40459E-03  0.28960E-02 -0.34367E-02
 -0.12066E-02  0.27193E-02 -0.34394E-02
 -0.19388E-02  0.24675E-02 -0.34431E-02
 -0.24944E-02  0.22458E-02 -0.34475E-02
 -0.26301E-02  0.16568E-02 -0.34410E-02
 -0.27612E-02  0.88063E-03 -0.34356E-02
 -0.21147E-02 -0.21360E-02 -0.34325E-02
 -0.16110E-02 -0.26926E-02 -0.34327E-02
 -0.11977E-02 -0.31289E-02 -0.34331E-02
 -0.59082E-03 -0.30393E-02 -0.34338E-02
  0.20494E-03 -0.28762E-02 -0.34347E-02
  0.10554E-02 -0.26446E-02 -0.34359E-02
  0.18409E-02 -0.23704E-02 -0.34375E-02
  0.24544E-02 -0.21441E-02 -0.34392E-02
  0.26023E-02 -0.15060E-02 -0.34371E-02
  0.37944E-02  0.94224E-03 -0.34326E-02
  0.39071E-02  0.95905E-05 -0.34357E-02
  0.34578E-02  0.18223E-02 -0.34318E-02
  0.29203E-02  0.25973E-02 -0.34321E-02
  0.22152E-02  0.32208E-02 -0.34327E-02
  0.13814E-02  0.36578E-02 -0.34343E-02
  0.46633E-03  0.38850E-02 -0.34384E-02
 -0.47504E-03  0.38894E-02 -0.34462E-02
 -0.13855E-02  0.36698E-02 -0.34560E-02
 -0.22130E-02  0.32382E-02 -0.34644E-02
 -0.29138E-02  0.26190E-02 -0.34667E-02
 -0.34518E-02  0.18448E-02 -0.34575E-02
 -0.37921E-02  0.95886E-03 -0.34442E-02
 -0.39106E-02  0.15933E-04 -0.34347E-02
 -0.38001E-02 -0.92453E-03 -0.34312E-02
 -0.34676E-02 -0.18077E-02 -0.34307E-02
 -0.29333E-02 -0.25850E-02 -0.34309E-02
 -0.22284E-02 -0.32127E-02 -0.34314E-02
 -0.13934E-02 -0.36537E-02 -0.34328E-02
 -0.47711E-03 -0.38811E-02 -0.34351E-02
  0.46631E-03 -0.38807E-02 -0.34380E-02
  0.13819E-02 -0.36524E-02 -0.34413E-02
  0.22172E-02 -0.32104E-02 -0.34441E-02
  0.29237E-02 -0.25820E-02 -0.34447E-02
  0.34594E-02 -0.18047E-02 -0.34426E-02
  0.37930E-02 -0.92374E-03 -0.34394E-02
  0.10372E-02  0.67629E-03 -0.24542E-02
  0.17439E-02  0.12355E-02 -0.24542E-02
  0.23168E-02  0.59566E-03 -0.24540E-02
  0.16684E-02 -0.33245E-03 -0.24542E-02
  0.30368E-02  0.15500E-03 -0.24547E-02
  0.27818E-02 -0.66872E-03 -0.24563E-02
  0.12844E-02  0.18413E-02 -0.24541E-02
  0.64987E-03  0.14648E-02 -0.24538E-02
  0.12550E-03  0.30812E-03 -0.24540E-02
 -0.12924E-03  0.11808E-02 -0.24532E-02
  0.94219E-03  0.22741E-02 -0.24540E-02
  0.11282E-02  0.28236E-02 -0.24544E-02
  0.17440E-02  0.24248E-02 -0.24540E-02
  0.40603E-03  0.21666E-02 -0.24538E-02
  0.39652E-03  0.29331E-02 -0.24558E-02
 -0.76556E-03 -0.10066E-02 -0.24541E-02
 -0.86655E-03  0.83882E-04 -0.24533E-02
  0.45761E-03 -0.69845E-03 -0.24541E-02
 -0.18322E-02 -0.71283E-03 -0.24534E-02
 -0.18425E-02  0.80842E-04 -0.24524E-02
 -0.27245E-02 -0.77545E-03 -0.24526E-02
 -0.28003E-02  0.45436E-04 -0.24528E-02
 -0.25392E-02 -0.15171E-02 -0.24530E-02
 -0.19324E-02 -0.13231E-02 -0.24537E-02
 -0.99156E-03  0.99753E-03 -0.24522E-02
 -0.14407E-02 -0.17336E-02 -0.24541E-02
 -0.31307E-03  0.20221E-02 -0.24535E-02
 -0.11024E-02  0.18579E-02 -0.24537E-02
 -0.18818E-02  0.17173E-02 -0.24559E-02
 -0.18688E-02  0.90879E-03 -0.24524E-02
 -0.16053E-03 -0.19823E-02 -0.24544E-02
 -0.94609E-03 -0.23508E-02 -0.24543E-02
  0.78320E-03 -0.17091E-02 -0.24546E-02
  0.17211E-02 -0.14917E-02 -0.24557E-02
  0.32070E-02  0.77251E-03 -0.24537E-02
  0.28034E-02  0.12528E-02 -0.24535E-02
  0.23034E-02  0.18673E-02 -0.24538E-02
 -0.40549E-03  0.28941E-02 -0.24585E-02
 -0.12085E-02  0.27189E-02 -0.24620E-02
 -0.19415E-02  0.24689E-02 -0.24661E-02
 -0.24976E-02  0.22492E-02 -0.24708E-02
 -0.26325E-02  0.16590E-02 -0.24622E-02
 -0.27625E-02  0.88208E-03 -0.24558E-02
 -0.21150E-02 -0.21361E-02 -0.24534E-02
 -0.16109E-02 -0.26929E-02 -0.24538E-02
 -0.11975E-02 -0.31292E-02 -0.24544E-02
 -0.59075E-03 -0.30395E-02 -0.24551E-02
  0.20490E-03 -0.28762E-02 -0.24562E-02
  0.10553E-02 -0.26445E-02 -0.24577E-02
  0.18411E-02 -0.23696E-02 -0.24597E-02
  0.24546E-02 -0.21430E-02 -0.24617E-02
  0.26024E-02 -0.15048E-02 -0.24589E-02
  0.37939E-02  0.94304E-03 -0.24534E-02
  0.39066E-02  0.10915E-04 -0.24567E-02
  0.34573E-02  0.18228E-02 -0.24525E-02
  0.29198E-02  0.25975E-02 -0.24528E-02
  0.22145E-02  0.32207E-02 -0.24534E-02
  0.13804E-02  0.36570E-02 -0.24552E-02
  0.46492E-03  0.38836E-02 -0.24607E-02
 -0.47736E-03  0.38887E-02 -0.24715E-02
 -0.13891E-02  0.36723E-02 -0.24851E-02
 -0.22178E-02  0.32447E-02 -0.24950E-02
 -0.29186E-02  0.26279E-02 -0.24948E-02
 -0.34555E-02  0.18536E-02 -0.24815E-02
 -0.37952E-02  0.96602E-03 -0.24658E-02
 -0.39132E-02  0.21003E-04 -0.24555E-02
 -0.38018E-02 -0.92109E-03 -0.24517E-02
 -0.34684E-02 -0.18059E-02 -0.24513E-02
 -0.29335E-02 -0.25844E-02 -0.24516E-02
 -0.22282E-02 -0.32127E-02 -0.24525E-02
 -0.13929E-02 -0.36541E-02 -0.24543E-02
 -0.47622E-03 -0.38814E-02 -0.24571E-02
  0.46723E-03 -0.38803E-02 -0.24608E-02
  0.13825E-02 -0.36508E-02 -0.24652E-02
  0.22175E-02 -0.32075E-02 -0.24687E-02
  0.29240E-02 -0.25786E-02 -0.24689E-02
  0.34595E-02 -0.18017E-02 -0.24657E-02
  0.37928E-02 -0.92161E-03 -0.24613E-02
  0.10370E-02  0.67659E-03 -0.14749E-02
  0.17436E-02  0.12360E-02 -0.14749E-02
  0.23166E-02  0.59626E-03 -0.14747E-02
  0.16683E-02 -0.33196E-03 -0.14748E-02
  0.30367E-02  0.15634E-03 -0.14757E-02
  0.27823E-02 -0.66729E-03 -0.14776E-02
  0.12842E-02  0.18413E-02 -0.14748E-02
  0.64967E-03  0.14654E-02 -0.14745E-02
  0.12525E-03  0.30896E-03 -0.14746E-02
 -0.12934E-03  0.11821E-02 -0.14736E-02
  0.94174E-03  0.22739E-02 -0.14746E-02
  0.11273E-02  0.28229E-02 -0.14750E-02
  0.17431E-02  0.24250E-02 -0.14745E-02
  0.40600E-03  0.21661E-02 -0.14744E-02
  0.39619E-03  0.29322E-02 -0.14768E-02
 -0.76592E-03 -0.10072E-02 -0.14748E-02
 -0.86664E-03  0.84169E-04 -0.14738E-02
  0.45719E-03 -0.69811E-03 -0.14747E-02
 -0.18326E-02 -0.71309E-03 -0.14739E-02
 -0.18424E-02  0.80440E-04 -0.14727E-02
 -0.27250E-02 -0.77415E-03 -0.14731E-02
 -0.28002E-02  0.46972E-04 -0.14733E-02
 -0.25402E-02 -0.15160E-02 -0.14735E-02
 -0.19331E-02 -0.13232E-02 -0.14742E-02
 -0.99136E-03  0.99826E-03 -0.14725E-02
 -0.14413E-02 -0.17339E-02 -0.14747E-02
 -0.31279E-03  0.20217E-02 -0.14740E-02
 -0.11020E-02  0.18572E-02 -0.14742E-02
 -0.18817E-02  0.17173E-02 -0.14765E-02
 -0.18687E-02  0.90856E-03 -0.14726E-02
 -0.16079E-03 -0.19828E-02 -0.14751E-02
 -0.94698E-03 -0.23510E-02 -0.14750E-02
  0.78269E-03 -0.17095E-02 -0.14754E-02
  0.17214E-02 -0.14921E-02 -0.14768E-02
  0.32070E-02  0.77458E-03 -0.14745E-02
  0.28030E-02  0.12538E-02 -0.14742E-02
  0.23029E-02  0.18677E-02 -0.14744E-02
 -0.40555E-03  0.28924E-02 -0.14801E-02
 -0.12086E-02  0.27184E-02 -0.14842E-02
 -0.19414E-02  0.24699E-02 -0.14887E-02
 -0.24972E-02  0.22517E-02 -0.14935E-02
 -0.26320E-02  0.16606E-02 -0.14833E-02
 -0.27621E-02  0.88368E-03 -0.14763E-02
 -0.21162E-02 -0.21354E-02 -0.14739E-02
 -0.16120E-02 -0.26924E-02 -0.14744E-02
 -0.11988E-02 -0.31287E-02 -0.14751E-02
 -0.59168E-03 -0.30395E-02 -0.14761E-02
  0.20440E-03 -0.28764E-02 -0.14774E-02
  0.10552E-02 -0.26447E-02 -0.14793E-02
  0.18416E-02 -0.23691E-02 -0.14818E-02
  0.24554E-02 -0.21420E-02 -0.14845E-02
  0.26030E-02 -0.15035E-02 -0.14808E-02
  0.37935E-02  0.94521E-03 -0.14742E-02
  0.39063E-02  0.14034E-04 -0.14782E-02
  0.34565E-02  0.18244E-02 -0.14730E-02
  0.29186E-02  0.25988E-02 -0.14731E-02
  0.22132E-02  0.32215E-02 -0.14735E-02
  0.13790E-02  0.36572E-02 -0.14756E-02
  0.46363E-03  0.38832E-02 -0.14826E-02
 -0.47834E-03  0.38888E-02 -0.14964E-02
 -0.13898E-02  0.36747E-02 -0.15130E-02
 -0.22178E-02  0.32501E-02 -0.15238E-02
 -0.29176E-02  0.26344E-02 -0.15209E-02
 -0.34544E-02  0.18600E-02 -0.15046E-02
 -0.37948E-02  0.97350E-03 -0.14883E-02
 -0.39140E-02  0.28240E-04 -0.14771E-02
 -0.38036E-02 -0.91521E-03 -0.14724E-02
 -0.34710E-02 -0.18015E-02 -0.14715E-02
 -0.29363E-02 -0.25812E-02 -0.14717E-02
 -0.22310E-02 -0.32104E-02 -0.14728E-02
 -0.13953E-02 -0.36529E-02 -0.14750E-02
 -0.47769E-03 -0.38808E-02 -0.14786E-02
  0.46667E-03 -0.38796E-02 -0.14834E-02
  0.13825E-02 -0.36492E-02 -0.14890E-02
  0.22181E-02 -0.32048E-02 -0.14935E-02
  0.29250E-02 -0.25751E-02 -0.14938E-02
  0.34605E-02 -0.17978E-02 -0.14897E-02
  0.37931E-02 -0.91780E-03 -0.14839E-02
  0.10370E-02  0.67686E-03 -0.49555E-03
  0.17435E-02  0.12364E-02 -0.49555E-03
  0.23165E-02  0.59666E-03 -0.49541E-03
  0.16681E-02 -0.33148E-03 -0.49548E-03
  0.30367E-02  0.15699E-03 -0.49653E-03
  0.27828E-02 -0.66661E-03 -0.49855E-03
  0.12842E-02  0.18411E-02 -0.49544E-03
  0.64951E-03  0.14660E-02 -0.49513E-03
  0.12499E-03  0.30987E-03 -0.49524E-03
 -0.12947E-03  0.11835E-02 -0.49415E-03
  0.94151E-03  0.22735E-02 -0.49533E-03
  0.11270E-02  0.28219E-02 -0.49584E-03
  0.17427E-02  0.24249E-02 -0.49520E-03
  0.40611E-03  0.21656E-02 -0.49505E-03
  0.39636E-03  0.29312E-02 -0.49791E-03
 -0.76633E-03 -0.10075E-02 -0.49545E-03
 -0.86679E-03  0.84731E-04 -0.49437E-03
  0.45675E-03 -0.69763E-03 -0.49534E-03
 -0.18330E-02 -0.71297E-03 -0.49451E-03
 -0.18424E-02  0.80418E-04 -0.49311E-03
 -0.27252E-02 -0.77349E-03 -0.49364E-03
 -0.28000E-02  0.47888E-04 -0.49372E-03
 -0.25409E-02 -0.15155E-02 -0.49408E-03
 -0.19338E-02 -0.13230E-02 -0.49492E-03
 -0.99118E-03  0.99921E-03 -0.49288E-03
 -0.14419E-02 -0.17338E-02 -0.49537E-03
 -0.31239E-03  0.20214E-02 -0.49465E-03
 -0.11015E-02  0.18568E-02 -0.49507E-03
 -0.18813E-02  0.17178E-02 -0.49773E-03
 -0.18685E-02  0.90872E-03 -0.49296E-03
 -0.16117E-03 -0.19831E-02 -0.49578E-03
 -0.94793E-03 -0.23510E-02 -0.49569E-03
  0.78202E-03 -0.17097E-02 -0.49609E-03
  0.17214E-02 -0.14925E-02 -0.49760E-03
  0.32074E-02  0.77601E-03 -0.49531E-03
  0.28030E-02  0.12544E-02 -0.49489E-03
  0.23027E-02  0.18677E-02 -0.49505E-03
 -0.40505E-03  0.28909E-02 -0.50194E-03
 -0.12081E-02  0.27184E-02 -0.50721E-03
 -0.19405E-02  0.24717E-02 -0.51275E-03
 -0.24962E-02  0.22557E-02 -0.51804E-03
 -0.26314E-02  0.16631E-02 -0.50533E-03
 -0.27616E-02  0.88523E-03 -0.49701E-03
 -0.21170E-02 -0.21349E-02 -0.49452E-03
 -0.16129E-02 -0.26919E-02 -0.49502E-03
 -0.12000E-02 -0.31281E-02 -0.49582E-03
 -0.59283E-03 -0.30392E-02 -0.49690E-03
  0.20347E-03 -0.28762E-02 -0.49840E-03
  0.10546E-02 -0.26448E-02 -0.50051E-03
  0.18416E-02 -0.23691E-02 -0.50316E-03
  0.24557E-02 -0.21422E-02 -0.50595E-03
  0.26033E-02 -0.15031E-02 -0.50198E-03
  0.37936E-02  0.94624E-03 -0.49517E-03
  0.39062E-02  0.15222E-04 -0.49958E-03
  0.34565E-02  0.18252E-02 -0.49368E-03
  0.29183E-02  0.25993E-02 -0.49373E-03
  0.22128E-02  0.32215E-02 -0.49421E-03
  0.13788E-02  0.36568E-02 -0.49674E-03
  0.46371E-03  0.38824E-02 -0.50496E-03
 -0.47783E-03  0.38885E-02 -0.52120E-03
 -0.13886E-02  0.36769E-02 -0.54162E-03
 -0.22159E-02  0.32567E-02 -0.55546E-03
 -0.29156E-02  0.26440E-02 -0.55083E-03
 -0.34532E-02  0.18680E-02 -0.52897E-03
 -0.37941E-02  0.97837E-03 -0.50961E-03
 -0.39138E-02  0.30980E-04 -0.49753E-03
 -0.38043E-02 -0.91349E-03 -0.49271E-03
 -0.34722E-02 -0.18001E-02 -0.49196E-03
 -0.29379E-02 -0.25798E-02 -0.49219E-03
 -0.22328E-02 -0.32091E-02 -0.49335E-03
 -0.13972E-02 -0.36516E-02 -0.49576E-03
 -0.47963E-03 -0.38797E-02 -0.49971E-03
  0.46506E-03 -0.38786E-02 -0.50523E-03
  0.13815E-02 -0.36481E-02 -0.51145E-03
  0.22178E-02 -0.32037E-02 -0.51602E-03
  0.29253E-02 -0.25740E-02 -0.51596E-03
  0.34609E-02 -0.17966E-02 -0.51161E-03
  0.37932E-02 -0.91649E-03 -0.50554E-03
  0.10369E-02  0.67722E-03  0.48373E-03
  0.17435E-02  0.12368E-02  0.48372E-03
  0.23166E-02  0.59693E-03  0.48383E-03
  0.16680E-02 -0.33087E-03  0.48379E-03
  0.30369E-02  0.15720E-03  0.48256E-03
  0.27833E-02 -0.66620E-03  0.48050E-03
  0.12843E-02  0.18409E-02  0.48383E-03
  0.64934E-03  0.14668E-02  0.48418E-03
  0.12471E-03  0.31094E-03  0.48402E-03
 -0.12968E-03  0.11851E-02  0.48517E-03
  0.94142E-03  0.22732E-02  0.48393E-03
  0.11272E-02  0.28208E-02  0.48328E-03
  0.17428E-02  0.24244E-02  0.48395E-03
  0.40619E-03  0.21653E-02  0.48421E-03
  0.39668E-03  0.29305E-02  0.48098E-03
 -0.76677E-03 -0.10076E-02  0.48382E-03
 -0.86700E-03  0.85546E-04  0.48491E-03
  0.45630E-03 -0.69697E-03  0.48395E-03
 -0.18335E-02 -0.71268E-03  0.48472E-03
 -0.18425E-02  0.80579E-04  0.48624E-03
 -0.27254E-02 -0.77338E-03  0.48573E-03
 -0.28002E-02  0.48130E-04  0.48580E-03
 -0.25412E-02 -0.15155E-02  0.48524E-03
 -0.19344E-02 -0.13228E-02  0.48434E-03
 -0.99124E-03  0.10004E-02  0.48655E-03
 -0.14424E-02 -0.17337E-02  0.48392E-03
 -0.31218E-03  0.20215E-02  0.48457E-03
 -0.11014E-02  0.18565E-02  0.48419E-03
 -0.18820E-02  0.17181E-02  0.48153E-03
 -0.18689E-02  0.90894E-03  0.48658E-03
 -0.16157E-03 -0.19830E-02  0.48355E-03
 -0.94871E-03 -0.23509E-02  0.48362E-03
  0.78130E-03 -0.17097E-02  0.48319E-03
  0.17215E-02 -0.14927E-02  0.48157E-03
  0.32081E-02  0.77684E-03  0.48381E-03
  0.28033E-02  0.12545E-02  0.48429E-03
  0.23030E-02  0.18671E-02  0.48412E-03
 -0.40470E-03  0.28896E-02  0.47648E-03
 -0.12082E-02  0.27182E-02  0.47081E-03
 -0.19413E-02  0.24726E-02  0.46512E-03
 -0.24979E-02  0.22578E-02  0.45982E-03
 -0.26330E-02  0.16644E-02  0.47377E-03
 -0.27624E-02  0.88591E-03  0.48258E-03
 -0.21172E-02 -0.21349E-02  0.48477E-03
 -0.16131E-02 -0.26918E-02  0.48419E-03
 -0.12005E-02 -0.31278E-02  0.48328E-03
 -0.59356E-03 -0.30388E-02  0.48228E-03
  0.20268E-03 -0.28760E-02  0.48083E-03
  0.10540E-02 -0.26448E-02  0.47870E-03
  0.18416E-02 -0.23691E-02  0.47593E-03
  0.24560E-02 -0.21426E-02  0.47302E-03
  0.26035E-02 -0.15030E-02  0.47702E-03
  0.37941E-02  0.94622E-03  0.48384E-03
  0.39066E-02  0.15206E-04  0.47917E-03
  0.34572E-02  0.18247E-02  0.48545E-03
  0.29191E-02  0.25982E-02  0.48529E-03
  0.22139E-02  0.32202E-02  0.48467E-03
  0.13799E-02  0.36556E-02  0.48204E-03
  0.46449E-03  0.38815E-02  0.47312E-03
 -0.47710E-03  0.38886E-02  0.45522E-03
 -0.13881E-02  0.36786E-02  0.43303E-03
 -0.22168E-02  0.32601E-02  0.41856E-03
 -0.29186E-02  0.26491E-02  0.42454E-03
 -0.34569E-02  0.18719E-02  0.44940E-03
 -0.37963E-02  0.97952E-03  0.47018E-03
 -0.39145E-02  0.30401E-04  0.48243E-03
 -0.38045E-02 -0.91431E-03  0.48708E-03
 -0.34723E-02 -0.18007E-02  0.48756E-03
 -0.29380E-02 -0.25802E-02  0.48706E-03
 -0.22330E-02 -0.32090E-02  0.48563E-03
 -0.13977E-02 -0.36510E-02  0.48300E-03
 -0.48049E-03 -0.38789E-02  0.47909E-03
  0.46402E-03 -0.38779E-02  0.47380E-03
  0.13806E-02 -0.36475E-02  0.46774E-03
  0.22175E-02 -0.32033E-02  0.46305E-03
  0.29254E-02 -0.25739E-02  0.46293E-03
  0.34610E-02 -0.17966E-02  0.46715E-03
  0.37934E-02 -0.91652E-03  0.47311E-03
  0.10369E-02  0.67784E-03  0.14629E-02
  0.17435E-02  0.12374E-02  0.14629E-02
  0.23166E-02  0.59742E-03  0.14629E-02
  0.16679E-02 -0.33005E-03  0.14629E-02
  0.30372E-02  0.15762E-03  0.14615E-02
  0.27838E-02 -0.66547E-03  0.14594E-02
  0.12843E-02  0.18411E-02  0.14631E-02
  0.64910E-03  0.14679E-02  0.14634E-02
  0.12445E-03  0.31216E-03  0.14632E-02
 -0.12995E-03  0.11869E-02  0.14644E-02
  0.94114E-03  0.22733E-02  0.14632E-02
  0.11270E-02  0.28203E-02  0.14625E-02
  0.17427E-02  0.24242E-02  0.14632E-02
  0.40606E-03  0.21654E-02  0.14635E-02
  0.39659E-03  0.29302E-02  0.14601E-02
 -0.76716E-03 -0.10077E-02  0.14630E-02
 -0.86719E-03  0.86457E-04  0.14640E-02
  0.45587E-03 -0.69622E-03  0.14632E-02
 -0.18338E-02 -0.71248E-03  0.14639E-02
 -0.18427E-02  0.80761E-04  0.14654E-02
 -0.27255E-02 -0.77355E-03  0.14650E-02
 -0.28006E-02  0.48106E-04  0.14651E-02
 -0.25413E-02 -0.15158E-02  0.14645E-02
 -0.19348E-02 -0.13227E-02  0.14635E-02
 -0.99133E-03  0.10018E-02  0.14658E-02
 -0.14427E-02 -0.17336E-02  0.14632E-02
 -0.31219E-03  0.20218E-02  0.14639E-02
 -0.11015E-02  0.18564E-02  0.14637E-02
 -0.18831E-02  0.17179E-02  0.14612E-02
 -0.18694E-02  0.90920E-03  0.14658E-02
 -0.16184E-03 -0.19830E-02  0.14628E-02
 -0.94921E-03 -0.23509E-02  0.14628E-02
  0.78067E-03 -0.17097E-02  0.14624E-02
  0.17215E-02 -0.14928E-02  0.14607E-02
  0.32088E-02  0.77762E-03  0.14628E-02
  0.28037E-02  0.12546E-02  0.14634E-02
  0.23033E-02  0.18668E-02  0.14633E-02
 -0.40490E-03  0.28887E-02  0.14557E-02
 -0.12090E-02  0.27177E-02  0.14506E-02
 -0.19431E-02  0.24718E-02  0.14456E-02
 -0.25008E-02  0.22569E-02  0.14405E-02
 -0.26353E-02  0.16639E-02  0.14536E-02
 -0.27636E-02  0.88595E-03  0.14619E-02
 -0.21171E-02 -0.21352E-02  0.14640E-02
 -0.16128E-02 -0.26920E-02  0.14633E-02
 -0.12001E-02 -0.31278E-02  0.14622E-02
 -0.59365E-03 -0.30388E-02  0.14613E-02
  0.20239E-03 -0.28759E-02  0.14601E-02
  0.10538E-02 -0.26451E-02  0.14580E-02
  0.18418E-02 -0.23692E-02  0.14551E-02
  0.24562E-02 -0.21429E-02  0.14520E-02
  0.26037E-02 -0.15026E-02  0.14559E-02
  0.37948E-02  0.94579E-03  0.14628E-02
  0.39071E-02  0.15477E-04  0.14579E-02
  0.34578E-02  0.18236E-02  0.14646E-02
  0.29199E-02  0.25969E-02  0.14645E-02
  0.22148E-02  0.32193E-02  0.14640E-02
  0.13805E-02  0.36550E-02  0.14611E-02
  0.46449E-03  0.38814E-02  0.14514E-02
 -0.47761E-03  0.38891E-02  0.14331E-02
 -0.13896E-02  0.36789E-02  0.14123E-02
 -0.22200E-02  0.32587E-02  0.14003E-02
 -0.29239E-02  0.26469E-02  0.14067E-02
 -0.34623E-02  0.18710E-02  0.14291E-02
 -0.37999E-02  0.97874E-03  0.14496E-02
 -0.39159E-02  0.29045E-04  0.14621E-02
 -0.38046E-02 -0.91570E-03  0.14665E-02
 -0.34718E-02 -0.18020E-02  0.14669E-02
 -0.29371E-02 -0.25813E-02  0.14663E-02
 -0.22320E-02 -0.32096E-02  0.14646E-02
 -0.13969E-02 -0.36511E-02  0.14616E-02
 -0.47992E-03 -0.38787E-02  0.14578E-02
  0.46433E-03 -0.38777E-02  0.14530E-02
  0.13808E-02 -0.36476E-02  0.14475E-02
  0.22177E-02 -0.32035E-02  0.14426E-02
  0.29256E-02 -0.25737E-02  0.14419E-02
  0.34612E-02 -0.17960E-02  0.14457E-02
  0.37937E-02 -0.91587E-03  0.14516E-02
  0.10367E-02  0.67861E-03  0.24420E-02
  0.17432E-02  0.12383E-02  0.24420E-02
  0.23166E-02  0.59805E-03  0.24420E-02
  0.16677E-02 -0.32918E-03  0.24420E-02
  0.30374E-02  0.15777E-03  0.24406E-02
  0.27843E-02 -0.66521E-03  0.24386E-02
  0.12841E-02  0.18415E-02  0.24423E-02
  0.64874E-03  0.14691E-02  0.24425E-02
  0.12416E-03  0.31341E-03  0.24423E-02
 -0.13020E-03  0.11888E-02  0.24435E-02
  0.94062E-03  0.22737E-02  0.24424E-02
  0.11265E-02  0.28201E-02  0.24418E-02
  0.17423E-02  0.24246E-02  0.24425E-02
  0.40578E-03  0.21656E-02  0.24427E-02
  0.39613E-03  0.29302E-02  0.24393E-02
 -0.76747E-03 -0.10078E-02  0.24422E-02
 -0.86729E-03  0.87363E-04  0.24431E-02
  0.45545E-03 -0.69543E-03  0.24423E-02
 -0.18341E-02 -0.71232E-03  0.24430E-02
 -0.18425E-02  0.81013E-04  0.24443E-02
 -0.27253E-02 -0.77361E-03  0.24440E-02
 -0.28002E-02  0.48323E-04  0.24441E-02
 -0.25411E-02 -0.15162E-02  0.24435E-02
 -0.19351E-02 -0.13227E-02  0.24426E-02
 -0.99123E-03  0.10034E-02  0.24447E-02
 -0.14429E-02 -0.17337E-02  0.24423E-02
 -0.31225E-03  0.20223E-02  0.24431E-02
 -0.11015E-02  0.18564E-02  0.24428E-02
 -0.18835E-02  0.17179E-02  0.24403E-02
 -0.18693E-02  0.90959E-03  0.24446E-02
 -0.16195E-03 -0.19831E-02  0.24420E-02
 -0.94950E-03 -0.23511E-02  0.24420E-02
  0.78014E-03 -0.17097E-02  0.24416E-02
  0.17216E-02 -0.14932E-02  0.24400E-02
  0.32095E-02  0.77830E-03  0.24419E-02
  0.28039E-02  0.12549E-02  0.24425E-02
  0.23033E-02  0.18669E-02  0.24425E-02
 -0.40549E-03  0.28877E-02  0.24352E-02
 -0.12101E-02  0.27170E-02  0.24305E-02
 -0.19445E-02  0.24710E-02  0.24257E-02
 -0.25024E-02  0.22559E-02  0.24207E-02
 -0.26360E-02  0.16635E-02  0.24327E-02
 -0.27634E-02  0.88613E-03  0.24408E-02
 -0.21168E-02 -0.21357E-02  0.24431E-02
 -0.16122E-02 -0.26924E-02  0.24424E-02
 -0.11995E-02 -0.31280E-02  0.24412E-02
 -0.59353E-03 -0.30388E-02  0.24404E-02
  0.20228E-03 -0.28759E-02  0.24392E-02
  0.10537E-02 -0.26455E-02  0.24374E-02
  0.18420E-02 -0.23698E-02  0.24347E-02
  0.24565E-02 -0.21441E-02  0.24317E-02
  0.26039E-02 -0.15029E-02  0.24353E-02
  0.37955E-02  0.94495E-03  0.24419E-02
  0.39077E-02  0.14757E-04  0.24371E-02
  0.34586E-02  0.18228E-02  0.24437E-02
  0.29205E-02  0.25965E-02  0.24439E-02
  0.22150E-02  0.32193E-02  0.24436E-02
  0.13802E-02  0.36552E-02  0.24406E-02
  0.46371E-03  0.38817E-02  0.24306E-02
 -0.47925E-03  0.38891E-02  0.24130E-02
 -0.13924E-02  0.36777E-02  0.23937E-02
 -0.22239E-02  0.32564E-02  0.23829E-02
 -0.29272E-02  0.26442E-02  0.23888E-02
 -0.34637E-02  0.18693E-02  0.24085E-02
 -0.38000E-02  0.97787E-03  0.24289E-02
 -0.39157E-02  0.28186E-04  0.24414E-02
 -0.38041E-02 -0.91688E-03  0.24455E-02
 -0.34711E-02 -0.18034E-02  0.24457E-02
 -0.29360E-02 -0.25827E-02  0.24452E-02
 -0.22306E-02 -0.32105E-02  0.24435E-02
 -0.13957E-02 -0.36513E-02  0.24405E-02
 -0.47919E-03 -0.38786E-02  0.24366E-02
  0.46475E-03 -0.38776E-02  0.24321E-02
  0.13811E-02 -0.36480E-02  0.24271E-02
  0.22178E-02 -0.32043E-02  0.24226E-02
  0.29256E-02 -0.25749E-02  0.24220E-02
  0.34613E-02 -0.17970E-02  0.24254E-02
  0.37940E-02 -0.91668E-03  0.24310E-02
  0.10365E-02  0.67931E-03  0.34210E-02
  0.17430E-02  0.12392E-02  0.34211E-02
  0.23164E-02  0.59876E-03  0.34210E-02
  0.16675E-02 -0.32826E-03  0.34210E-02
  0.30374E-02  0.15789E-03  0.34197E-02
  0.27847E-02 -0.66524E-03  0.34180E-02
  0.12838E-02  0.18419E-02  0.34214E-02
  0.64844E-03  0.14702E-02  0.34216E-02
  0.12394E-03  0.31460E-03  0.34213E-02
 -0.13035E-03  0.11906E-02  0.34225E-02
  0.94013E-03  0.22740E-02  0.34216E-02
  0.11258E-02  0.28198E-02  0.34211E-02
  0.17417E-02  0.24250E-02  0.34217E-02
  0.40560E-03  0.21657E-02  0.34218E-02
  0.39575E-03  0.29300E-02  0.34188E-02
 -0.76769E-03 -0.10081E-02  0.34213E-02
 -0.86727E-03  0.88123E-04  0.34221E-02
  0.45506E-03 -0.69462E-03  0.34213E-02
 -0.18341E-02 -0.71234E-03  0.34220E-02
 -0.18422E-02  0.81035E-04  0.34233E-02
 -0.27247E-02 -0.77361E-03  0.34230E-02
 -0.27992E-02  0.48421E-04  0.34230E-02
 -0.25408E-02 -0.15164E-02  0.34225E-02
 -0.19352E-02 -0.13228E-02  0.34217E-02
 -0.99092E-03  0.10047E-02  0.34236E-02
 -0.14429E-02 -0.17339E-02  0.34214E-02
 -0.31211E-03  0.20227E-02  0.34221E-02
 -0.11011E-02  0.18563E-02  0.34216E-02
 -0.18829E-02  0.17179E-02  0.34188E-02
 -0.18687E-02  0.90977E-03  0.34234E-02
 -0.16205E-03 -0.19831E-02  0.34210E-02
 -0.94984E-03 -0.23512E-02  0.34210E-02
  0.77960E-03 -0.17096E-02  0.34207E-02
  0.17216E-02 -0.14935E-02  0.34192E-02
  0.32098E-02  0.77927E-03  0.34208E-02
  0.28038E-02  0.12555E-02  0.34215E-02
  0.23030E-02  0.18672E-02  0.34216E-02
 -0.40577E-03  0.28866E-02  0.34147E-02
 -0.12103E-02  0.27164E-02  0.34097E-02
 -0.19439E-02  0.24707E-02  0.34044E-02
 -0.25009E-02  0.22561E-02  0.33989E-02
 -0.26344E-02  0.16636E-02  0.34109E-02
 -0.27620E-02  0.88623E-03  0.34194E-02
 -0.21165E-02 -0.21360E-02  0.34220E-02
 -0.16119E-02 -0.26926E-02  0.34213E-02
 -0.11993E-02 -0.31281E-02  0.34202E-02
 -0.59363E-03 -0.30388E-02  0.34194E-02
  0.20205E-03 -0.28759E-02  0.34184E-02
  0.10536E-02 -0.26457E-02  0.34167E-02
  0.18422E-02 -0.23704E-02  0.34144E-02
  0.24567E-02 -0.21455E-02  0.34118E-02
  0.26041E-02 -0.15036E-02  0.34151E-02
  0.37956E-02  0.94462E-03  0.34207E-02
  0.39079E-02  0.13491E-04  0.34164E-02
  0.34588E-02  0.18229E-02  0.34227E-02
  0.29205E-02  0.25969E-02  0.34231E-02
  0.22146E-02  0.32198E-02  0.34229E-02
  0.13795E-02  0.36556E-02  0.34201E-02
  0.46286E-03  0.38817E-02  0.34109E-02
 -0.48049E-03  0.38883E-02  0.33945E-02
 -0.13934E-02  0.36764E-02  0.33754E-02
 -0.22234E-02  0.32559E-02  0.33627E-02
 -0.29246E-02  0.26448E-02  0.33668E-02
 -0.34601E-02  0.18697E-02  0.33864E-02
 -0.37975E-02  0.97743E-03  0.34074E-02
 -0.39140E-02  0.27898E-04  0.34202E-02
 -0.38027E-02 -0.91707E-03  0.34241E-02
 -0.34700E-02 -0.18036E-02  0.34243E-02
 -0.29353E-02 -0.25828E-02  0.34238E-02
 -0.22300E-02 -0.32107E-02  0.34223E-02
 -0.13953E-02 -0.36514E-02  0.34195E-02
 -0.47895E-03 -0.38785E-02  0.34159E-02
  0.46489E-03 -0.38775E-02  0.34118E-02
  0.13813E-02 -0.36482E-02  0.34071E-02
  0.22180E-02 -0.32054E-02  0.34033E-02
  0.29257E-02 -0.25768E-02  0.34031E-02
  0.34615E-02 -0.17996E-02  0.34064E-02
  0.37944E-02 -0.91897E-03  0.34113E-02
  0.10365E-02  0.67994E-03  0.44000E-02
  0.17429E-02  0.12399E-02  0.44000E-02
  0.23163E-02  0.59945E-03  0.43998E-02
  0.16673E-02 -0.32721E-03  0.43999E-02
  0.30373E-02  0.15817E-03  0.43986E-02
  0.27849E-02 -0.66486E-03  0.43970E-02
  0.12839E-02  0.18420E-02  0.44003E-02
  0.64832E-03  0.14712E-02  0.44006E-02
  0.12377E-03  0.31575E-03  0.44004E-02
 -0.13044E-03  0.11924E-02  0.44015E-02
  0.94000E-03  0.22741E-02  0.44004E-02
  0.11258E-02  0.28193E-02  0.43999E-02
  0.17415E-02  0.24251E-02  0.44005E-02
  0.40573E-03  0.21658E-02  0.44007E-02
  0.39610E-03  0.29297E-02  0.43979E-02
 -0.76797E-03 -0.10082E-02  0.44003E-02
 -0.86729E-03  0.88834E-04  0.44012E-02
  0.45465E-03 -0.69371E-03  0.44002E-02
 -0.18343E-02 -0.71235E-03  0.44012E-02
 -0.18420E-02  0.81043E-04  0.44024E-02
 -0.27244E-02 -0.77326E-03  0.44021E-02
 -0.27988E-02  0.48771E-04  0.44020E-02
 -0.25408E-02 -0.15160E-02  0.44016E-02
 -0.19355E-02 -0.13228E-02  0.44009E-02
 -0.99070E-03  0.10061E-02  0.44026E-02
 -0.14432E-02 -0.17338E-02  0.44004E-02
 -0.31177E-03  0.20230E-02  0.44010E-02
 -0.11005E-02  0.18563E-02  0.44005E-02
 -0.18825E-02  0.17180E-02  0.43976E-02
 -0.18685E-02  0.91000E-03  0.44024E-02
 -0.16234E-03 -0.19829E-02  0.43999E-02
 -0.95047E-03 -0.23511E-02  0.44000E-02
  0.77891E-03 -0.17092E-02  0.43996E-02
  0.17215E-02 -0.14934E-02  0.43982E-02
  0.32101E-02  0.78024E-03  0.43996E-02
  0.28039E-02  0.12560E-02  0.44003E-02
  0.23031E-02  0.18673E-02  0.44005E-02
 -0.40528E-03  0.28854E-02  0.43939E-02
 -0.12098E-02  0.27160E-02  0.43886E-02
 -0.19430E-02  0.24707E-02  0.43830E-02
 -0.24995E-02  0.22563E-02  0.43774E-02
 -0.26335E-02  0.16636E-02  0.43896E-02
 -0.27613E-02  0.88647E-03  0.43982E-02
 -0.21167E-02 -0.21357E-02  0.44011E-02
 -0.16121E-02 -0.26924E-02  0.44004E-02
 -0.11995E-02 -0.31279E-02  0.43995E-02
 -0.59400E-03 -0.30387E-02  0.43987E-02
  0.20166E-03 -0.28757E-02  0.43978E-02
  0.10532E-02 -0.26459E-02  0.43963E-02
  0.18420E-02 -0.23706E-02  0.43941E-02
  0.24566E-02 -0.21465E-02  0.43917E-02
  0.26040E-02 -0.15037E-02  0.43946E-02
  0.37955E-02  0.94432E-03  0.43995E-02
  0.39077E-02  0.12514E-04  0.43956E-02
  0.34590E-02  0.18229E-02  0.44014E-02
  0.29209E-02  0.25967E-02  0.44017E-02
  0.22150E-02  0.32196E-02  0.44014E-02
  0.13803E-02  0.36555E-02  0.43989E-02
  0.46372E-03  0.38814E-02  0.43908E-02
 -0.47963E-03  0.38875E-02  0.43751E-02
 -0.13921E-02  0.36759E-02  0.43548E-02
 -0.22209E-02  0.32565E-02  0.43410E-02
 -0.29215E-02  0.26455E-02  0.43449E-02
 -0.34579E-02  0.18696E-02  0.43647E-02
 -0.37968E-02  0.97730E-03  0.43858E-02
 -0.39137E-02  0.28701E-04  0.43988E-02
 -0.38023E-02 -0.91584E-03  0.44030E-02
 -0.34699E-02 -0.18024E-02  0.44033E-02
 -0.29356E-02 -0.25819E-02  0.44027E-02
 -0.22305E-02 -0.32102E-02  0.44013E-02
 -0.13954E-02 -0.36513E-02  0.43990E-02
 -0.47881E-03 -0.38787E-02  0.43961E-02
  0.46512E-03 -0.38778E-02  0.43925E-02
  0.13814E-02 -0.36488E-02  0.43883E-02
  0.22178E-02 -0.32064E-02  0.43847E-02
  0.29253E-02 -0.25782E-02  0.43841E-02
  0.34612E-02 -0.18011E-02  0.43870E-02
  0.37941E-02 -0.92042E-03  0.43910E-02
  0.10365E-02  0.68062E-03  0.53791E-02
  0.17429E-02  0.12406E-02  0.53789E-02
  0.23163E-02  0.59986E-03  0.53788E-02
  0.16671E-02 -0.32628E-03  0.53788E-02
  0.30373E-02  0.15809E-03  0.53776E-02
  0.27852E-02 -0.66468E-03  0.53762E-02
  0.12841E-02  0.18423E-02  0.53791E-02
  0.64818E-03  0.14723E-02  0.53796E-02
  0.12350E-03  0.31705E-03  0.53795E-02
 -0.13064E-03  0.11943E-02  0.53806E-02
  0.94003E-03  0.22743E-02  0.53792E-02
  0.11263E-02  0.28188E-02  0.53786E-02
  0.17418E-02  0.24250E-02  0.53791E-02
  0.40589E-03  0.21660E-02  0.53796E-02
  0.39686E-03  0.29294E-02  0.53769E-02
 -0.76846E-03 -0.10080E-02  0.53793E-02
 -0.86751E-03  0.89835E-04  0.53803E-02
  0.45416E-03 -0.69269E-03  0.53792E-02
 -0.18348E-02 -0.71185E-03  0.53804E-02
 -0.18422E-02  0.81519E-04  0.53815E-02
 -0.27251E-02 -0.77251E-03  0.53813E-02
 -0.27992E-02  0.49623E-04  0.53811E-02
 -0.25417E-02 -0.15154E-02  0.53808E-02
 -0.19364E-02 -0.13222E-02  0.53800E-02
 -0.99074E-03  0.10076E-02  0.53817E-02
 -0.14439E-02 -0.17333E-02  0.53795E-02
 -0.31153E-03  0.20233E-02  0.53801E-02
 -0.11004E-02  0.18562E-02  0.53797E-02
 -0.18831E-02  0.17181E-02  0.53771E-02
 -0.18688E-02  0.91055E-03  0.53815E-02
 -0.16279E-03 -0.19825E-02  0.53790E-02
 -0.95135E-03 -0.23507E-02  0.53791E-02
  0.77812E-03 -0.17089E-02  0.53786E-02
  0.17213E-02 -0.14936E-02  0.53773E-02
  0.32106E-02  0.78065E-03  0.53786E-02
  0.28042E-02  0.12560E-02  0.53791E-02
  0.23035E-02  0.18670E-02  0.53792E-02
 -0.40460E-03  0.28841E-02  0.53733E-02
 -0.12099E-02  0.27152E-02  0.53682E-02
 -0.19437E-02  0.24704E-02  0.53628E-02
 -0.25008E-02  0.22562E-02  0.53575E-02
 -0.26345E-02  0.16636E-02  0.53694E-02
 -0.27620E-02  0.88708E-03  0.53775E-02
 -0.21175E-02 -0.21351E-02  0.53803E-02
 -0.16126E-02 -0.26919E-02  0.53797E-02
 -0.11999E-02 -0.31276E-02  0.53790E-02
 -0.59455E-03 -0.30384E-02  0.53783E-02
  0.20114E-03 -0.28756E-02  0.53774E-02
  0.10527E-02 -0.26462E-02  0.53760E-02
  0.18418E-02 -0.23713E-02  0.53740E-02
  0.24564E-02 -0.21478E-02  0.53717E-02
  0.26038E-02 -0.15041E-02  0.53740E-02
  0.37958E-02  0.94326E-03  0.53785E-02
  0.39076E-02  0.11245E-04  0.53748E-02
  0.34595E-02  0.18219E-02  0.53800E-02
  0.29219E-02  0.25958E-02  0.53802E-02
  0.22165E-02  0.32188E-02  0.53797E-02
  0.13821E-02  0.36550E-02  0.53774E-02
  0.46598E-03  0.38809E-02  0.53702E-02
 -0.47761E-03  0.38866E-02  0.53552E-02
 -0.13914E-02  0.36750E-02  0.53351E-02
 -0.22219E-02  0.32563E-02  0.53213E-02
 -0.29236E-02  0.26453E-02  0.53256E-02
 -0.34600E-02  0.18687E-02  0.53454E-02
 -0.37983E-02  0.97705E-03  0.53656E-02
 -0.39151E-02  0.29402E-04  0.53782E-02
 -0.38038E-02 -0.91491E-03  0.53824E-02
 -0.34713E-02 -0.18017E-02  0.53827E-02
 -0.29367E-02 -0.25813E-02  0.53821E-02
 -0.22312E-02 -0.32098E-02  0.53809E-02
 -0.13957E-02 -0.36512E-02  0.53790E-02
 -0.47885E-03 -0.38788E-02  0.53767E-02
  0.46525E-03 -0.38784E-02  0.53737E-02
  0.13814E-02 -0.36500E-02  0.53701E-02
  0.22174E-02 -0.32082E-02  0.53666E-02
  0.29248E-02 -0.25800E-02  0.53652E-02
  0.34606E-02 -0.18027E-02  0.53671E-02
  0.37937E-02 -0.92174E-03  0.53706E-02
  0.10363E-02  0.68143E-03  0.63581E-02
  0.17428E-02  0.12414E-02  0.63580E-02
  0.23163E-02  0.60041E-03  0.63578E-02
  0.16668E-02 -0.32533E-03  0.63578E-02
  0.30374E-02  0.15805E-03  0.63568E-02
  0.27855E-02 -0.66466E-03  0.63555E-02
  0.12841E-02  0.18427E-02  0.63582E-02
  0.64790E-03  0.14736E-02  0.63587E-02
  0.12315E-03  0.31848E-03  0.63585E-02
 -0.13094E-03  0.11963E-02  0.63596E-02
  0.93982E-03  0.22748E-02  0.63583E-02
  0.11263E-02  0.28186E-02  0.63576E-02
  0.17418E-02  0.24252E-02  0.63581E-02
  0.40586E-03  0.21663E-02  0.63587E-02
  0.39716E-03  0.29293E-02  0.63561E-02
 -0.76898E-03 -0.10076E-02  0.63583E-02
 -0.86775E-03  0.91084E-04  0.63593E-02
  0.45364E-03 -0.69162E-03  0.63581E-02
 -0.18354E-02 -0.71113E-03  0.63594E-02
 -0.18424E-02  0.82271E-04  0.63604E-02
 -0.27257E-02 -0.77231E-03  0.63605E-02
 -0.27996E-02  0.49944E-04  0.63602E-02
 -0.25423E-02 -0.15152E-02  0.63599E-02
 -0.19372E-02 -0.13216E-02  0.63590E-02
 -0.99078E-03  0.10094E-02  0.63607E-02
 -0.14446E-02 -0.17327E-02  0.63585E-02
 -0.31144E-03  0.20239E-02  0.63592E-02
 -0.11004E-02  0.18562E-02  0.63591E-02
 -0.18839E-02  0.17182E-02  0.63567E-02
 -0.18691E-02  0.91135E-03  0.63605E-02
 -0.16313E-03 -0.19821E-02  0.63580E-02
 -0.95208E-03 -0.23502E-02  0.63582E-02
  0.77746E-03 -0.17086E-02  0.63577E-02
  0.17213E-02 -0.14939E-02  0.63566E-02
  0.32112E-02  0.78110E-03  0.63576E-02
  0.28044E-02  0.12561E-02  0.63581E-02
  0.23037E-02  0.18668E-02  0.63581E-02
 -0.40437E-03  0.28829E-02  0.63532E-02
 -0.12104E-02  0.27141E-02  0.63490E-02
 -0.19453E-02  0.24691E-02  0.63441E-02
 -0.25033E-02  0.22549E-02  0.63388E-02
 -0.26362E-02  0.16632E-02  0.63494E-02
 -0.27627E-02  0.88738E-03  0.63568E-02
 -0.21180E-02 -0.21348E-02  0.63593E-02
 -0.16127E-02 -0.26916E-02  0.63588E-02
 -0.12000E-02 -0.31273E-02  0.63584E-02
 -0.59481E-03 -0.30381E-02  0.63577E-02
  0.20087E-03 -0.28755E-02  0.63570E-02
  0.10526E-02 -0.26468E-02  0.63559E-02
  0.18421E-02 -0.23723E-02  0.63542E-02
  0.24567E-02 -0.21497E-02  0.63522E-02
  0.26039E-02 -0.15049E-02  0.63538E-02
  0.37961E-02  0.94208E-03  0.63576E-02
  0.39077E-02  0.10014E-04  0.63544E-02
  0.34601E-02  0.18207E-02  0.63588E-02
  0.29229E-02  0.25948E-02  0.63588E-02
  0.22177E-02  0.32184E-02  0.63583E-02
  0.13832E-02  0.36549E-02  0.63562E-02
  0.46710E-03  0.38806E-02  0.63499E-02
 -0.47672E-03  0.38855E-02  0.63370E-02
 -0.13922E-02  0.36723E-02  0.63198E-02
 -0.22253E-02  0.32525E-02  0.63072E-02
 -0.29286E-02  0.26418E-02  0.63093E-02
 -0.34638E-02  0.18661E-02  0.63272E-02
 -0.38005E-02  0.97438E-03  0.63462E-02
 -0.39166E-02  0.26633E-04  0.63584E-02
 -0.38049E-02 -0.91695E-03  0.63623E-02
 -0.34720E-02 -0.18026E-02  0.63620E-02
 -0.29369E-02 -0.25816E-02  0.63612E-02
 -0.22310E-02 -0.32098E-02  0.63602E-02
 -0.13954E-02 -0.36511E-02  0.63588E-02
 -0.47846E-03 -0.38788E-02  0.63569E-02
  0.46577E-03 -0.38791E-02  0.63546E-02
  0.13820E-02 -0.36517E-02  0.63520E-02
  0.22180E-02 -0.32107E-02  0.63490E-02
  0.29251E-02 -0.25829E-02  0.63472E-02
  0.34605E-02 -0.18052E-02  0.63479E-02
  0.37936E-02 -0.92350E-03  0.63506E-02
  0.10364E-02  0.68224E-03  0.73371E-02
  0.17428E-02  0.12423E-02  0.73370E-02
  0.23165E-02  0.60096E-03  0.73368E-02
  0.16669E-02 -0.32436E-03  0.73366E-02
  0.30381E-02  0.15759E-03  0.73359E-02
  0.27866E-02 -0.66502E-03  0.73348E-02
  0.12840E-02  0.18431E-02  0.73373E-02
  0.64774E-03  0.14748E-02  0.73378E-02
  0.12294E-03  0.31989E-03  0.73375E-02
 -0.13110E-03  0.11983E-02  0.73386E-02
  0.93946E-03  0.22751E-02  0.73375E-02
  0.11257E-02  0.28185E-02  0.73368E-02
  0.17413E-02  0.24256E-02  0.73372E-02
  0.40576E-03  0.21666E-02  0.73379E-02
  0.39668E-03  0.29295E-02  0.73355E-02
 -0.76922E-03 -0.10074E-02  0.73372E-02
 -0.86783E-03  0.92269E-04  0.73382E-02
  0.45334E-03 -0.69054E-03  0.73369E-02
 -0.18356E-02 -0.71078E-03  0.73383E-02
 -0.18422E-02  0.82789E-04  0.73393E-02
 -0.27252E-02 -0.77288E-03  0.73397E-02
 -0.27992E-02  0.49697E-04  0.73394E-02
 -0.25419E-02 -0.15157E-02  0.73390E-02
 -0.19373E-02 -0.13214E-02  0.73380E-02
 -0.99068E-03  0.10112E-02  0.73395E-02
 -0.14446E-02 -0.17325E-02  0.73374E-02
 -0.31135E-03  0.20245E-02  0.73383E-02
 -0.11004E-02  0.18566E-02  0.73380E-02
 -0.18844E-02  0.17189E-02  0.73353E-02
 -0.18691E-02  0.91220E-03  0.73392E-02
 -0.16295E-03 -0.19818E-02  0.73368E-02
 -0.95209E-03 -0.23501E-02  0.73371E-02
  0.77735E-03 -0.17085E-02  0.73365E-02
  0.17221E-02 -0.14944E-02  0.73357E-02
  0.32123E-02  0.78114E-03  0.73368E-02
  0.28049E-02  0.12562E-02  0.73372E-02
  0.23037E-02  0.18670E-02  0.73372E-02
 -0.40485E-03  0.28823E-02  0.73329E-02
 -0.12114E-02  0.27141E-02  0.73288E-02
 -0.19467E-02  0.24693E-02  0.73234E-02
 -0.25052E-02  0.22555E-02  0.73175E-02
 -0.26371E-02  0.16639E-02  0.73278E-02
 -0.27626E-02  0.88783E-03  0.73356E-02
 -0.21174E-02 -0.21351E-02  0.73383E-02
 -0.16119E-02 -0.26918E-02  0.73379E-02
 -0.11988E-02 -0.31275E-02  0.73378E-02
 -0.59391E-03 -0.30382E-02  0.73371E-02
  0.20171E-03 -0.28757E-02  0.73364E-02
  0.10537E-02 -0.26477E-02  0.73356E-02
  0.18436E-02 -0.23738E-02  0.73343E-02
  0.24584E-02 -0.21524E-02  0.73327E-02
  0.26051E-02 -0.15061E-02  0.73336E-02
  0.37973E-02  0.93987E-03  0.73370E-02
  0.39089E-02  0.74545E-05  0.73341E-02
  0.34606E-02  0.18196E-02  0.73379E-02
  0.29226E-02  0.25949E-02  0.73377E-02
  0.22171E-02  0.32188E-02  0.73372E-02
  0.13822E-02  0.36555E-02  0.73353E-02
  0.46561E-03  0.38815E-02  0.73295E-02
 -0.47855E-03  0.38862E-02  0.73180E-02
 -0.13948E-02  0.36723E-02  0.73021E-02
 -0.22291E-02  0.32519E-02  0.72888E-02
 -0.29325E-02  0.26418E-02  0.72883E-02
 -0.34658E-02  0.18667E-02  0.73053E-02
 -0.38008E-02  0.97268E-03  0.73257E-02
 -0.39163E-02  0.22769E-04  0.73387E-02
 -0.38037E-02 -0.92051E-03  0.73423E-02
 -0.34703E-02 -0.18048E-02  0.73415E-02
 -0.29354E-02 -0.25828E-02  0.73403E-02
 -0.22294E-02 -0.32106E-02  0.73395E-02
 -0.13933E-02 -0.36517E-02  0.73388E-02
 -0.47598E-03 -0.38796E-02  0.73377E-02
  0.46845E-03 -0.38804E-02  0.73359E-02
  0.13847E-02 -0.36541E-02  0.73339E-02
  0.22206E-02 -0.32143E-02  0.73315E-02
  0.29273E-02 -0.25869E-02  0.73293E-02
  0.34620E-02 -0.18087E-02  0.73290E-02
  0.37946E-02 -0.92635E-03  0.73308E-02
  0.10368E-02  0.68239E-03  0.83162E-02
  0.17434E-02  0.12424E-02  0.83162E-02
  0.23178E-02  0.60037E-03  0.83158E-02
  0.16678E-02 -0.32420E-03  0.83154E-02
  0.30406E-02  0.15478E-03  0.83152E-02
  0.27895E-02 -0.66766E-03  0.83142E-02
  0.12844E-02  0.18427E-02  0.83166E-02
  0.64797E-03  0.14752E-02  0.83171E-02
  0.12303E-03  0.32067E-03  0.83166E-02
 -0.13100E-03  0.11995E-02  0.83178E-02
  0.93924E-03  0.22748E-02  0.83169E-02
  0.11247E-02  0.28179E-02  0.83162E-02
  0.17410E-02  0.24253E-02  0.83165E-02
  0.40574E-03  0.21662E-02  0.83172E-02
  0.39547E-03  0.29295E-02  0.83148E-02
 -0.76899E-03 -0.10080E-02  0.83160E-02
 -0.86762E-03  0.92618E-04  0.83174E-02
  0.45349E-03 -0.69004E-03  0.83156E-02
 -0.18351E-02 -0.71144E-03  0.83176E-02
 -0.18416E-02  0.82136E-04  0.83187E-02
 -0.27234E-02 -0.77393E-03  0.83195E-02
 -0.27978E-02  0.48832E-04  0.83190E-02
 -0.25397E-02 -0.15170E-02  0.83187E-02
 -0.19364E-02 -0.13223E-02  0.83173E-02
 -0.99041E-03  0.10121E-02  0.83187E-02
 -0.14436E-02 -0.17332E-02  0.83163E-02
 -0.31135E-03  0.20245E-02  0.83175E-02
 -0.11005E-02  0.18562E-02  0.83170E-02
 -0.18852E-02  0.17185E-02  0.83140E-02
 -0.18689E-02  0.91174E-03  0.83184E-02
 -0.16183E-03 -0.19824E-02  0.83154E-02
 -0.95081E-03 -0.23508E-02  0.83160E-02
  0.77831E-03 -0.17092E-02  0.83151E-02
  0.17244E-02 -0.14964E-02  0.83148E-02
  0.32156E-02  0.77862E-03  0.83161E-02
  0.28068E-02  0.12547E-02  0.83163E-02
  0.23044E-02  0.18662E-02  0.83163E-02
 -0.40646E-03  0.28818E-02  0.83122E-02
 -0.12137E-02  0.27140E-02  0.83080E-02
 -0.19494E-02  0.24690E-02  0.83023E-02
 -0.25082E-02  0.22550E-02  0.82955E-02
 -0.26384E-02  0.16633E-02  0.83058E-02
 -0.27622E-02  0.88719E-03  0.83145E-02
 -0.21150E-02 -0.21363E-02  0.83177E-02
 -0.16091E-02 -0.26928E-02  0.83175E-02
 -0.11954E-02 -0.31284E-02  0.83182E-02
 -0.59109E-03 -0.30392E-02  0.83173E-02
  0.20437E-03 -0.28771E-02  0.83166E-02
  0.10568E-02 -0.26503E-02  0.83159E-02
  0.18478E-02 -0.23778E-02  0.83150E-02
  0.24632E-02 -0.21583E-02  0.83139E-02
  0.26088E-02 -0.15101E-02  0.83137E-02
  0.38021E-02  0.93351E-03  0.83166E-02
  0.39130E-02  0.33225E-07  0.83142E-02
  0.34638E-02  0.18159E-02  0.83170E-02
  0.29234E-02  0.25935E-02  0.83166E-02
  0.22162E-02  0.32186E-02  0.83164E-02
  0.13799E-02  0.36562E-02  0.83147E-02
  0.46171E-03  0.38833E-02  0.83089E-02
 -0.48387E-03  0.38885E-02  0.82981E-02
 -0.14012E-02  0.36738E-02  0.82831E-02
 -0.22361E-02  0.32516E-02  0.82691E-02
 -0.29385E-02  0.26410E-02  0.82660E-02
 -0.34690E-02  0.18671E-02  0.82808E-02
 -0.38007E-02  0.97268E-03  0.83034E-02
 -0.39137E-02  0.21820E-04  0.83185E-02
 -0.37995E-02 -0.92212E-03  0.83228E-02
 -0.34654E-02 -0.18069E-02  0.83220E-02
 -0.29306E-02 -0.25847E-02  0.83206E-02
 -0.22247E-02 -0.32118E-02  0.83203E-02
 -0.13882E-02 -0.36527E-02  0.83210E-02
 -0.47052E-03 -0.38814E-02  0.83214E-02
  0.47421E-03 -0.38838E-02  0.83205E-02
  0.13911E-02 -0.36597E-02  0.83187E-02
  0.22275E-02 -0.32224E-02  0.83163E-02
  0.29339E-02 -0.25963E-02  0.83133E-02
  0.34674E-02 -0.18175E-02  0.83113E-02
  0.37988E-02 -0.93426E-03  0.83117E-02
  0.10381E-02  0.68165E-03  0.92953E-02
  0.17451E-02  0.12415E-02  0.92952E-02
  0.23201E-02  0.59875E-03  0.92946E-02
  0.16693E-02 -0.32479E-03  0.92940E-02
  0.30446E-02  0.15011E-03  0.92944E-02
  0.27935E-02 -0.67231E-03  0.92940E-02
  0.12860E-02  0.18414E-02  0.92959E-02
  0.64925E-03  0.14747E-02  0.92964E-02
  0.12402E-03  0.32050E-03  0.92959E-02
 -0.12983E-03  0.11998E-02  0.92972E-02
  0.94029E-03  0.22735E-02  0.92961E-02
  0.11252E-02  0.28165E-02  0.92954E-02
  0.17421E-02  0.24240E-02  0.92956E-02
  0.40691E-03  0.21648E-02  0.92964E-02
  0.39573E-03  0.29286E-02  0.92939E-02
 -0.76774E-03 -0.10097E-02  0.92948E-02
 -0.86629E-03  0.91784E-04  0.92970E-02
  0.45429E-03 -0.69031E-03  0.92941E-02
 -0.18330E-02 -0.71321E-03  0.92974E-02
 -0.18393E-02  0.80259E-04  0.92986E-02
 -0.27194E-02 -0.77378E-03  0.92999E-02
 -0.27935E-02  0.49217E-04  0.92985E-02
 -0.25356E-02 -0.15172E-02  0.92993E-02
 -0.19339E-02 -0.13238E-02  0.92969E-02
 -0.98872E-03  0.10118E-02  0.92982E-02
 -0.14413E-02 -0.17346E-02  0.92953E-02
 -0.31013E-03  0.20235E-02  0.92965E-02
 -0.10990E-02  0.18546E-02  0.92958E-02
 -0.18833E-02  0.17165E-02  0.92921E-02
 -0.18665E-02  0.91001E-03  0.92976E-02
 -0.16035E-03 -0.19835E-02  0.92938E-02
 -0.94898E-03 -0.23515E-02  0.92953E-02
  0.77937E-03 -0.17104E-02  0.92937E-02
  0.17268E-02 -0.14991E-02  0.92940E-02
  0.32208E-02  0.77451E-03  0.92949E-02
  0.28105E-02  0.12520E-02  0.92949E-02
  0.23068E-02  0.18642E-02  0.92951E-02
 -0.40644E-03  0.28802E-02  0.92910E-02
 -0.12137E-02  0.27124E-02  0.92866E-02
 -0.19485E-02  0.24665E-02  0.92799E-02
 -0.25063E-02  0.22522E-02  0.92715E-02
 -0.26355E-02  0.16618E-02  0.92819E-02
 -0.27582E-02  0.88708E-03  0.92921E-02
 -0.21114E-02 -0.21364E-02  0.92981E-02
 -0.16058E-02 -0.26922E-02  0.92986E-02
 -0.11924E-02 -0.31273E-02  0.93013E-02
 -0.58892E-03 -0.30393E-02  0.92998E-02
  0.20604E-03 -0.28785E-02  0.92985E-02
  0.10587E-02 -0.26533E-02  0.92978E-02
  0.18509E-02 -0.23828E-02  0.92973E-02
  0.24674E-02 -0.21662E-02  0.92970E-02
  0.26127E-02 -0.15162E-02  0.92948E-02
  0.38097E-02  0.92507E-03  0.92953E-02
  0.39201E-02 -0.11299E-04  0.92946E-02
  0.34707E-02  0.18106E-02  0.92951E-02
  0.29274E-02  0.25905E-02  0.92951E-02
  0.22176E-02  0.32171E-02  0.92955E-02
  0.13797E-02  0.36560E-02  0.92940E-02
  0.46025E-03  0.38842E-02  0.92882E-02
 -0.48621E-03  0.38896E-02  0.92779E-02
 -0.14036E-02  0.36729E-02  0.92636E-02
 -0.22371E-02  0.32472E-02  0.92483E-02
 -0.29373E-02  0.26361E-02  0.92404E-02
 -0.34657E-02  0.18688E-02  0.92508E-02
 -0.37945E-02  0.98076E-03  0.92758E-02
 -0.39059E-02  0.31424E-04  0.92966E-02
 -0.37919E-02 -0.91478E-03  0.93046E-02
 -0.34589E-02 -0.18026E-02  0.93049E-02
 -0.29257E-02 -0.25814E-02  0.93037E-02
 -0.22209E-02 -0.32080E-02  0.93050E-02
 -0.13847E-02 -0.36494E-02  0.93090E-02
 -0.46751E-03 -0.38807E-02  0.93124E-02
  0.47643E-03 -0.38866E-02  0.93121E-02
  0.13932E-02 -0.36659E-02  0.93096E-02
  0.22309E-02 -0.32322E-02  0.93060E-02
  0.29390E-02 -0.26090E-02  0.93009E-02
  0.34737E-02 -0.18314E-02  0.92964E-02
  0.38056E-02 -0.94747E-03  0.92944E-02
  0.10362E-02  0.68430E-03  0.10274E-01
  0.17429E-02  0.12448E-02  0.10273E-01
  0.23167E-02  0.60280E-03  0.10272E-01
  0.16655E-02 -0.32072E-03  0.10272E-01
  0.30396E-02  0.15311E-03  0.10272E-01
  0.27873E-02 -0.67015E-03  0.10273E-01
  0.12839E-02  0.18435E-02  0.10274E-01
  0.64687E-03  0.14771E-02  0.10275E-01
  0.12195E-03  0.32266E-03  0.10275E-01
 -0.13213E-03  0.12019E-02  0.10277E-01
  0.93836E-03  0.22751E-02  0.10274E-01
  0.11251E-02  0.28174E-02  0.10272E-01
  0.17416E-02  0.24260E-02  0.10273E-01
  0.40528E-03  0.21658E-02  0.10275E-01
  0.39676E-03  0.29292E-02  0.10271E-01
 -0.77202E-03 -0.10092E-02  0.10273E-01
 -0.86911E-03  0.91705E-04  0.10277E-01
  0.45111E-03 -0.68755E-03  0.10272E-01
 -0.18396E-02 -0.71274E-03  0.10278E-01
 -0.18442E-02  0.79139E-04  0.10279E-01
 -0.27331E-02 -0.76367E-03  0.10282E-01
 -0.28050E-02  0.59564E-04  0.10278E-01
 -0.25514E-02 -0.15060E-02  0.10282E-01
 -0.19434E-02 -0.13202E-02  0.10277E-01
 -0.99116E-03  0.10118E-02  0.10278E-01
 -0.14501E-02 -0.17311E-02  0.10274E-01
 -0.31115E-03  0.20237E-02  0.10275E-01
 -0.10998E-02  0.18537E-02  0.10273E-01
 -0.18849E-02  0.17178E-02  0.10265E-01
 -0.18704E-02  0.90958E-03  0.10276E-01
 -0.16794E-03 -0.19805E-02  0.10272E-01
 -0.96035E-03 -0.23460E-02  0.10276E-01
  0.77140E-03 -0.17071E-02  0.10272E-01
  0.17175E-02 -0.14956E-02  0.10273E-01
  0.32157E-02  0.77958E-03  0.10271E-01
  0.28072E-02  0.12565E-02  0.10271E-01
  0.23059E-02  0.18672E-02  0.10272E-01
 -0.40398E-03  0.28792E-02  0.10266E-01
 -0.12104E-02  0.27121E-02  0.10258E-01
 -0.19453E-02  0.24698E-02  0.10245E-01
 -0.25045E-02  0.22633E-02  0.10228E-01
 -0.26388E-02  0.16736E-02  0.10245E-01
 -0.27662E-02  0.89867E-03  0.10264E-01
 -0.21274E-02 -0.21251E-02  0.10281E-01
 -0.16233E-02 -0.26800E-02  0.10284E-01
 -0.12130E-02 -0.31141E-02  0.10291E-01
 -0.60632E-03 -0.30310E-02  0.10287E-01
  0.19023E-03 -0.28739E-02  0.10284E-01
  0.10420E-02 -0.26499E-02  0.10283E-01
  0.18328E-02 -0.23796E-02  0.10282E-01
  0.24487E-02 -0.21647E-02  0.10282E-01
  0.26007E-02 -0.15144E-02  0.10277E-01
  0.38024E-02  0.92936E-03  0.10270E-01
  0.39153E-02 -0.12666E-04  0.10274E-01
  0.34682E-02  0.18160E-02  0.10269E-01
  0.29304E-02  0.25936E-02  0.10271E-01
  0.22215E-02  0.32185E-02  0.10271E-01
  0.13844E-02  0.36572E-02  0.10269E-01
  0.46691E-03  0.38856E-02  0.10262E-01
 -0.47675E-03  0.38908E-02  0.10249E-01
 -0.13908E-02  0.36747E-02  0.10228E-01
 -0.22238E-02  0.32553E-02  0.10198E-01
 -0.29301E-02  0.26602E-02  0.10177E-01
 -0.34710E-02  0.19119E-02  0.10189E-01
 -0.38137E-02  0.10324E-02  0.10231E-01
 -0.39347E-02  0.79697E-04  0.10271E-01
 -0.38247E-02 -0.87440E-03  0.10290E-01
 -0.34912E-02 -0.17692E-02  0.10294E-01
 -0.29564E-02 -0.25524E-02  0.10295E-01
 -0.22512E-02 -0.31817E-02  0.10300E-01
 -0.14149E-02 -0.36281E-02  0.10310E-01
 -0.49659E-03 -0.38680E-02  0.10317E-01
  0.44686E-03 -0.38812E-02  0.10316E-01
  0.13606E-02 -0.36633E-02  0.10310E-01
  0.21973E-02 -0.32307E-02  0.10302E-01
  0.29115E-02 -0.26101E-02  0.10292E-01
  0.34573E-02 -0.18362E-02  0.10283E-01
  0.37989E-02 -0.95307E-03  0.10277E-01
  0.10239E-02  0.69577E-03  0.11251E-01
  0.17290E-02  0.12583E-02  0.11248E-01
  0.22988E-02  0.61956E-03  0.11246E-01
  0.16488E-02 -0.30599E-03  0.11247E-01
  0.30139E-02  0.17220E-03  0.11246E-01
  0.27599E-02 -0.65351E-03  0.11250E-01
  0.12696E-02  0.18543E-02  0.11250E-01
  0.63223E-03  0.14874E-02  0.11253E-01
  0.10974E-03  0.33148E-03  0.11254E-01
 -0.14640E-03  0.12097E-02  0.11257E-01
  0.92438E-03  0.22845E-02  0.11250E-01
  0.11161E-02  0.28255E-02  0.11246E-01
  0.17314E-02  0.24365E-02  0.11247E-01
  0.39199E-03  0.21737E-02  0.11252E-01
  0.39060E-03  0.29357E-02  0.11244E-01
 -0.79304E-03 -0.10024E-02  0.11250E-01
 -0.88563E-03  0.95387E-04  0.11258E-01
  0.43668E-03 -0.67706E-03  0.11249E-01
 -0.18711E-02 -0.70558E-03  0.11259E-01
 -0.18714E-02  0.81565E-04  0.11262E-01
 -0.27902E-02 -0.73809E-03  0.11267E-01
 -0.28587E-02  0.85013E-04  0.11258E-01
 -0.26129E-02 -0.14769E-02  0.11267E-01
 -0.19847E-02 -0.13058E-02  0.11258E-01
 -0.10090E-02  0.10147E-02  0.11259E-01
 -0.14880E-02 -0.17166E-02  0.11254E-01
 -0.32321E-03  0.20288E-02  0.11253E-01
 -0.11152E-02  0.18566E-02  0.11247E-01
 -0.19094E-02  0.17276E-02  0.11228E-01
 -0.18980E-02  0.91336E-03  0.11253E-01
 -0.19694E-03 -0.19687E-02  0.11251E-01
 -0.10026E-02 -0.23281E-02  0.11258E-01
  0.74398E-03 -0.16945E-02  0.11251E-01
  0.16849E-02 -0.14798E-02  0.11253E-01
  0.31874E-02  0.80239E-03  0.11243E-01
  0.27863E-02  0.12760E-02  0.11243E-01
  0.22936E-02  0.18812E-02  0.11245E-01
 -0.40680E-03  0.28825E-02  0.11237E-01
 -0.12153E-02  0.27177E-02  0.11218E-01
 -0.19594E-02  0.24869E-02  0.11187E-01
 -0.25296E-02  0.22997E-02  0.11154E-01
 -0.26765E-02  0.17085E-02  0.11188E-01
 -0.28147E-02  0.92891E-03  0.11229E-01
 -0.21874E-02 -0.20953E-02  0.11267E-01
 -0.16840E-02 -0.26491E-02  0.11274E-01
 -0.12789E-02 -0.30824E-02  0.11288E-01
 -0.66188E-03 -0.30089E-02  0.11281E-01
  0.14201E-03 -0.28590E-02  0.11275E-01
  0.99256E-03 -0.26358E-02  0.11271E-01
  0.17786E-02 -0.23626E-02  0.11270E-01
  0.23917E-02 -0.21473E-02  0.11270E-01
  0.25591E-02 -0.14975E-02  0.11258E-01
  0.37644E-02  0.95554E-03  0.11241E-01
  0.38835E-02  0.63627E-05  0.11249E-01
  0.34432E-02  0.18399E-02  0.11239E-01
  0.29236E-02  0.26091E-02  0.11242E-01
  0.22215E-02  0.32277E-02  0.11243E-01
  0.13874E-02  0.36641E-02  0.11239E-01
  0.47461E-03  0.38913E-02  0.11229E-01
 -0.46292E-03  0.38960E-02  0.11208E-01
 -0.13747E-02  0.36855E-02  0.11167E-01
 -0.22186E-02  0.32873E-02  0.11106E-01
 -0.29507E-02  0.27280E-02  0.11062E-01
 -0.35251E-02  0.20106E-02  0.11087E-01
 -0.39034E-02  0.11382E-02  0.11167E-01
 -0.40467E-02  0.17301E-03  0.11245E-01
 -0.39393E-02 -0.79655E-03  0.11282E-01
 -0.35977E-02 -0.17021E-02  0.11290E-01
 -0.30524E-02 -0.24918E-02  0.11294E-01
 -0.23414E-02 -0.31269E-02  0.11305E-01
 -0.15025E-02 -0.35836E-02  0.11323E-01
 -0.57798E-03 -0.38393E-02  0.11335E-01
  0.36848E-03 -0.38652E-02  0.11332E-01
  0.12773E-02 -0.36497E-02  0.11320E-01
  0.21112E-02 -0.32138E-02  0.11305E-01
  0.28351E-02 -0.25926E-02  0.11287E-01
  0.34023E-02 -0.18228E-02  0.11270E-01
  0.37640E-02 -0.94070E-03  0.11258E-01
  
CELLS       3486               17724
       1       0
       1       1
       1       2
       1       3
       1       4
       1       5
       1       6
       1       7
       1       8
       1       9
       1      10
       1      11
       1      12
       1      13
       1      14
       1      15
       1      16
       1      17
       1      18
       1      19
       1      20
       1      21
       1      22
       1      23
       1      24
       1      25
       1      26
       1      27
       1      28
       1      29
       1      30
       1      31
       1      32
       1      33
       1      34
       1      35
       1      36
       1      37
       1      38
       1      39
       1      40
       1      41
       1      42
       1      43
       1      44
       1      45
       1      46
       1      47
       1      48
       1      49
       1      50
       1      51
       1      52
       1      53
       1      54
       1      55
       1      56
       1      57
       1      58
       1      59
       1      60
       1      61
       1      62
       1      63
       1      64
       1      65
       1      66
       1      67
       1      68
       1      69
       1      70
       1      71
       1      72
       1      73
       1      74
       1      75
       1      76
       1      77
       1      78
       1      79
       1      80
       1      81
       1      82
       1      83
       1      84
       1      85
       1      86
       1      87
       1      88
       1      89
       1      90
       1      91
       1      92
       1      93
       1      94
       1      95
       1      96
       1      97
       1      98
       1      99
       1     100
       1     101
       1     102
       1     103
       1     104
       1     105
       1     106
       1     107
       1     108
       1     109
       1     110
       1     111
       1     112
       1     113
       1     114
       1     115
       1     116
       1     117
       1     118
       1     119
       1     120
       1     121
       1     122
       1     123
       1     124
       1     125
       1     126
       1     127
       1     128
       1     129
       1     130
       1     131
       1     132
       1     133
       1     134
       1     135
       1     136
       1     137
       1     138
       1     139
       1     140
       1     141
       1     142
       1     143
       1     144
       1     145
       1     146
       1     147
       1     148
       1     149
       1     150
       1     151
       1     152
       1     153
       1     154
       1     155
       1     156
       1     157
       1     158
       1     159
       1     160
       1     161
       1     162
       1     163
       1     164
       1     165
       1     166
       1     167
       1     168
       1     169
       1     170
       1     171
       1     172
       1     173
       1     174
       1     175
       1     176
       1     177
       1     178
       1     179
       1     180
       1     181
       1     182
       1     183
       1     184
       1     185
       1     186
       1     187
       1     188
       1     189
       1     190
       1     191
       1     192
       1     193
       1     194
       1     195
       1     196
       1     197
       1     198
       1     199
       1     200
       1     201
       1     202
       1     203
       1     204
       1     205
       1     206
       1     207
       1     208
       1     209
       1     210
       1     211
       1     212
       1     213
       1     214
       1     215
       1     216
       1     217
       1     218
       1     219
       1     220
       1     221
       1     222
       1     223
       1     224
       1     225
       1     226
       1     227
       1     228
       1     229
       1     230
       1     231
       1     232
       1     233
       1     234
       1     235
       1     236
       1     237
       1     238
       1     239
       1     240
       1     241
       1     242
       1     243
       1     244
       1     245
       1     246
       1     247
       1     248
       1     249
       1     250
       1     251
       1     252
       1     253
       1     254
       1     255
       1     256
       1     257
       1     258
       1     259
       1     260
       1     261
       1     262
       1     263
       1     264
       1     265
       1     266
       1     267
       1     268
       1     269
       1     270
       1     271
       1     272
       1     273
       1     274
       1     275
       1     276
       1     277
       1     278
       1     279
       1     280
       1     281
       1     282
       1     283
       1     284
       1     285
       1     286
       1     287
       1     288
       1     289
       1     290
       1     291
       1     292
       1     293
       1     294
       1     295
       1     296
       1     297
       1     298
       1     299
       1     300
       1     301
       1     302
       1     303
       1     304
       1     305
       1     306
       1     307
       1     308
       1     309
       1     310
       1     311
       1     312
       1     313
       1     314
       1     315
       1     316
       1     317
       1     318
       1     319
       1     320
       1     321
       1     322
       1     323
       1     324
       1     325
       1     326
       1     327
       1     328
       1     329
       1     330
       1     331
       1     332
       1     333
       1     334
       1     335
       1     336
       1     337
       1     338
       1     339
       1     340
       1     341
       1     342
       1     343
       1     344
       1     345
       1     346
       1     347
       1     348
       1     349
       1     350
       1     351
       1     352
       1     353
       1     354
       1     355
       1     356
       1     357
       1     358
       1     359
       1     360
       1     361
       1     362
       1     363
       1     364
       1     365
       1     366
       1     367
       1     368
       1     369
       1     370
       1     371
       1     372
       1     373
       1     374
       1     375
       1     376
       1     377
       1     378
       1     379
       1     380
       1     381
       1     382
       1     383
       1     384
       1     385
       1     386
       1     387
       1     388
       1     389
       1     390
       1     391
       1     392
       1     393
       1     394
       1     395
       1     396
       1     397
       1     398
       1     399
       1     400
       1     401
       1     402
       1     403
       1     404
       1     405
       1     406
       1     407
       1     408
       1     409
       1     410
       1     411
       1     412
       1     413
       1     414
       1     415
       1     416
       1     417
       1     418
       1     419
       1     420
       1     421
       1     422
       1     423
       1     424
       1     425
       1     426
       1     427
       1     428
       1     429
       1     430
       1     431
       1     432
       1     433
       1     434
       1     435
       1     436
       1     437
       1     438
       1     439
       1     440
       1     441
       1     442
       1     443
       1     444
       1     445
       1     446
       1     447
       1     448
       1     449
       1     450
       1     451
       1     452
       1     453
       1     454
       1     455
       1     456
       1     457
       1     458
       1     459
       1     460
       1     461
       1     462
       1     463
       1     464
       1     465
       1     466
       1     467
       1     468
       1     469
       1     470
       1     471
       1     472
       1     473
       1     474
       1     475
       1     476
       1     477
       1     478
       1     479
       1     480
       1     481
       1     482
       1     483
       1     484
       1     485
       1     486
       1     487
       1     488
       1     489
       1     490
       1     491
       1     492
       1     493
       1     494
       1     495
       1     496
       1     497
       1     498
       1     499
       1     500
       1     501
       1     502
       1     503
       1     504
       1     505
       1     506
       1     507
       1     508
       1     509
       1     510
       1     511
       1     512
       1     513
       1     514
       1     515
       1     516
       1     517
       1     518
       1     519
       1     520
       1     521
       1     522
       1     523
       1     524
       1     525
       1     526
       1     527
       1     528
       1     529
       1     530
       1     531
       1     532
       1     533
       1     534
       1     535
       1     536
       1     537
       1     538
       1     539
       1     540
       1     541
       1     542
       1     543
       1     544
       1     545
       1     546
       1     547
       1     548
       1     549
       1     550
       1     551
       1     552
       1     553
       1     554
       1     555
       1     556
       1     557
       1     558
       1     559
       1     560
       1     561
       1     562
       1     563
       1     564
       1     565
       1     566
       1     567
       1     568
       1     569
       1     570
       1     571
       1     572
       1     573
       1     574
       1     575
       1     576
       1     577
       1     578
       1     579
       1     580
       1     581
       1     582
       1     583
       1     584
       1     585
       1     586
       1     587
       1     588
       1     589
       1     590
       1     591
       1     592
       1     593
       1     594
       1     595
       1     596
       1     597
       1     598
       1     599
       1     600
       1     601
       1     602
       1     603
       1     604
       1     605
       1     606
       1     607
       1     608
       1     609
       1     610
       1     611
       1     612
       1     613
       1     614
       1     615
       1     616
       1     617
       1     618
       1     619
       1     620
       1     621
       1     622
       1     623
       1     624
       1     625
       1     626
       1     627
       1     628
       1     629
       1     630
       1     631
       1     632
       1     633
       1     634
       1     635
       1     636
       1     637
       1     638
       1     639
       1     640
       1     641
       1     642
       1     643
       1     644
       1     645
       1     646
       1     647
       1     648
       1     649
       1     650
       1     651
       1     652
       1     653
       1     654
       1     655
       1     656
       1     657
       1     658
       1     659
       1     660
       1     661
       1     662
       1     663
       1     664
       1     665
       1     666
       1     667
       1     668
       1     669
       1     670
       1     671
       1     672
       1     673
       1     674
       1     675
       1     676
       1     677
       1     678
       1     679
       1     680
       1     681
       1     682
       1     683
       1     684
       1     685
       1     686
       1     687
       1     688
       1     689
       1     690
       1     691
       1     692
       1     693
       1     694
       1     695
       1     696
       1     697
       1     698
       1     699
       1     700
       1     701
       1     702
       1     703
       1     704
       1     705
       1     706
       1     707
       1     708
       1     709
       1     710
       1     711
       1     712
       1     713
       1     714
       1     715
       1     716
       1     717
       1     718
       1     719
       1     720
       1     721
       1     722
       1     723
       1     724
       1     725
       1     726
       1     727
       1     728
       1     729
       1     730
       1     731
       1     732
       1     733
       1     734
       1     735
       1     736
       1     737
       1     738
       1     739
       1     740
       1     741
       1     742
       1     743
       1     744
       1     745
       1     746
       1     747
       1     748
       1     749
       1     750
       1     751
       1     752
       1     753
       1     754
       1     755
       1     756
       1     757
       1     758
       1     759
       1     760
       1     761
       1     762
       1     763
       1     764
       1     765
       1     766
       1     767
       1     768
       1     769
       1     770
       1     771
       1     772
       1     773
       1     774
       1     775
       1     776
       1     777
       1     778
       1     779
       1     780
       1     781
       1     782
       1     783
       1     784
       1     785
       1     786
       1     787
       1     788
       1     789
       1     790
       1     791
       1     792
       1     793
       1     794
       1     795
       1     796
       1     797
       1     798
       1     799
       1     800
       1     801
       1     802
       1     803
       1     804
       1     805
       1     806
       1     807
       1     808
       1     809
       1     810
       1     811
       1     812
       1     813
       1     814
       1     815
       1     816
       1     817
       1     818
       1     819
       1     820
       1     821
       1     822
       1     823
       1     824
       1     825
       1     826
       1     827
       1     828
       1     829
       1     830
       1     831
       1     832
       1     833
       1     834
       1     835
       1     836
       1     837
       1     838
       1     839
       1     840
       1     841
       1     842
       1     843
       1     844
       1     845
       1     846
       1     847
       1     848
       1     849
       1     850
       1     851
       1     852
       1     853
       1     854
       1     855
       1     856
       1     857
       1     858
       1     859
       1     860
       1     861
       1     862
       1     863
       1     864
       1     865
       1     866
       1     867
       1     868
       1     869
       1     870
       1     871
       1     872
       1     873
       1     874
       1     875
       1     876
       1     877
       1     878
       1     879
       1     880
       1     881
       1     882
       1     883
       1     884
       1     885
       1     886
       1     887
       1     888
       1     889
       1     890
       1     891
       1     892
       1     893
       1     894
       1     895
       1     896
       1     897
       1     898
       1     899
       1     900
       1     901
       1     902
       1     903
       1     904
       1     905
       1     906
       1     907
       1     908
       1     909
       1     910
       1     911
       1     912
       1     913
       1     914
       1     915
       1     916
       1     917
       1     918
       1     919
       1     920
       1     921
       1     922
       1     923
       1     924
       1     925
       1     926
       1     927
       1     928
       1     929
       1     930
       1     931
       1     932
       1     933
       1     934
       1     935
       1     936
       1     937
       1     938
       1     939
       1     940
       1     941
       1     942
       1     943
       1     944
       1     945
       1     946
       1     947
       1     948
       1     949
       1     950
       1     951
       1     952
       1     953
       1     954
       1     955
       1     956
       1     957
       1     958
       1     959
       1     960
       1     961
       1     962
       1     963
       1     964
       1     965
       1     966
       1     967
       1     968
       1     969
       1     970
       1     971
       1     972
       1     973
       1     974
       1     975
       1     976
       1     977
       1     978
       1     979
       1     980
       1     981
       1     982
       1     983
       1     984
       1     985
       1     986
       1     987
       1     988
       1     989
       1     990
       1     991
       1     992
       1     993
       1     994
       1     995
       1     996
       1     997
       1     998
       1     999
       1    1000
       1    1001
       1    1002
       1    1003
       1    1004
       1    1005
       1    1006
       1    1007
       1    1008
       1    1009
       1    1010
       1    1011
       1    1012
       1    1013
       1    1014
       1    1015
       1    1016
       1    1017
       1    1018
       1    1019
       1    1020
       1    1021
       1    1022
       1    1023
       1    1024
       1    1025
       1    1026
       1    1027
       1    1028
       1    1029
       1    1030
       1    1031
       1    1032
       1    1033
       1    1034
       1    1035
       1    1036
       1    1037
       1    1038
       1    1039
       1    1040
       1    1041
       1    1042
       1    1043
       1    1044
       1    1045
       1    1046
       1    1047
       1    1048
       1    1049
       1    1050
       1    1051
       1    1052
       1    1053
       1    1054
       1    1055
       1    1056
       1    1057
       1    1058
       1    1059
       1    1060
       1    1061
       1    1062
       1    1063
       1    1064
       1    1065
       1    1066
       1    1067
       1    1068
       1    1069
       1    1070
       1    1071
       1    1072
       1    1073
       1    1074
       1    1075
       1    1076
       1    1077
       1    1078
       1    1079
       1    1080
       1    1081
       1    1082
       1    1083
       1    1084
       1    1085
       1    1086
       1    1087
       1    1088
       1    1089
       1    1090
       1    1091
       1    1092
       1    1093
       1    1094
       1    1095
       1    1096
       1    1097
       1    1098
       1    1099
       1    1100
       1    1101
       1    1102
       1    1103
       1    1104
       1    1105
       1    1106
       1    1107
       1    1108
       1    1109
       1    1110
       1    1111
       1    1112
       1    1113
       1    1114
       1    1115
       1    1116
       1    1117
       1    1118
       1    1119
       1    1120
       1    1121
       1    1122
       1    1123
       1    1124
       1    1125
       1    1126
       1    1127
       1    1128
       1    1129
       1    1130
       1    1131
       1    1132
       1    1133
       1    1134
       1    1135
       1    1136
       1    1137
       1    1138
       1    1139
       1    1140
       1    1141
       1    1142
       1    1143
       1    1144
       1    1145
       1    1146
       1    1147
       1    1148
       1    1149
       1    1150
       1    1151
       1    1152
       1    1153
       1    1154
       1    1155
       1    1156
       1    1157
       1    1158
       1    1159
       1    1160
       1    1161
       1    1162
       1    1163
       1    1164
       1    1165
       1    1166
       1    1167
       1    1168
       1    1169
       1    1170
       1    1171
       1    1172
       1    1173
       1    1174
       1    1175
       1    1176
       1    1177
       1    1178
       1    1179
       1    1180
       1    1181
       1    1182
       1    1183
       1    1184
       1    1185
       1    1186
       1    1187
       1    1188
       1    1189
       1    1190
       1    1191
       1    1192
       1    1193
       1    1194
       1    1195
       1    1196
       1    1197
       1    1198
       1    1199
       1    1200
       1    1201
       1    1202
       1    1203
       1    1204
       1    1205
       1    1206
       1    1207
       1    1208
       1    1209
       1    1210
       1    1211
       1    1212
       1    1213
       1    1214
       1    1215
       1    1216
       1    1217
       1    1218
       1    1219
       1    1220
       1    1221
       1    1222
       1    1223
       1    1224
       1    1225
       1    1226
       1    1227
       1    1228
       1    1229
       1    1230
       1    1231
       1    1232
       1    1233
       1    1234
       1    1235
       1    1236
       1    1237
       1    1238
       1    1239
       1    1240
       1    1241
       1    1242
       1    1243
       1    1244
       1    1245
       1    1246
       1    1247
       1    1248
       1    1249
       1    1250
       1    1251
       1    1252
       1    1253
       1    1254
       1    1255
       1    1256
       1    1257
       1    1258
       1    1259
       1    1260
       1    1261
       1    1262
       1    1263
       1    1264
       1    1265
       1    1266
       1    1267
       1    1268
       1    1269
       1    1270
       1    1271
       1    1272
       1    1273
       1    1274
       1    1275
       1    1276
       1    1277
       1    1278
       1    1279
       1    1280
       1    1281
       1    1282
       1    1283
       1    1284
       1    1285
       1    1286
       1    1287
       1    1288
       1    1289
       1    1290
       1    1291
       1    1292
       1    1293
       1    1294
       1    1295
       1    1296
       1    1297
       1    1298
       1    1299
       1    1300
       1    1301
       1    1302
       1    1303
       1    1304
       1    1305
       1    1306
       1    1307
       1    1308
       1    1309
       1    1310
       1    1311
       1    1312
       1    1313
       1    1314
       1    1315
       1    1316
       1    1317
       1    1318
       1    1319
       1    1320
       1    1321
       1    1322
       1    1323
       1    1324
       1    1325
       1    1326
       1    1327
       1    1328
       1    1329
       1    1330
       1    1331
       1    1332
       1    1333
       1    1334
       1    1335
       1    1336
       1    1337
       1    1338
       1    1339
       1    1340
       1    1341
       1    1342
       1    1343
       1    1344
       1    1345
       1    1346
       1    1347
       1    1348
       1    1349
       1    1350
       1    1351
       1    1352
       1    1353
       1    1354
       1    1355
       1    1356
       1    1357
       1    1358
       1    1359
       1    1360
       1    1361
       1    1362
       1    1363
       1    1364
       1    1365
       1    1366
       1    1367
       1    1368
       1    1369
       1    1370
       1    1371
       1    1372
       1    1373
       1    1374
       1    1375
       1    1376
       1    1377
       1    1378
       1    1379
       1    1380
       1    1381
       1    1382
       1    1383
       1    1384
       1    1385
       1    1386
       1    1387
       1    1388
       1    1389
       1    1390
       1    1391
       1    1392
       1    1393
       1    1394
       1    1395
       1    1396
       1    1397
       1    1398
       1    1399
       1    1400
       1    1401
       1    1402
       1    1403
       1    1404
       1    1405
       1    1406
       1    1407
       1    1408
       1    1409
       1    1410
       1    1411
       1    1412
       1    1413
       1    1414
       1    1415
       1    1416
       1    1417
       1    1418
       1    1419
       1    1420
       1    1421
       1    1422
       1    1423
       1    1424
       1    1425
       1    1426
       1    1427
       1    1428
       1    1429
       1    1430
       1    1431
       1    1432
       1    1433
       1    1434
       1    1435
       1    1436
       1    1437
       1    1438
       1    1439
       1    1440
       1    1441
       1    1442
       1    1443
       1    1444
       1    1445
       1    1446
       1    1447
       1    1448
       1    1449
       1    1450
       1    1451
       1    1452
       1    1453
       1    1454
       1    1455
       1    1456
       1    1457
       1    1458
       1    1459
       1    1460
       1    1461
       1    1462
       1    1463
       1    1464
       1    1465
       1    1466
       1    1467
       1    1468
       1    1469
       1    1470
       1    1471
       1    1472
       1    1473
       1    1474
       1    1475
       1    1476
       1    1477
       1    1478
       1    1479
       1    1480
       1    1481
       1    1482
       1    1483
       1    1484
       1    1485
       1    1486
       1    1487
       1    1488
       1    1489
       1    1490
       1    1491
       1    1492
       1    1493
       1    1494
       1    1495
       1    1496
       1    1497
       1    1498
       1    1499
       1    1500
       1    1501
       1    1502
       1    1503
       1    1504
       1    1505
       1    1506
       1    1507
       1    1508
       1    1509
       1    1510
       1    1511
       1    1512
       1    1513
       1    1514
       1    1515
       1    1516
       1    1517
       1    1518
       1    1519
       1    1520
       1    1521
       1    1522
       1    1523
       1    1524
       1    1525
       1    1526
       1    1527
       1    1528
       1    1529
       1    1530
       1    1531
       1    1532
       1    1533
       1    1534
       1    1535
       1    1536
       1    1537
       1    1538
       1    1539
       1    1540
       1    1541
       1    1542
       1    1543
       1    1544
       1    1545
       1    1546
       1    1547
       1    1548
       1    1549
       1    1550
       1    1551
       1    1552
       1    1553
       1    1554
       1    1555
       1    1556
       1    1557
       1    1558
       1    1559
       1    1560
       1    1561
       1    1562
       1    1563
       1    1564
       1    1565
       1    1566
       1    1567
       1    1568
       1    1569
       1    1570
       1    1571
       1    1572
       1    1573
       1    1574
       1    1575
       1    1576
       1    1577
       1    1578
       1    1579
       1    1580
       1    1581
       1    1582
       1    1583
       1    1584
       1    1585
       1    1586
       1    1587
       1    1588
       1    1589
       1    1590
       1    1591
       1    1592
       1    1593
       1    1594
       1    1595
       1    1596
       1    1597
       1    1598
       1    1599
       1    1600
       1    1601
       1    1602
       1    1603
       1    1604
       1    1605
       1    1606
       1    1607
       1    1608
       1    1609
       1    1610
       1    1611
       1    1612
       1    1613
       1    1614
       1    1615
       1    1616
       1    1617
       1    1618
       1    1619
       1    1620
       1    1621
       1    1622
       1    1623
       1    1624
       1    1625
       1    1626
       1    1627
       1    1628
       1    1629
       1    1630
       1    1631
       1    1632
       1    1633
       1    1634
       1    1635
       1    1636
       1    1637
       1    1638
       1    1639
       1    1640
       1    1641
       1    1642
       1    1643
       1    1644
       1    1645
       1    1646
       1    1647
       1    1648
       1    1649
       1    1650
       1    1651
       1    1652
       1    1653
       1    1654
       1    1655
       1    1656
       1    1657
       1    1658
       1    1659
       1    1660
       1    1661
       1    1662
       1    1663
       1    1664
       1    1665
       1    1666
       1    1667
       1    1668
       1    1669
       1    1670
       1    1671
       1    1672
       1    1673
       1    1674
       1    1675
       1    1676
       1    1677
       1    1678
       1    1679
       1    1680
       1    1681
       1    1682
       1    1683
       1    1684
       1    1685
       1    1686
       1    1687
       1    1688
       1    1689
       1    1690
       1    1691
       1    1692
       1    1693
       1    1694
       1    1695
       1    1696
       1    1697
       1    1698
       1    1699
       1    1700
       1    1701
       1    1702
       1    1703
       1    1704
       1    1705
       1    1706
       1    1707
       1    1708
       1    1709
       1    1710
       1    1711
       1    1712
       1    1713
       1    1714
       1    1715
       1    1716
       1    1717
       1    1718
       1    1719
       1    1720
       1    1721
       1    1722
       1    1723
       1    1724
       1    1725
       1    1726
       1    1727
       1    1728
       1    1729
       1    1730
       1    1731
       1    1732
       1    1733
       1    1734
       1    1735
       1    1736
       1    1737
       1    1738
       1    1739
       1    1740
       1    1741
       1    1742
       1    1743
       1    1744
       1    1745
       1    1746
       1    1747
       1    1748
       1    1749
       1    1750
       1    1751
       1    1752
       1    1753
       1    1754
       1    1755
       1    1756
       1    1757
       1    1758
       1    1759
       1    1760
       1    1761
       1    1762
       1    1763
       1    1764
       1    1765
       1    1766
       1    1767
       1    1768
       1    1769
       1    1770
       1    1771
       1    1772
       1    1773
       1    1774
       1    1775
       1    1776
       1    1777
       1    1778
       1    1779
       1    1780
       1    1781
       1    1782
       1    1783
       1    1784
       1    1785
       1    1786
       1    1787
       1    1788
       1    1789
       1    1790
       1    1791
       1    1792
       1    1793
       1    1794
       1    1795
       1    1796
       1    1797
       1    1798
       1    1799
       1    1800
       1    1801
       1    1802
       1    1803
       1    1804
       1    1805
       1    1806
       1    1807
       1    1808
       1    1809
       1    1810
       1    1811
       1    1812
       1    1813
       1    1814
       1    1815
       1    1816
       1    1817
       1    1818
       1    1819
       1    1820
       1    1821
       1    1822
       1    1823
       1    1824
       1    1825
       1    1826
       1    1827
       1    1828
       1    1829
       1    1830
       1    1831
       1    1832
       1    1833
       1    1834
       1    1835
       1    1836
       1    1837
       1    1838
       1    1839
       1    1840
       1    1841
       1    1842
       1    1843
       1    1844
       1    1845
       1    1846
       1    1847
       1    1848
       1    1849
       1    1850
       1    1851
       1    1852
       1    1853
       1    1854
       1    1855
       1    1856
       1    1857
       1    1858
       1    1859
       1    1860
       1    1861
       1    1862
       1    1863
       1    1864
       1    1865
       1    1866
       1    1867
       1    1868
       1    1869
       1    1870
       1    1871
       1    1872
       1    1873
       1    1874
       1    1875
       1    1876
       1    1877
       1    1878
       1    1879
       1    1880
       1    1881
       1    1882
       1    1883
       1    1884
       1    1885
       1    1886
       1    1887
       1    1888
       1    1889
       1    1890
       1    1891
       1    1892
       1    1893
       1    1894
       1    1895
       1    1896
       1    1897
       1    1898
       1    1899
       1    1900
       1    1901
       1    1902
       1    1903
       1    1904
       1    1905
       1    1906
       1    1907
       1    1908
       1    1909
       1    1910
       1    1911
       1    1912
       1    1913
       1    1914
       1    1915
       1    1916
       1    1917
       1    1918
       1    1919
       1    1920
       1    1921
       1    1922
       1    1923
       1    1924
       1    1925
       1    1926
       1    1927
       1    1928
       1    1929
       1    1930
       1    1931
       1    1932
       1    1933
       1    1934
       1    1935
       1    1936
       1    1937
       1    1938
       1    1939
       1    1940
       1    1941
       1    1942
       1    1943
       1    1944
       1    1945
       1    1946
       1    1947
       1    1948
       1    1949
       8       0       1       2       3       4       5       6       7
       8       2       8       9       3       6      10      11       7
       8      12       1       0      13      14       5       4      15
       8       0      16      17      13       4      18      19      15
       8      20      21      22      12      23      24      25      14
       8      26      27      21      20      28      29      24      23
       8      13      26      20      12      15      28      23      14
       8      30      31      16      32      33      34      18      35
       8      36      37      31      30      38      39      34      33
       8      40      41      37      36      42      43      39      38
       8      44      40      36      45      46      42      38      47
       8      48      17      16      31      49      19      18      34
       8      30      50      45      36      33      51      47      38
       8       0       3      32      16       4       7      35      18
       8      52      26      13      17      53      28      15      19
       8      54      52      17      48      55      53      19      49
       8      56      54      48      57      58      55      49      59
       8      37      57      48      31      39      59      49      34
       8      60      61      50      30      62      63      51      33
       8      64      60      30      32      65      62      33      35
       8      66      64      32       3      67      65      35       7
       8      68       8       2      69      70      10       6      71
       8      72      69       2       1      73      71       6       5
       8      22      72       1      12      25      73       5      14
       8      74      27      26      52      75      29      28      53
       8      76      74      52      54      77      75      53      55
       8      78      76      54      56      79      77      55      58
       8      80      78      56      81      82      79      58      83
       8      84      81      56      57      85      83      58      59
       8      41      84      57      37      43      85      59      39
       8      86      44      45      50      87      46      47      51
       8      88      86      50      61      89      87      51      63
       8      90      88      61      91      92      89      63      93
       8      94      91      61      60      95      93      63      62
       8      96      94      60      64      97      95      62      65
       8      98      96      64      66      99      97      65      67
       8     100      98      66     101     102      99      67     103
       8       9     101      66       3      11     103      67       7
       8     104     105       8      68     106     107      10      70
       8     108     104      68      69     109     106      70      71
       8     110     108      69      72     111     109      71      73
       8     112     110      72      22     113     111      73      25
       8     114     112      22      21     115     113      25      24
       8     116     114      21      27     117     115      24      29
       8     118     116      27      74     119     117      29      75
       8     120     118      74      76     121     119      75      77
       8     122     120      76      78     123     121      77      79
       8     124     122      78      80     125     123      79      82
       8     126     124      80      81     127     125      82      83
       8     128     126      81      84     129     127      83      85
       8     130     128      84      41     131     129      85      43
       8     132     130      41      40     133     131      43      42
       8     134     132      40      44     135     133      42      46
       8     136     134      44      86     137     135      46      87
       8     138     136      86      88     139     137      87      89
       8     140     138      88      90     141     139      89      92
       8     142     140      90      91     143     141      92      93
       8     144     142      91      94     145     143      93      95
       8     146     144      94      96     147     145      95      97
       8     148     146      96      98     149     147      97      99
       8     150     148      98     100     151     149      99     102
       8     152     150     100     101     153     151     102     103
       8     154     152     101       9     155     153     103      11
       8     105     154       9       8     107     155      11      10
       8     156     157     158     159       0       1       2       3
       8     158     160     161     159       2       8       9       3
       8     162     157     156     163      12       1       0      13
       8     156     164     165     163       0      16      17      13
       8     166     167     168     162      20      21      22      12
       8     169     170     167     166      26      27      21      20
       8     163     169     166     162      13      26      20      12
       8     171     172     164     173      30      31      16      32
       8     174     175     172     171      36      37      31      30
       8     176     177     175     174      40      41      37      36
       8     178     176     174     179      44      40      36      45
       8     180     165     164     172      48      17      16      31
       8     171     181     179     174      30      50      45      36
       8     156     159     173     164       0       3      32      16
       8     182     169     163     165      52      26      13      17
       8     183     182     165     180      54      52      17      48
       8     184     183     180     185      56      54      48      57
       8     175     185     180     172      37      57      48      31
       8     186     187     181     171      60      61      50      30
       8     188     186     171     173      64      60      30      32
       8     189     188     173     159      66      64      32       3
       8     190     160     158     191      68       8       2      69
       8     192     191     158     157      72      69       2       1
       8     168     192     157     162      22      72       1      12
       8     193     170     169     182      74      27      26      52
       8     194     193     182     183      76      74      52      54
       8     195     194     183     184      78      76      54      56
       8     196     195     184     197      80      78      56      81
       8     198     197     184     185      84      81      56      57
       8     177     198     185     175      41      84      57      37
       8     199     178     179     181      86      44      45      50
       8     200     199     181     187      88      86      50      61
       8     201     200     187     202      90      88      61      91
       8     203     202     187     186      94      91      61      60
       8     204     203     186     188      96      94      60      64
       8     205     204     188     189      98      96      64      66
       8     206     205     189     207     100      98      66     101
       8     161     207     189     159       9     101      66       3
       8     208     209     160     190     104     105       8      68
       8     210     208     190     191     108     104      68      69
       8     211     210     191     192     110     108      69      72
       8     212     211     192     168     112     110      72      22
       8     213     212     168     167     114     112      22      21
       8     214     213     167     170     116     114      21      27
       8     215     214     170     193     118     116      27      74
       8     216     215     193     194     120     118      74      76
       8     217     216     194     195     122     120      76      78
       8     218     217     195     196     124     122      78      80
       8     219     218     196     197     126     124      80      81
       8     220     219     197     198     128     126      81      84
       8     221     220     198     177     130     128      84      41
       8     222     221     177     176     132     130      41      40
       8     223     222     176     178     134     132      40      44
       8     224     223     178     199     136     134      44      86
       8     225     224     199     200     138     136      86      88
       8     226     225     200     201     140     138      88      90
       8     227     226     201     202     142     140      90      91
       8     228     227     202     203     144     142      91      94
       8     229     228     203     204     146     144      94      96
       8     230     229     204     205     148     146      96      98
       8     231     230     205     206     150     148      98     100
       8     232     231     206     207     152     150     100     101
       8     233     232     207     161     154     152     101       9
       8     209     233     161     160     105     154       9       8
       8     234     235     236     237     156     157     158     159
       8     236     238     239     237     158     160     161     159
       8     240     235     234     241     162     157     156     163
       8     234     242     243     241     156     164     165     163
       8     244     245     246     240     166     167     168     162
       8     247     248     245     244     169     170     167     166
       8     241     247     244     240     163     169     166     162
       8     249     250     242     251     171     172     164     173
       8     252     253     250     249     174     175     172     171
       8     254     255     253     252     176     177     175     174
       8     256     254     252     257     178     176     174     179
       8     258     243     242     250     180     165     164     172
       8     249     259     257     252     171     181     179     174
       8     234     237     251     242     156     159     173     164
       8     260     247     241     243     182     169     163     165
       8     261     260     243     258     183     182     165     180
       8     262     261     258     263     184     183     180     185
       8     253     263     258     250     175     185     180     172
       8     264     265     259     249     186     187     181     171
       8     266     264     249     251     188     186     171     173
       8     267     266     251     237     189     188     173     159
       8     268     238     236     269     190     160     158     191
       8     270     269     236     235     192     191     158     157
       8     246     270     235     240     168     192     157     162
       8     271     248     247     260     193     170     169     182
       8     272     271     260     261     194     193     182     183
       8     273     272     261     262     195     194     183     184
       8     274     273     262     275     196     195     184     197
       8     276     275     262     263     198     197     184     185
       8     255     276     263     253     177     198     185     175
       8     277     256     257     259     199     178     179     181
       8     278     277     259     265     200     199     181     187
       8     279     278     265     280     201     200     187     202
       8     281     280     265     264     203     202     187     186
       8     282     281     264     266     204     203     186     188
       8     283     282     266     267     205     204     188     189
       8     284     283     267     285     206     205     189     207
       8     239     285     267     237     161     207     189     159
       8     286     287     238     268     208     209     160     190
       8     288     286     268     269     210     208     190     191
       8     289     288     269     270     211     210     191     192
       8     290     289     270     246     212     211     192     168
       8     291     290     246     245     213     212     168     167
       8     292     291     245     248     214     213     167     170
       8     293     292     248     271     215     214     170     193
       8     294     293     271     272     216     215     193     194
       8     295     294     272     273     217     216     194     195
       8     296     295     273     274     218     217     195     196
       8     297     296     274     275     219     218     196     197
       8     298     297     275     276     220     219     197     198
       8     299     298     276     255     221     220     198     177
       8     300     299     255     254     222     221     177     176
       8     301     300     254     256     223     222     176     178
       8     302     301     256     277     224     223     178     199
       8     303     302     277     278     225     224     199     200
       8     304     303     278     279     226     225     200     201
       8     305     304     279     280     227     226     201     202
       8     306     305     280     281     228     227     202     203
       8     307     306     281     282     229     228     203     204
       8     308     307     282     283     230     229     204     205
       8     309     308     283     284     231     230     205     206
       8     310     309     284     285     232     231     206     207
       8     311     310     285     239     233     232     207     161
       8     287     311     239     238     209     233     161     160
       8     312     313     314     315     234     235     236     237
       8     314     316     317     315     236     238     239     237
       8     318     313     312     319     240     235     234     241
       8     312     320     321     319     234     242     243     241
       8     322     323     324     318     244     245     246     240
       8     325     326     323     322     247     248     245     244
       8     319     325     322     318     241     247     244     240
       8     327     328     320     329     249     250     242     251
       8     330     331     328     327     252     253     250     249
       8     332     333     331     330     254     255     253     252
       8     334     332     330     335     256     254     252     257
       8     336     321     320     328     258     243     242     250
       8     327     337     335     330     249     259     257     252
       8     312     315     329     320     234     237     251     242
       8     338     325     319     321     260     247     241     243
       8     339     338     321     336     261     260     243     258
       8     340     339     336     341     262     261     258     263
       8     331     341     336     328     253     263     258     250
       8     342     343     337     327     264     265     259     249
       8     344     342     327     329     266     264     249     251
       8     345     344     329     315     267     266     251     237
       8     346     316     314     347     268     238     236     269
       8     348     347     314     313     270     269     236     235
       8     324     348     313     318     246     270     235     240
       8     349     326     325     338     271     248     247     260
       8     350     349     338     339     272     271     260     261
       8     351     350     339     340     273     272     261     262
       8     352     351     340     353     274     273     262     275
       8     354     353     340     341     276     275     262     263
       8     333     354     341     331     255     276     263     253
       8     355     334     335     337     277     256     257     259
       8     356     355     337     343     278     277     259     265
       8     357     356     343     358     279     278     265     280
       8     359     358     343     342     281     280     265     264
       8     360     359     342     344     282     281     264     266
       8     361     360     344     345     283     282     266     267
       8     362     361     345     363     284     283     267     285
       8     317     363     345     315     239     285     267     237
       8     364     365     316     346     286     287     238     268
       8     366     364     346     347     288     286     268     269
       8     367     366     347     348     289     288     269     270
       8     368     367     348     324     290     289     270     246
       8     369     368     324     323     291     290     246     245
       8     370     369     323     326     292     291     245     248
       8     371     370     326     349     293     292     248     271
       8     372     371     349     350     294     293     271     272
       8     373     372     350     351     295     294     272     273
       8     374     373     351     352     296     295     273     274
       8     375     374     352     353     297     296     274     275
       8     376     375     353     354     298     297     275     276
       8     377     376     354     333     299     298     276     255
       8     378     377     333     332     300     299     255     254
       8     379     378     332     334     301     300     254     256
       8     380     379     334     355     302     301     256     277
       8     381     380     355     356     303     302     277     278
       8     382     381     356     357     304     303     278     279
       8     383     382     357     358     305     304     279     280
       8     384     383     358     359     306     305     280     281
       8     385     384     359     360     307     306     281     282
       8     386     385     360     361     308     307     282     283
       8     387     386     361     362     309     308     283     284
       8     388     387     362     363     310     309     284     285
       8     389     388     363     317     311     310     285     239
       8     365     389     317     316     287     311     239     238
       8     390     391     392     393     312     313     314     315
       8     392     394     395     393     314     316     317     315
       8     396     391     390     397     318     313     312     319
       8     390     398     399     397     312     320     321     319
       8     400     401     402     396     322     323     324     318
       8     403     404     401     400     325     326     323     322
       8     397     403     400     396     319     325     322     318
       8     405     406     398     407     327     328     320     329
       8     408     409     406     405     330     331     328     327
       8     410     411     409     408     332     333     331     330
       8     412     410     408     413     334     332     330     335
       8     414     399     398     406     336     321     320     328
       8     405     415     413     408     327     337     335     330
       8     390     393     407     398     312     315     329     320
       8     416     403     397     399     338     325     319     321
       8     417     416     399     414     339     338     321     336
       8     418     417     414     419     340     339     336     341
       8     409     419     414     406     331     341     336     328
       8     420     421     415     405     342     343     337     327
       8     422     420     405     407     344     342     327     329
       8     423     422     407     393     345     344     329     315
       8     424     394     392     425     346     316     314     347
       8     426     425     392     391     348     347     314     313
       8     402     426     391     396     324     348     313     318
       8     427     404     403     416     349     326     325     338
       8     428     427     416     417     350     349     338     339
       8     429     428     417     418     351     350     339     340
       8     430     429     418     431     352     351     340     353
       8     432     431     418     419     354     353     340     341
       8     411     432     419     409     333     354     341     331
       8     433     412     413     415     355     334     335     337
       8     434     433     415     421     356     355     337     343
       8     435     434     421     436     357     356     343     358
       8     437     436     421     420     359     358     343     342
       8     438     437     420     422     360     359     342     344
       8     439     438     422     423     361     360     344     345
       8     440     439     423     441     362     361     345     363
       8     395     441     423     393     317     363     345     315
       8     442     443     394     424     364     365     316     346
       8     444     442     424     425     366     364     346     347
       8     445     444     425     426     367     366     347     348
       8     446     445     426     402     368     367     348     324
       8     447     446     402     401     369     368     324     323
       8     448     447     401     404     370     369     323     326
       8     449     448     404     427     371     370     326     349
       8     450     449     427     428     372     371     349     350
       8     451     450     428     429     373     372     350     351
       8     452     451     429     430     374     373     351     352
       8     453     452     430     431     375     374     352     353
       8     454     453     431     432     376     375     353     354
       8     455     454     432     411     377     376     354     333
       8     456     455     411     410     378     377     333     332
       8     457     456     410     412     379     378     332     334
       8     458     457     412     433     380     379     334     355
       8     459     458     433     434     381     380     355     356
       8     460     459     434     435     382     381     356     357
       8     461     460     435     436     383     382     357     358
       8     462     461     436     437     384     383     358     359
       8     463     462     437     438     385     384     359     360
       8     464     463     438     439     386     385     360     361
       8     465     464     439     440     387     386     361     362
       8     466     465     440     441     388     387     362     363
       8     467     466     441     395     389     388     363     317
       8     443     467     395     394     365     389     317     316
       8     468     469     470     471     390     391     392     393
       8     470     472     473     471     392     394     395     393
       8     474     469     468     475     396     391     390     397
       8     468     476     477     475     390     398     399     397
       8     478     479     480     474     400     401     402     396
       8     481     482     479     478     403     404     401     400
       8     475     481     478     474     397     403     400     396
       8     483     484     476     485     405     406     398     407
       8     486     487     484     483     408     409     406     405
       8     488     489     487     486     410     411     409     408
       8     490     488     486     491     412     410     408     413
       8     492     477     476     484     414     399     398     406
       8     483     493     491     486     405     415     413     408
       8     468     471     485     476     390     393     407     398
       8     494     481     475     477     416     403     397     399
       8     495     494     477     492     417     416     399     414
       8     496     495     492     497     418     417     414     419
       8     487     497     492     484     409     419     414     406
       8     498     499     493     483     420     421     415     405
       8     500     498     483     485     422     420     405     407
       8     501     500     485     471     423     422     407     393
       8     502     472     470     503     424     394     392     425
       8     504     503     470     469     426     425     392     391
       8     480     504     469     474     402     426     391     396
       8     505     482     481     494     427     404     403     416
       8     506     505     494     495     428     427     416     417
       8     507     506     495     496     429     428     417     418
       8     508     507     496     509     430     429     418     431
       8     510     509     496     497     432     431     418     419
       8     489     510     497     487     411     432     419     409
       8     511     490     491     493     433     412     413     415
       8     512     511     493     499     434     433     415     421
       8     513     512     499     514     435     434     421     436
       8     515     514     499     498     437     436     421     420
       8     516     515     498     500     438     437     420     422
       8     517     516     500     501     439     438     422     423
       8     518     517     501     519     440     439     423     441
       8     473     519     501     471     395     441     423     393
       8     520     521     472     502     442     443     394     424
       8     522     520     502     503     444     442     424     425
       8     523     522     503     504     445     444     425     426
       8     524     523     504     480     446     445     426     402
       8     525     524     480     479     447     446     402     401
       8     526     525     479     482     448     447     401     404
       8     527     526     482     505     449     448     404     427
       8     528     527     505     506     450     449     427     428
       8     529     528     506     507     451     450     428     429
       8     530     529     507     508     452     451     429     430
       8     531     530     508     509     453     452     430     431
       8     532     531     509     510     454     453     431     432
       8     533     532     510     489     455     454     432     411
       8     534     533     489     488     456     455     411     410
       8     535     534     488     490     457     456     410     412
       8     536     535     490     511     458     457     412     433
       8     537     536     511     512     459     458     433     434
       8     538     537     512     513     460     459     434     435
       8     539     538     513     514     461     460     435     436
       8     540     539     514     515     462     461     436     437
       8     541     540     515     516     463     462     437     438
       8     542     541     516     517     464     463     438     439
       8     543     542     517     518     465     464     439     440
       8     544     543     518     519     466     465     440     441
       8     545     544     519     473     467     466     441     395
       8     521     545     473     472     443     467     395     394
       8     546     547     548     549     468     469     470     471
       8     548     550     551     549     470     472     473     471
       8     552     547     546     553     474     469     468     475
       8     546     554     555     553     468     476     477     475
       8     556     557     558     552     478     479     480     474
       8     559     560     557     556     481     482     479     478
       8     553     559     556     552     475     481     478     474
       8     561     562     554     563     483     484     476     485
       8     564     565     562     561     486     487     484     483
       8     566     567     565     564     488     489     487     486
       8     568     566     564     569     490     488     486     491
       8     570     555     554     562     492     477     476     484
       8     561     571     569     564     483     493     491     486
       8     546     549     563     554     468     471     485     476
       8     572     559     553     555     494     481     475     477
       8     573     572     555     570     495     494     477     492
       8     574     573     570     575     496     495     492     497
       8     565     575     570     562     487     497     492     484
       8     576     577     571     561     498     499     493     483
       8     578     576     561     563     500     498     483     485
       8     579     578     563     549     501     500     485     471
       8     580     550     548     581     502     472     470     503
       8     582     581     548     547     504     503     470     469
       8     558     582     547     552     480     504     469     474
       8     583     560     559     572     505     482     481     494
       8     584     583     572     573     506     505     494     495
       8     585     584     573     574     507     506     495     496
       8     586     585     574     587     508     507     496     509
       8     588     587     574     575     510     509     496     497
       8     567     588     575     565     489     510     497     487
       8     589     568     569     571     511     490     491     493
       8     590     589     571     577     512     511     493     499
       8     591     590     577     592     513     512     499     514
       8     593     592     577     576     515     514     499     498
       8     594     593     576     578     516     515     498     500
       8     595     594     578     579     517     516     500     501
       8     596     595     579     597     518     517     501     519
       8     551     597     579     549     473     519     501     471
       8     598     599     550     580     520     521     472     502
       8     600     598     580     581     522     520     502     503
       8     601     600     581     582     523     522     503     504
       8     602     601     582     558     524     523     504     480
       8     603     602     558     557     525     524     480     479
       8     604     603     557     560     526     525     479     482
       8     605     604     560     583     527     526     482     505
       8     606     605     583     584     528     527     505     506
       8     607     606     584     585     529     528     506     507
       8     608     607     585     586     530     529     507     508
       8     609     608     586     587     531     530     508     509
       8     610     609     587     588     532     531     509     510
       8     611     610     588     567     533     532     510     489
       8     612     611     567     566     534     533     489     488
       8     613     612     566     568     535     534     488     490
       8     614     613     568     589     536     535     490     511
       8     615     614     589     590     537     536     511     512
       8     616     615     590     591     538     537     512     513
       8     617     616     591     592     539     538     513     514
       8     618     617     592     593     540     539     514     515
       8     619     618     593     594     541     540     515     516
       8     620     619     594     595     542     541     516     517
       8     621     620     595     596     543     542     517     518
       8     622     621     596     597     544     543     518     519
       8     623     622     597     551     545     544     519     473
       8     599     623     551     550     521     545     473     472
       8     624     625     626     627     546     547     548     549
       8     626     628     629     627     548     550     551     549
       8     630     625     624     631     552     547     546     553
       8     624     632     633     631     546     554     555     553
       8     634     635     636     630     556     557     558     552
       8     637     638     635     634     559     560     557     556
       8     631     637     634     630     553     559     556     552
       8     639     640     632     641     561     562     554     563
       8     642     643     640     639     564     565     562     561
       8     644     645     643     642     566     567     565     564
       8     646     644     642     647     568     566     564     569
       8     648     633     632     640     570     555     554     562
       8     639     649     647     642     561     571     569     564
       8     624     627     641     632     546     549     563     554
       8     650     637     631     633     572     559     553     555
       8     651     650     633     648     573     572     555     570
       8     652     651     648     653     574     573     570     575
       8     643     653     648     640     565     575     570     562
       8     654     655     649     639     576     577     571     561
       8     656     654     639     641     578     576     561     563
       8     657     656     641     627     579     578     563     549
       8     658     628     626     659     580     550     548     581
       8     660     659     626     625     582     581     548     547
       8     636     660     625     630     558     582     547     552
       8     661     638     637     650     583     560     559     572
       8     662     661     650     651     584     583     572     573
       8     663     662     651     652     585     584     573     574
       8     664     663     652     665     586     585     574     587
       8     666     665     652     653     588     587     574     575
       8     645     666     653     643     567     588     575     565
       8     667     646     647     649     589     568     569     571
       8     668     667     649     655     590     589     571     577
       8     669     668     655     670     591     590     577     592
       8     671     670     655     654     593     592     577     576
       8     672     671     654     656     594     593     576     578
       8     673     672     656     657     595     594     578     579
       8     674     673     657     675     596     595     579     597
       8     629     675     657     627     551     597     579     549
       8     676     677     628     658     598     599     550     580
       8     678     676     658     659     600     598     580     581
       8     679     678     659     660     601     600     581     582
       8     680     679     660     636     602     601     582     558
       8     681     680     636     635     603     602     558     557
       8     682     681     635     638     604     603     557     560
       8     683     682     638     661     605     604     560     583
       8     684     683     661     662     606     605     583     584
       8     685     684     662     663     607     606     584     585
       8     686     685     663     664     608     607     585     586
       8     687     686     664     665     609     608     586     587
       8     688     687     665     666     610     609     587     588
       8     689     688     666     645     611     610     588     567
       8     690     689     645     644     612     611     567     566
       8     691     690     644     646     613     612     566     568
       8     692     691     646     667     614     613     568     589
       8     693     692     667     668     615     614     589     590
       8     694     693     668     669     616     615     590     591
       8     695     694     669     670     617     616     591     592
       8     696     695     670     671     618     617     592     593
       8     697     696     671     672     619     618     593     594
       8     698     697     672     673     620     619     594     595
       8     699     698     673     674     621     620     595     596
       8     700     699     674     675     622     621     596     597
       8     701     700     675     629     623     622     597     551
       8     677     701     629     628     599     623     551     550
       8     702     703     704     705     624     625     626     627
       8     704     706     707     705     626     628     629     627
       8     708     703     702     709     630     625     624     631
       8     702     710     711     709     624     632     633     631
       8     712     713     714     708     634     635     636     630
       8     715     716     713     712     637     638     635     634
       8     709     715     712     708     631     637     634     630
       8     717     718     710     719     639     640     632     641
       8     720     721     718     717     642     643     640     639
       8     722     723     721     720     644     645     643     642
       8     724     722     720     725     646     644     642     647
       8     726     711     710     718     648     633     632     640
       8     717     727     725     720     639     649     647     642
       8     702     705     719     710     624     627     641     632
       8     728     715     709     711     650     637     631     633
       8     729     728     711     726     651     650     633     648
       8     730     729     726     731     652     651     648     653
       8     721     731     726     718     643     653     648     640
       8     732     733     727     717     654     655     649     639
       8     734     732     717     719     656     654     639     641
       8     735     734     719     705     657     656     641     627
       8     736     706     704     737     658     628     626     659
       8     738     737     704     703     660     659     626     625
       8     714     738     703     708     636     660     625     630
       8     739     716     715     728     661     638     637     650
       8     740     739     728     729     662     661     650     651
       8     741     740     729     730     663     662     651     652
       8     742     741     730     743     664     663     652     665
       8     744     743     730     731     666     665     652     653
       8     723     744     731     721     645     666     653     643
       8     745     724     725     727     667     646     647     649
       8     746     745     727     733     668     667     649     655
       8     747     746     733     748     669     668     655     670
       8     749     748     733     732     671     670     655     654
       8     750     749     732     734     672     671     654     656
       8     751     750     734     735     673     672     656     657
       8     752     751     735     753     674     673     657     675
       8     707     753     735     705     629     675     657     627
       8     754     755     706     736     676     677     628     658
       8     756     754     736     737     678     676     658     659
       8     757     756     737     738     679     678     659     660
       8     758     757     738     714     680     679     660     636
       8     759     758     714     713     681     680     636     635
       8     760     759     713     716     682     681     635     638
       8     761     760     716     739     683     682     638     661
       8     762     761     739     740     684     683     661     662
       8     763     762     740     741     685     684     662     663
       8     764     763     741     742     686     685     663     664
       8     765     764     742     743     687     686     664     665
       8     766     765     743     744     688     687     665     666
       8     767     766     744     723     689     688     666     645
       8     768     767     723     722     690     689     645     644
       8     769     768     722     724     691     690     644     646
       8     770     769     724     745     692     691     646     667
       8     771     770     745     746     693     692     667     668
       8     772     771     746     747     694     693     668     669
       8     773     772     747     748     695     694     669     670
       8     774     773     748     749     696     695     670     671
       8     775     774     749     750     697     696     671     672
       8     776     775     750     751     698     697     672     673
       8     777     776     751     752     699     698     673     674
       8     778     777     752     753     700     699     674     675
       8     779     778     753     707     701     700     675     629
       8     755     779     707     706     677     701     629     628
       8     780     781     782     783     702     703     704     705
       8     782     784     785     783     704     706     707     705
       8     786     781     780     787     708     703     702     709
       8     780     788     789     787     702     710     711     709
       8     790     791     792     786     712     713     714     708
       8     793     794     791     790     715     716     713     712
       8     787     793     790     786     709     715     712     708
       8     795     796     788     797     717     718     710     719
       8     798     799     796     795     720     721     718     717
       8     800     801     799     798     722     723     721     720
       8     802     800     798     803     724     722     720     725
       8     804     789     788     796     726     711     710     718
       8     795     805     803     798     717     727     725     720
       8     780     783     797     788     702     705     719     710
       8     806     793     787     789     728     715     709     711
       8     807     806     789     804     729     728     711     726
       8     808     807     804     809     730     729     726     731
       8     799     809     804     796     721     731     726     718
       8     810     811     805     795     732     733     727     717
       8     812     810     795     797     734     732     717     719
       8     813     812     797     783     735     734     719     705
       8     814     784     782     815     736     706     704     737
       8     816     815     782     781     738     737     704     703
       8     792     816     781     786     714     738     703     708
       8     817     794     793     806     739     716     715     728
       8     818     817     806     807     740     739     728     729
       8     819     818     807     808     741     740     729     730
       8     820     819     808     821     742     741     730     743
       8     822     821     808     809     744     743     730     731
       8     801     822     809     799     723     744     731     721
       8     823     802     803     805     745     724     725     727
       8     824     823     805     811     746     745     727     733
       8     825     824     811     826     747     746     733     748
       8     827     826     811     810     749     748     733     732
       8     828     827     810     812     750     749     732     734
       8     829     828     812     813     751     750     734     735
       8     830     829     813     831     752     751     735     753
       8     785     831     813     783     707     753     735     705
       8     832     833     784     814     754     755     706     736
       8     834     832     814     815     756     754     736     737
       8     835     834     815     816     757     756     737     738
       8     836     835     816     792     758     757     738     714
       8     837     836     792     791     759     758     714     713
       8     838     837     791     794     760     759     713     716
       8     839     838     794     817     761     760     716     739
       8     840     839     817     818     762     761     739     740
       8     841     840     818     819     763     762     740     741
       8     842     841     819     820     764     763     741     742
       8     843     842     820     821     765     764     742     743
       8     844     843     821     822     766     765     743     744
       8     845     844     822     801     767     766     744     723
       8     846     845     801     800     768     767     723     722
       8     847     846     800     802     769     768     722     724
       8     848     847     802     823     770     769     724     745
       8     849     848     823     824     771     770     745     746
       8     850     849     824     825     772     771     746     747
       8     851     850     825     826     773     772     747     748
       8     852     851     826     827     774     773     748     749
       8     853     852     827     828     775     774     749     750
       8     854     853     828     829     776     775     750     751
       8     855     854     829     830     777     776     751     752
       8     856     855     830     831     778     777     752     753
       8     857     856     831     785     779     778     753     707
       8     833     857     785     784     755     779     707     706
       8     858     859     860     861     780     781     782     783
       8     860     862     863     861     782     784     785     783
       8     864     859     858     865     786     781     780     787
       8     858     866     867     865     780     788     789     787
       8     868     869     870     864     790     791     792     786
       8     871     872     869     868     793     794     791     790
       8     865     871     868     864     787     793     790     786
       8     873     874     866     875     795     796     788     797
       8     876     877     874     873     798     799     796     795
       8     878     879     877     876     800     801     799     798
       8     880     878     876     881     802     800     798     803
       8     882     867     866     874     804     789     788     796
       8     873     883     881     876     795     805     803     798
       8     858     861     875     866     780     783     797     788
       8     884     871     865     867     806     793     787     789
       8     885     884     867     882     807     806     789     804
       8     886     885     882     887     808     807     804     809
       8     877     887     882     874     799     809     804     796
       8     888     889     883     873     810     811     805     795
       8     890     888     873     875     812     810     795     797
       8     891     890     875     861     813     812     797     783
       8     892     862     860     893     814     784     782     815
       8     894     893     860     859     816     815     782     781
       8     870     894     859     864     792     816     781     786
       8     895     872     871     884     817     794     793     806
       8     896     895     884     885     818     817     806     807
       8     897     896     885     886     819     818     807     808
       8     898     897     886     899     820     819     808     821
       8     900     899     886     887     822     821     808     809
       8     879     900     887     877     801     822     809     799
       8     901     880     881     883     823     802     803     805
       8     902     901     883     889     824     823     805     811
       8     903     902     889     904     825     824     811     826
       8     905     904     889     888     827     826     811     810
       8     906     905     888     890     828     827     810     812
       8     907     906     890     891     829     828     812     813
       8     908     907     891     909     830     829     813     831
       8     863     909     891     861     785     831     813     783
       8     910     911     862     892     832     833     784     814
       8     912     910     892     893     834     832     814     815
       8     913     912     893     894     835     834     815     816
       8     914     913     894     870     836     835     816     792
       8     915     914     870     869     837     836     792     791
       8     916     915     869     872     838     837     791     794
       8     917     916     872     895     839     838     794     817
       8     918     917     895     896     840     839     817     818
       8     919     918     896     897     841     840     818     819
       8     920     919     897     898     842     841     819     820
       8     921     920     898     899     843     842     820     821
       8     922     921     899     900     844     843     821     822
       8     923     922     900     879     845     844     822     801
       8     924     923     879     878     846     845     801     800
       8     925     924     878     880     847     846     800     802
       8     926     925     880     901     848     847     802     823
       8     927     926     901     902     849     848     823     824
       8     928     927     902     903     850     849     824     825
       8     929     928     903     904     851     850     825     826
       8     930     929     904     905     852     851     826     827
       8     931     930     905     906     853     852     827     828
       8     932     931     906     907     854     853     828     829
       8     933     932     907     908     855     854     829     830
       8     934     933     908     909     856     855     830     831
       8     935     934     909     863     857     856     831     785
       8     911     935     863     862     833     857     785     784
       8     936     937     938     939     858     859     860     861
       8     938     940     941     939     860     862     863     861
       8     942     937     936     943     864     859     858     865
       8     936     944     945     943     858     866     867     865
       8     946     947     948     942     868     869     870     864
       8     949     950     947     946     871     872     869     868
       8     943     949     946     942     865     871     868     864
       8     951     952     944     953     873     874     866     875
       8     954     955     952     951     876     877     874     873
       8     956     957     955     954     878     879     877     876
       8     958     956     954     959     880     878     876     881
       8     960     945     944     952     882     867     866     874
       8     951     961     959     954     873     883     881     876
       8     936     939     953     944     858     861     875     866
       8     962     949     943     945     884     871     865     867
       8     963     962     945     960     885     884     867     882
       8     964     963     960     965     886     885     882     887
       8     955     965     960     952     877     887     882     874
       8     966     967     961     951     888     889     883     873
       8     968     966     951     953     890     888     873     875
       8     969     968     953     939     891     890     875     861
       8     970     940     938     971     892     862     860     893
       8     972     971     938     937     894     893     860     859
       8     948     972     937     942     870     894     859     864
       8     973     950     949     962     895     872     871     884
       8     974     973     962     963     896     895     884     885
       8     975     974     963     964     897     896     885     886
       8     976     975     964     977     898     897     886     899
       8     978     977     964     965     900     899     886     887
       8     957     978     965     955     879     900     887     877
       8     979     958     959     961     901     880     881     883
       8     980     979     961     967     902     901     883     889
       8     981     980     967     982     903     902     889     904
       8     983     982     967     966     905     904     889     888
       8     984     983     966     968     906     905     888     890
       8     985     984     968     969     907     906     890     891
       8     986     985     969     987     908     907     891     909
       8     941     987     969     939     863     909     891     861
       8     988     989     940     970     910     911     862     892
       8     990     988     970     971     912     910     892     893
       8     991     990     971     972     913     912     893     894
       8     992     991     972     948     914     913     894     870
       8     993     992     948     947     915     914     870     869
       8     994     993     947     950     916     915     869     872
       8     995     994     950     973     917     916     872     895
       8     996     995     973     974     918     917     895     896
       8     997     996     974     975     919     918     896     897
       8     998     997     975     976     920     919     897     898
       8     999     998     976     977     921     920     898     899
       8    1000     999     977     978     922     921     899     900
       8    1001    1000     978     957     923     922     900     879
       8    1002    1001     957     956     924     923     879     878
       8    1003    1002     956     958     925     924     878     880
       8    1004    1003     958     979     926     925     880     901
       8    1005    1004     979     980     927     926     901     902
       8    1006    1005     980     981     928     927     902     903
       8    1007    1006     981     982     929     928     903     904
       8    1008    1007     982     983     930     929     904     905
       8    1009    1008     983     984     931     930     905     906
       8    1010    1009     984     985     932     931     906     907
       8    1011    1010     985     986     933     932     907     908
       8    1012    1011     986     987     934     933     908     909
       8    1013    1012     987     941     935     934     909     863
       8     989    1013     941     940     911     935     863     862
       8    1014    1015    1016    1017     936     937     938     939
       8    1016    1018    1019    1017     938     940     941     939
       8    1020    1015    1014    1021     942     937     936     943
       8    1014    1022    1023    1021     936     944     945     943
       8    1024    1025    1026    1020     946     947     948     942
       8    1027    1028    1025    1024     949     950     947     946
       8    1021    1027    1024    1020     943     949     946     942
       8    1029    1030    1022    1031     951     952     944     953
       8    1032    1033    1030    1029     954     955     952     951
       8    1034    1035    1033    1032     956     957     955     954
       8    1036    1034    1032    1037     958     956     954     959
       8    1038    1023    1022    1030     960     945     944     952
       8    1029    1039    1037    1032     951     961     959     954
       8    1014    1017    1031    1022     936     939     953     944
       8    1040    1027    1021    1023     962     949     943     945
       8    1041    1040    1023    1038     963     962     945     960
       8    1042    1041    1038    1043     964     963     960     965
       8    1033    1043    1038    1030     955     965     960     952
       8    1044    1045    1039    1029     966     967     961     951
       8    1046    1044    1029    1031     968     966     951     953
       8    1047    1046    1031    1017     969     968     953     939
       8    1048    1018    1016    1049     970     940     938     971
       8    1050    1049    1016    1015     972     971     938     937
       8    1026    1050    1015    1020     948     972     937     942
       8    1051    1028    1027    1040     973     950     949     962
       8    1052    1051    1040    1041     974     973     962     963
       8    1053    1052    1041    1042     975     974     963     964
       8    1054    1053    1042    1055     976     975     964     977
       8    1056    1055    1042    1043     978     977     964     965
       8    1035    1056    1043    1033     957     978     965     955
       8    1057    1036    1037    1039     979     958     959     961
       8    1058    1057    1039    1045     980     979     961     967
       8    1059    1058    1045    1060     981     980     967     982
       8    1061    1060    1045    1044     983     982     967     966
       8    1062    1061    1044    1046     984     983     966     968
       8    1063    1062    1046    1047     985     984     968     969
       8    1064    1063    1047    1065     986     985     969     987
       8    1019    1065    1047    1017     941     987     969     939
       8    1066    1067    1018    1048     988     989     940     970
       8    1068    1066    1048    1049     990     988     970     971
       8    1069    1068    1049    1050     991     990     971     972
       8    1070    1069    1050    1026     992     991     972     948
       8    1071    1070    1026    1025     993     992     948     947
       8    1072    1071    1025    1028     994     993     947     950
       8    1073    1072    1028    1051     995     994     950     973
       8    1074    1073    1051    1052     996     995     973     974
       8    1075    1074    1052    1053     997     996     974     975
       8    1076    1075    1053    1054     998     997     975     976
       8    1077    1076    1054    1055     999     998     976     977
       8    1078    1077    1055    1056    1000     999     977     978
       8    1079    1078    1056    1035    1001    1000     978     957
       8    1080    1079    1035    1034    1002    1001     957     956
       8    1081    1080    1034    1036    1003    1002     956     958
       8    1082    1081    1036    1057    1004    1003     958     979
       8    1083    1082    1057    1058    1005    1004     979     980
       8    1084    1083    1058    1059    1006    1005     980     981
       8    1085    1084    1059    1060    1007    1006     981     982
       8    1086    1085    1060    1061    1008    1007     982     983
       8    1087    1086    1061    1062    1009    1008     983     984
       8    1088    1087    1062    1063    1010    1009     984     985
       8    1089    1088    1063    1064    1011    1010     985     986
       8    1090    1089    1064    1065    1012    1011     986     987
       8    1091    1090    1065    1019    1013    1012     987     941
       8    1067    1091    1019    1018     989    1013     941     940
       8    1092    1093    1094    1095    1014    1015    1016    1017
       8    1094    1096    1097    1095    1016    1018    1019    1017
       8    1098    1093    1092    1099    1020    1015    1014    1021
       8    1092    1100    1101    1099    1014    1022    1023    1021
       8    1102    1103    1104    1098    1024    1025    1026    1020
       8    1105    1106    1103    1102    1027    1028    1025    1024
       8    1099    1105    1102    1098    1021    1027    1024    1020
       8    1107    1108    1100    1109    1029    1030    1022    1031
       8    1110    1111    1108    1107    1032    1033    1030    1029
       8    1112    1113    1111    1110    1034    1035    1033    1032
       8    1114    1112    1110    1115    1036    1034    1032    1037
       8    1116    1101    1100    1108    1038    1023    1022    1030
       8    1107    1117    1115    1110    1029    1039    1037    1032
       8    1092    1095    1109    1100    1014    1017    1031    1022
       8    1118    1105    1099    1101    1040    1027    1021    1023
       8    1119    1118    1101    1116    1041    1040    1023    1038
       8    1120    1119    1116    1121    1042    1041    1038    1043
       8    1111    1121    1116    1108    1033    1043    1038    1030
       8    1122    1123    1117    1107    1044    1045    1039    1029
       8    1124    1122    1107    1109    1046    1044    1029    1031
       8    1125    1124    1109    1095    1047    1046    1031    1017
       8    1126    1096    1094    1127    1048    1018    1016    1049
       8    1128    1127    1094    1093    1050    1049    1016    1015
       8    1104    1128    1093    1098    1026    1050    1015    1020
       8    1129    1106    1105    1118    1051    1028    1027    1040
       8    1130    1129    1118    1119    1052    1051    1040    1041
       8    1131    1130    1119    1120    1053    1052    1041    1042
       8    1132    1131    1120    1133    1054    1053    1042    1055
       8    1134    1133    1120    1121    1056    1055    1042    1043
       8    1113    1134    1121    1111    1035    1056    1043    1033
       8    1135    1114    1115    1117    1057    1036    1037    1039
       8    1136    1135    1117    1123    1058    1057    1039    1045
       8    1137    1136    1123    1138    1059    1058    1045    1060
       8    1139    1138    1123    1122    1061    1060    1045    1044
       8    1140    1139    1122    1124    1062    1061    1044    1046
       8    1141    1140    1124    1125    1063    1062    1046    1047
       8    1142    1141    1125    1143    1064    1063    1047    1065
       8    1097    1143    1125    1095    1019    1065    1047    1017
       8    1144    1145    1096    1126    1066    1067    1018    1048
       8    1146    1144    1126    1127    1068    1066    1048    1049
       8    1147    1146    1127    1128    1069    1068    1049    1050
       8    1148    1147    1128    1104    1070    1069    1050    1026
       8    1149    1148    1104    1103    1071    1070    1026    1025
       8    1150    1149    1103    1106    1072    1071    1025    1028
       8    1151    1150    1106    1129    1073    1072    1028    1051
       8    1152    1151    1129    1130    1074    1073    1051    1052
       8    1153    1152    1130    1131    1075    1074    1052    1053
       8    1154    1153    1131    1132    1076    1075    1053    1054
       8    1155    1154    1132    1133    1077    1076    1054    1055
       8    1156    1155    1133    1134    1078    1077    1055    1056
       8    1157    1156    1134    1113    1079    1078    1056    1035
       8    1158    1157    1113    1112    1080    1079    1035    1034
       8    1159    1158    1112    1114    1081    1080    1034    1036
       8    1160    1159    1114    1135    1082    1081    1036    1057
       8    1161    1160    1135    1136    1083    1082    1057    1058
       8    1162    1161    1136    1137    1084    1083    1058    1059
       8    1163    1162    1137    1138    1085    1084    1059    1060
       8    1164    1163    1138    1139    1086    1085    1060    1061
       8    1165    1164    1139    1140    1087    1086    1061    1062
       8    1166    1165    1140    1141    1088    1087    1062    1063
       8    1167    1166    1141    1142    1089    1088    1063    1064
       8    1168    1167    1142    1143    1090    1089    1064    1065
       8    1169    1168    1143    1097    1091    1090    1065    1019
       8    1145    1169    1097    1096    1067    1091    1019    1018
       8    1170    1171    1172    1173    1092    1093    1094    1095
       8    1172    1174    1175    1173    1094    1096    1097    1095
       8    1176    1171    1170    1177    1098    1093    1092    1099
       8    1170    1178    1179    1177    1092    1100    1101    1099
       8    1180    1181    1182    1176    1102    1103    1104    1098
       8    1183    1184    1181    1180    1105    1106    1103    1102
       8    1177    1183    1180    1176    1099    1105    1102    1098
       8    1185    1186    1178    1187    1107    1108    1100    1109
       8    1188    1189    1186    1185    1110    1111    1108    1107
       8    1190    1191    1189    1188    1112    1113    1111    1110
       8    1192    1190    1188    1193    1114    1112    1110    1115
       8    1194    1179    1178    1186    1116    1101    1100    1108
       8    1185    1195    1193    1188    1107    1117    1115    1110
       8    1170    1173    1187    1178    1092    1095    1109    1100
       8    1196    1183    1177    1179    1118    1105    1099    1101
       8    1197    1196    1179    1194    1119    1118    1101    1116
       8    1198    1197    1194    1199    1120    1119    1116    1121
       8    1189    1199    1194    1186    1111    1121    1116    1108
       8    1200    1201    1195    1185    1122    1123    1117    1107
       8    1202    1200    1185    1187    1124    1122    1107    1109
       8    1203    1202    1187    1173    1125    1124    1109    1095
       8    1204    1174    1172    1205    1126    1096    1094    1127
       8    1206    1205    1172    1171    1128    1127    1094    1093
       8    1182    1206    1171    1176    1104    1128    1093    1098
       8    1207    1184    1183    1196    1129    1106    1105    1118
       8    1208    1207    1196    1197    1130    1129    1118    1119
       8    1209    1208    1197    1198    1131    1130    1119    1120
       8    1210    1209    1198    1211    1132    1131    1120    1133
       8    1212    1211    1198    1199    1134    1133    1120    1121
       8    1191    1212    1199    1189    1113    1134    1121    1111
       8    1213    1192    1193    1195    1135    1114    1115    1117
       8    1214    1213    1195    1201    1136    1135    1117    1123
       8    1215    1214    1201    1216    1137    1136    1123    1138
       8    1217    1216    1201    1200    1139    1138    1123    1122
       8    1218    1217    1200    1202    1140    1139    1122    1124
       8    1219    1218    1202    1203    1141    1140    1124    1125
       8    1220    1219    1203    1221    1142    1141    1125    1143
       8    1175    1221    1203    1173    1097    1143    1125    1095
       8    1222    1223    1174    1204    1144    1145    1096    1126
       8    1224    1222    1204    1205    1146    1144    1126    1127
       8    1225    1224    1205    1206    1147    1146    1127    1128
       8    1226    1225    1206    1182    1148    1147    1128    1104
       8    1227    1226    1182    1181    1149    1148    1104    1103
       8    1228    1227    1181    1184    1150    1149    1103    1106
       8    1229    1228    1184    1207    1151    1150    1106    1129
       8    1230    1229    1207    1208    1152    1151    1129    1130
       8    1231    1230    1208    1209    1153    1152    1130    1131
       8    1232    1231    1209    1210    1154    1153    1131    1132
       8    1233    1232    1210    1211    1155    1154    1132    1133
       8    1234    1233    1211    1212    1156    1155    1133    1134
       8    1235    1234    1212    1191    1157    1156    1134    1113
       8    1236    1235    1191    1190    1158    1157    1113    1112
       8    1237    1236    1190    1192    1159    1158    1112    1114
       8    1238    1237    1192    1213    1160    1159    1114    1135
       8    1239    1238    1213    1214    1161    1160    1135    1136
       8    1240    1239    1214    1215    1162    1161    1136    1137
       8    1241    1240    1215    1216    1163    1162    1137    1138
       8    1242    1241    1216    1217    1164    1163    1138    1139
       8    1243    1242    1217    1218    1165    1164    1139    1140
       8    1244    1243    1218    1219    1166    1165    1140    1141
       8    1245    1244    1219    1220    1167    1166    1141    1142
       8    1246    1245    1220    1221    1168    1167    1142    1143
       8    1247    1246    1221    1175    1169    1168    1143    1097
       8    1223    1247    1175    1174    1145    1169    1097    1096
       8    1248    1249    1250    1251    1170    1171    1172    1173
       8    1250    1252    1253    1251    1172    1174    1175    1173
       8    1254    1249    1248    1255    1176    1171    1170    1177
       8    1248    1256    1257    1255    1170    1178    1179    1177
       8    1258    1259    1260    1254    1180    1181    1182    1176
       8    1261    1262    1259    1258    1183    1184    1181    1180
       8    1255    1261    1258    1254    1177    1183    1180    1176
       8    1263    1264    1256    1265    1185    1186    1178    1187
       8    1266    1267    1264    1263    1188    1189    1186    1185
       8    1268    1269    1267    1266    1190    1191    1189    1188
       8    1270    1268    1266    1271    1192    1190    1188    1193
       8    1272    1257    1256    1264    1194    1179    1178    1186
       8    1263    1273    1271    1266    1185    1195    1193    1188
       8    1248    1251    1265    1256    1170    1173    1187    1178
       8    1274    1261    1255    1257    1196    1183    1177    1179
       8    1275    1274    1257    1272    1197    1196    1179    1194
       8    1276    1275    1272    1277    1198    1197    1194    1199
       8    1267    1277    1272    1264    1189    1199    1194    1186
       8    1278    1279    1273    1263    1200    1201    1195    1185
       8    1280    1278    1263    1265    1202    1200    1185    1187
       8    1281    1280    1265    1251    1203    1202    1187    1173
       8    1282    1252    1250    1283    1204    1174    1172    1205
       8    1284    1283    1250    1249    1206    1205    1172    1171
       8    1260    1284    1249    1254    1182    1206    1171    1176
       8    1285    1262    1261    1274    1207    1184    1183    1196
       8    1286    1285    1274    1275    1208    1207    1196    1197
       8    1287    1286    1275    1276    1209    1208    1197    1198
       8    1288    1287    1276    1289    1210    1209    1198    1211
       8    1290    1289    1276    1277    1212    1211    1198    1199
       8    1269    1290    1277    1267    1191    1212    1199    1189
       8    1291    1270    1271    1273    1213    1192    1193    1195
       8    1292    1291    1273    1279    1214    1213    1195    1201
       8    1293    1292    1279    1294    1215    1214    1201    1216
       8    1295    1294    1279    1278    1217    1216    1201    1200
       8    1296    1295    1278    1280    1218    1217    1200    1202
       8    1297    1296    1280    1281    1219    1218    1202    1203
       8    1298    1297    1281    1299    1220    1219    1203    1221
       8    1253    1299    1281    1251    1175    1221    1203    1173
       8    1300    1301    1252    1282    1222    1223    1174    1204
       8    1302    1300    1282    1283    1224    1222    1204    1205
       8    1303    1302    1283    1284    1225    1224    1205    1206
       8    1304    1303    1284    1260    1226    1225    1206    1182
       8    1305    1304    1260    1259    1227    1226    1182    1181
       8    1306    1305    1259    1262    1228    1227    1181    1184
       8    1307    1306    1262    1285    1229    1228    1184    1207
       8    1308    1307    1285    1286    1230    1229    1207    1208
       8    1309    1308    1286    1287    1231    1230    1208    1209
       8    1310    1309    1287    1288    1232    1231    1209    1210
       8    1311    1310    1288    1289    1233    1232    1210    1211
       8    1312    1311    1289    1290    1234    1233    1211    1212
       8    1313    1312    1290    1269    1235    1234    1212    1191
       8    1314    1313    1269    1268    1236    1235    1191    1190
       8    1315    1314    1268    1270    1237    1236    1190    1192
       8    1316    1315    1270    1291    1238    1237    1192    1213
       8    1317    1316    1291    1292    1239    1238    1213    1214
       8    1318    1317    1292    1293    1240    1239    1214    1215
       8    1319    1318    1293    1294    1241    1240    1215    1216
       8    1320    1319    1294    1295    1242    1241    1216    1217
       8    1321    1320    1295    1296    1243    1242    1217    1218
       8    1322    1321    1296    1297    1244    1243    1218    1219
       8    1323    1322    1297    1298    1245    1244    1219    1220
       8    1324    1323    1298    1299    1246    1245    1220    1221
       8    1325    1324    1299    1253    1247    1246    1221    1175
       8    1301    1325    1253    1252    1223    1247    1175    1174
       8    1326    1327    1328    1329    1248    1249    1250    1251
       8    1328    1330    1331    1329    1250    1252    1253    1251
       8    1332    1327    1326    1333    1254    1249    1248    1255
       8    1326    1334    1335    1333    1248    1256    1257    1255
       8    1336    1337    1338    1332    1258    1259    1260    1254
       8    1339    1340    1337    1336    1261    1262    1259    1258
       8    1333    1339    1336    1332    1255    1261    1258    1254
       8    1341    1342    1334    1343    1263    1264    1256    1265
       8    1344    1345    1342    1341    1266    1267    1264    1263
       8    1346    1347    1345    1344    1268    1269    1267    1266
       8    1348    1346    1344    1349    1270    1268    1266    1271
       8    1350    1335    1334    1342    1272    1257    1256    1264
       8    1341    1351    1349    1344    1263    1273    1271    1266
       8    1326    1329    1343    1334    1248    1251    1265    1256
       8    1352    1339    1333    1335    1274    1261    1255    1257
       8    1353    1352    1335    1350    1275    1274    1257    1272
       8    1354    1353    1350    1355    1276    1275    1272    1277
       8    1345    1355    1350    1342    1267    1277    1272    1264
       8    1356    1357    1351    1341    1278    1279    1273    1263
       8    1358    1356    1341    1343    1280    1278    1263    1265
       8    1359    1358    1343    1329    1281    1280    1265    1251
       8    1360    1330    1328    1361    1282    1252    1250    1283
       8    1362    1361    1328    1327    1284    1283    1250    1249
       8    1338    1362    1327    1332    1260    1284    1249    1254
       8    1363    1340    1339    1352    1285    1262    1261    1274
       8    1364    1363    1352    1353    1286    1285    1274    1275
       8    1365    1364    1353    1354    1287    1286    1275    1276
       8    1366    1365    1354    1367    1288    1287    1276    1289
       8    1368    1367    1354    1355    1290    1289    1276    1277
       8    1347    1368    1355    1345    1269    1290    1277    1267
       8    1369    1348    1349    1351    1291    1270    1271    1273
       8    1370    1369    1351    1357    1292    1291    1273    1279
       8    1371    1370    1357    1372    1293    1292    1279    1294
       8    1373    1372    1357    1356    1295    1294    1279    1278
       8    1374    1373    1356    1358    1296    1295    1278    1280
       8    1375    1374    1358    1359    1297    1296    1280    1281
       8    1376    1375    1359    1377    1298    1297    1281    1299
       8    1331    1377    1359    1329    1253    1299    1281    1251
       8    1378    1379    1330    1360    1300    1301    1252    1282
       8    1380    1378    1360    1361    1302    1300    1282    1283
       8    1381    1380    1361    1362    1303    1302    1283    1284
       8    1382    1381    1362    1338    1304    1303    1284    1260
       8    1383    1382    1338    1337    1305    1304    1260    1259
       8    1384    1383    1337    1340    1306    1305    1259    1262
       8    1385    1384    1340    1363    1307    1306    1262    1285
       8    1386    1385    1363    1364    1308    1307    1285    1286
       8    1387    1386    1364    1365    1309    1308    1286    1287
       8    1388    1387    1365    1366    1310    1309    1287    1288
       8    1389    1388    1366    1367    1311    1310    1288    1289
       8    1390    1389    1367    1368    1312    1311    1289    1290
       8    1391    1390    1368    1347    1313    1312    1290    1269
       8    1392    1391    1347    1346    1314    1313    1269    1268
       8    1393    1392    1346    1348    1315    1314    1268    1270
       8    1394    1393    1348    1369    1316    1315    1270    1291
       8    1395    1394    1369    1370    1317    1316    1291    1292
       8    1396    1395    1370    1371    1318    1317    1292    1293
       8    1397    1396    1371    1372    1319    1318    1293    1294
       8    1398    1397    1372    1373    1320    1319    1294    1295
       8    1399    1398    1373    1374    1321    1320    1295    1296
       8    1400    1399    1374    1375    1322    1321    1296    1297
       8    1401    1400    1375    1376    1323    1322    1297    1298
       8    1402    1401    1376    1377    1324    1323    1298    1299
       8    1403    1402    1377    1331    1325    1324    1299    1253
       8    1379    1403    1331    1330    1301    1325    1253    1252
       8    1404    1405    1406    1407    1326    1327    1328    1329
       8    1406    1408    1409    1407    1328    1330    1331    1329
       8    1410    1405    1404    1411    1332    1327    1326    1333
       8    1404    1412    1413    1411    1326    1334    1335    1333
       8    1414    1415    1416    1410    1336    1337    1338    1332
       8    1417    1418    1415    1414    1339    1340    1337    1336
       8    1411    1417    1414    1410    1333    1339    1336    1332
       8    1419    1420    1412    1421    1341    1342    1334    1343
       8    1422    1423    1420    1419    1344    1345    1342    1341
       8    1424    1425    1423    1422    1346    1347    1345    1344
       8    1426    1424    1422    1427    1348    1346    1344    1349
       8    1428    1413    1412    1420    1350    1335    1334    1342
       8    1419    1429    1427    1422    1341    1351    1349    1344
       8    1404    1407    1421    1412    1326    1329    1343    1334
       8    1430    1417    1411    1413    1352    1339    1333    1335
       8    1431    1430    1413    1428    1353    1352    1335    1350
       8    1432    1431    1428    1433    1354    1353    1350    1355
       8    1423    1433    1428    1420    1345    1355    1350    1342
       8    1434    1435    1429    1419    1356    1357    1351    1341
       8    1436    1434    1419    1421    1358    1356    1341    1343
       8    1437    1436    1421    1407    1359    1358    1343    1329
       8    1438    1408    1406    1439    1360    1330    1328    1361
       8    1440    1439    1406    1405    1362    1361    1328    1327
       8    1416    1440    1405    1410    1338    1362    1327    1332
       8    1441    1418    1417    1430    1363    1340    1339    1352
       8    1442    1441    1430    1431    1364    1363    1352    1353
       8    1443    1442    1431    1432    1365    1364    1353    1354
       8    1444    1443    1432    1445    1366    1365    1354    1367
       8    1446    1445    1432    1433    1368    1367    1354    1355
       8    1425    1446    1433    1423    1347    1368    1355    1345
       8    1447    1426    1427    1429    1369    1348    1349    1351
       8    1448    1447    1429    1435    1370    1369    1351    1357
       8    1449    1448    1435    1450    1371    1370    1357    1372
       8    1451    1450    1435    1434    1373    1372    1357    1356
       8    1452    1451    1434    1436    1374    1373    1356    1358
       8    1453    1452    1436    1437    1375    1374    1358    1359
       8    1454    1453    1437    1455    1376    1375    1359    1377
       8    1409    1455    1437    1407    1331    1377    1359    1329
       8    1456    1457    1408    1438    1378    1379    1330    1360
       8    1458    1456    1438    1439    1380    1378    1360    1361
       8    1459    1458    1439    1440    1381    1380    1361    1362
       8    1460    1459    1440    1416    1382    1381    1362    1338
       8    1461    1460    1416    1415    1383    1382    1338    1337
       8    1462    1461    1415    1418    1384    1383    1337    1340
       8    1463    1462    1418    1441    1385    1384    1340    1363
       8    1464    1463    1441    1442    1386    1385    1363    1364
       8    1465    1464    1442    1443    1387    1386    1364    1365
       8    1466    1465    1443    1444    1388    1387    1365    1366
       8    1467    1466    1444    1445    1389    1388    1366    1367
       8    1468    1467    1445    1446    1390    1389    1367    1368
       8    1469    1468    1446    1425    1391    1390    1368    1347
       8    1470    1469    1425    1424    1392    1391    1347    1346
       8    1471    1470    1424    1426    1393    1392    1346    1348
       8    1472    1471    1426    1447    1394    1393    1348    1369
       8    1473    1472    1447    1448    1395    1394    1369    1370
       8    1474    1473    1448    1449    1396    1395    1370    1371
       8    1475    1474    1449    1450    1397    1396    1371    1372
       8    1476    1475    1450    1451    1398    1397    1372    1373
       8    1477    1476    1451    1452    1399    1398    1373    1374
       8    1478    1477    1452    1453    1400    1399    1374    1375
       8    1479    1478    1453    1454    1401    1400    1375    1376
       8    1480    1479    1454    1455    1402    1401    1376    1377
       8    1481    1480    1455    1409    1403    1402    1377    1331
       8    1457    1481    1409    1408    1379    1403    1331    1330
       8    1482    1483    1484    1485    1404    1405    1406    1407
       8    1484    1486    1487    1485    1406    1408    1409    1407
       8    1488    1483    1482    1489    1410    1405    1404    1411
       8    1482    1490    1491    1489    1404    1412    1413    1411
       8    1492    1493    1494    1488    1414    1415    1416    1410
       8    1495    1496    1493    1492    1417    1418    1415    1414
       8    1489    1495    1492    1488    1411    1417    1414    1410
       8    1497    1498    1490    1499    1419    1420    1412    1421
       8    1500    1501    1498    1497    1422    1423    1420    1419
       8    1502    1503    1501    1500    1424    1425    1423    1422
       8    1504    1502    1500    1505    1426    1424    1422    1427
       8    1506    1491    1490    1498    1428    1413    1412    1420
       8    1497    1507    1505    1500    1419    1429    1427    1422
       8    1482    1485    1499    1490    1404    1407    1421    1412
       8    1508    1495    1489    1491    1430    1417    1411    1413
       8    1509    1508    1491    1506    1431    1430    1413    1428
       8    1510    1509    1506    1511    1432    1431    1428    1433
       8    1501    1511    1506    1498    1423    1433    1428    1420
       8    1512    1513    1507    1497    1434    1435    1429    1419
       8    1514    1512    1497    1499    1436    1434    1419    1421
       8    1515    1514    1499    1485    1437    1436    1421    1407
       8    1516    1486    1484    1517    1438    1408    1406    1439
       8    1518    1517    1484    1483    1440    1439    1406    1405
       8    1494    1518    1483    1488    1416    1440    1405    1410
       8    1519    1496    1495    1508    1441    1418    1417    1430
       8    1520    1519    1508    1509    1442    1441    1430    1431
       8    1521    1520    1509    1510    1443    1442    1431    1432
       8    1522    1521    1510    1523    1444    1443    1432    1445
       8    1524    1523    1510    1511    1446    1445    1432    1433
       8    1503    1524    1511    1501    1425    1446    1433    1423
       8    1525    1504    1505    1507    1447    1426    1427    1429
       8    1526    1525    1507    1513    1448    1447    1429    1435
       8    1527    1526    1513    1528    1449    1448    1435    1450
       8    1529    1528    1513    1512    1451    1450    1435    1434
       8    1530    1529    1512    1514    1452    1451    1434    1436
       8    1531    1530    1514    1515    1453    1452    1436    1437
       8    1532    1531    1515    1533    1454    1453    1437    1455
       8    1487    1533    1515    1485    1409    1455    1437    1407
       8    1534    1535    1486    1516    1456    1457    1408    1438
       8    1536    1534    1516    1517    1458    1456    1438    1439
       8    1537    1536    1517    1518    1459    1458    1439    1440
       8    1538    1537    1518    1494    1460    1459    1440    1416
       8    1539    1538    1494    1493    1461    1460    1416    1415
       8    1540    1539    1493    1496    1462    1461    1415    1418
       8    1541    1540    1496    1519    1463    1462    1418    1441
       8    1542    1541    1519    1520    1464    1463    1441    1442
       8    1543    1542    1520    1521    1465    1464    1442    1443
       8    1544    1543    1521    1522    1466    1465    1443    1444
       8    1545    1544    1522    1523    1467    1466    1444    1445
       8    1546    1545    1523    1524    1468    1467    1445    1446
       8    1547    1546    1524    1503    1469    1468    1446    1425
       8    1548    1547    1503    1502    1470    1469    1425    1424
       8    1549    1548    1502    1504    1471    1470    1424    1426
       8    1550    1549    1504    1525    1472    1471    1426    1447
       8    1551    1550    1525    1526    1473    1472    1447    1448
       8    1552    1551    1526    1527    1474    1473    1448    1449
       8    1553    1552    1527    1528    1475    1474    1449    1450
       8    1554    1553    1528    1529    1476    1475    1450    1451
       8    1555    1554    1529    1530    1477    1476    1451    1452
       8    1556    1555    1530    1531    1478    1477    1452    1453
       8    1557    1556    1531    1532    1479    1478    1453    1454
       8    1558    1557    1532    1533    1480    1479    1454    1455
       8    1559    1558    1533    1487    1481    1480    1455    1409
       8    1535    1559    1487    1486    1457    1481    1409    1408
       8    1560    1561    1562    1563    1482    1483    1484    1485
       8    1562    1564    1565    1563    1484    1486    1487    1485
       8    1566    1561    1560    1567    1488    1483    1482    1489
       8    1560    1568    1569    1567    1482    1490    1491    1489
       8    1570    1571    1572    1566    1492    1493    1494    1488
       8    1573    1574    1571    1570    1495    1496    1493    1492
       8    1567    1573    1570    1566    1489    1495    1492    1488
       8    1575    1576    1568    1577    1497    1498    1490    1499
       8    1578    1579    1576    1575    1500    1501    1498    1497
       8    1580    1581    1579    1578    1502    1503    1501    1500
       8    1582    1580    1578    1583    1504    1502    1500    1505
       8    1584    1569    1568    1576    1506    1491    1490    1498
       8    1575    1585    1583    1578    1497    1507    1505    1500
       8    1560    1563    1577    1568    1482    1485    1499    1490
       8    1586    1573    1567    1569    1508    1495    1489    1491
       8    1587    1586    1569    1584    1509    1508    1491    1506
       8    1588    1587    1584    1589    1510    1509    1506    1511
       8    1579    1589    1584    1576    1501    1511    1506    1498
       8    1590    1591    1585    1575    1512    1513    1507    1497
       8    1592    1590    1575    1577    1514    1512    1497    1499
       8    1593    1592    1577    1563    1515    1514    1499    1485
       8    1594    1564    1562    1595    1516    1486    1484    1517
       8    1596    1595    1562    1561    1518    1517    1484    1483
       8    1572    1596    1561    1566    1494    1518    1483    1488
       8    1597    1574    1573    1586    1519    1496    1495    1508
       8    1598    1597    1586    1587    1520    1519    1508    1509
       8    1599    1598    1587    1588    1521    1520    1509    1510
       8    1600    1599    1588    1601    1522    1521    1510    1523
       8    1602    1601    1588    1589    1524    1523    1510    1511
       8    1581    1602    1589    1579    1503    1524    1511    1501
       8    1603    1582    1583    1585    1525    1504    1505    1507
       8    1604    1603    1585    1591    1526    1525    1507    1513
       8    1605    1604    1591    1606    1527    1526    1513    1528
       8    1607    1606    1591    1590    1529    1528    1513    1512
       8    1608    1607    1590    1592    1530    1529    1512    1514
       8    1609    1608    1592    1593    1531    1530    1514    1515
       8    1610    1609    1593    1611    1532    1531    1515    1533
       8    1565    1611    1593    1563    1487    1533    1515    1485
       8    1612    1613    1564    1594    1534    1535    1486    1516
       8    1614    1612    1594    1595    1536    1534    1516    1517
       8    1615    1614    1595    1596    1537    1536    1517    1518
       8    1616    1615    1596    1572    1538    1537    1518    1494
       8    1617    1616    1572    1571    1539    1538    1494    1493
       8    1618    1617    1571    1574    1540    1539    1493    1496
       8    1619    1618    1574    1597    1541    1540    1496    1519
       8    1620    1619    1597    1598    1542    1541    1519    1520
       8    1621    1620    1598    1599    1543    1542    1520    1521
       8    1622    1621    1599    1600    1544    1543    1521    1522
       8    1623    1622    1600    1601    1545    1544    1522    1523
       8    1624    1623    1601    1602    1546    1545    1523    1524
       8    1625    1624    1602    1581    1547    1546    1524    1503
       8    1626    1625    1581    1580    1548    1547    1503    1502
       8    1627    1626    1580    1582    1549    1548    1502    1504
       8    1628    1627    1582    1603    1550    1549    1504    1525
       8    1629    1628    1603    1604    1551    1550    1525    1526
       8    1630    1629    1604    1605    1552    1551    1526    1527
       8    1631    1630    1605    1606    1553    1552    1527    1528
       8    1632    1631    1606    1607    1554    1553    1528    1529
       8    1633    1632    1607    1608    1555    1554    1529    1530
       8    1634    1633    1608    1609    1556    1555    1530    1531
       8    1635    1634    1609    1610    1557    1556    1531    1532
       8    1636    1635    1610    1611    1558    1557    1532    1533
       8    1637    1636    1611    1565    1559    1558    1533    1487
       8    1613    1637    1565    1564    1535    1559    1487    1486
       8    1638    1639    1640    1641    1560    1561    1562    1563
       8    1640    1642    1643    1641    1562    1564    1565    1563
       8    1644    1639    1638    1645    1566    1561    1560    1567
       8    1638    1646    1647    1645    1560    1568    1569    1567
       8    1648    1649    1650    1644    1570    1571    1572    1566
       8    1651    1652    1649    1648    1573    1574    1571    1570
       8    1645    1651    1648    1644    1567    1573    1570    1566
       8    1653    1654    1646    1655    1575    1576    1568    1577
       8    1656    1657    1654    1653    1578    1579    1576    1575
       8    1658    1659    1657    1656    1580    1581    1579    1578
       8    1660    1658    1656    1661    1582    1580    1578    1583
       8    1662    1647    1646    1654    1584    1569    1568    1576
       8    1653    1663    1661    1656    1575    1585    1583    1578
       8    1638    1641    1655    1646    1560    1563    1577    1568
       8    1664    1651    1645    1647    1586    1573    1567    1569
       8    1665    1664    1647    1662    1587    1586    1569    1584
       8    1666    1665    1662    1667    1588    1587    1584    1589
       8    1657    1667    1662    1654    1579    1589    1584    1576
       8    1668    1669    1663    1653    1590    1591    1585    1575
       8    1670    1668    1653    1655    1592    1590    1575    1577
       8    1671    1670    1655    1641    1593    1592    1577    1563
       8    1672    1642    1640    1673    1594    1564    1562    1595
       8    1674    1673    1640    1639    1596    1595    1562    1561
       8    1650    1674    1639    1644    1572    1596    1561    1566
       8    1675    1652    1651    1664    1597    1574    1573    1586
       8    1676    1675    1664    1665    1598    1597    1586    1587
       8    1677    1676    1665    1666    1599    1598    1587    1588
       8    1678    1677    1666    1679    1600    1599    1588    1601
       8    1680    1679    1666    1667    1602    1601    1588    1589
       8    1659    1680    1667    1657    1581    1602    1589    1579
       8    1681    1660    1661    1663    1603    1582    1583    1585
       8    1682    1681    1663    1669    1604    1603    1585    1591
       8    1683    1682    1669    1684    1605    1604    1591    1606
       8    1685    1684    1669    1668    1607    1606    1591    1590
       8    1686    1685    1668    1670    1608    1607    1590    1592
       8    1687    1686    1670    1671    1609    1608    1592    1593
       8    1688    1687    1671    1689    1610    1609    1593    1611
       8    1643    1689    1671    1641    1565    1611    1593    1563
       8    1690    1691    1642    1672    1612    1613    1564    1594
       8    1692    1690    1672    1673    1614    1612    1594    1595
       8    1693    1692    1673    1674    1615    1614    1595    1596
       8    1694    1693    1674    1650    1616    1615    1596    1572
       8    1695    1694    1650    1649    1617    1616    1572    1571
       8    1696    1695    1649    1652    1618    1617    1571    1574
       8    1697    1696    1652    1675    1619    1618    1574    1597
       8    1698    1697    1675    1676    1620    1619    1597    1598
       8    1699    1698    1676    1677    1621    1620    1598    1599
       8    1700    1699    1677    1678    1622    1621    1599    1600
       8    1701    1700    1678    1679    1623    1622    1600    1601
       8    1702    1701    1679    1680    1624    1623    1601    1602
       8    1703    1702    1680    1659    1625    1624    1602    1581
       8    1704    1703    1659    1658    1626    1625    1581    1580
       8    1705    1704    1658    1660    1627    1626    1580    1582
       8    1706    1705    1660    1681    1628    1627    1582    1603
       8    1707    1706    1681    1682    1629    1628    1603    1604
       8    1708    1707    1682    1683    1630    1629    1604    1605
       8    1709    1708    1683    1684    1631    1630    1605    1606
       8    1710    1709    1684    1685    1632    1631    1606    1607
       8    1711    1710    1685    1686    1633    1632    1607    1608
       8    1712    1711    1686    1687    1634    1633    1608    1609
       8    1713    1712    1687    1688    1635    1634    1609    1610
       8    1714    1713    1688    1689    1636    1635    1610    1611
       8    1715    1714    1689    1643    1637    1636    1611    1565
       8    1691    1715    1643    1642    1613    1637    1565    1564
       8    1716    1717    1718    1719    1638    1639    1640    1641
       8    1718    1720    1721    1719    1640    1642    1643    1641
       8    1722    1717    1716    1723    1644    1639    1638    1645
       8    1716    1724    1725    1723    1638    1646    1647    1645
       8    1726    1727    1728    1722    1648    1649    1650    1644
       8    1729    1730    1727    1726    1651    1652    1649    1648
       8    1723    1729    1726    1722    1645    1651    1648    1644
       8    1731    1732    1724    1733    1653    1654    1646    1655
       8    1734    1735    1732    1731    1656    1657    1654    1653
       8    1736    1737    1735    1734    1658    1659    1657    1656
       8    1738    1736    1734    1739    1660    1658    1656    1661
       8    1740    1725    1724    1732    1662    1647    1646    1654
       8    1731    1741    1739    1734    1653    1663    1661    1656
       8    1716    1719    1733    1724    1638    1641    1655    1646
       8    1742    1729    1723    1725    1664    1651    1645    1647
       8    1743    1742    1725    1740    1665    1664    1647    1662
       8    1744    1743    1740    1745    1666    1665    1662    1667
       8    1735    1745    1740    1732    1657    1667    1662    1654
       8    1746    1747    1741    1731    1668    1669    1663    1653
       8    1748    1746    1731    1733    1670    1668    1653    1655
       8    1749    1748    1733    1719    1671    1670    1655    1641
       8    1750    1720    1718    1751    1672    1642    1640    1673
       8    1752    1751    1718    1717    1674    1673    1640    1639
       8    1728    1752    1717    1722    1650    1674    1639    1644
       8    1753    1730    1729    1742    1675    1652    1651    1664
       8    1754    1753    1742    1743    1676    1675    1664    1665
       8    1755    1754    1743    1744    1677    1676    1665    1666
       8    1756    1755    1744    1757    1678    1677    1666    1679
       8    1758    1757    1744    1745    1680    1679    1666    1667
       8    1737    1758    1745    1735    1659    1680    1667    1657
       8    1759    1738    1739    1741    1681    1660    1661    1663
       8    1760    1759    1741    1747    1682    1681    1663    1669
       8    1761    1760    1747    1762    1683    1682    1669    1684
       8    1763    1762    1747    1746    1685    1684    1669    1668
       8    1764    1763    1746    1748    1686    1685    1668    1670
       8    1765    1764    1748    1749    1687    1686    1670    1671
       8    1766    1765    1749    1767    1688    1687    1671    1689
       8    1721    1767    1749    1719    1643    1689    1671    1641
       8    1768    1769    1720    1750    1690    1691    1642    1672
       8    1770    1768    1750    1751    1692    1690    1672    1673
       8    1771    1770    1751    1752    1693    1692    1673    1674
       8    1772    1771    1752    1728    1694    1693    1674    1650
       8    1773    1772    1728    1727    1695    1694    1650    1649
       8    1774    1773    1727    1730    1696    1695    1649    1652
       8    1775    1774    1730    1753    1697    1696    1652    1675
       8    1776    1775    1753    1754    1698    1697    1675    1676
       8    1777    1776    1754    1755    1699    1698    1676    1677
       8    1778    1777    1755    1756    1700    1699    1677    1678
       8    1779    1778    1756    1757    1701    1700    1678    1679
       8    1780    1779    1757    1758    1702    1701    1679    1680
       8    1781    1780    1758    1737    1703    1702    1680    1659
       8    1782    1781    1737    1736    1704    1703    1659    1658
       8    1783    1782    1736    1738    1705    1704    1658    1660
       8    1784    1783    1738    1759    1706    1705    1660    1681
       8    1785    1784    1759    1760    1707    1706    1681    1682
       8    1786    1785    1760    1761    1708    1707    1682    1683
       8    1787    1786    1761    1762    1709    1708    1683    1684
       8    1788    1787    1762    1763    1710    1709    1684    1685
       8    1789    1788    1763    1764    1711    1710    1685    1686
       8    1790    1789    1764    1765    1712    1711    1686    1687
       8    1791    1790    1765    1766    1713    1712    1687    1688
       8    1792    1791    1766    1767    1714    1713    1688    1689
       8    1793    1792    1767    1721    1715    1714    1689    1643
       8    1769    1793    1721    1720    1691    1715    1643    1642
       8    1794    1795    1796    1797    1716    1717    1718    1719
       8    1796    1798    1799    1797    1718    1720    1721    1719
       8    1800    1795    1794    1801    1722    1717    1716    1723
       8    1794    1802    1803    1801    1716    1724    1725    1723
       8    1804    1805    1806    1800    1726    1727    1728    1722
       8    1807    1808    1805    1804    1729    1730    1727    1726
       8    1801    1807    1804    1800    1723    1729    1726    1722
       8    1809    1810    1802    1811    1731    1732    1724    1733
       8    1812    1813    1810    1809    1734    1735    1732    1731
       8    1814    1815    1813    1812    1736    1737    1735    1734
       8    1816    1814    1812    1817    1738    1736    1734    1739
       8    1818    1803    1802    1810    1740    1725    1724    1732
       8    1809    1819    1817    1812    1731    1741    1739    1734
       8    1794    1797    1811    1802    1716    1719    1733    1724
       8    1820    1807    1801    1803    1742    1729    1723    1725
       8    1821    1820    1803    1818    1743    1742    1725    1740
       8    1822    1821    1818    1823    1744    1743    1740    1745
       8    1813    1823    1818    1810    1735    1745    1740    1732
       8    1824    1825    1819    1809    1746    1747    1741    1731
       8    1826    1824    1809    1811    1748    1746    1731    1733
       8    1827    1826    1811    1797    1749    1748    1733    1719
       8    1828    1798    1796    1829    1750    1720    1718    1751
       8    1830    1829    1796    1795    1752    1751    1718    1717
       8    1806    1830    1795    1800    1728    1752    1717    1722
       8    1831    1808    1807    1820    1753    1730    1729    1742
       8    1832    1831    1820    1821    1754    1753    1742    1743
       8    1833    1832    1821    1822    1755    1754    1743    1744
       8    1834    1833    1822    1835    1756    1755    1744    1757
       8    1836    1835    1822    1823    1758    1757    1744    1745
       8    1815    1836    1823    1813    1737    1758    1745    1735
       8    1837    1816    1817    1819    1759    1738    1739    1741
       8    1838    1837    1819    1825    1760    1759    1741    1747
       8    1839    1838    1825    1840    1761    1760    1747    1762
       8    1841    1840    1825    1824    1763    1762    1747    1746
       8    1842    1841    1824    1826    1764    1763    1746    1748
       8    1843    1842    1826    1827    1765    1764    1748    1749
       8    1844    1843    1827    1845    1766    1765    1749    1767
       8    1799    1845    1827    1797    1721    1767    1749    1719
       8    1846    1847    1798    1828    1768    1769    1720    1750
       8    1848    1846    1828    1829    1770    1768    1750    1751
       8    1849    1848    1829    1830    1771    1770    1751    1752
       8    1850    1849    1830    1806    1772    1771    1752    1728
       8    1851    1850    1806    1805    1773    1772    1728    1727
       8    1852    1851    1805    1808    1774    1773    1727    1730
       8    1853    1852    1808    1831    1775    1774    1730    1753
       8    1854    1853    1831    1832    1776    1775    1753    1754
       8    1855    1854    1832    1833    1777    1776    1754    1755
       8    1856    1855    1833    1834    1778    1777    1755    1756
       8    1857    1856    1834    1835    1779    1778    1756    1757
       8    1858    1857    1835    1836    1780    1779    1757    1758
       8    1859    1858    1836    1815    1781    1780    1758    1737
       8    1860    1859    1815    1814    1782    1781    1737    1736
       8    1861    1860    1814    1816    1783    1782    1736    1738
       8    1862    1861    1816    1837    1784    1783    1738    1759
       8    1863    1862    1837    1838    1785    1784    1759    1760
       8    1864    1863    1838    1839    1786    1785    1760    1761
       8    1865    1864    1839    1840    1787    1786    1761    1762
       8    1866    1865    1840    1841    1788    1787    1762    1763
       8    1867    1866    1841    1842    1789    1788    1763    1764
       8    1868    1867    1842    1843    1790    1789    1764    1765
       8    1869    1868    1843    1844    1791    1790    1765    1766
       8    1870    1869    1844    1845    1792    1791    1766    1767
       8    1871    1870    1845    1799    1793    1792    1767    1721
       8    1847    1871    1799    1798    1769    1793    1721    1720
       8    1872    1873    1874    1875    1794    1795    1796    1797
       8    1874    1876    1877    1875    1796    1798    1799    1797
       8    1878    1873    1872    1879    1800    1795    1794    1801
       8    1872    1880    1881    1879    1794    1802    1803    1801
       8    1882    1883    1884    1878    1804    1805    1806    1800
       8    1885    1886    1883    1882    1807    1808    1805    1804
       8    1879    1885    1882    1878    1801    1807    1804    1800
       8    1887    1888    1880    1889    1809    1810    1802    1811
       8    1890    1891    1888    1887    1812    1813    1810    1809
       8    1892    1893    1891    1890    1814    1815    1813    1812
       8    1894    1892    1890    1895    1816    1814    1812    1817
       8    1896    1881    1880    1888    1818    1803    1802    1810
       8    1887    1897    1895    1890    1809    1819    1817    1812
       8    1872    1875    1889    1880    1794    1797    1811    1802
       8    1898    1885    1879    1881    1820    1807    1801    1803
       8    1899    1898    1881    1896    1821    1820    1803    1818
       8    1900    1899    1896    1901    1822    1821    1818    1823
       8    1891    1901    1896    1888    1813    1823    1818    1810
       8    1902    1903    1897    1887    1824    1825    1819    1809
       8    1904    1902    1887    1889    1826    1824    1809    1811
       8    1905    1904    1889    1875    1827    1826    1811    1797
       8    1906    1876    1874    1907    1828    1798    1796    1829
       8    1908    1907    1874    1873    1830    1829    1796    1795
       8    1884    1908    1873    1878    1806    1830    1795    1800
       8    1909    1886    1885    1898    1831    1808    1807    1820
       8    1910    1909    1898    1899    1832    1831    1820    1821
       8    1911    1910    1899    1900    1833    1832    1821    1822
       8    1912    1911    1900    1913    1834    1833    1822    1835
       8    1914    1913    1900    1901    1836    1835    1822    1823
       8    1893    1914    1901    1891    1815    1836    1823    1813
       8    1915    1894    1895    1897    1837    1816    1817    1819
       8    1916    1915    1897    1903    1838    1837    1819    1825
       8    1917    1916    1903    1918    1839    1838    1825    1840
       8    1919    1918    1903    1902    1841    1840    1825    1824
       8    1920    1919    1902    1904    1842    1841    1824    1826
       8    1921    1920    1904    1905    1843    1842    1826    1827
       8    1922    1921    1905    1923    1844    1843    1827    1845
       8    1877    1923    1905    1875    1799    1845    1827    1797
       8    1924    1925    1876    1906    1846    1847    1798    1828
       8    1926    1924    1906    1907    1848    1846    1828    1829
       8    1927    1926    1907    1908    1849    1848    1829    1830
       8    1928    1927    1908    1884    1850    1849    1830    1806
       8    1929    1928    1884    1883    1851    1850    1806    1805
       8    1930    1929    1883    1886    1852    1851    1805    1808
       8    1931    1930    1886    1909    1853    1852    1808    1831
       8    1932    1931    1909    1910    1854    1853    1831    1832
       8    1933    1932    1910    1911    1855    1854    1832    1833
       8    1934    1933    1911    1912    1856    1855    1833    1834
       8    1935    1934    1912    1913    1857    1856    1834    1835
       8    1936    1935    1913    1914    1858    1857    1835    1836
       8    1937    1936    1914    1893    1859    1858    1836    1815
       8    1938    1937    1893    1892    1860    1859    1815    1814
       8    1939    1938    1892    1894    1861    1860    1814    1816
       8    1940    1939    1894    1915    1862    1861    1816    1837
       8    1941    1940    1915    1916    1863    1862    1837    1838
       8    1942    1941    1916    1917    1864    1863    1838    1839
       8    1943    1942    1917    1918    1865    1864    1839    1840
       8    1944    1943    1918    1919    1866    1865    1840    1841
       8    1945    1944    1919    1920    1867    1866    1841    1842
       8    1946    1945    1920    1921    1868    1867    1842    1843
       8    1947    1946    1921    1922    1869    1868    1843    1844
       8    1948    1947    1922    1923    1870    1869    1844    1845
       8    1949    1948    1923    1877    1871    1870    1845    1799
       8    1925    1949    1877    1876    1847    1871    1799    1798
  
CELL_TYPES    3486
       1
       1
       1
       1
       1
       1
       1
       1
       1
       1
       1
       1
       1
       1
       1
       1
       1
       1
       1
       1
       1
       1
       1
       1
       1
       1
       1
       1
       1
       1
       1
       1
       1
       1
       1
       1
       1
       1
       1
       1
       1
       1
       1
       1
       1
       1
       1
       1
       1
       1
       1
       1
       1
       1
       1
       1
       1
       1
       1
       1
       1
       1
       1
       1
       1
       1
       1
       1
       1
       1
       1
       1
       1
       1
       1
       1
       1
       1
       1
       1
       1
       1
       1
       1
       1
       1
       1
       1
       1
       1
       1
       1
       1
       1
       1
       1
       1
       1
       1
       1
       1
       1
       1
       1
       1
       1
       1
       1
       1
       1
       1
       1
       1
       1
       1
       1
       1
       1
       1
       1
       1
       1
       1
       1
       1
       1
       1
       1
       1
       1
       1
       1
       1
       1
       1
       1
       1
       1
       1
       1
       1
       1
       1
       1
       1
       1
       1
       1
       1
       1
       1
       1
       1
       1
       1
       1
       1
       1
       1
       1
       1
       1
       1
       1
       1
       1
       1
       1
       1
       1
       1
       1
       1
       1
       1
       1
       1
       1
       1
       1
       1
       1
       1
       1
       1
       1
       1
       1
       1
       1
       1
       1
       1
       1
       1
       1
       1
       1
       1
       1
       1
       1
       1
       1
       1
       1
       1
       1
       1
       1
       1
       1
       1
       1
       1
       1
       1
       1
       1
       1
       1
       1
       1
       1
       1
       1
       1
       1
       1
       1
       1
       1
       1
       1
       1
       1
       1
       1
       1
       1
       1
       1
       1
       1
       1
       1
       1
       1
       1
       1
       1
       1
       1
       1
       1
       1
       1
       1
       1
       1
       1
       1
       1
       1
       1
       1
       1
       1
       1
       1
       1
       1
       1
       1
       1
       1
       1
       1
       1
       1
       1
       1
       1
       1
       1
       1
       1
       1
       1
       1
       1
       1
       1
       1
       1
       1
       1
       1
       1
       1
       1
       1
       1
       1
       1
       1
       1
       1
       1
       1
       1
       1
       1
       1
       1
       1
       1
       1
       1
       1
       1
       1
       1
       1
       1
       1
       1
       1
       1
       1
       1
       1
       1
       1
       1
       1
       1
       1
       1
       1
       1
       1
       1
       1
       1
       1
       1
       1
       1
       1
       1
       1
       1
       1
       1
       1
       1
       1
       1
       1
       1
       1
       1
       1
       1
       1
       1
       1
       1
       1
       1
       1
       1
       1
       1
       1
       1
       1
       1
       1
       1
       1
       1
       1
       1
       1
       1
       1
       1
       1
       1
       1
       1
       1
       1
       1
       1
       1
       1
       1
       1
       1
       1
       1
       1
       1
       1
       1
       1
       1
       1
       1
       1
       1
       1
       1
       1
       1
       1
       1
       1
       1
       1
       1
       1
       1
       1
       1
       1
       1
       1
       1
       1
       1
       1
       1
       1
       1
       1
       1
       1
       1
       1
       1
       1
       1
       1
       1
       1
       1
       1
       1
       1
       1
       1
       1
       1
       1
       1
       1
       1
       1
       1
       1
       1
       1
       1
       1
       1
       1
       1
       1
       1
       1
       1
       1
       1
       1
       1
       1
       1
       1
       1
       1
       1
       1
       1
       1
       1
       1
       1
       1
       1
       1
       1
       1
       1
       1
       1
       1
       1
       1
       1
       1
       1
       1
       1
       1
       1
       1
       1
       1
       1
       1
       1
       1
       1
       1
       1
       1
       1
       1
       1
       1
       1
       1
       1
       1
       1
       1
       1
       1
       1
       1
       1
       1
       1
       1
       1
       1
       1
       1
       1
       1
       1
       1
       1
       1
       1
       1
       1
       1
       1
       1
       1
       1
       1
       1
       1
       1
       1
       1
       1
       1
       1
       1
       1
       1
       1
       1
       1
       1
       1
       1
       1
       1
       1
       1
       1
       1
       1
       1
       1
       1
       1
       1
       1
       1
       1
       1
       1
       1
       1
       1
       1
       1
       1
       1
       1
       1
       1
       1
       1
       1
       1
       1
       1
       1
       1
       1
       1
       1
       1
       1
       1
       1
       1
       1
       1
       1
       1
       1
       1
       1
       1
       1
       1
       1
       1
       1
       1
       1
       1
       1
       1
       1
       1
       1
       1
       1
       1
       1
       1
       1
       1
       1
       1
       1
       1
       1
       1
       1
       1
       1
       1
       1
       1
       1
       1
       1
       1
       1
       1
       1
       1
       1
       1
       1
       1
       1
       1
       1
       1
       1
       1
       1
       1
       1
       1
       1
       1
       1
       1
       1
       1
       1
       1
       1
       1
       1
       1
       1
       1
       1
       1
       1
       1
       1
       1
       1
       1
       1
       1
       1
       1
       1
       1
       1
       1
       1
       1
       1
       1
       1
       1
       1
       1
       1
       1
       1
       1
       1
       1
       1
       1
       1
       1
       1
       1
       1
       1
       1
       1
       1
       1
       1
       1
       1
       1
       1
       1
       1
       1
       1
       1
       1
       1
       1
       1
       1
       1
       1
       1
       1
       1
       1
       1
       1
       1
       1
       1
       1
       1
       1
       1
       1
       1
       1
       1
       1
       1
       1
       1
       1
       1
       1
       1
       1
       1
       1
       1
       1
       1
       1
       1
       1
       1
       1
       1
       1
       1
       1
       1
       1
       1
       1
       1
       1
       1
       1
       1
       1
       1
       1
       1
       1
       1
       1
       1
       1
       1
       1
       1
       1
       1
       1
       1
       1
       1
       1
       1
       1
       1
       1
       1
       1
       1
       1
       1
       1
       1
       1
       1
       1
       1
       1
       1
       1
       1
       1
       1
       1
       1
       1
       1
       1
       1
       1
       1
       1
       1
       1
       1
       1
       1
       1
       1
       1
       1
       1
       1
       1
       1
       1
       1
       1
       1
       1
       1
       1
       1
       1
       1
       1
       1
       1
       1
       1
       1
       1
       1
       1
       1
       1
       1
       1
       1
       1
       1
       1
       1
       1
       1
       1
       1
       1
       1
       1
       1
       1
       1
       1
       1
       1
       1
       1
       1
       1
       1
       1
       1
       1
       1
       1
       1
       1
       1
       1
       1
       1
       1
       1
       1
       1
       1
       1
       1
       1
       1
       1
       1
       1
       1
       1
       1
       1
       1
       1
       1
       1
       1
       1
       1
       1
       1
       1
       1
       1
       1
       1
       1
       1
       1
       1
       1
       1
       1
       1
       1
       1
       1
       1
       1
       1
       1
       1
       1
       1
       1
       1
       1
       1
       1
       1
       1
       1
       1
       1
       1
       1
       1
       1
       1
       1
       1
       1
       1
       1
       1
       1
       1
       1
       1
       1
       1
       1
       1
       1
       1
       1
       1
       1
       1
       1
       1
       1
       1
       1
       1
       1
       1
       1
       1
       1
       1
       1
       1
       1
       1
       1
       1
       1
       1
       1
       1
       1
       1
       1
       1
       1
       1
       1
       1
       1
       1
       1
       1
       1
       1
       1
       1
       1
       1
       1
       1
       1
       1
       1
       1
       1
       1
       1
       1
       1
       1
       1
       1
       1
       1
       1
       1
       1
       1
       1
       1
       1
       1
       1
       1
       1
       1
       1
       1
       1
       1
       1
       1
       1
       1
       1
       1
       1
       1
       1
       1
       1
       1
       1
       1
       1
       1
       1
       1
       1
       1
       1
       1
       1
       1
       1
       1
       1
       1
       1
       1
       1
       1
       1
       1
       1
       1
       1
       1
       1
       1
       1
       1
       1
       1
       1
       1
       1
       1
       1
       1
       1
       1
       1
       1
       1
       1
       1
       1
       1
       1
       1
       1
       1
       1
       1
       1
       1
       1
       1
       1
       1
       1
       1
       1
       1
       1
       1
       1
       1
       1
       1
       1
       1
       1
       1
       1
       1
       1
       1
       1
       1
       1
       1
       1
       1
       1
       1
       1
       1
       1
       1
       1
       1
       1
       1
       1
       1
       1
       1
       1
       1
       1
       1
       1
       1
       1
       1
       1
       1
       1
       1
       1
       1
       1
       1
       1
       1
       1
       1
       1
       1
       1
       1
       1
       1
       1
       1
       1
       1
       1
       1
       1
       1
       1
       1
       1
       1
       1
       1
       1
       1
       1
       1
       1
       1
       1
       1
       1
       1
       1
       1
       1
       1
       1
       1
       1
       1
       1
       1
       1
       1
       1
       1
       1
       1
       1
       1
       1
       1
       1
       1
       1
       1
       1
       1
       1
       1
       1
       1
       1
       1
       1
       1
       1
       1
       1
       1
       1
       1
       1
       1
       1
       1
       1
       1
       1
       1
       1
       1
       1
       1
       1
       1
       1
       1
       1
       1
       1
       1
       1
       1
       1
       1
       1
       1
       1
       1
       1
       1
       1
       1
       1
       1
       1
       1
       1
       1
       1
       1
       1
       1
       1
       1
       1
       1
       1
       1
       1
       1
       1
       1
       1
       1
       1
       1
       1
       1
       1
       1
       1
       1
       1
       1
       1
       1
       1
       1
       1
       1
       1
       1
       1
       1
       1
       1
       1
       1
       1
       1
       1
       1
       1
       1
       1
       1
       1
       1
       1
       1
       1
       1
       1
       1
       1
       1
       1
       1
       1
       1
       1
       1
       1
       1
       1
       1
       1
       1
       1
       1
       1
       1
       1
       1
       1
       1
       1
       1
       1
       1
       1
       1
       1
       1
       1
       1
       1
       1
       1
       1
       1
       1
       1
       1
       1
       1
       1
       1
       1
       1
       1
       1
       1
       1
       1
       1
       1
       1
       1
       1
       1
       1
       1
       1
       1
       1
       1
       1
       1
       1
       1
       1
       1
       1
       1
       1
       1
       1
       1
       1
       1
       1
       1
       1
       1
       1
       1
       1
       1
       1
       1
       1
       1
       1
       1
       1
       1
       1
       1
       1
       1
       1
       1
       1
       1
       1
       1
       1
       1
       1
       1
       1
       1
       1
       1
       1
       1
       1
       1
       1
       1
       1
       1
       1
       1
       1
       1
       1
       1
       1
       1
       1
       1
       1
       1
       1
       1
       1
       1
       1
       1
       1
       1
       1
       1
       1
       1
       1
       1
       1
       1
       1
       1
       1
       1
       1
       1
       1
       1
       1
       1
       1
       1
       1
       1
       1
       1
       1
       1
       1
       1
       1
       1
       1
       1
       1
       1
       1
       1
       1
       1
       1
       1
       1
       1
       1
       1
       1
       1
       1
       1
       1
       1
       1
       1
       1
       1
       1
       1
       1
       1
       1
       1
       1
       1
       1
       1
       1
       1
       1
       1
       1
       1
       1
       1
       1
       1
       1
       1
       1
       1
       1
       1
       1
       1
       1
       1
       1
       1
       1
       1
       1
       1
       1
       1
       1
       1
       1
       1
       1
       1
       1
       1
       1
       1
       1
       1
       1
       1
       1
       1
       1
       1
       1
       1
       1
       1
       1
       1
       1
       1
       1
       1
       1
       1
       1
       1
       1
       1
       1
       1
       1
       1
       1
       1
       1
       1
       1
       1
       1
       1
       1
       1
       1
       1
       1
       1
       1
       1
       1
       1
       1
       1
       1
       1
       1
       1
       1
       1
       1
       1
       1
       1
       1
       1
       1
       1
       1
       1
       1
       1
       1
       1
       1
       1
       1
       1
       1
       1
       1
       1
       1
       1
       1
       1
       1
       1
       1
       1
       1
       1
       1
       1
       1
       1
       1
       1
       1
       1
       1
       1
       1
       1
       1
       1
       1
       1
       1
       1
       1
       1
       1
       1
       1
       1
       1
       1
       1
       1
       1
       1
       1
       1
       1
       1
       1
       1
       1
       1
       1
       1
       1
       1
       1
       1
       1
       1
       1
       1
       1
       1
       1
       1
       1
       1
       1
       1
       1
       1
       1
       1
       1
       1
       1
       1
       1
       1
       1
       1
       1
       1
       1
       1
       1
       1
       1
       1
       1
       1
       1
       1
       1
       1
       1
       1
       1
       1
       1
       1
       1
       1
       1
       1
       1
       1
       1
       1
       1
       1
       1
       1
       1
       1
       1
       1
       1
       1
       1
       1
       1
       1
       1
       1
       1
       1
       1
       1
       1
       1
       1
       1
       1
       1
       1
       1
       1
       1
       1
       1
       1
       1
       1
       1
       1
       1
       1
       1
       1
       1
       1
       1
       1
       1
       1
       1
       1
       1
       1
       1
       1
       1
       1
       1
       1
       1
       1
       1
       1
       1
       1
       1
       1
       1
       1
       1
       1
       1
       1
       1
       1
       1
       1
       1
       1
       1
       1
       1
       1
       1
       1
       1
       1
       1
       1
       1
       1
       1
       1
       1
       1
       1
       1
       1
       1
       1
       1
       1
       1
       1
       1
       1
       1
       1
       1
       1
       1
       1
       1
       1
       1
       1
       1
       1
       1
       1
       1
       1
       1
       1
       1
       1
       1
       1
       1
       1
       1
       1
       1
       1
       1
       1
       1
       1
       1
       1
       1
       1
       1
       1
       1
       1
       1
       1
       1
       1
       1
       1
       1
       1
       1
       1
       1
       1
       1
       1
       1
      12
      12
      12
      12
      12
      12
      12
      12
      12
      12
      12
      12
      12
      12
      12
      12
      12
      12
      12
      12
      12
      12
      12
      12
      12
      12
      12
      12
      12
      12
      12
      12
      12
      12
      12
      12
      12
      12
      12
      12
      12
      12
      12
      12
      12
      12
      12
      12
      12
      12
      12
      12
      12
      12
      12
      12
      12
      12
      12
      12
      12
      12
      12
      12
      12
      12
      12
      12
      12
      12
      12
      12
      12
      12
      12
      12
      12
      12
      12
      12
      12
      12
      12
      12
      12
      12
      12
      12
      12
      12
      12
      12
      12
      12
      12
      12
      12
      12
      12
      12
      12
      12
      12
      12
      12
      12
      12
      12
      12
      12
      12
      12
      12
      12
      12
      12
      12
      12
      12
      12
      12
      12
      12
      12
      12
      12
      12
      12
      12
      12
      12
      12
      12
      12
      12
      12
      12
      12
      12
      12
      12
      12
      12
      12
      12
      12
      12
      12
      12
      12
      12
      12
      12
      12
      12
      12
      12
      12
      12
      12
      12
      12
      12
      12
      12
      12
      12
      12
      12
      12
      12
      12
      12
      12
      12
      12
      12
      12
      12
      12
      12
      12
      12
      12
      12
      12
      12
      12
      12
      12
      12
      12
      12
      12
      12
      12
      12
      12
      12
      12
      12
      12
      12
      12
      12
      12
      12
      12
      12
      12
      12
      12
      12
      12
      12
      12
      12
      12
      12
      12
      12
      12
      12
      12
      12
      12
      12
      12
      12
      12
      12
      12
      12
      12
      12
      12
      12
      12
      12
      12
      12
      12
      12
      12
      12
      12
      12
      12
      12
      12
      12
      12
      12
      12
      12
      12
      12
      12
      12
      12
      12
      12
      12
      12
      12
      12
      12
      12
      12
      12
      12
      12
      12
      12
      12
      12
      12
      12
      12
      12
      12
      12
      12
      12
      12
      12
      12
      12
      12
      12
      12
      12
      12
      12
      12
      12
      12
      12
      12
      12
      12
      12
      12
      12
      12
      12
      12
      12
      12
      12
      12
      12
      12
      12
      12
      12
      12
      12
      12
      12
      12
      12
      12
      12
      12
      12
      12
      12
      12
      12
      12
      12
      12
      12
      12
      12
      12
      12
      12
      12
      12
      12
      12
      12
      12
      12
      12
      12
      12
      12
      12
      12
      12
      12
      12
      12
      12
      12
      12
      12
      12
      12
      12
      12
      12
      12
      12
      12
      12
      12
      12
      12
      12
      12
      12
      12
      12
      12
      12
      12
      12
      12
      12
      12
      12
      12
      12
      12
      12
      12
      12
      12
      12
      12
      12
      12
      12
      12
      12
      12
      12
      12
      12
      12
      12
      12
      12
      12
      12
      12
      12
      12
      12
      12
      12
      12
      12
      12
      12
      12
      12
      12
      12
      12
      12
      12
      12
      12
      12
      12
      12
      12
      12
      12
      12
      12
      12
      12
      12
      12
      12
      12
      12
      12
      12
      12
      12
      12
      12
      12
      12
      12
      12
      12
      12
      12
      12
      12
      12
      12
      12
      12
      12
      12
      12
      12
      12
      12
      12
      12
      12
      12
      12
      12
      12
      12
      12
      12
      12
      12
      12
      12
      12
      12
      12
      12
      12
      12
      12
      12
      12
      12
      12
      12
      12
      12
      12
      12
      12
      12
      12
      12
      12
      12
      12
      12
      12
      12
      12
      12
      12
      12
      12
      12
      12
      12
      12
      12
      12
      12
      12
      12
      12
      12
      12
      12
      12
      12
      12
      12
      12
      12
      12
      12
      12
      12
      12
      12
      12
      12
      12
      12
      12
      12
      12
      12
      12
      12
      12
      12
      12
      12
      12
      12
      12
      12
      12
      12
      12
      12
      12
      12
      12
      12
      12
      12
      12
      12
      12
      12
      12
      12
      12
      12
      12
      12
      12
      12
      12
      12
      12
      12
      12
      12
      12
      12
      12
      12
      12
      12
      12
      12
      12
      12
      12
      12
      12
      12
      12
      12
      12
      12
      12
      12
      12
      12
      12
      12
      12
      12
      12
      12
      12
      12
      12
      12
      12
      12
      12
      12
      12
      12
      12
      12
      12
      12
      12
      12
      12
      12
      12
      12
      12
      12
      12
      12
      12
      12
      12
      12
      12
      12
      12
      12
      12
      12
      12
      12
      12
      12
      12
      12
      12
      12
      12
      12
      12
      12
      12
      12
      12
      12
      12
      12
      12
      12
      12
      12
      12
      12
      12
      12
      12
      12
      12
      12
      12
      12
      12
      12
      12
      12
      12
      12
      12
      12
      12
      12
      12
      12
      12
      12
      12
      12
      12
      12
      12
      12
      12
      12
      12
      12
      12
      12
      12
      12
      12
      12
      12
      12
      12
      12
      12
      12
      12
      12
      12
      12
      12
      12
      12
      12
      12
      12
      12
      12
      12
      12
      12
      12
      12
      12
      12
      12
      12
      12
      12
      12
      12
      12
      12
      12
      12
      12
      12
      12
      12
      12
      12
      12
      12
      12
      12
      12
      12
      12
      12
      12
      12
      12
      12
      12
      12
      12
      12
      12
      12
      12
      12
      12
      12
      12
      12
      12
      12
      12
      12
      12
      12
      12
      12
      12
      12
      12
      12
      12
      12
      12
      12
      12
      12
      12
      12
      12
      12
      12
      12
      12
      12
      12
      12
      12
      12
      12
      12
      12
      12
      12
      12
      12
      12
      12
      12
      12
      12
      12
      12
      12
      12
      12
      12
      12
      12
      12
      12
      12
      12
      12
      12
      12
      12
      12
      12
      12
      12
      12
      12
      12
      12
      12
      12
      12
      12
      12
      12
      12
      12
      12
      12
      12
      12
      12
      12
      12
      12
      12
      12
      12
      12
      12
      12
      12
      12
      12
      12
      12
      12
      12
      12
      12
      12
      12
      12
      12
      12
      12
      12
      12
      12
      12
      12
      12
      12
      12
      12
      12
      12
      12
      12
      12
      12
      12
      12
      12
      12
      12
      12
      12
      12
      12
      12
      12
      12
      12
      12
      12
      12
      12
      12
      12
      12
      12
      12
      12
      12
      12
      12
      12
      12
      12
      12
      12
      12
      12
      12
      12
      12
      12
      12
      12
      12
      12
      12
      12
      12
      12
      12
      12
      12
      12
      12
      12
      12
      12
      12
      12
      12
      12
      12
      12
      12
      12
      12
      12
      12
      12
      12
      12
      12
      12
      12
      12
      12
      12
      12
      12
      12
      12
      12
      12
      12
      12
      12
      12
      12
      12
      12
      12
      12
      12
      12
      12
      12
      12
      12
      12
      12
      12
      12
      12
      12
      12
      12
      12
      12
      12
      12
      12
      12
      12
      12
      12
      12
      12
      12
      12
      12
      12
      12
      12
      12
      12
      12
      12
      12
      12
      12
      12
      12
      12
      12
      12
      12
      12
      12
      12
      12
      12
      12
      12
      12
      12
      12
      12
      12
      12
      12
      12
      12
      12
      12
      12
      12
      12
      12
      12
      12
      12
      12
      12
      12
      12
      12
      12
      12
      12
      12
      12
      12
      12
      12
      12
      12
      12
      12
      12
      12
      12
      12
      12
      12
      12
      12
      12
      12
      12
      12
      12
      12
      12
      12
      12
      12
      12
      12
      12
      12
      12
      12
      12
      12
      12
      12
      12
      12
      12
      12
      12
      12
      12
      12
      12
      12
      12
      12
      12
      12
      12
      12
      12
      12
      12
      12
      12
      12
      12
      12
      12
      12
      12
      12
      12
      12
      12
      12
      12
      12
      12
      12
      12
      12
      12
      12
      12
      12
      12
      12
      12
      12
      12
      12
      12
      12
      12
      12
      12
      12
      12
      12
      12
      12
      12
      12
      12
      12
      12
      12
      12
      12
      12
      12
      12
      12
      12
      12
      12
      12
      12
      12
      12
      12
      12
      12
      12
      12
      12
      12
      12
      12
      12
      12
      12
      12
      12
      12
      12
      12
      12
      12
      12
      12
      12
      12
      12
      12
      12
      12
      12
      12
      12
      12
      12
      12
      12
      12
      12
      12
      12
      12
      12
      12
      12
      12
      12
      12
      12
      12
      12
      12
      12
      12
      12
      12
      12
      12
      12
      12
      12
      12
      12
      12
      12
      12
      12
      12
      12
      12
      12
      12
      12
      12
      12
      12
      12
      12
      12
      12
      12
      12
      12
      12
      12
      12
      12
      12
      12
      12
      12
      12
      12
      12
      12
      12
      12
      12
      12
      12
      12
      12
      12
      12
      12
      12
      12
      12
      12
      12
      12
      12
      12
      12
      12
      12
      12
      12
      12
      12
      12
      12
      12
      12
      12
      12
      12
      12
      12
      12
      12
      12
      12
      12
      12
      12
      12
      12
      12
      12
      12
      12
      12
      12
      12
      12
      12
      12
      12
      12
      12
      12
      12
      12
      12
      12
      12
      12
      12
      12
      12
      12
      12
      12
      12
      12
      12
      12
      12
      12
      12
      12
      12
      12
      12
      12
      12
      12
      12
      12
      12
      12
      12
      12
      12
      12
      12
      12
      12
      12
      12
      12
      12
      12
      12
      12
      12
      12
      12
      12
      12
      12
      12
      12
      12
      12
      12
      12
      12
      12
      12
      12
      12
      12
      12
      12
      12
      12
      12
      12
      12
      12
      12
      12
      12
      12
      12
      12
      12
      12
      12
      12
      12
      12
      12
      12
      12
      12
      12
      12
      12
      12
      12
      12
      12
      12
      12
      12
      12
      12
      12
      12
      12
      12
      12
      12
      12
      12
      12
      12
      12
      12
      12
      12
      12
      12
      12
      12
      12
      12
      12
      12
      12
      12
      12
      12
      12
      12
      12
      12
      12
      12
      12
      12
      12
      12
      12
      12
      12
      12
      12
      12
      12
      12
      12
      12
      12
      12
      12
      12
      12
      12
      12
      12
      12
      12
      12
      12
      12
      12
      12
      12
      12
      12
      12
      12
      12
      12
      12
      12
      12
      12
      12
      12
      12
      12
      12
      12
      12
      12
      12
      12
      12
      12
      12
      12
      12
      12
      12
      12
      12
      12
      12
      12
      12
      12
      12
      12
      12
      12
      12
      12
      12
      12
      12
      12
      12
      12
      12
      12
      12
      12
      12
      12
      12
      12
      12
      12
      12
  
  
POINT_DATA       1950
  
SCALARS                  material_type  double 1
LOOKUP_TABLE default
                   2
                   2
                   2
                   2
                   2
                   2
                   2
                   2
                   2
                   2
                   2
                   2
                   2
                   2
                   2
                   2
                   2
                   2
                   2
                   2
                   2
                   2
                   2
                   2
                   2
                   2
                   2
                   2
                   2
                   2
                   2
                   2
                   2
                   2
                   2
                   2
                   2
                   2
                   2
                   2
                   2
                   2
                   2
                   2
                   2
                   2
                   2
                   2
                   2
                   2
                   2
                   2
                   2
                   2
                   2
                   2
                   2
                   2
                   2
                   2
                   2
                   2
                   2
                   2
                   2
                   2
                   2
                   2
                   2
                   2
                   2
                   2
                   2
                   2
                   2
                   2
                   2
                   2
                   2
                   2
                   2
                   2
                   2
                   2
                   2
                   2
                   2
                   2
                   2
                   2
                   2
                   2
                   2
                   2
                   2
                   2
                   2
                   2
                   2
                   2
                   2
                   2
                   2
                   2
                   2
                   2
                   2
                   2
                   2
                   2
                   2
                   2
                   2
                   2
                   2
                   2
                   2
                   2
                   2
                   2
                   2
                   2
                   2
                   2
                   2
                   2
                   2
                   2
                   2
                   2
                   2
                   2
                   2
                   2
                   2
                   2
                   2
                   2
                   2
                   2
                   2
                   2
                   2
                   2
                   2
                   2
                   2
                   2
                   2
                   2
                   2
                   2
                   2
                   2
                   2
                   2
                   2
                   2
                   2
                   2
                   2
                   2
                   2
                   2
                   2
                   2
                   2
                   2
                   2
                   2
                   2
                   2
                   2
                   2
                   2
                   2
                   2
                   2
                   2
                   2
                   2
                   2
                   2
                   2
                   2
                   2
                   2
                   2
                   2
                   2
                   2
                   2
                   2
                   2
                   2
                   2
                   2
                   2
                   2
                   2
                   2
                   2
                   2
                   2
                   2
                   2
                   2
                   2
                   2
                   2
                   2
                   2
                   2
                   2
                   2
                   2
                   2
                   2
                   2
                   2
                   2
                   2
                   2
                   2
                   2
                   2
                   2
                   2
                   2
                   2
                   2
                   2
                   2
                   2
                   2
                   2
                   2
                   2
                   2
                   2
                   2
                   2
                   2
                   2
                   2
                   2
                   2
                   2
                   2
                   2
                   2
                   2
                   2
                   2
                   2
                   2
                   2
                   2
                   2
                   2
                   2
                   2
                   2
                   2
                   2
                   2
                   2
                   2
                   2
                   2
                   2
                   2
                   2
                   2
                   2
                   2
                   2
                   2
                   2
                   2
                   2
                   2
                   2
                   2
                   2
                   2
                   2
                   2
                   2
                   2
                   2
                   2
                   2
                   2
                   2
                   2
                   2
                   2
                   2
                   2
                   2
                   2
                   2
                   2
                   2
                   2
                   2
                   2
                   2
                   2
                   2
                   2
                   2
                   2
                   2
                   2
                   2
                   2
                   2
                   2
                   2
                   2
                   2
                   2
                   2
                   2
                   2
                   2
                   2
                   2
                   2
                   2
                   2
                   2
                   2
                   2
                   2
                   2
                   2
                   2
                   2
                   2
                   2
                   2
                   2
                   2
                   2
                   2
                   2
                   2
                   2
                   2
                   2
                   2
                   2
                   2
                   2
                   2
                   2
                   2
                   2
                   2
                   2
                   2
                   2
                   2
                   2
                   2
                   2
                   2
                   2
                   2
                   2
                   2
                   2
                   2
                   2
                   2
                   2
                   2
                   2
                   2
                   2
                   2
                   2
                   2
                   2
                   2
                   2
                   2
                   2
                   2
                   2
                   2
                   2
                   2
                   2
                   2
                   2
                   2
                   2
                   2
                   2
                   2
                   2
                   2
                   2
                   2
                   2
                   2
                   2
                   2
                   2
                   2
                   2
                   2
                   2
                   2
                   2
                   2
                   2
                   2
                   2
                   2
                   2
                   2
                   2
                   2
                   2
                   2
                   2
                   2
                   2
                   2
                   2
                   2
                   2
                   2
                   2
                   2
                   2
                   2
                   2
                   2
                   2
                   2
                   2
                   2
                   2
                   2
                   2
                   2
                   2
                   2
                   2
                   2
                   2
                   2
                   2
                   2
                   2
                   2
                   2
                   2
                   2
                   2
                   2
                   2
                   2
                   2
                   2
                   2
                   2
                   2
                   2
                   2
                   2
                   2
                   2
                   2
                   2
                   2
                   2
                   2
                   2
                   2
                   2
                   2
                   2
                   2
                   2
                   2
                   2
                   2
                   2
                   2
                   2
                   2
                   2
                   2
                   2
                   2
                   2
                   2
                   2
                   2
                   2
                   2
                   2
                   2
                   2
                   2
                   2
                   2
                   2
                   2
                   2
                   2
                   2
                   2
                   2
                   2
                   2
                   2
                   2
                   2
                   2
                   2
                   2
                   2
                   2
                   2
                   2
                   2
                   2
                   2
                   2
                   2
                   2
                   2
                   2
                   2
                   2
                   2
                   2
                   2
                   2
                   2
                   2
                   2
                   2
                   2
                   2
                   2
                   2
                   2
                   2
                   2
                   2
                   2
                   2
                   2
                   2
                   2
                   2
                   2
                   2
                   2
                   2
                   2
                   2
                   2
                   2
                   2
                   2
                   2
                   2
                   2
                   2
                   2
                   2
                   2
                   2
                   2
                   2
                   2
                   2
                   2
                   2
                   2
                   2
                   2
                   2
                   2
                   2
                   2
                   2
                   2
                   2
                   2
                   2
                   2
                   2
                   2
                   2
                   2
                   2
                   2
                   2
                   2
                   2
                   2
                   2
                   2
                   2
                   2
                   2
                   2
                   2
                   2
                   2
                   2
                   2
                   2
                   2
                   2
                   2
                   2
                   2
                   2
                   2
                   2
                   2
                   2
                   2
                   2
                   2
                   2
                   2
                   2
                   2
                   2
                   2
                   2
                   2
                   2
                   2
                   2
                   2
                   2
                   2
                   2
                   2
                   2
                   2
                   2
                   2
                   2
                   2
                   2
                   2
                   2
                   2
                   2
                   2
                   2
                   2
                   2
                   2
                   2
                   2
                   2
                   2
                   2
                   2
                   2
                   2
                   2
                   2
                   2
                   2
                   2
                   2
                   2
                   2
                   2
                   2
                   2
                   2
                   2
                   2
                   2
                   2
                   2
                   2
                   2
                   2
                   2
                   2
                   2
                   2
                   2
                   2
                   2
                   2
                   2
                   2
                   2
                   2
                   2
                   2
                   2
                   2
                   2
                   2
                   2
                   2
                   2
                   2
                   2
                   2
                   2
                   2
                   2
                   2
                   2
                   2
                   2
                   2
                   2
                   2
                   2
                   2
                   2
                   2
                   2
                   2
                   2
                   2
                   2
                   2
                   2
                   2
                   2
                   2
                   2
                   2
                   2
                   2
                   2
                   2
                   2
                   2
                   2
                   2
                   2
                   2
                   2
                   2
                   2
                   2
                   2
                   2
                   2
                   2
                   2
                   2
                   2
                   2
                   2
                   2
                   2
                   2
                   2
                   2
                   2
                   2
                   2
                   2
                   2
                   2
                   2
                   2
                   2
                   2
                   2
                   2
                   2
                   2
                   2
                   2
                   2
                   2
                   2
                   2
                   2
                   2
                   2
                   2
                   2
                   2
                   2
                   2
                   2
                   2
                   2
                   2
                   2
                   2
                   2
                   2
                   2
                   2
                   2
                   2
                   2
                   2
                   2
                   2
                   2
                   2
                   2
                   2
                   2
                   2
                   2
                   2
                   2
                   2
                   2
                   2
                   2
                   2
                   2
                   2
                   2
                   2
                   2
                   2
                   2
                   2
                   2
                   2
                   2
                   2
                   2
                   2
                   2
                   2
                   2
                   2
                   2
                   2
                   2
                   2
                   2
                   2
                   2
                   2
                   2
                   2
                   2
                   2
                   2
                   2
                   2
                   2
                   2
                   2
                   2
                   2
                   2
                   2
                   2
                   2
                   2
                   2
                   2
                   2
                   2
                   2
                   2
                   2
                   2
                   2
                   2
                   2
                   2
                   2
                   2
                   2
                   2
                   2
                   2
                   2
                   2
                   2
                   2
                   2
                   2
                   2
                   2
                   2
                   2
                   2
                   2
                   2
                   2
                   2
                   2
                   2
                   2
                   2
                   2
                   2
                   2
                   2
                   2
                   2
                   2
                   2
                   2
                   2
                   2
                   2
                   2
                   2
                   2
                   2
                   2
                   2
                   2
                   2
                   2
                   2
                   2
                   2
                   2
                   2
                   2
                   2
                   2
                   2
                   2
                   2
                   2
                   2
                   2
                   2
                   2
                   2
                   2
                   2
                   2
                   2
                   2
                   2
                   2
                   2
                   2
                   2
                   2
                   2
                   2
                   2
                   2
                   2
                   2
                   2
                   2
                   2
                   2
                   2
                   2
                   2
                   2
                   2
                   2
                   2
                   2
                   2
                   2
                   2
                   2
                   2
                   2
                   2
                   2
                   2
                   2
                   2
                   2
                   2
                   2
                   2
                   2
                   2
                   2
                   2
                   2
                   2
                   2
                   2
                   2
                   2
                   2
                   2
                   2
                   2
                   2
                   2
                   2
                   2
                   2
                   2
                   2
                   2
                   2
                   2
                   2
                   2
                   2
                   2
                   2
                   2
                   2
                   2
                   2
                   2
                   2
                   2
                   2
                   2
                   2
                   2
                   2
                   2
                   2
                   2
                   2
                   2
                   2
                   2
                   2
                   2
                   2
                   2
                   2
                   2
                   2
                   2
                   2
                   2
                   2
                   2
                   2
                   2
                   2
                   2
                   2
                   2
                   2
                   2
                   2
                   2
                   2
                   2
                   2
                   2
                   2
                   2
                   2
                   2
                   2
                   2
                   2
                   2
                   2
                   2
                   2
                   2
                   2
                   2
                   2
                   2
                   2
                   2
                   2
                   2
                   2
                   2
                   2
                   2
                   2
                   2
                   2
                   2
                   2
                   2
                   2
                   2
                   2
                   2
                   2
                   2
                   2
                   2
                   2
                   2
                   2
                   2
                   2
                   2
                   2
                   2
                   2
                   2
                   2
                   2
                   2
                   2
                   2
                   2
                   2
                   2
                   2
                   2
                   2
                   2
                   2
                   2
                   2
                   2
                   2
                   2
                   2
                   2
                   2
                   2
                   2
                   2
                   2
                   2
                   2
                   2
                   2
                   2
                   2
                   2
                   2
                   2
                   2
                   2
                   2
                   2
                   2
                   2
                   2
                   2
                   2
                   2
                   2
                   2
                   2
                   2
                   2
                   2
                   2
                   2
                   2
                   2
                   2
                   2
                   2
                   2
                   2
                   2
                   2
                   2
                   2
                   2
                   2
                   2
                   2
                   2
                   2
                   2
                   2
                   2
                   2
                   2
                   2
                   2
                   2
                   2
                   2
                   2
                   2
                   2
                   2
                   2
                   2
                   2
                   2
                   2
                   2
                   2
                   2
                   2
                   2
                   2
                   2
                   2
                   2
                   2
                   2
                   2
                   2
                   2
                   2
                   2
                   2
                   2
                   2
                   2
                   2
                   2
                   2
                   2
                   2
                   2
                   2
                   2
                   2
                   2
                   2
                   2
                   2
                   2
                   2
                   2
                   2
                   2
                   2
                   2
                   2
                   2
                   2
                   2
                   2
                   2
                   2
                   2
                   2
                   2
                   2
                   2
                   2
                   2
                   2
                   2
                   2
                   2
                   2
                   2
                   2
                   2
                   2
                   2
                   2
                   2
                   2
                   2
                   2
                   2
                   2
                   2
                   2
                   2
                   2
                   2
                   2
                   2
                   2
                   2
                   2
                   2
                   2
                   2
                   2
                   2
                   2
                   2
                   2
                   2
                   2
                   2
                   2
                   2
                   2
                   2
                   2
                   2
                   2
                   2
                   2
                   2
                   2
                   2
                   2
                   2
                   2
                   2
                   2
                   2
                   2
                   2
                   2
                   2
                   2
                   2
                   2
                   2
                   2
                   2
                   2
                   2
                   2
                   2
                   2
                   2
                   2
                   2
                   2
                   2
                   2
                   2
                   2
                   2
                   2
                   2
                   2
                   2
                   2
                   2
                   2
                   2
                   2
                   2
                   2
                   2
                   2
                   2
                   2
                   2
                   2
                   2
                   2
                   2
                   2
                   2
                   2
                   2
                   2
                   2
                   2
                   2
                   2
                   2
                   2
                   2
                   2
                   2
                   2
                   2
                   2
                   2
                   2
                   2
                   2
                   2
                   2
                   2
                   2
                   2
                   2
                   2
                   2
                   2
                   2
                   2
                   2
                   2
                   2
                   2
                   2
                   2
                   2
                   2
                   2
                   2
                   2
                   2
                   2
                   2
                   2
                   2
                   2
                   2
                   2
                   2
                   2
                   2
                   2
                   2
                   2
                   2
                   2
                   2
                   2
                   2
                   2
                   2
                   2
                   2
                   2
                   2
                   2
                   2
                   2
                   2
                   2
                   2
                   2
                   2
                   2
                   2
                   2
                   2
                   2
                   2
                   2
                   2
                   2
                   2
                   2
                   2
                   2
                   2
                   2
                   2
                   2
                   2
                   2
                   2
                   2
                   2
                   2
                   2
                   2
                   2
                   2
                   2
                   2
                   2
                   2
                   2
                   2
                   2
                   2
                   2
                   2
                   2
                   2
                   2
                   2
                   2
                   2
                   2
                   2
                   2
                   2
                   2
                   2
                   2
                   2
                   2
                   2
                   2
                   2
                   2
                   2
                   2
                   2
                   2
                   2
                   2
                   2
                   2
                   2
                   2
                   2
                   2
                   2
                   2
                   2
                   2
                   2
                   2
                   2
                   2
                   2
                   2
                   2
                   2
                   2
                   2
                   2
                   2
                   2
                   2
                   2
                   2
                   2
                   2
                   2
                   2
                   2
                   2
                   2
                   2
                   2
                   2
                   2
                   2
                   2
                   2
                   2
                   2
                   2
                   2
                   2
                   2
                   2
                   2
                   2
                   2
                   2
                   2
                   2
                   2
                   2
                   2
                   2
                   2
                   2
                   2
                   2
                   2
                   2
                   2
                   2
                   2
                   2
                   2
                   2
                   2
                   2
                   2
                   2
                   2
                   2
                   2
                   2
                   2
                   2
                   2
                   2
                   2
                   2
                   2
                   2
                   2
                   2
                   2
                   2
                   2
                   2
                   2
                   2
                   2
                   2
                   2
                   2
                   2
                   2
                   2
                   2
                   2
                   2
                   2
                   2
                   2
                   2
                   2
                   2
                   2
                   2
                   2
                   2
                   2
                   2
                   2
                   2
                   2
                   2
                   2
                   2
                   2
                   2
                   2
                   2
                   2
                   2
                   2
                   2
                   2
                   2
                   2
                   2
                   2
                   2
                   2
                   2
                   2
                   2
                   2
                   2
                   2
                   2
                   2
                   2
                   2
                   2
                   2
                   2
                   2
                   2
                   2
                   2
                   2
                   2
                   2
                   2
                   2
                   2
                   2
                   2
                   2
                   2
                   2
                   2
                   2
                   2
                   2
                   2
                   2
                   2
                   2
                   2
                   2
                   2
                   2
                   2
                   2
                   2
                   2
                   2
                   2
                   2
                   2
                   2
                   2
                   2
                   2
                   2
                   2
                   2
                   2
                   2
                   2
                   2
                   2
                   2
                   2
                   2
                   2
                   2
                   2
                   2
                   2
                   2
                   2
                   2
                   2
                   2
                   2
                   2
                   2
                   2
                   2
                   2
                   2
                   2
                   2
                   2
                   2
                   2
                   2
                   2
                   2
                   2
                   2
                   2
                   2
                   2
                   2
                   2
                   2
                   2
                   2
                   2
                   2
                   2
                   2
                   2
                   2
                   2
                   2
                   2
                   2
                   2
                   2
                   2
                   2
                   2
                   2
                   2
                   2
                   2
                   2
                   2
                   2
                   2
                   2
                   2
                   2
                   2
                   2
                   2
                   2
                   2
                   2
                   2
                   2
                   2
                   2
                   2
                   2
                   2
                   2
                   2
                   2
                   2
                   2
                   2
                   2
                   2
                   2
                   2
                   2
                   2
                   2
                   2
                   2
                   2
                   2
                   2
                   2
                   2
                   2
                   2
                   2
                   2
                   2
                   2
                   2
                   2
                   2
                   2
                   2
                   2
                   2
                   2
                   2
                   2
                   2
                   2
                   2
                   2
                   2
                   2
                   2
                   2
                   2
                   2
                   2
                   2
                   2
                   2
                   2
                   2
                   2
                   2
                   2
                   2
                   2
                   2
                   2
                   2
                   2
                   2
                   2
                   2
                   2
                   2
                   2
                   2
                   2
                   2
                   2
                   2
                   2
                   2
                   2
                   2
                   2
                   2
                   2
                   2
                   2
                   2
                   2
                   2
                   2
                   2
                   2
                   2
                   2
                   2
                   2
                   2
                   2
                   2
                   2
                   2
                   2
                   2
                   2
                   2
                   2
                   2
                   2
                   2
                   2
                   2
                   2
                   2
                   2
                   2
                   2
                   2
                   2
                   2
                   2
                   2
                   2
                   2
                   2
                   2
                   2
                   2
                   2
                   2
                   2
                   2
                   2
                   2
                   2
                   2
                   2
                   2
                   2
                   2
                   2
                   2
                   2
                   2
                   2
                   2
                   2
                   2
                   2
                   2
                   2
                   2
                   2
                   2
                   2
                   2
                   2
                   2
                   2
                   2
                   2
                   2
                   2
                   2
                   2
                   2
                   2
                   2
                   2
                   2
                   2
                   2
                   2
                   2
                   2
                   2
                   2
                   2
                   2
                   2
                   2
                   2
                   2
                   2
                   2
                   2
  
SCALARS                        node_id  double 1
LOOKUP_TABLE default
                   1
                   2
                   3
                   4
                   5
                   6
                   7
                   8
                   9
                  10
                  11
                  12
                  13
                  14
                  15
                  16
                  17
                  18
                  19
                  20
                  21
                  22
                  23
                  24
                  25
                  26
                  27
                  28
                  29
                  30
                  31
                  32
                  33
                  34
                  35
                  36
                  37
                  38
                  39
                  40
                  41
                  42
                  43
                  44
                  45
                  46
                  47
                  48
                  49
                  50
                  51
                  52
                  53
                  54
                  55
                  56
                  57
                  58
                  59
                  60
                  61
                  62
                  63
                  64
                  65
                  66
                  67
                  68
                  69
                  70
                  71
                  72
                  73
                  74
                  75
                  76
                  77
                  78
                  79
                  80
                  81
                  82
                  83
                  84
                  85
                  86
                  87
                  88
                  89
                  90
                  91
                  92
                  93
                  94
                  95
                  96
                  97
                  98
                  99
                 100
                 101
                 102
                 103
                 104
                 105
                 106
                 107
                 108
                 109
                 110
                 111
                 112
                 113
                 114
                 115
                 116
                 117
                 118
                 119
                 120
                 121
                 122
                 123
                 124
                 125
                 126
                 127
                 128
                 129
                 130
                 131
                 132
                 133
                 134
                 135
                 136
                 137
                 138
                 139
                 140
                 141
                 142
                 143
                 144
                 145
                 146
                 147
                 148
                 149
                 150
                 151
                 152
                 153
                 154
                 155
                 156
                 157
                 158
                 159
                 160
                 161
                 162
                 163
                 164
                 165
                 166
                 167
                 168
                 169
                 170
                 171
                 172
                 173
                 174
                 175
                 176
                 177
                 178
                 179
                 180
                 181
                 182
                 183
                 184
                 185
                 186
                 187
                 188
                 189
                 190
                 191
                 192
                 193
                 194
                 195
                 196
                 197
                 198
                 199
                 200
                 201
                 202
                 203
                 204
                 205
                 206
                 207
                 208
                 209
                 210
                 211
                 212
                 213
                 214
                 215
                 216
                 217
                 218
                 219
                 220
                 221
                 222
                 223
                 224
                 225
                 226
                 227
                 228
                 229
                 230
                 231
                 232
                 233
                 234
                 235
                 236
                 237
                 238
                 239
                 240
                 241
                 242
                 243
                 244
                 245
                 246
                 247
                 248
                 249
                 250
                 251
                 252
                 253
                 254
                 255
                 256
                 257
                 258
                 259
                 260
                 261
                 262
                 263
                 264
                 265
                 266
                 267
                 268
                 269
                 270
                 271
                 272
                 273
                 274
                 275
                 276
                 277
                 278
                 279
                 280
                 281
                 282
                 283
                 284
                 285
                 286
                 287
                 288
                 289
                 290
                 291
                 292
                 293
                 294
                 295
                 296
                 297
                 298
                 299
                 300
                 301
                 302
                 303
                 304
                 305
                 306
                 307
                 308
                 309
                 310
                 311
                 312
                 313
                 314
                 315
                 316
                 317
                 318
                 319
                 320
                 321
                 322
                 323
                 324
                 325
                 326
                 327
                 328
                 329
                 330
                 331
                 332
                 333
                 334
                 335
                 336
                 337
                 338
                 339
                 340
                 341
                 342
                 343
                 344
                 345
                 346
                 347
                 348
                 349
                 350
                 351
                 352
                 353
                 354
                 355
                 356
                 357
                 358
                 359
                 360
                 361
                 362
                 363
                 364
                 365
                 366
                 367
                 368
                 369
                 370
                 371
                 372
                 373
                 374
                 375
                 376
                 377
                 378
                 379
                 380
                 381
                 382
                 383
                 384
                 385
                 386
                 387
                 388
                 389
                 390
                 391
                 392
                 393
                 394
                 395
                 396
                 397
                 398
                 399
                 400
                 401
                 402
                 403
                 404
                 405
                 406
                 407
                 408
                 409
                 410
                 411
                 412
                 413
                 414
                 415
                 416
                 417
                 418
                 419
                 420
                 421
                 422
                 423
                 424
                 425
                 426
                 427
                 428
                 429
                 430
                 431
                 432
                 433
                 434
                 435
                 436
                 437
                 438
                 439
                 440
                 441
                 442
                 443
                 444
                 445
                 446
                 447
                 448
                 449
                 450
                 451
                 452
                 453
                 454
                 455
                 456
                 457
                 458
                 459
                 460
                 461
                 462
                 463
                 464
                 465
                 466
                 467
                 468
                 469
                 470
                 471
                 472
                 473
                 474
                 475
                 476
                 477
                 478
                 479
                 480
                 481
                 482
                 483
                 484
                 485
                 486
                 487
                 488
                 489
                 490
                 491
                 492
                 493
                 494
                 495
                 496
                 497
                 498
                 499
                 500
                 501
                 502
                 503
                 504
                 505
                 506
                 507
                 508
                 509
                 510
                 511
                 512
                 513
                 514
                 515
                 516
                 517
                 518
                 519
                 520
                 521
                 522
                 523
                 524
                 525
                 526
                 527
                 528
                 529
                 530
                 531
                 532
                 533
                 534
                 535
                 536
                 537
                 538
                 539
                 540
                 541
                 542
                 543
                 544
                 545
                 546
                 547
                 548
                 549
                 550
                 551
                 552
                 553
                 554
                 555
                 556
                 557
                 558
                 559
                 560
                 561
                 562
                 563
                 564
                 565
                 566
                 567
                 568
                 569
                 570
                 571
                 572
                 573
                 574
                 575
                 576
                 577
                 578
                 579
                 580
                 581
                 582
                 583
                 584
                 585
                 586
                 587
                 588
                 589
                 590
                 591
                 592
                 593
                 594
                 595
                 596
                 597
                 598
                 599
                 600
                 601
                 602
                 603
                 604
                 605
                 606
                 607
                 608
                 609
                 610
                 611
                 612
                 613
                 614
                 615
                 616
                 617
                 618
                 619
                 620
                 621
                 622
                 623
                 624
                 625
                 626
                 627
                 628
                 629
                 630
                 631
                 632
                 633
                 634
                 635
                 636
                 637
                 638
                 639
                 640
                 641
                 642
                 643
                 644
                 645
                 646
                 647
                 648
                 649
                 650
                 651
                 652
                 653
                 654
                 655
                 656
                 657
                 658
                 659
                 660
                 661
                 662
                 663
                 664
                 665
                 666
                 667
                 668
                 669
                 670
                 671
                 672
                 673
                 674
                 675
                 676
                 677
                 678
                 679
                 680
                 681
                 682
                 683
                 684
                 685
                 686
                 687
                 688
                 689
                 690
                 691
                 692
                 693
                 694
                 695
                 696
                 697
                 698
                 699
                 700
                 701
                 702
                 703
                 704
                 705
                 706
                 707
                 708
                 709
                 710
                 711
                 712
                 713
                 714
                 715
                 716
                 717
                 718
                 719
                 720
                 721
                 722
                 723
                 724
                 725
                 726
                 727
                 728
                 729
                 730
                 731
                 732
                 733
                 734
                 735
                 736
                 737
                 738
                 739
                 740
                 741
                 742
                 743
                 744
                 745
                 746
                 747
                 748
                 749
                 750
                 751
                 752
                 753
                 754
                 755
                 756
                 757
                 758
                 759
                 760
                 761
                 762
                 763
                 764
                 765
                 766
                 767
                 768
                 769
                 770
                 771
                 772
                 773
                 774
                 775
                 776
                 777
                 778
                 779
                 780
                 781
                 782
                 783
                 784
                 785
                 786
                 787
                 788
                 789
                 790
                 791
                 792
                 793
                 794
                 795
                 796
                 797
                 798
                 799
                 800
                 801
                 802
                 803
                 804
                 805
                 806
                 807
                 808
                 809
                 810
                 811
                 812
                 813
                 814
                 815
                 816
                 817
                 818
                 819
                 820
                 821
                 822
                 823
                 824
                 825
                 826
                 827
                 828
                 829
                 830
                 831
                 832
                 833
                 834
                 835
                 836
                 837
                 838
                 839
                 840
                 841
                 842
                 843
                 844
                 845
                 846
                 847
                 848
                 849
                 850
                 851
                 852
                 853
                 854
                 855
                 856
                 857
                 858
                 859
                 860
                 861
                 862
                 863
                 864
                 865
                 866
                 867
                 868
                 869
                 870
                 871
                 872
                 873
                 874
                 875
                 876
                 877
                 878
                 879
                 880
                 881
                 882
                 883
                 884
                 885
                 886
                 887
                 888
                 889
                 890
                 891
                 892
                 893
                 894
                 895
                 896
                 897
                 898
                 899
                 900
                 901
                 902
                 903
                 904
                 905
                 906
                 907
                 908
                 909
                 910
                 911
                 912
                 913
                 914
                 915
                 916
                 917
                 918
                 919
                 920
                 921
                 922
                 923
                 924
                 925
                 926
                 927
                 928
                 929
                 930
                 931
                 932
                 933
                 934
                 935
                 936
                 937
                 938
                 939
                 940
                 941
                 942
                 943
                 944
                 945
                 946
                 947
                 948
                 949
                 950
                 951
                 952
                 953
                 954
                 955
                 956
                 957
                 958
                 959
                 960
                 961
                 962
                 963
                 964
                 965
                 966
                 967
                 968
                 969
                 970
                 971
                 972
                 973
                 974
                 975
                 976
                 977
                 978
                 979
                 980
                 981
                 982
                 983
                 984
                 985
                 986
                 987
                 988
                 989
                 990
                 991
                 992
                 993
                 994
                 995
                 996
                 997
                 998
                 999
                1000
                1001
                1002
                1003
                1004
                1005
                1006
                1007
                1008
                1009
                1010
                1011
                1012
                1013
                1014
                1015
                1016
                1017
                1018
                1019
                1020
                1021
                1022
                1023
                1024
                1025
                1026
                1027
                1028
                1029
                1030
                1031
                1032
                1033
                1034
                1035
                1036
                1037
                1038
                1039
                1040
                1041
                1042
                1043
                1044
                1045
                1046
                1047
                1048
                1049
                1050
                1051
                1052
                1053
                1054
                1055
                1056
                1057
                1058
                1059
                1060
                1061
                1062
                1063
                1064
                1065
                1066
                1067
                1068
                1069
                1070
                1071
                1072
                1073
                1074
                1075
                1076
                1077
                1078
                1079
                1080
                1081
                1082
                1083
                1084
                1085
                1086
                1087
                1088
                1089
                1090
                1091
                1092
                1093
                1094
                1095
                1096
                1097
                1098
                1099
                1100
                1101
                1102
                1103
                1104
                1105
                1106
                1107
                1108
                1109
                1110
                1111
                1112
                1113
                1114
                1115
                1116
                1117
                1118
                1119
                1120
                1121
                1122
                1123
                1124
                1125
                1126
                1127
                1128
                1129
                1130
                1131
                1132
                1133
                1134
                1135
                1136
                1137
                1138
                1139
                1140
                1141
                1142
                1143
                1144
                1145
                1146
                1147
                1148
                1149
                1150
                1151
                1152
                1153
                1154
                1155
                1156
                1157
                1158
                1159
                1160
                1161
                1162
                1163
                1164
                1165
                1166
                1167
                1168
                1169
                1170
                1171
                1172
                1173
                1174
                1175
                1176
                1177
                1178
                1179
                1180
                1181
                1182
                1183
                1184
                1185
                1186
                1187
                1188
                1189
                1190
                1191
                1192
                1193
                1194
                1195
                1196
                1197
                1198
                1199
                1200
                1201
                1202
                1203
                1204
                1205
                1206
                1207
                1208
                1209
                1210
                1211
                1212
                1213
                1214
                1215
                1216
                1217
                1218
                1219
                1220
                1221
                1222
                1223
                1224
                1225
                1226
                1227
                1228
                1229
                1230
                1231
                1232
                1233
                1234
                1235
                1236
                1237
                1238
                1239
                1240
                1241
                1242
                1243
                1244
                1245
                1246
                1247
                1248
                1249
                1250
                1251
                1252
                1253
                1254
                1255
                1256
                1257
                1258
                1259
                1260
                1261
                1262
                1263
                1264
                1265
                1266
                1267
                1268
                1269
                1270
                1271
                1272
                1273
                1274
                1275
                1276
                1277
                1278
                1279
                1280
                1281
                1282
                1283
                1284
                1285
                1286
                1287
                1288
                1289
                1290
                1291
                1292
                1293
                1294
                1295
                1296
                1297
                1298
                1299
                1300
                1301
                1302
                1303
                1304
                1305
                1306
                1307
                1308
                1309
                1310
                1311
                1312
                1313
                1314
                1315
                1316
                1317
                1318
                1319
                1320
                1321
                1322
                1323
                1324
                1325
                1326
                1327
                1328
                1329
                1330
                1331
                1332
                1333
                1334
                1335
                1336
                1337
                1338
                1339
                1340
                1341
                1342
                1343
                1344
                1345
                1346
                1347
                1348
                1349
                1350
                1351
                1352
                1353
                1354
                1355
                1356
                1357
                1358
                1359
                1360
                1361
                1362
                1363
                1364
                1365
                1366
                1367
                1368
                1369
                1370
                1371
                1372
                1373
                1374
                1375
                1376
                1377
                1378
                1379
                1380
                1381
                1382
                1383
                1384
                1385
                1386
                1387
                1388
                1389
                1390
                1391
                1392
                1393
                1394
                1395
                1396
                1397
                1398
                1399
                1400
                1401
                1402
                1403
                1404
                1405
                1406
                1407
                1408
                1409
                1410
                1411
                1412
                1413
                1414
                1415
                1416
                1417
                1418
                1419
                1420
                1421
                1422
                1423
                1424
                1425
                1426
                1427
                1428
                1429
                1430
                1431
                1432
                1433
                1434
                1435
                1436
                1437
                1438
                1439
                1440
                1441
                1442
                1443
                1444
                1445
                1446
                1447
                1448
                1449
                1450
                1451
                1452
                1453
                1454
                1455
                1456
                1457
                1458
                1459
                1460
                1461
                1462
                1463
                1464
                1465
                1466
                1467
                1468
                1469
                1470
                1471
                1472
                1473
                1474
                1475
                1476
                1477
                1478
                1479
                1480
                1481
                1482
                1483
                1484
                1485
                1486
                1487
                1488
                1489
                1490
                1491
                1492
                1493
                1494
                1495
                1496
                1497
                1498
                1499
                1500
                1501
                1502
                1503
                1504
                1505
                1506
                1507
                1508
                1509
                1510
                1511
                1512
                1513
                1514
                1515
                1516
                1517
                1518
                1519
                1520
                1521
                1522
                1523
                1524
                1525
                1526
                1527
                1528
                1529
                1530
                1531
                1532
                1533
                1534
                1535
                1536
                1537
                1538
                1539
                1540
                1541
                1542
                1543
                1544
                1545
                1546
                1547
                1548
                1549
                1550
                1551
                1552
                1553
                1554
                1555
                1556
                1557
                1558
                1559
                1560
                1561
                1562
                1563
                1564
                1565
                1566
                1567
                1568
                1569
                1570
                1571
                1572
                1573
                1574
                1575
                1576
                1577
                1578
                1579
                1580
                1581
                1582
                1583
                1584
                1585
                1586
                1587
                1588
                1589
                1590
                1591
                1592
                1593
                1594
                1595
                1596
                1597
                1598
                1599
                1600
                1601
                1602
                1603
                1604
                1605
                1606
                1607
                1608
                1609
                1610
                1611
                1612
                1613
                1614
                1615
                1616
                1617
                1618
                1619
                1620
                1621
                1622
                1623
                1624
                1625
                1626
                1627
                1628
                1629
                1630
                1631
                1632
                1633
                1634
                1635
                1636
                1637
                1638
                1639
                1640
                1641
                1642
                1643
                1644
                1645
                1646
                1647
                1648
                1649
                1650
                1651
                1652
                1653
                1654
                1655
                1656
                1657
                1658
                1659
                1660
                1661
                1662
                1663
                1664
                1665
                1666
                1667
                1668
                1669
                1670
                1671
                1672
                1673
                1674
                1675
                1676
                1677
                1678
                1679
                1680
                1681
                1682
                1683
                1684
                1685
                1686
                1687
                1688
                1689
                1690
                1691
                1692
                1693
                1694
                1695
                1696
                1697
                1698
                1699
                1700
                1701
                1702
                1703
                1704
                1705
                1706
                1707
                1708
                1709
                1710
                1711
                1712
                1713
                1714
                1715
                1716
                1717
                1718
                1719
                1720
                1721
                1722
                1723
                1724
                1725
                1726
                1727
                1728
                1729
                1730
                1731
                1732
                1733
                1734
                1735
                1736
                1737
                1738
                1739
                1740
                1741
                1742
                1743
                1744
                1745
                1746
                1747
                1748
                1749
                1750
                1751
                1752
                1753
                1754
                1755
                1756
                1757
                1758
                1759
                1760
                1761
                1762
                1763
                1764
                1765
                1766
                1767
                1768
                1769
                1770
                1771
                1772
                1773
                1774
                1775
                1776
                1777
                1778
                1779
                1780
                1781
                1782
                1783
                1784
                1785
                1786
                1787
                1788
                1789
                1790
                1791
                1792
                1793
                1794
                1795
                1796
                1797
                1798
                1799
                1800
                1801
                1802
                1803
                1804
                1805
                1806
                1807
                1808
                1809
                1810
                1811
                1812
                1813
                1814
                1815
                1816
                1817
                1818
                1819
                1820
                1821
                1822
                1823
                1824
                1825
                1826
                1827
                1828
                1829
                1830
                1831
                1832
                1833
                1834
                1835
                1836
                1837
                1838
                1839
                1840
                1841
                1842
                1843
                1844
                1845
                1846
                1847
                1848
                1849
                1850
                1851
                1852
                1853
                1854
                1855
                1856
                1857
                1858
                1859
                1860
                1861
                1862
                1863
                1864
                1865
                1866
                1867
                1868
                1869
                1870
                1871
                1872
                1873
                1874
                1875
                1876
                1877
                1878
                1879
                1880
                1881
                1882
                1883
                1884
                1885
                1886
                1887
                1888
                1889
                1890
                1891
                1892
                1893
                1894
                1895
                1896
                1897
                1898
                1899
                1900
                1901
                1902
                1903
                1904
                1905
                1906
                1907
                1908
                1909
                1910
                1911
                1912
                1913
                1914
                1915
                1916
                1917
                1918
                1919
                1920
                1921
                1922
                1923
                1924
                1925
                1926
                1927
                1928
                1929
                1930
                1931
                1932
                1933
                1934
                1935
                1936
                1937
                1938
                1939
                1940
                1941
                1942
                1943
                1944
                1945
                1946
                1947
                1948
                1949
                1950
  
SCALARS                         bodyid  double 1
LOOKUP_TABLE default
                   1
                   1
                   1
                   1
                   1
                   1
                   1
                   1
                   1
                   1
                   1
                   1
                   1
                   1
                   1
                   1
                   1
                   1
                   1
                   1
                   1
                   1
                   1
                   1
                   1
                   1
                   1
                   1
                   1
                   1
                   1
                   1
                   1
                   1
                   1
                   1
                   1
                   1
                   1
                   1
                   1
                   1
                   1
                   1
                   1
                   1
                   1
                   1
                   1
                   1
                   1
                   1
                   1
                   1
                   1
                   1
                   1
                   1
                   1
                   1
                   1
                   1
                   1
                   1
                   1
                   1
                   1
                   1
                   1
                   1
                   1
                   1
                   1
                   1
                   1
                   1
                   1
                   1
                   1
                   1
                   1
                   1
                   1
                   1
                   1
                   1
                   1
                   1
                   1
                   1
                   1
                   1
                   1
                   1
                   1
                   1
                   1
                   1
                   1
                   1
                   1
                   1
                   1
                   1
                   1
                   1
                   1
                   1
                   1
                   1
                   1
                   1
                   1
                   1
                   1
                   1
                   1
                   1
                   1
                   1
                   1
                   1
                   1
                   1
                   1
                   1
                   1
                   1
                   1
                   1
                   1
                   1
                   1
                   1
                   1
                   1
                   1
                   1
                   1
                   1
                   1
                   1
                   1
                   1
                   1
                   1
                   1
                   1
                   1
                   1
                   1
                   1
                   1
                   1
                   1
                   1
                   1
                   1
                   1
                   1
                   1
                   1
                   1
                   1
                   1
                   1
                   1
                   1
                   1
                   1
                   1
                   1
                   1
                   1
                   1
                   1
                   1
                   1
                   1
                   1
                   1
                   1
                   1
                   1
                   1
                   1
                   1
                   1
                   1
                   1
                   1
                   1
                   1
                   1
                   1
                   1
                   1
                   1
                   1
                   1
                   1
                   1
                   1
                   1
                   1
                   1
                   1
                   1
                   1
                   1
                   1
                   1
                   1
                   1
                   1
                   1
                   1
                   1
                   1
                   1
                   1
                   1
                   1
                   1
                   1
                   1
                   1
                   1
                   1
                   1
                   1
                   1
                   1
                   1
                   1
                   1
                   1
                   1
                   1
                   1
                   1
                   1
                   1
                   1
                   1
                   1
                   1
                   1
                   1
                   1
                   1
                   1
                   1
                   1
                   1
                   1
                   1
                   1
                   1
                   1
                   1
                   1
                   1
                   1
                   1
                   1
                   1
                   1
                   1
                   1
                   1
                   1
                   1
                   1
                   1
                   1
                   1
                   1
                   1
                   1
                   1
                   1
                   1
                   1
                   1
                   1
                   1
                   1
                   1
                   1
                   1
                   1
                   1
                   1
                   1
                   1
                   1
                   1
                   1
                   1
                   1
                   1
                   1
                   1
                   1
                   1
                   1
                   1
                   1
                   1
                   1
                   1
                   1
                   1
                   1
                   1
                   1
                   1
                   1
                   1
                   1
                   1
                   1
                   1
                   1
                   1
                   1
                   1
                   1
                   1
                   1
                   1
                   1
                   1
                   1
                   1
                   1
                   1
                   1
                   1
                   1
                   1
                   1
                   1
                   1
                   1
                   1
                   1
                   1
                   1
                   1
                   1
                   1
                   1
                   1
                   1
                   1
                   1
                   1
                   1
                   1
                   1
                   1
                   1
                   1
                   1
                   1
                   1
                   1
                   1
                   1
                   1
                   1
                   1
                   1
                   1
                   1
                   1
                   1
                   1
                   1
                   1
                   1
                   1
                   1
                   1
                   1
                   1
                   1
                   1
                   1
                   1
                   1
                   1
                   1
                   1
                   1
                   1
                   1
                   1
                   1
                   1
                   1
                   1
                   1
                   1
                   1
                   1
                   1
                   1
                   1
                   1
                   1
                   1
                   1
                   1
                   1
                   1
                   1
                   1
                   1
                   1
                   1
                   1
                   1
                   1
                   1
                   1
                   1
                   1
                   1
                   1
                   1
                   1
                   1
                   1
                   1
                   1
                   1
                   1
                   1
                   1
                   1
                   1
                   1
                   1
                   1
                   1
                   1
                   1
                   1
                   1
                   1
                   1
                   1
                   1
                   1
                   1
                   1
                   1
                   1
                   1
                   1
                   1
                   1
                   1
                   1
                   1
                   1
                   1
                   1
                   1
                   1
                   1
                   1
                   1
                   1
                   1
                   1
                   1
                   1
                   1
                   1
                   1
                   1
                   1
                   1
                   1
                   1
                   1
                   1
                   1
                   1
                   1
                   1
                   1
                   1
                   1
                   1
                   1
                   1
                   1
                   1
                   1
                   1
                   1
                   1
                   1
                   1
                   1
                   1
                   1
                   1
                   1
                   1
                   1
                   1
                   1
                   1
                   1
                   1
                   1
                   1
                   1
                   1
                   1
                   1
                   1
                   1
                   1
                   1
                   1
                   1
                   1
                   1
                   1
                   1
                   1
                   1
                   1
                   1
                   1
                   1
                   1
                   1
                   1
                   1
                   1
                   1
                   1
                   1
                   1
                   1
                   1
                   1
                   1
                   1
                   1
                   1
                   1
                   1
                   1
                   1
                   1
                   1
                   1
                   1
                   1
                   1
                   1
                   1
                   1
                   1
                   1
                   1
                   1
                   1
                   1
                   1
                   1
                   1
                   1
                   1
                   1
                   1
                   1
                   1
                   1
                   1
                   1
                   1
                   1
                   1
                   1
                   1
                   1
                   1
                   1
                   1
                   1
                   1
                   1
                   1
                   1
                   1
                   1
                   1
                   1
                   1
                   1
                   1
                   1
                   1
                   1
                   1
                   1
                   1
                   1
                   1
                   1
                   1
                   1
                   1
                   1
                   1
                   1
                   1
                   1
                   1
                   1
                   1
                   1
                   1
                   1
                   1
                   1
                   1
                   1
                   1
                   1
                   1
                   1
                   1
                   1
                   1
                   1
                   1
                   1
                   1
                   1
                   1
                   1
                   1
                   1
                   1
                   1
                   1
                   1
                   1
                   1
                   1
                   1
                   1
                   1
                   1
                   1
                   1
                   1
                   1
                   1
                   1
                   1
                   1
                   1
                   1
                   1
                   1
                   1
                   1
                   1
                   1
                   1
                   1
                   1
                   1
                   1
                   1
                   1
                   1
                   1
                   1
                   1
                   1
                   1
                   1
                   1
                   1
                   1
                   1
                   1
                   1
                   1
                   1
                   1
                   1
                   1
                   1
                   1
                   1
                   1
                   1
                   1
                   1
                   1
                   1
                   1
                   1
                   1
                   1
                   1
                   1
                   1
                   1
                   1
                   1
                   1
                   1
                   1
                   1
                   1
                   1
                   1
                   1
                   1
                   1
                   1
                   1
                   1
                   1
                   1
                   1
                   1
                   1
                   1
                   1
                   1
                   1
                   1
                   1
                   1
                   1
                   1
                   1
                   1
                   1
                   1
                   1
                   1
                   1
                   1
                   1
                   1
                   1
                   1
                   1
                   1
                   1
                   1
                   1
                   1
                   1
                   1
                   1
                   1
                   1
                   1
                   1
                   1
                   1
                   1
                   1
                   1
                   1
                   1
                   1
                   1
                   1
                   1
                   1
                   1
                   1
                   1
                   1
                   1
                   1
                   1
                   1
                   1
                   1
                   1
                   1
                   1
                   1
                   1
                   1
                   1
                   1
                   1
                   1
                   1
                   1
                   1
                   1
                   1
                   1
                   1
                   1
                   1
                   1
                   1
                   1
                   1
                   1
                   1
                   1
                   1
                   1
                   1
                   1
                   1
                   1
                   1
                   1
                   1
                   1
                   1
                   1
                   1
                   1
                   1
                   1
                   1
                   1
                   1
                   1
                   1
                   1
                   1
                   1
                   1
                   1
                   1
                   1
                   1
                   1
                   1
                   1
                   1
                   1
                   1
                   1
                   1
                   1
                   1
                   1
                   1
                   1
                   1
                   1
                   1
                   1
                   1
                   1
                   1
                   1
                   1
                   1
                   1
                   1
                   1
                   1
                   1
                   1
                   1
                   1
                   1
                   1
                   1
                   1
                   1
                   1
                   1
                   1
                   1
                   1
                   1
                   1
                   1
                   1
                   1
                   1
                   1
                   1
                   1
                   1
                   1
                   1
                   1
                   1
                   1
                   1
                   1
                   1
                   1
                   1
                   1
                   1
                   1
                   1
                   1
                   1
                   1
                   1
                   1
                   1
                   1
                   1
                   1
                   1
                   1
                   1
                   1
                   1
                   1
                   1
                   1
                   1
                   1
                   1
                   1
                   1
                   1
                   1
                   1
                   1
                   1
                   1
                   1
                   1
                   1
                   1
                   1
                   1
                   1
                   1
                   1
                   1
                   1
                   1
                   1
                   1
                   1
                   1
                   1
                   1
                   1
                   1
                   1
                   1
                   1
                   1
                   1
                   1
                   1
                   1
                   1
                   1
                   1
                   1
                   1
                   1
                   1
                   1
                   1
                   1
                   1
                   1
                   1
                   1
                   1
                   1
                   1
                   1
                   1
                   1
                   1
                   1
                   1
                   1
                   1
                   1
                   1
                   1
                   1
                   1
                   1
                   1
                   1
                   1
                   1
                   1
                   1
                   1
                   1
                   1
                   1
                   1
                   1
                   1
                   1
                   1
                   1
                   1
                   1
                   1
                   1
                   1
                   1
                   1
                   1
                   1
                   1
                   1
                   1
                   1
                   1
                   1
                   1
                   1
                   1
                   1
                   1
                   1
                   1
                   1
                   1
                   1
                   1
                   1
                   1
                   1
                   1
                   1
                   1
                   1
                   1
                   1
                   1
                   1
                   1
                   1
                   1
                   1
                   1
                   1
                   1
                   1
                   1
                   1
                   1
                   1
                   1
                   1
                   1
                   1
                   1
                   1
                   1
                   1
                   1
                   1
                   1
                   1
                   1
                   1
                   1
                   1
                   1
                   1
                   1
                   1
                   1
                   1
                   1
                   1
                   1
                   1
                   1
                   1
                   1
                   1
                   1
                   1
                   1
                   1
                   1
                   1
                   1
                   1
                   1
                   1
                   1
                   1
                   1
                   1
                   1
                   1
                   1
                   1
                   1
                   1
                   1
                   1
                   1
                   1
                   1
                   1
                   1
                   1
                   1
                   1
                   1
                   1
                   1
                   1
                   1
                   1
                   1
                   1
                   1
                   1
                   1
                   1
                   1
                   1
                   1
                   1
                   1
                   1
                   1
                   1
                   1
                   1
                   1
                   1
                   1
                   1
                   1
                   1
                   1
                   1
                   1
                   1
                   1
                   1
                   1
                   1
                   1
                   1
                   1
                   1
                   1
                   1
                   1
                   1
                   1
                   1
                   1
                   1
                   1
                   1
                   1
                   1
                   1
                   1
                   1
                   1
                   1
                   1
                   1
                   1
                   1
                   1
                   1
                   1
                   1
                   1
                   1
                   1
                   1
                   1
                   1
                   1
                   1
                   1
                   1
                   1
                   1
                   1
                   1
                   1
                   1
                   1
                   1
                   1
                   1
                   1
                   1
                   1
                   1
                   1
                   1
                   1
                   1
                   1
                   1
                   1
                   1
                   1
                   1
                   1
                   1
                   1
                   1
                   1
                   1
                   1
                   1
                   1
                   1
                   1
                   1
                   1
                   1
                   1
                   1
                   1
                   1
                   1
                   1
                   1
                   1
                   1
                   1
                   1
                   1
                   1
                   1
                   1
                   1
                   1
                   1
                   1
                   1
                   1
                   1
                   1
                   1
                   1
                   1
                   1
                   1
                   1
                   1
                   1
                   1
                   1
                   1
                   1
                   1
                   1
                   1
                   1
                   1
                   1
                   1
                   1
                   1
                   1
                   1
                   1
                   1
                   1
                   1
                   1
                   1
                   1
                   1
                   1
                   1
                   1
                   1
                   1
                   1
                   1
                   1
                   1
                   1
                   1
                   1
                   1
                   1
                   1
                   1
                   1
                   1
                   1
                   1
                   1
                   1
                   1
                   1
                   1
                   1
                   1
                   1
                   1
                   1
                   1
                   1
                   1
                   1
                   1
                   1
                   1
                   1
                   1
                   1
                   1
                   1
                   1
                   1
                   1
                   1
                   1
                   1
                   1
                   1
                   1
                   1
                   1
                   1
                   1
                   1
                   1
                   1
                   1
                   1
                   1
                   1
                   1
                   1
                   1
                   1
                   1
                   1
                   1
                   1
                   1
                   1
                   1
                   1
                   1
                   1
                   1
                   1
                   1
                   1
                   1
                   1
                   1
                   1
                   1
                   1
                   1
                   1
                   1
                   1
                   1
                   1
                   1
                   1
                   1
                   1
                   1
                   1
                   1
                   1
                   1
                   1
                   1
                   1
                   1
                   1
                   1
                   1
                   1
                   1
                   1
                   1
                   1
                   1
                   1
                   1
                   1
                   1
                   1
                   1
                   1
                   1
                   1
                   1
                   1
                   1
                   1
                   1
                   1
                   1
                   1
                   1
                   1
                   1
                   1
                   1
                   1
                   1
                   1
                   1
                   1
                   1
                   1
                   1
                   1
                   1
                   1
                   1
                   1
                   1
                   1
                   1
                   1
                   1
                   1
                   1
                   1
                   1
                   1
                   1
                   1
                   1
                   1
                   1
                   1
                   1
                   1
                   1
                   1
                   1
                   1
                   1
                   1
                   1
                   1
                   1
                   1
                   1
                   1
                   1
                   1
                   1
                   1
                   1
                   1
                   1
                   1
                   1
                   1
                   1
                   1
                   1
                   1
                   1
                   1
                   1
                   1
                   1
                   1
                   1
                   1
                   1
                   1
                   1
                   1
                   1
                   1
                   1
                   1
                   1
                   1
                   1
                   1
                   1
                   1
                   1
                   1
                   1
                   1
                   1
                   1
                   1
                   1
                   1
                   1
                   1
                   1
                   1
                   1
                   1
                   1
                   1
                   1
                   1
                   1
                   1
                   1
                   1
                   1
                   1
                   1
                   1
                   1
                   1
                   1
                   1
                   1
                   1
                   1
                   1
                   1
                   1
                   1
                   1
                   1
                   1
                   1
                   1
                   1
                   1
                   1
                   1
                   1
                   1
                   1
                   1
                   1
                   1
                   1
                   1
                   1
                   1
                   1
                   1
                   1
                   1
                   1
                   1
                   1
                   1
                   1
                   1
                   1
                   1
                   1
                   1
                   1
                   1
                   1
                   1
                   1
                   1
                   1
                   1
                   1
                   1
                   1
                   1
                   1
                   1
                   1
                   1
                   1
                   1
                   1
                   1
                   1
                   1
                   1
                   1
                   1
                   1
                   1
                   1
                   1
                   1
                   1
                   1
                   1
                   1
                   1
                   1
                   1
                   1
                   1
                   1
                   1
                   1
                   1
                   1
                   1
                   1
                   1
                   1
                   1
                   1
                   1
                   1
                   1
                   1
                   1
                   1
                   1
                   1
                   1
                   1
                   1
                   1
                   1
                   1
                   1
                   1
                   1
                   1
                   1
                   1
                   1
                   1
                   1
                   1
                   1
                   1
                   1
                   1
                   1
                   1
                   1
                   1
                   1
                   1
                   1
                   1
                   1
                   1
                   1
                   1
                   1
                   1
                   1
                   1
                   1
                   1
                   1
                   1
                   1
                   1
                   1
                   1
                   1
                   1
                   1
                   1
                   1
                   1
                   1
                   1
                   1
                   1
                   1
                   1
                   1
                   1
                   1
                   1
                   1
                   1
                   1
                   1
                   1
                   1
                   1
                   1
                   1
                   1
                   1
                   1
                   1
                   1
                   1
                   1
                   1
                   1
                   1
                   1
                   1
                   1
                   1
                   1
                   1
                   1
                   1
                   1
                   1
                   1
                   1
                   1
                   1
                   1
                   1
                   1
                   1
                   1
                   1
                   1
                   1
                   1
                   1
                   1
                   1
                   1
                   1
                   1
                   1
                   1
                   1
                   1
                   1
                   1
                   1
                   1
                   1
                   1
                   1
                   1
                   1
                   1
                   1
                   1
                   1
                   1
                   1
                   1
                   1
                   1
                   1
                   1
                   1
                   1
                   1
                   1
                   1
                   1
                   1
                   1
                   1
                   1
                   1
                   1
                   1
                   1
                   1
                   1
                   1
                   1
                   1
                   1
                   1
                   1
                   1
                   1
                   1
                   1
                   1
                   1
                   1
                   1
                   1
                   1
                   1
                   1
                   1
                   1
                   1
                   1
                   1
                   1
                   1
                   1
                   1
                   1
                   1
                   1
                   1
                   1
                   1
                   1
                   1
                   1
                   1
                   1
                   1
                   1
                   1
                   1
                   1
                   1
                   1
                   1
                   1
                   1
                   1
                   1
                   1
                   1
                   1
                   1
                   1
                   1
                   1
                   1
                   1
                   1
                   1
                   1
                   1
                   1
                   1
                   1
                   1
                   1
                   1
                   1
                   1
                   1
                   1
                   1
                   1
                   1
                   1
                   1
                   1
                   1
                   1
                   1
                   1
                   1
                   1
                   1
                   1
                   1
                   1
                   1
                   1
                   1
                   1
                   1
                   1
                   1
                   1
                   1
                   1
                   1
                   1
                   1
                   1
                   1
                   1
                   1
                   1
                   1
                   1
                   1
                   1
                   1
                   1
                   1
                   1
                   1
                   1
                   1
                   1
                   1
                   1
                   1
                   1
                   1
                   1
                   1
                   1
                   1
                   1
                   1
                   1
                   1
                   1
                   1
                   1
                   1
                   1
                   1
                   1
                   1
                   1
                   1
                   1
                   1
                   1
                   1
                   1
                   1
                   1
                   1
                   1
                   1
                   1
                   1
                   1
                   1
                   1
                   1
                   1
                   1
  
SCALARS                  material_type  double 1
LOOKUP_TABLE default
                   2
                   2
                   2
                   2
                   2
                   2
                   2
                   2
                   2
                   2
                   2
                   2
                   2
                   2
                   2
                   2
                   2
                   2
                   2
                   2
                   2
                   2
                   2
                   2
                   2
                   2
                   2
                   2
                   2
                   2
                   2
                   2
                   2
                   2
                   2
                   2
                   2
                   2
                   2
                   2
                   2
                   2
                   2
                   2
                   2
                   2
                   2
                   2
                   2
                   2
                   2
                   2
                   2
                   2
                   2
                   2
                   2
                   2
                   2
                   2
                   2
                   2
                   2
                   2
                   2
                   2
                   2
                   2
                   2
                   2
                   2
                   2
                   2
                   2
                   2
                   2
                   2
                   2
                   2
                   2
                   2
                   2
                   2
                   2
                   2
                   2
                   2
                   2
                   2
                   2
                   2
                   2
                   2
                   2
                   2
                   2
                   2
                   2
                   2
                   2
                   2
                   2
                   2
                   2
                   2
                   2
                   2
                   2
                   2
                   2
                   2
                   2
                   2
                   2
                   2
                   2
                   2
                   2
                   2
                   2
                   2
                   2
                   2
                   2
                   2
                   2
                   2
                   2
                   2
                   2
                   2
                   2
                   2
                   2
                   2
                   2
                   2
                   2
                   2
                   2
                   2
                   2
                   2
                   2
                   2
                   2
                   2
                   2
                   2
                   2
                   2
                   2
                   2
                   2
                   2
                   2
                   2
                   2
                   2
                   2
                   2
                   2
                   2
                   2
                   2
                   2
                   2
                   2
                   2
                   2
                   2
                   2
                   2
                   2
                   2
                   2
                   2
                   2
                   2
                   2
                   2
                   2
                   2
                   2
                   2
                   2
                   2
                   2
                   2
                   2
                   2
                   2
                   2
                   2
                   2
                   2
                   2
                   2
                   2
                   2
                   2
                   2
                   2
                   2
                   2
                   2
                   2
                   2
                   2
                   2
                   2
                   2
                   2
                   2
                   2
                   2
                   2
                   2
                   2
                   2
                   2
                   2
                   2
                   2
                   2
                   2
                   2
                   2
                   2
                   2
                   2
                   2
                   2
                   2
                   2
                   2
                   2
                   2
                   2
                   2
                   2
                   2
                   2
                   2
                   2
                   2
                   2
                   2
                   2
                   2
                   2
                   2
                   2
                   2
                   2
                   2
                   2
                   2
                   2
                   2
                   2
                   2
                   2
                   2
                   2
                   2
                   2
                   2
                   2
                   2
                   2
                   2
                   2
                   2
                   2
                   2
                   2
                   2
                   2
                   2
                   2
                   2
                   2
                   2
                   2
                   2
                   2
                   2
                   2
                   2
                   2
                   2
                   2
                   2
                   2
                   2
                   2
                   2
                   2
                   2
                   2
                   2
                   2
                   2
                   2
                   2
                   2
                   2
                   2
                   2
                   2
                   2
                   2
                   2
                   2
                   2
                   2
                   2
                   2
                   2
                   2
                   2
                   2
                   2
                   2
                   2
                   2
                   2
                   2
                   2
                   2
                   2
                   2
                   2
                   2
                   2
                   2
                   2
                   2
                   2
                   2
                   2
                   2
                   2
                   2
                   2
                   2
                   2
                   2
                   2
                   2
                   2
                   2
                   2
                   2
                   2
                   2
                   2
                   2
                   2
                   2
                   2
                   2
                   2
                   2
                   2
                   2
                   2
                   2
                   2
                   2
                   2
                   2
                   2
                   2
                   2
                   2
                   2
                   2
                   2
                   2
                   2
                   2
                   2
                   2
                   2
                   2
                   2
                   2
                   2
                   2
                   2
                   2
                   2
                   2
                   2
                   2
                   2
                   2
                   2
                   2
                   2
                   2
                   2
                   2
                   2
                   2
                   2
                   2
                   2
                   2
                   2
                   2
                   2
                   2
                   2
                   2
                   2
                   2
                   2
                   2
                   2
                   2
                   2
                   2
                   2
                   2
                   2
                   2
                   2
                   2
                   2
                   2
                   2
                   2
                   2
                   2
                   2
                   2
                   2
                   2
                   2
                   2
                   2
                   2
                   2
                   2
                   2
                   2
                   2
                   2
                   2
                   2
                   2
                   2
                   2
                   2
                   2
                   2
                   2
                   2
                   2
                   2
                   2
                   2
                   2
                   2
                   2
                   2
                   2
                   2
                   2
                   2
                   2
                   2
                   2
                   2
                   2
                   2
                   2
                   2
                   2
                   2
                   2
                   2
                   2
                   2
                   2
                   2
                   2
                   2
                   2
                   2
                   2
                   2
                   2
                   2
                   2
                   2
                   2
                   2
                   2
                   2
                   2
                   2
                   2
                   2
                   2
                   2
                   2
                   2
                   2
                   2
                   2
                   2
                   2
                   2
                   2
                   2
                   2
                   2
                   2
                   2
                   2
                   2
                   2
                   2
                   2
                   2
                   2
                   2
                   2
                   2
                   2
                   2
                   2
                   2
                   2
                   2
                   2
                   2
                   2
                   2
                   2
                   2
                   2
                   2
                   2
                   2
                   2
                   2
                   2
                   2
                   2
                   2
                   2
                   2
                   2
                   2
                   2
                   2
                   2
                   2
                   2
                   2
                   2
                   2
                   2
                   2
                   2
                   2
                   2
                   2
                   2
                   2
                   2
                   2
                   2
                   2
                   2
                   2
                   2
                   2
                   2
                   2
                   2
                   2
                   2
                   2
                   2
                   2
                   2
                   2
                   2
                   2
                   2
                   2
                   2
                   2
                   2
                   2
                   2
                   2
                   2
                   2
                   2
                   2
                   2
                   2
                   2
                   2
                   2
                   2
                   2
                   2
                   2
                   2
                   2
                   2
                   2
                   2
                   2
                   2
                   2
                   2
                   2
                   2
                   2
                   2
                   2
                   2
                   2
                   2
                   2
                   2
                   2
                   2
                   2
                   2
                   2
                   2
                   2
                   2
                   2
                   2
                   2
                   2
                   2
                   2
                   2
                   2
                   2
                   2
                   2
                   2
                   2
                   2
                   2
                   2
                   2
                   2
                   2
                   2
                   2
                   2
                   2
                   2
                   2
                   2
                   2
                   2
                   2
                   2
                   2
                   2
                   2
                   2
                   2
                   2
                   2
                   2
                   2
                   2
                   2
                   2
                   2
                   2
                   2
                   2
                   2
                   2
                   2
                   2
                   2
                   2
                   2
                   2
                   2
                   2
                   2
                   2
                   2
                   2
                   2
                   2
                   2
                   2
                   2
                   2
                   2
                   2
                   2
                   2
                   2
                   2
                   2
                   2
                   2
                   2
                   2
                   2
                   2
                   2
                   2
                   2
                   2
                   2
                   2
                   2
                   2
                   2
                   2
                   2
                   2
                   2
                   2
                   2
                   2
                   2
                   2
                   2
                   2
                   2
                   2
                   2
                   2
                   2
                   2
                   2
                   2
                   2
                   2
                   2
                   2
                   2
                   2
                   2
                   2
                   2
                   2
                   2
                   2
                   2
                   2
                   2
                   2
                   2
                   2
                   2
                   2
                   2
                   2
                   2
                   2
                   2
                   2
                   2
                   2
                   2
                   2
                   2
                   2
                   2
                   2
                   2
                   2
                   2
                   2
                   2
                   2
                   2
                   2
                   2
                   2
                   2
                   2
                   2
                   2
                   2
                   2
                   2
                   2
                   2
                   2
                   2
                   2
                   2
                   2
                   2
                   2
                   2
                   2
                   2
                   2
                   2
                   2
                   2
                   2
                   2
                   2
                   2
                   2
                   2
                   2
                   2
                   2
                   2
                   2
                   2
                   2
                   2
                   2
                   2
                   2
                   2
                   2
                   2
                   2
                   2
                   2
                   2
                   2
                   2
                   2
                   2
                   2
                   2
                   2
                   2
                   2
                   2
                   2
                   2
                   2
                   2
                   2
                   2
                   2
                   2
                   2
                   2
                   2
                   2
                   2
                   2
                   2
                   2
                   2
                   2
                   2
                   2
                   2
                   2
                   2
                   2
                   2
                   2
                   2
                   2
                   2
                   2
                   2
                   2
                   2
                   2
                   2
                   2
                   2
                   2
                   2
                   2
                   2
                   2
                   2
                   2
                   2
                   2
                   2
                   2
                   2
                   2
                   2
                   2
                   2
                   2
                   2
                   2
                   2
                   2
                   2
                   2
                   2
                   2
                   2
                   2
                   2
                   2
                   2
                   2
                   2
                   2
                   2
                   2
                   2
                   2
                   2
                   2
                   2
                   2
                   2
                   2
                   2
                   2
                   2
                   2
                   2
                   2
                   2
                   2
                   2
                   2
                   2
                   2
                   2
                   2
                   2
                   2
                   2
                   2
                   2
                   2
                   2
                   2
                   2
                   2
                   2
                   2
                   2
                   2
                   2
                   2
                   2
                   2
                   2
                   2
                   2
                   2
                   2
                   2
                   2
                   2
                   2
                   2
                   2
                   2
                   2
                   2
                   2
                   2
                   2
                   2
                   2
                   2
                   2
                   2
                   2
                   2
                   2
                   2
                   2
                   2
                   2
                   2
                   2
                   2
                   2
                   2
                   2
                   2
                   2
                   2
                   2
                   2
                   2
                   2
                   2
                   2
                   2
                   2
                   2
                   2
                   2
                   2
                   2
                   2
                   2
                   2
                   2
                   2
                   2
                   2
                   2
                   2
                   2
                   2
                   2
                   2
                   2
                   2
                   2
                   2
                   2
                   2
                   2
                   2
                   2
                   2
                   2
                   2
                   2
                   2
                   2
                   2
                   2
                   2
                   2
                   2
                   2
                   2
                   2
                   2
                   2
                   2
                   2
                   2
                   2
                   2
                   2
                   2
                   2
                   2
                   2
                   2
                   2
                   2
                   2
                   2
                   2
                   2
                   2
                   2
                   2
                   2
                   2
                   2
                   2
                   2
                   2
                   2
                   2
                   2
                   2
                   2
                   2
                   2
                   2
                   2
                   2
                   2
                   2
                   2
                   2
                   2
                   2
                   2
                   2
                   2
                   2
                   2
                   2
                   2
                   2
                   2
                   2
                   2
                   2
                   2
                   2
                   2
                   2
                   2
                   2
                   2
                   2
                   2
                   2
                   2
                   2
                   2
                   2
                   2
                   2
                   2
                   2
                   2
                   2
                   2
                   2
                   2
                   2
                   2
                   2
                   2
                   2
                   2
                   2
                   2
                   2
                   2
                   2
                   2
                   2
                   2
                   2
                   2
                   2
                   2
                   2
                   2
                   2
                   2
                   2
                   2
                   2
                   2
                   2
                   2
                   2
                   2
                   2
                   2
                   2
                   2
                   2
                   2
                   2
                   2
                   2
                   2
                   2
                   2
                   2
                   2
                   2
                   2
                   2
                   2
                   2
                   2
                   2
                   2
                   2
                   2
                   2
                   2
                   2
                   2
                   2
                   2
                   2
                   2
                   2
                   2
                   2
                   2
                   2
                   2
                   2
                   2
                   2
                   2
                   2
                   2
                   2
                   2
                   2
                   2
                   2
                   2
                   2
                   2
                   2
                   2
                   2
                   2
                   2
                   2
                   2
                   2
                   2
                   2
                   2
                   2
                   2
                   2
                   2
                   2
                   2
                   2
                   2
                   2
                   2
                   2
                   2
                   2
                   2
                   2
                   2
                   2
                   2
                   2
                   2
                   2
                   2
                   2
                   2
                   2
                   2
                   2
                   2
                   2
                   2
                   2
                   2
                   2
                   2
                   2
                   2
                   2
                   2
                   2
                   2
                   2
                   2
                   2
                   2
                   2
                   2
                   2
                   2
                   2
                   2
                   2
                   2
                   2
                   2
                   2
                   2
                   2
                   2
                   2
                   2
                   2
                   2
                   2
                   2
                   2
                   2
                   2
                   2
                   2
                   2
                   2
                   2
                   2
                   2
                   2
                   2
                   2
                   2
                   2
                   2
                   2
                   2
                   2
                   2
                   2
                   2
                   2
                   2
                   2
                   2
                   2
                   2
                   2
                   2
                   2
                   2
                   2
                   2
                   2
                   2
                   2
                   2
                   2
                   2
                   2
                   2
                   2
                   2
                   2
                   2
                   2
                   2
                   2
                   2
                   2
                   2
                   2
                   2
                   2
                   2
                   2
                   2
                   2
                   2
                   2
                   2
                   2
                   2
                   2
                   2
                   2
                   2
                   2
                   2
                   2
                   2
                   2
                   2
                   2
                   2
                   2
                   2
                   2
                   2
                   2
                   2
                   2
                   2
                   2
                   2
                   2
                   2
                   2
                   2
                   2
                   2
                   2
                   2
                   2
                   2
                   2
                   2
                   2
                   2
                   2
                   2
                   2
                   2
                   2
                   2
                   2
                   2
                   2
                   2
                   2
                   2
                   2
                   2
                   2
                   2
                   2
                   2
                   2
                   2
                   2
                   2
                   2
                   2
                   2
                   2
                   2
                   2
                   2
                   2
                   2
                   2
                   2
                   2
                   2
                   2
                   2
                   2
                   2
                   2
                   2
                   2
                   2
                   2
                   2
                   2
                   2
                   2
                   2
                   2
                   2
                   2
                   2
                   2
                   2
                   2
                   2
                   2
                   2
                   2
                   2
                   2
                   2
                   2
                   2
                   2
                   2
                   2
                   2
                   2
                   2
                   2
                   2
                   2
                   2
                   2
                   2
                   2
                   2
                   2
                   2
                   2
                   2
                   2
                   2
                   2
                   2
                   2
                   2
                   2
                   2
                   2
                   2
                   2
                   2
                   2
                   2
                   2
                   2
                   2
                   2
                   2
                   2
                   2
                   2
                   2
                   2
                   2
                   2
                   2
                   2
                   2
                   2
                   2
                   2
                   2
                   2
                   2
                   2
                   2
                   2
                   2
                   2
                   2
                   2
                   2
                   2
                   2
                   2
                   2
                   2
                   2
                   2
                   2
                   2
                   2
                   2
                   2
                   2
                   2
                   2
                   2
                   2
                   2
                   2
                   2
                   2
                   2
                   2
                   2
                   2
                   2
                   2
                   2
                   2
                   2
                   2
                   2
                   2
                   2
                   2
                   2
                   2
                   2
                   2
                   2
                   2
                   2
                   2
                   2
                   2
                   2
                   2
                   2
                   2
                   2
                   2
                   2
                   2
                   2
                   2
                   2
                   2
                   2
                   2
                   2
                   2
                   2
                   2
                   2
                   2
                   2
                   2
                   2
                   2
                   2
                   2
                   2
                   2
                   2
                   2
                   2
                   2
                   2
                   2
                   2
                   2
                   2
                   2
                   2
                   2
                   2
                   2
                   2
                   2
                   2
                   2
                   2
                   2
                   2
                   2
                   2
                   2
                   2
                   2
                   2
                   2
                   2
                   2
                   2
                   2
                   2
                   2
                   2
                   2
                   2
                   2
                   2
                   2
                   2
                   2
                   2
                   2
                   2
                   2
                   2
                   2
                   2
                   2
                   2
                   2
                   2
                   2
                   2
                   2
                   2
                   2
                   2
                   2
                   2
                   2
                   2
                   2
                   2
                   2
                   2
                   2
                   2
                   2
                   2
                   2
                   2
                   2
                   2
                   2
                   2
                   2
                   2
                   2
                   2
                   2
                   2
                   2
                   2
                   2
                   2
                   2
                   2
                   2
                   2
                   2
                   2
                   2
                   2
                   2
                   2
                   2
                   2
                   2
                   2
                   2
                   2
                   2
                   2
                   2
                   2
                   2
                   2
                   2
                   2
                   2
                   2
                   2
                   2
                   2
                   2
                   2
                   2
                   2
                   2
                   2
                   2
                   2
                   2
                   2
                   2
                   2
                   2
                   2
                   2
                   2
                   2
                   2
                   2
                   2
                   2
                   2
                   2
                   2
                   2
                   2
                   2
                   2
                   2
                   2
                   2
                   2
                   2
                   2
                   2
                   2
                   2
                   2
                   2
                   2
                   2
                   2
                   2
                   2
                   2
                   2
                   2
                   2
                   2
                   2
                   2
                   2
                   2
                   2
                   2
                   2
                   2
                   2
                   2
                   2
                   2
                   2
                   2
                   2
                   2
                   2
                   2
                   2
                   2
                   2
                   2
                   2
                   2
                   2
                   2
                   2
                   2
                   2
                   2
                   2
                   2
                   2
                   2
                   2
                   2
                   2
                   2
                   2
                   2
                   2
                   2
                   2
                   2
                   2
                   2
                   2
                   2
                   2
                   2
                   2
                   2
                   2
                   2
                   2
                   2
                   2
                   2
                   2
                   2
                   2
                   2
                   2
                   2
                   2
                   2
                   2
                   2
                   2
                   2
                   2
                   2
                   2
                   2
                   2
                   2
                   2
                   2
                   2
                   2
                   2
                   2
                   2
                   2
                   2
                   2
                   2
                   2
                   2
                   2
                   2
                   2
                   2
                   2
                   2
                   2
                   2
                   2
                   2
                   2
                   2
                   2
                   2
                   2
                   2
                   2
                   2
                   2
                   2
                   2
                   2
                   2
                   2
                   2
                   2
                   2
                   2
                   2
                   2
                   2
                   2
                   2
                   2
                   2
                   2
                   2
                   2
                   2
                   2
                   2
                   2
                   2
                   2
                   2
                   2
                   2
                   2
                   2
                   2
                   2
                   2
                   2
                   2
                   2
                   2
                   2
                   2
                   2
                   2
                   2
                   2
                   2
                   2
                   2
                   2
                   2
                   2
                   2
                   2
                   2
                   2
                   2
                   2
                   2
                   2
                   2
                   2
                   2
                   2
                   2
                   2
                   2
                   2
                   2
                   2
                   2
                   2
                   2
                   2
                   2
                   2
                   2
                   2
                   2
                   2
                   2
                   2
                   2
                   2
                   2
                   2
                   2
                   2
                   2
                   2
                   2
                   2
                   2
                   2
                   2
  
SCALARS                       fixity_x  double 1
LOOKUP_TABLE default
                   0
                   0
                   0
                   0
                   0
                   0
                   0
                   0
                   0
                   0
                   0
                   0
                   0
                   0
                   0
                   0
                   0
                   0
                   0
                   0
                   0
                   0
                   0
                   0
                   0
                   0
                   0
                   0
                   0
                   0
                   0
                   0
                   0
                   0
                   0
                   0
                   0
                   0
                   0
                   0
                   0
                   0
                   0
                   0
                   0
                   0
                   0
                   0
                   0
                   0
                   0
                   0
                   0
                   0
                   0
                   0
                   0
                   0
                   0
                   0
                   0
                   0
                   0
                   0
                   0
                   0
                   0
                   0
                   0
                   0
                   0
                   0
                   0
                   0
                   0
                   0
                   0
                   0
                   0
                   0
                   0
                   0
                   0
                   0
                   0
                   0
                   0
                   0
                   0
                   0
                   0
                   0
                   0
                   0
                   0
                   0
                   0
                   0
                   0
                   0
                   0
                   0
                   0
                   0
                   0
                   0
                   0
                   0
                   0
                   0
                   0
                   0
                   0
                   0
                   0
                   0
                   0
                   0
                   0
                   0
                   0
                   0
                   0
                   0
                   0
                   0
                   0
                   0
                   0
                   0
                   0
                   0
                   0
                   0
                   0
                   0
                   0
                   0
                   0
                   0
                   0
                   0
                   0
                   0
                   0
                   0
                   0
                   0
                   0
                   0
                   0
                   0
                   0
                   0
                   0
                   0
                   0
                   0
                   0
                   0
                   0
                   0
                   0
                   0
                   0
                   0
                   0
                   0
                   0
                   0
                   0
                   0
                   0
                   0
                   0
                   0
                   0
                   0
                   0
                   0
                   0
                   0
                   0
                   0
                   0
                   0
                   0
                   0
                   0
                   0
                   0
                   0
                   0
                   0
                   0
                   0
                   0
                   0
                   0
                   0
                   0
                   0
                   0
                   0
                   0
                   0
                   0
                   0
                   0
                   0
                   0
                   0
                   0
                   0
                   0
                   0
                   0
                   0
                   0
                   0
                   0
                   0
                   0
                   0
                   0
                   0
                   0
                   0
                   0
                   0
                   0
                   0
                   0
                   0
                   0
                   0
                   0
                   0
                   0
                   0
                   0
                   0
                   0
                   0
                   0
                   0
                   0
                   0
                   0
                   0
                   0
                   0
                   0
                   0
                   0
                   0
                   0
                   0
                   0
                   0
                   0
                   0
                   0
                   0
                   0
                   0
                   0
                   0
                   0
                   0
                   0
                   0
                   0
                   0
                   0
                   0
                   0
                   0
                   0
                   0
                   0
                   0
                   0
                   0
                   0
                   0
                   0
                   0
                   0
                   0
                   0
                   0
                   0
                   0
                   0
                   0
                   0
                   0
                   0
                   0
                   0
                   0
                   0
                   0
                   0
                   0
                   0
                   0
                   0
                   0
                   0
                   0
                   0
                   0
                   0
                   0
                   0
                   0
                   0
                   0
                   0
                   0
                   0
                   0
                   0
                   0
                   0
                   0
                   0
                   0
                   0
                   0
                   0
                   0
                   0
                   0
                   0
                   0
                   0
                   0
                   0
                   0
                   0
                   0
                   0
                   0
                   0
                   0
                   0
                   0
                   0
                   0
                   0
                   0
                   0
                   0
                   0
                   0
                   0
                   0
                   0
                   0
                   0
                   0
                   0
                   0
                   0
                   0
                   0
                   0
                   0
                   0
                   0
                   0
                   0
                   0
                   0
                   0
                   0
                   0
                   0
                   0
                   0
                   0
                   0
                   0
                   0
                   0
                   0
                   0
                   0
                   0
                   0
                   0
                   0
                   0
                   0
                   0
                   0
                   0
                   0
                   0
                   0
                   0
                   0
                   0
                   0
                   0
                   0
                   0
                   0
                   0
                   0
                   0
                   0
                   0
                   0
                   0
                   0
                   0
                   0
                   0
                   0
                   0
                   0
                   0
                   0
                   0
                   0
                   0
                   0
                   0
                   0
                   0
                   0
                   0
                   0
                   0
                   0
                   0
                   0
                   0
                   0
                   0
                   0
                   0
                   0
                   0
                   0
                   0
                   0
                   0
                   0
                   0
                   0
                   0
                   0
                   0
                   0
                   0
                   0
                   0
                   0
                   0
                   0
                   0
                   0
                   0
                   0
                   0
                   0
                   0
                   0
                   0
                   0
                   0
                   0
                   0
                   0
                   0
                   0
                   0
                   0
                   0
                   0
                   0
                   0
                   0
                   0
                   0
                   0
                   0
                   0
                   0
                   0
                   0
                   0
                   0
                   0
                   0
                   0
                   0
                   0
                   0
                   0
                   0
                   0
                   0
                   0
                   0
                   0
                   0
                   0
                   0
                   0
                   0
                   0
                   0
                   0
                   0
                   0
                   0
                   0
                   0
                   0
                   0
                   0
                   0
                   0
                   0
                   0
                   0
                   0
                   0
                   0
                   0
                   0
                   0
                   0
                   0
                   0
                   0
                   0
                   0
                   0
                   0
                   0
                   0
                   0
                   0
                   0
                   0
                   0
                   0
                   0
                   0
                   0
                   0
                   0
                   0
                   0
                   0
                   0
                   0
                   0
                   0
                   0
                   0
                   0
                   0
                   0
                   0
                   0
                   0
                   0
                   0
                   0
                   0
                   0
                   0
                   0
                   0
                   0
                   0
                   0
                   0
                   0
                   0
                   0
                   0
                   0
                   0
                   0
                   0
                   0
                   0
                   0
                   0
                   0
                   0
                   0
                   0
                   0
                   0
                   0
                   0
                   0
                   0
                   0
                   0
                   0
                   0
                   0
                   0
                   0
                   0
                   0
                   0
                   0
                   0
                   0
                   0
                   0
                   0
                   0
                   0
                   0
                   0
                   0
                   0
                   0
                   0
                   0
                   0
                   0
                   0
                   0
                   0
                   0
                   0
                   0
                   0
                   0
                   0
                   0
                   0
                   0
                   0
                   0
                   0
                   0
                   0
                   0
                   0
                   0
                   0
                   0
                   0
                   0
                   0
                   0
                   0
                   0
                   0
                   0
                   0
                   0
                   0
                   0
                   0
                   0
                   0
                   0
                   0
                   0
                   0
                   0
                   0
                   0
                   0
                   0
                   0
                   0
                   0
                   0
                   0
                   0
                   0
                   0
                   0
                   0
                   0
                   0
                   0
                   0
                   0
                   0
                   0
                   0
                   0
                   0
                   0
                   0
                   0
                   0
                   0
                   0
                   0
                   0
                   0
                   0
                   0
                   0
                   0
                   0
                   0
                   0
                   0
                   0
                   0
                   0
                   0
                   0
                   0
                   0
                   0
                   0
                   0
                   0
                   0
                   0
                   0
                   0
                   0
                   0
                   0
                   0
                   0
                   0
                   0
                   0
                   0
                   0
                   0
                   0
                   0
                   0
                   0
                   0
                   0
                   0
                   0
                   0
                   0
                   0
                   0
                   0
                   0
                   0
                   0
                   0
                   0
                   0
                   0
                   0
                   0
                   0
                   0
                   0
                   0
                   0
                   0
                   0
                   0
                   0
                   0
                   0
                   0
                   0
                   0
                   0
                   0
                   0
                   0
                   0
                   0
                   0
                   0
                   0
                   0
                   0
                   0
                   0
                   0
                   0
                   0
                   0
                   0
                   0
                   0
                   0
                   0
                   0
                   0
                   0
                   0
                   0
                   0
                   0
                   0
                   0
                   0
                   0
                   0
                   0
                   0
                   0
                   0
                   0
                   0
                   0
                   0
                   0
                   0
                   0
                   0
                   0
                   0
                   0
                   0
                   0
                   0
                   0
                   0
                   0
                   0
                   0
                   0
                   0
                   0
                   0
                   0
                   0
                   0
                   0
                   0
                   0
                   0
                   0
                   0
                   0
                   0
                   0
                   0
                   0
                   0
                   0
                   0
                   0
                   0
                   0
                   0
                   0
                   0
                   0
                   0
                   0
                   0
                   0
                   0
                   0
                   0
                   0
                   0
                   0
                   0
                   0
                   0
                   0
                   0
                   0
                   0
                   0
                   0
                   0
                   0
                   0
                   0
                   0
                   0
                   0
                   0
                   0
                   0
                   0
                   0
                   0
                   0
                   0
                   0
                   0
                   0
                   0
                   0
                   0
                   0
                   0
                   0
                   0
                   0
                   0
                   0
                   0
                   0
                   0
                   0
                   0
                   0
                   0
                   0
                   0
                   0
                   0
                   0
                   0
                   0
                   0
                   0
                   0
                   0
                   0
                   0
                   0
                   0
                   0
                   0
                   0
                   0
                   0
                   0
                   0
                   0
                   0
                   0
                   0
                   0
                   0
                   0
                   0
                   0
                   0
                   0
                   0
                   0
                   0
                   0
                   0
                   0
                   0
                   0
                   0
                   0
                   0
                   0
                   0
                   0
                   0
                   0
                   0
                   0
                   0
                   0
                   0
                   0
                   0
                   0
                   0
                   0
                   0
                   0
                   0
                   0
                   0
                   0
                   0
                   0
                   0
                   0
                   0
                   0
                   0
                   0
                   0
                   0
                   0
                   0
                   0
                   0
                   0
                   0
                   0
                   0
                   0
                   0
                   0
                   0
                   0
                   0
                   0
                   0
                   0
                   0
                   0
                   0
                   0
                   0
                   0
                   0
                   0
                   0
                   0
                   0
                   0
                   0
                   0
                   0
                   0
                   0
                   0
                   0
                   0
                   0
                   0
                   0
                   0
                   0
                   0
                   0
                   0
                   0
                   0
                   0
                   0
                   0
                   0
                   0
                   0
                   0
                   0
                   0
                   0
                   0
                   0
                   0
                   0
                   0
                   0
                   0
                   0
                   0
                   0
                   0
                   0
                   0
                   0
                   0
                   0
                   0
                   0
                   0
                   0
                   0
                   0
                   0
                   0
                   0
                   0
                   0
                   0
                   0
                   0
                   0
                   0
                   0
                   0
                   0
                   0
                   0
                   0
                   0
                   0
                   0
                   0
                   0
                   0
                   0
                   0
                   0
                   0
                   0
                   0
                   0
                   0
                   0
                   0
                   0
                   0
                   0
                   0
                   0
                   0
                   0
                   0
                   0
                   0
                   0
                   0
                   0
                   0
                   0
                   0
                   0
                   0
                   0
                   0
                   0
                   0
                   0
                   0
                   0
                   0
                   0
                   0
                   0
                   0
                   0
                   0
                   0
                   0
                   0
                   0
                   0
                   0
                   0
                   0
                   0
                   0
                   0
                   0
                   0
                   0
                   0
                   0
                   0
                   0
                   0
                   0
                   0
                   0
                   0
                   0
                   0
                   0
                   0
                   0
                   0
                   0
                   0
                   0
                   0
                   0
                   0
                   0
                   0
                   0
                   0
                   0
                   0
                   0
                   0
                   0
                   0
                   0
                   0
                   0
                   0
                   0
                   0
                   0
                   0
                   0
                   0
                   0
                   0
                   0
                   0
                   0
                   0
                   0
                   0
                   0
                   0
                   0
                   0
                   0
                   0
                   0
                   0
                   0
                   0
                   0
                   0
                   0
                   0
                   0
                   0
                   0
                   0
                   0
                   0
                   0
                   0
                   0
                   0
                   0
                   0
                   0
                   0
                   0
                   0
                   0
                   0
                   0
                   0
                   0
                   0
                   0
                   0
                   0
                   0
                   0
                   0
                   0
                   0
                   0
                   0
                   0
                   0
                   0
                   0
                   0
                   0
                   0
                   0
                   0
                   0
                   0
                   0
                   0
                   0
                   0
                   0
                   0
                   0
                   0
                   0
                   0
                   0
                   0
                   0
                   0
                   0
                   0
                   0
                   0
                   0
                   0
                   0
                   0
                   0
                   0
                   0
                   0
                   0
                   0
                   0
                   0
                   0
                   0
                   0
                   0
                   0
                   0
                   0
                   0
                   0
                   0
                   0
                   0
                   0
                   0
                   0
                   0
                   0
                   0
                   0
                   0
                   0
                   0
                   0
                   0
                   0
                   0
                   0
                   0
                   0
                   0
                   0
                   0
                   0
                   0
                   0
                   0
                   0
                   0
                   0
                   0
                   0
                   0
                   0
                   0
                   0
                   0
                   0
                   0
                   0
                   0
                   0
                   0
                   0
                   0
                   0
                   0
                   0
                   0
                   0
                   0
                   0
                   0
                   0
                   0
                   0
                   0
                   0
                   0
                   0
                   0
                   0
                   0
                   0
                   0
                   0
                   0
                   0
                   0
                   0
                   0
                   0
                   0
                   0
                   0
                   0
                   0
                   0
                   0
                   0
                   0
                   0
                   0
                   0
                   0
                   0
                   0
                   0
                   0
                   0
                   0
                   0
                   0
                   0
                   0
                   0
                   0
                   0
                   0
                   0
                   0
                   0
                   0
                   0
                   0
                   0
                   0
                   0
                   0
                   0
                   0
                   0
                   0
                   0
                   0
                   0
                   0
                   0
                   0
                   0
                   0
                   0
                   0
                   0
                   0
                   0
                   0
                   0
                   0
                   0
                   0
                   0
                   0
                   0
                   0
                   0
                   0
                   0
                   0
                   0
                   0
                   0
                   0
                   0
                   0
                   0
                   0
                   0
                   0
                   0
                   0
                   0
                   0
                   0
                   0
                   0
                   0
                   0
                   0
                   0
                   0
                   0
                   0
                   0
                   0
                   0
                   0
                   0
                   0
                   0
                   0
                   0
                   0
                   0
                   0
                   0
                   0
                   0
                   0
                   0
                   0
                   0
                   0
                   0
                   0
                   0
                   0
                   0
                   0
                   0
                   0
                   0
                   0
                   0
                   0
                   0
                   0
                   0
                   0
                   0
                   0
                   0
                   0
                   0
                   0
                   0
                   0
                   0
                   0
                   0
                   0
                   0
                   0
                   0
                   0
                   0
                   0
                   0
                   0
                   0
                   0
                   0
                   0
                   0
                   0
                   0
                   0
                   0
                   0
                   0
                   0
                   0
                   0
                   0
                   0
                   0
                   0
                   0
                   0
                   0
                   0
                   0
                   0
                   0
                   0
                   0
                   0
                   0
                   0
                   0
                   0
                   0
                   0
                   0
                   0
                   0
                   0
                   0
                   0
                   0
                   0
                   0
                   0
                   0
                   0
                   0
                   0
                   0
                   0
                   0
                   0
                   0
                   0
                   0
                   0
                   0
                   0
                   0
                   0
                   0
                   0
                   0
                   0
                   0
                   0
                   0
                   0
                   0
                   0
                   0
                   0
                   0
                   0
                   0
                   0
                   0
                   0
                   0
                   0
                   0
                   0
                   0
                   0
                   0
                   0
                   0
                   0
                   0
                   0
                   0
                   0
                   0
                   0
                   0
                   0
                   0
                   0
                   0
                   0
                   0
                   0
                   0
                   0
                   0
                   0
                   0
                   0
                   0
                   0
                   0
                   0
                   0
                   0
                   0
                   0
                   0
                   0
                   0
                   0
                   0
                   0
                   0
                   0
                   0
                   0
                   0
                   0
                   0
                   0
                   0
                   0
                   0
                   0
                   0
                   0
                   0
                   0
                   0
                   0
                   0
                   0
                   0
                   0
                   0
                   0
                   0
                   0
                   0
                   0
                   0
                   0
                   0
                   0
                   0
                   0
                   0
                   0
                   0
                   0
                   0
                   0
                   0
                   0
                   0
                   0
                   0
                   0
                   0
                   0
                   0
                   0
                   0
                   0
                   0
                   0
                   0
                   0
                   0
                   0
                   0
                   0
                   0
                   0
                   0
                   0
                   0
                   0
                   0
                   0
                   0
                   0
                   0
                   0
                   0
                   0
                   0
                   0
                   0
                   0
                   0
                   0
                   0
                   0
                   0
                   0
                   0
                   0
                   0
                   0
                   0
                   0
                   0
                   0
                   0
                   0
                   0
                   0
                   0
                   0
                   0
                   0
                   0
                   0
                   0
                   0
                   0
                   0
                   0
                   0
                   0
                   0
                   0
                   0
                   0
                   0
                   0
                   0
                   0
                   0
                   0
                   0
                   0
                   0
                   0
                   0
                   0
                   0
                   0
                   0
                   0
                   0
                   0
                   0
                   0
                   0
                   0
                   0
                   0
                   0
                   0
                   0
                   0
                   0
                   0
                   0
                   0
                   0
                   0
                   0
                   0
                   0
                   0
                   0
                   0
                   0
                   0
                   0
                   0
                   0
                   0
                   0
                   0
                   0
                   0
                   0
                   0
                   0
                   0
                   0
                   0
                   0
                   0
                   0
                   0
                   0
                   0
                   0
                   0
                   0
                   0
                   0
                   0
                   0
                   0
                   0
                   0
                   0
                   0
                   0
                   0
                   0
                   0
                   0
                   0
                   0
                   0
                   0
                   0
                   0
                   0
                   0
                   0
                   0
                   0
                   0
                   0
                   0
                   0
                   0
                   0
                   0
                   0
                   0
                   0
                   0
                   0
                   0
                   0
                   0
                   0
                   0
                   0
                   0
                   0
                   0
                   0
                   0
                   0
                   0
                   0
                   0
                   0
                   0
                   0
                   0
                   0
                   0
                   0
                   0
                   0
                   0
                   0
                   0
                   0
                   0
                   0
                   0
                   0
                   0
                   0
                   0
                   0
                   0
                   0
                   0
                   0
                   0
                   0
                   0
                   0
                   0
                   0
                   0
                   0
                   0
                   0
                   0
                   0
                   0
                   0
                   0
                   0
                   0
                   0
                   0
                   0
                   0
                   0
                   0
                   0
                   0
                   0
                   0
                   0
                   0
                   0
                   0
                   0
                   0
                   0
                   0
                   0
                   0
                   0
                   0
                   0
                   0
                   0
                   0
                   0
                   0
                   0
                   0
                   0
                   0
                   0
                   0
                   0
                   0
                   0
                   0
                   0
                   0
                   0
  
SCALARS                       fixity_y  double 1
LOOKUP_TABLE default
                   0
                   0
                   0
                   0
                   0
                   0
                   0
                   0
                   0
                   0
                   0
                   0
                   0
                   0
                   0
                   0
                   0
                   0
                   0
                   0
                   0
                   0
                   0
                   0
                   0
                   0
                   0
                   0
                   0
                   0
                   0
                   0
                   0
                   0
                   0
                   0
                   0
                   0
                   0
                   0
                   0
                   0
                   0
                   0
                   0
                   0
                   0
                   0
                   0
                   0
                   0
                   0
                   0
                   0
                   0
                   0
                   0
                   0
                   0
                   0
                   0
                   0
                   0
                   0
                   0
                   0
                   0
                   0
                   0
                   0
                   0
                   0
                   0
                   0
                   0
                   0
                   0
                   0
                   0
                   0
                   0
                   0
                   0
                   0
                   0
                   0
                   0
                   0
                   0
                   0
                   0
                   0
                   0
                   0
                   0
                   0
                   0
                   0
                   0
                   0
                   0
                   0
                   0
                   0
                   0
                   0
                   0
                   0
                   0
                   0
                   0
                   0
                   0
                   0
                   0
                   0
                   0
                   0
                   0
                   0
                   0
                   0
                   0
                   0
                   0
                   0
                   0
                   0
                   0
                   0
                   0
                   0
                   0
                   0
                   0
                   0
                   0
                   0
                   0
                   0
                   0
                   0
                   0
                   0
                   0
                   0
                   0
                   0
                   0
                   0
                   0
                   0
                   0
                   0
                   0
                   0
                   0
                   0
                   0
                   0
                   0
                   0
                   0
                   0
                   0
                   0
                   0
                   0
                   0
                   0
                   0
                   0
                   0
                   0
                   0
                   0
                   0
                   0
                   0
                   0
                   0
                   0
                   0
                   0
                   0
                   0
                   0
                   0
                   0
                   0
                   0
                   0
                   0
                   0
                   0
                   0
                   0
                   0
                   0
                   0
                   0
                   0
                   0
                   0
                   0
                   0
                   0
                   0
                   0
                   0
                   0
                   0
                   0
                   0
                   0
                   0
                   0
                   0
                   0
                   0
                   0
                   0
                   0
                   0
                   0
                   0
                   0
                   0
                   0
                   0
                   0
                   0
                   0
                   0
                   0
                   0
                   0
                   0
                   0
                   0
                   0
                   0
                   0
                   0
                   0
                   0
                   0
                   0
                   0
                   0
                   0
                   0
                   0
                   0
                   0
                   0
                   0
                   0
                   0
                   0
                   0
                   0
                   0
                   0
                   0
                   0
                   0
                   0
                   0
                   0
                   0
                   0
                   0
                   0
                   0
                   0
                   0
                   0
                   0
                   0
                   0
                   0
                   0
                   0
                   0
                   0
                   0
                   0
                   0
                   0
                   0
                   0
                   0
                   0
                   0
                   0
                   0
                   0
                   0
                   0
                   0
                   0
                   0
                   0
                   0
                   0
                   0
                   0
                   0
                   0
                   0
                   0
                   0
                   0
                   0
                   0
                   0
                   0
                   0
                   0
                   0
                   0
                   0
                   0
                   0
                   0
                   0
                   0
                   0
                   0
                   0
                   0
                   0
                   0
                   0
                   0
                   0
                   0
                   0
                   0
                   0
                   0
                   0
                   0
                   0
                   0
                   0
                   0
                   0
                   0
                   0
                   0
                   0
                   0
                   0
                   0
                   0
                   0
                   0
                   0
                   0
                   0
                   0
                   0
                   0
                   0
                   0
                   0
                   0
                   0
                   0
                   0
                   0
                   0
                   0
                   0
                   0
                   0
                   0
                   0
                   0
                   0
                   0
                   0
                   0
                   0
                   0
                   0
                   0
                   0
                   0
                   0
                   0
                   0
                   0
                   0
                   0
                   0
                   0
                   0
                   0
                   0
                   0
                   0
                   0
                   0
                   0
                   0
                   0
                   0
                   0
                   0
                   0
                   0
                   0
                   0
                   0
                   0
                   0
                   0
                   0
                   0
                   0
                   0
                   0
                   0
                   0
                   0
                   0
                   0
                   0
                   0
                   0
                   0
                   0
                   0
                   0
                   0
                   0
                   0
                   0
                   0
                   0
                   0
                   0
                   0
                   0
                   0
                   0
                   0
                   0
                   0
                   0
                   0
                   0
                   0
                   0
                   0
                   0
                   0
                   0
                   0
                   0
                   0
                   0
                   0
                   0
                   0
                   0
                   0
                   0
                   0
                   0
                   0
                   0
                   0
                   0
                   0
                   0
                   0
                   0
                   0
                   0
                   0
                   0
                   0
                   0
                   0
                   0
                   0
                   0
                   0
                   0
                   0
                   0
                   0
                   0
                   0
                   0
                   0
                   0
                   0
                   0
                   0
                   0
                   0
                   0
                   0
                   0
                   0
                   0
                   0
                   0
                   0
                   0
                   0
                   0
                   0
                   0
                   0
                   0
                   0
                   0
                   0
                   0
                   0
                   0
                   0
                   0
                   0
                   0
                   0
                   0
                   0
                   0
                   0
                   0
                   0
                   0
                   0
                   0
                   0
                   0
                   0
                   0
                   0
                   0
                   0
                   0
                   0
                   0
                   0
                   0
                   0
                   0
                   0
                   0
                   0
                   0
                   0
                   0
                   0
                   0
                   0
                   0
                   0
                   0
                   0
                   0
                   0
                   0
                   0
                   0
                   0
                   0
                   0
                   0
                   0
                   0
                   0
                   0
                   0
                   0
                   0
                   0
                   0
                   0
                   0
                   0
                   0
                   0
                   0
                   0
                   0
                   0
                   0
                   0
                   0
                   0
                   0
                   0
                   0
                   0
                   0
                   0
                   0
                   0
                   0
                   0
                   0
                   0
                   0
                   0
                   0
                   0
                   0
                   0
                   0
                   0
                   0
                   0
                   0
                   0
                   0
                   0
                   0
                   0
                   0
                   0
                   0
                   0
                   0
                   0
                   0
                   0
                   0
                   0
                   0
                   0
                   0
                   0
                   0
                   0
                   0
                   0
                   0
                   0
                   0
                   0
                   0
                   0
                   0
                   0
                   0
                   0
                   0
                   0
                   0
                   0
                   0
                   0
                   0
                   0
                   0
                   0
                   0
                   0
                   0
                   0
                   0
                   0
                   0
                   0
                   0
                   0
                   0
                   0
                   0
                   0
                   0
                   0
                   0
                   0
                   0
                   0
                   0
                   0
                   0
                   0
                   0
                   0
                   0
                   0
                   0
                   0
                   0
                   0
                   0
                   0
                   0
                   0
                   0
                   0
                   0
                   0
                   0
                   0
                   0
                   0
                   0
                   0
                   0
                   0
                   0
                   0
                   0
                   0
                   0
                   0
                   0
                   0
                   0
                   0
                   0
                   0
                   0
                   0
                   0
                   0
                   0
                   0
                   0
                   0
                   0
                   0
                   0
                   0
                   0
                   0
                   0
                   0
                   0
                   0
                   0
                   0
                   0
                   0
                   0
                   0
                   0
                   0
                   0
                   0
                   0
                   0
                   0
                   0
                   0
                   0
                   0
                   0
                   0
                   0
                   0
                   0
                   0
                   0
                   0
                   0
                   0
                   0
                   0
                   0
                   0
                   0
                   0
                   0
                   0
                   0
                   0
                   0
                   0
                   0
                   0
                   0
                   0
                   0
                   0
                   0
                   0
                   0
                   0
                   0
                   0
                   0
                   0
                   0
                   0
                   0
                   0
                   0
                   0
                   0
                   0
                   0
                   0
                   0
                   0
                   0
                   0
                   0
                   0
                   0
                   0
                   0
                   0
                   0
                   0
                   0
                   0
                   0
                   0
                   0
                   0
                   0
                   0
                   0
                   0
                   0
                   0
                   0
                   0
                   0
                   0
                   0
                   0
                   0
                   0
                   0
                   0
                   0
                   0
                   0
                   0
                   0
                   0
                   0
                   0
                   0
                   0
                   0
                   0
                   0
                   0
                   0
                   0
                   0
                   0
                   0
                   0
                   0
                   0
                   0
                   0
                   0
                   0
                   0
                   0
                   0
                   0
                   0
                   0
                   0
                   0
                   0
                   0
                   0
                   0
                   0
                   0
                   0
                   0
                   0
                   0
                   0
                   0
                   0
                   0
                   0
                   0
                   0
                   0
                   0
                   0
                   0
                   0
                   0
                   0
                   0
                   0
                   0
                   0
                   0
                   0
                   0
                   0
                   0
                   0
                   0
                   0
                   0
                   0
                   0
                   0
                   0
                   0
                   0
                   0
                   0
                   0
                   0
                   0
                   0
                   0
                   0
                   0
                   0
                   0
                   0
                   0
                   0
                   0
                   0
                   0
                   0
                   0
                   0
                   0
                   0
                   0
                   0
                   0
                   0
                   0
                   0
                   0
                   0
                   0
                   0
                   0
                   0
                   0
                   0
                   0
                   0
                   0
                   0
                   0
                   0
                   0
                   0
                   0
                   0
                   0
                   0
                   0
                   0
                   0
                   0
                   0
                   0
                   0
                   0
                   0
                   0
                   0
                   0
                   0
                   0
                   0
                   0
                   0
                   0
                   0
                   0
                   0
                   0
                   0
                   0
                   0
                   0
                   0
                   0
                   0
                   0
                   0
                   0
                   0
                   0
                   0
                   0
                   0
                   0
                   0
                   0
                   0
                   0
                   0
                   0
                   0
                   0
                   0
                   0
                   0
                   0
                   0
                   0
                   0
                   0
                   0
                   0
                   0
                   0
                   0
                   0
                   0
                   0
                   0
                   0
                   0
                   0
                   0
                   0
                   0
                   0
                   0
                   0
                   0
                   0
                   0
                   0
                   0
                   0
                   0
                   0
                   0
                   0
                   0
                   0
                   0
                   0
                   0
                   0
                   0
                   0
                   0
                   0
                   0
                   0
                   0
                   0
                   0
                   0
                   0
                   0
                   0
                   0
                   0
                   0
                   0
                   0
                   0
                   0
                   0
                   0
                   0
                   0
                   0
                   0
                   0
                   0
                   0
                   0
                   0
                   0
                   0
                   0
                   0
                   0
                   0
                   0
                   0
                   0
                   0
                   0
                   0
                   0
                   0
                   0
                   0
                   0
                   0
                   0
                   0
                   0
                   0
                   0
                   0
                   0
                   0
                   0
                   0
                   0
                   0
                   0
                   0
                   0
                   0
                   0
                   0
                   0
                   0
                   0
                   0
                   0
                   0
                   0
                   0
                   0
                   0
                   0
                   0
                   0
                   0
                   0
                   0
                   0
                   0
                   0
                   0
                   0
                   0
                   0
                   0
                   0
                   0
                   0
                   0
                   0
                   0
                   0
                   0
                   0
                   0
                   0
                   0
                   0
                   0
                   0
                   0
                   0
                   0
                   0
                   0
                   0
                   0
                   0
                   0
                   0
                   0
                   0
                   0
                   0
                   0
                   0
                   0
                   0
                   0
                   0
                   0
                   0
                   0
                   0
                   0
                   0
                   0
                   0
                   0
                   0
                   0
                   0
                   0
                   0
                   0
                   0
                   0
                   0
                   0
                   0
                   0
                   0
                   0
                   0
                   0
                   0
                   0
                   0
                   0
                   0
                   0
                   0
                   0
                   0
                   0
                   0
                   0
                   0
                   0
                   0
                   0
                   0
                   0
                   0
                   0
                   0
                   0
                   0
                   0
                   0
                   0
                   0
                   0
                   0
                   0
                   0
                   0
                   0
                   0
                   0
                   0
                   0
                   0
                   0
                   0
                   0
                   0
                   0
                   0
                   0
                   0
                   0
                   0
                   0
                   0
                   0
                   0
                   0
                   0
                   0
                   0
                   0
                   0
                   0
                   0
                   0
                   0
                   0
                   0
                   0
                   0
                   0
                   0
                   0
                   0
                   0
                   0
                   0
                   0
                   0
                   0
                   0
                   0
                   0
                   0
                   0
                   0
                   0
                   0
                   0
                   0
                   0
                   0
                   0
                   0
                   0
                   0
                   0
                   0
                   0
                   0
                   0
                   0
                   0
                   0
                   0
                   0
                   0
                   0
                   0
                   0
                   0
                   0
                   0
                   0
                   0
                   0
                   0
                   0
                   0
                   0
                   0
                   0
                   0
                   0
                   0
                   0
                   0
                   0
                   0
                   0
                   0
                   0
                   0
                   0
                   0
                   0
                   0
                   0
                   0
                   0
                   0
                   0
                   0
                   0
                   0
                   0
                   0
                   0
                   0
                   0
                   0
                   0
                   0
                   0
                   0
                   0
                   0
                   0
                   0
                   0
                   0
                   0
                   0
                   0
                   0
                   0
                   0
                   0
                   0
                   0
                   0
                   0
                   0
                   0
                   0
                   0
                   0
                   0
                   0
                   0
                   0
                   0
                   0
                   0
                   0
                   0
                   0
                   0
                   0
                   0
                   0
                   0
                   0
                   0
                   0
                   0
                   0
                   0
                   0
                   0
                   0
                   0
                   0
                   0
                   0
                   0
                   0
                   0
                   0
                   0
                   0
                   0
                   0
                   0
                   0
                   0
                   0
                   0
                   0
                   0
                   0
                   0
                   0
                   0
                   0
                   0
                   0
                   0
                   0
                   0
                   0
                   0
                   0
                   0
                   0
                   0
                   0
                   0
                   0
                   0
                   0
                   0
                   0
                   0
                   0
                   0
                   0
                   0
                   0
                   0
                   0
                   0
                   0
                   0
                   0
                   0
                   0
                   0
                   0
                   0
                   0
                   0
                   0
                   0
                   0
                   0
                   0
                   0
                   0
                   0
                   0
                   0
                   0
                   0
                   0
                   0
                   0
                   0
                   0
                   0
                   0
                   0
                   0
                   0
                   0
                   0
                   0
                   0
                   0
                   0
                   0
                   0
                   0
                   0
                   0
                   0
                   0
                   0
                   0
                   0
                   0
                   0
                   0
                   0
                   0
                   0
                   0
                   0
                   0
                   0
                   0
                   0
                   0
                   0
                   0
                   0
                   0
                   0
                   0
                   0
                   0
                   0
                   0
                   0
                   0
                   0
                   0
                   0
                   0
                   0
                   0
                   0
                   0
                   0
                   0
                   0
                   0
                   0
                   0
                   0
                   0
                   0
                   0
                   0
                   0
                   0
                   0
                   0
                   0
                   0
                   0
                   0
                   0
                   0
                   0
                   0
                   0
                   0
                   0
                   0
                   0
                   0
                   0
                   0
                   0
                   0
                   0
                   0
                   0
                   0
                   0
                   0
                   0
                   0
                   0
                   0
                   0
                   0
                   0
                   0
                   0
                   0
                   0
                   0
                   0
                   0
                   0
                   0
                   0
                   0
                   0
                   0
                   0
                   0
                   0
                   0
                   0
                   0
                   0
                   0
                   0
                   0
                   0
                   0
                   0
                   0
                   0
                   0
                   0
                   0
                   0
                   0
                   0
                   0
                   0
                   0
                   0
                   0
                   0
                   0
                   0
                   0
                   0
                   0
                   0
                   0
                   0
                   0
                   0
                   0
                   0
                   0
                   0
                   0
                   0
                   0
                   0
                   0
                   0
                   0
                   0
                   0
                   0
                   0
                   0
                   0
                   0
                   0
                   0
                   0
                   0
                   0
                   0
                   0
                   0
                   0
                   0
                   0
                   0
                   0
                   0
                   0
                   0
                   0
                   0
                   0
                   0
                   0
                   0
                   0
                   0
                   0
                   0
                   0
                   0
                   0
                   0
                   0
                   0
                   0
                   0
                   0
                   0
                   0
                   0
                   0
                   0
                   0
                   0
                   0
                   0
                   0
                   0
                   0
                   0
                   0
                   0
                   0
                   0
                   0
                   0
                   0
                   0
                   0
                   0
                   0
                   0
                   0
                   0
                   0
                   0
                   0
                   0
                   0
                   0
                   0
                   0
                   0
                   0
                   0
                   0
                   0
                   0
                   0
                   0
                   0
                   0
                   0
                   0
                   0
                   0
                   0
                   0
                   0
                   0
                   0
                   0
                   0
                   0
                   0
                   0
                   0
                   0
                   0
                   0
                   0
                   0
                   0
                   0
                   0
                   0
                   0
                   0
                   0
                   0
                   0
                   0
                   0
                   0
                   0
                   0
                   0
                   0
                   0
                   0
                   0
                   0
                   0
                   0
                   0
                   0
                   0
                   0
                   0
                   0
                   0
                   0
                   0
                   0
                   0
                   0
                   0
                   0
                   0
                   0
                   0
                   0
                   0
                   0
                   0
                   0
                   0
                   0
                   0
                   0
                   0
                   0
                   0
                   0
                   0
                   0
                   0
                   0
                   0
                   0
                   0
                   0
                   0
                   0
                   0
                   0
                   0
                   0
                   0
                   0
                   0
                   0
                   0
                   0
                   0
                   0
                   0
                   0
                   0
                   0
                   0
                   0
                   0
                   0
                   0
                   0
                   0
                   0
                   0
                   0
                   0
                   0
                   0
                   0
                   0
                   0
                   0
                   0
                   0
                   0
                   0
                   0
                   0
                   0
                   0
                   0
                   0
                   0
                   0
                   0
                   0
                   0
                   0
                   0
                   0
                   0
                   0
                   0
                   0
                   0
                   0
                   0
                   0
                   0
                   0
                   0
                   0
                   0
                   0
                   0
                   0
                   0
                   0
                   0
                   0
                   0
                   0
                   0
                   0
                   0
                   0
                   0
                   0
                   0
                   0
                   0
                   0
                   0
                   0
                   0
                   0
                   0
                   0
                   0
                   0
                   0
                   0
                   0
                   0
                   0
                   0
                   0
                   0
                   0
                   0
                   0
                   0
                   0
                   0
                   0
                   0
                   0
                   0
                   0
                   0
                   0
                   0
                   0
                   0
                   0
                   0
                   0
                   0
                   0
                   0
                   0
                   0
                   0
                   0
                   0
                   0
                   0
                   0
                   0
                   0
                   0
                   0
                   0
                   0
                   0
                   0
                   0
                   0
                   0
                   0
  
SCALARS                       fixity_z  double 1
LOOKUP_TABLE default
                   0
                   0
                   0
                   0
                   1
                   1
                   1
                   1
                   0
                   0
                   1
                   1
                   0
                   0
                   1
                   1
                   0
                   0
                   1
                   1
                   0
                   0
                   0
                   1
                   1
                   1
                   0
                   0
                   1
                   1
                   0
                   0
                   0
                   1
                   1
                   1
                   0
                   0
                   1
                   1
                   0
                   0
                   1
                   1
                   0
                   0
                   1
                   1
                   0
                   1
                   0
                   1
                   0
                   1
                   0
                   1
                   0
                   0
                   1
                   1
                   0
                   0
                   1
                   1
                   0
                   1
                   0
                   1
                   0
                   0
                   1
                   1
                   0
                   1
                   0
                   1
                   0
                   1
                   0
                   1
                   0
                   0
                   1
                   1
                   0
                   1
                   0
                   1
                   0
                   1
                   0
                   0
                   1
                   1
                   0
                   1
                   0
                   1
                   0
                   1
                   0
                   0
                   1
                   1
                   0
                   0
                   1
                   1
                   0
                   1
                   0
                   1
                   0
                   1
                   0
                   1
                   0
                   1
                   0
                   1
                   0
                   1
                   0
                   1
                   0
                   1
                   0
                   1
                   0
                   1
                   0
                   1
                   0
                   1
                   0
                   1
                   0
                   1
                   0
                   1
                   0
                   1
                   0
                   1
                   0
                   1
                   0
                   1
                   0
                   1
                   0
                   1
                   0
                   1
                   0
                   1
                   0
                   0
                   0
                   0
                   0
                   0
                   0
                   0
                   0
                   0
                   0
                   0
                   0
                   0
                   0
                   0
                   0
                   0
                   0
                   0
                   0
                   0
                   0
                   0
                   0
                   0
                   0
                   0
                   0
                   0
                   0
                   0
                   0
                   0
                   0
                   0
                   0
                   0
                   0
                   0
                   0
                   0
                   0
                   0
                   0
                   0
                   0
                   0
                   0
                   0
                   0
                   0
                   0
                   0
                   0
                   0
                   0
                   0
                   0
                   0
                   0
                   0
                   0
                   0
                   0
                   0
                   0
                   0
                   0
                   0
                   0
                   0
                   0
                   0
                   0
                   0
                   0
                   0
                   0
                   0
                   0
                   0
                   0
                   0
                   0
                   0
                   0
                   0
                   0
                   0
                   0
                   0
                   0
                   0
                   0
                   0
                   0
                   0
                   0
                   0
                   0
                   0
                   0
                   0
                   0
                   0
                   0
                   0
                   0
                   0
                   0
                   0
                   0
                   0
                   0
                   0
                   0
                   0
                   0
                   0
                   0
                   0
                   0
                   0
                   0
                   0
                   0
                   0
                   0
                   0
                   0
                   0
                   0
                   0
                   0
                   0
                   0
                   0
                   0
                   0
                   0
                   0
                   0
                   0
                   0
                   0
                   0
                   0
                   0
                   0
                   0
                   0
                   0
                   0
                   0
                   0
                   0
                   0
                   0
                   0
                   0
                   0
                   0
                   0
                   0
                   0
                   0
                   0
                   0
                   0
                   0
                   0
                   0
                   0
                   0
                   0
                   0
                   0
                   0
                   0
                   0
                   0
                   0
                   0
                   0
                   0
                   0
                   0
                   0
                   0
                   0
                   0
                   0
                   0
                   0
                   0
                   0
                   0
                   0
                   0
                   0
                   0
                   0
                   0
                   0
                   0
                   0
                   0
                   0
                   0
                   0
                   0
                   0
                   0
                   0
                   0
                   0
                   0
                   0
                   0
                   0
                   0
                   0
                   0
                   0
                   0
                   0
                   0
                   0
                   0
                   0
                   0
                   0
                   0
                   0
                   0
                   0
                   0
                   0
                   0
                   0
                   0
                   0
                   0
                   0
                   0
                   0
                   0
                   0
                   0
                   0
                   0
                   0
                   0
                   0
                   0
                   0
                   0
                   0
                   0
                   0
                   0
                   0
                   0
                   0
                   0
                   0
                   0
                   0
                   0
                   0
                   0
                   0
                   0
                   0
                   0
                   0
                   0
                   0
                   0
                   0
                   0
                   0
                   0
                   0
                   0
                   0
                   0
                   0
                   0
                   0
                   0
                   0
                   0
                   0
                   0
                   0
                   0
                   0
                   0
                   0
                   0
                   0
                   0
                   0
                   0
                   0
                   0
                   0
                   0
                   0
                   0
                   0
                   0
                   0
                   0
                   0
                   0
                   0
                   0
                   0
                   0
                   0
                   0
                   0
                   0
                   0
                   0
                   0
                   0
                   0
                   0
                   0
                   0
                   0
                   0
                   0
                   0
                   0
                   0
                   0
                   0
                   0
                   0
                   0
                   0
                   0
                   0
                   0
                   0
                   0
                   0
                   0
                   0
                   0
                   0
                   0
                   0
                   0
                   0
                   0
                   0
                   0
                   0
                   0
                   0
                   0
                   0
                   0
                   0
                   0
                   0
                   0
                   0
                   0
                   0
                   0
                   0
                   0
                   0
                   0
                   0
                   0
                   0
                   0
                   0
                   0
                   0
                   0
                   0
                   0
                   0
                   0
                   0
                   0
                   0
                   0
                   0
                   0
                   0
                   0
                   0
                   0
                   0
                   0
                   0
                   0
                   0
                   0
                   0
                   0
                   0
                   0
                   0
                   0
                   0
                   0
                   0
                   0
                   0
                   0
                   0
                   0
                   0
                   0
                   0
                   0
                   0
                   0
                   0
                   0
                   0
                   0
                   0
                   0
                   0
                   0
                   0
                   0
                   0
                   0
                   0
                   0
                   0
                   0
                   0
                   0
                   0
                   0
                   0
                   0
                   0
                   0
                   0
                   0
                   0
                   0
                   0
                   0
                   0
                   0
                   0
                   0
                   0
                   0
                   0
                   0
                   0
                   0
                   0
                   0
                   0
                   0
                   0
                   0
                   0
                   0
                   0
                   0
                   0
                   0
                   0
                   0
                   0
                   0
                   0
                   0
                   0
                   0
                   0
                   0
                   0
                   0
                   0
                   0
                   0
                   0
                   0
                   0
                   0
                   0
                   0
                   0
                   0
                   0
                   0
                   0
                   0
                   0
                   0
                   0
                   0
                   0
                   0
                   0
                   0
                   0
                   0
                   0
                   0
                   0
                   0
                   0
                   0
                   0
                   0
                   0
                   0
                   0
                   0
                   0
                   0
                   0
                   0
                   0
                   0
                   0
                   0
                   0
                   0
                   0
                   0
                   0
                   0
                   0
                   0
                   0
                   0
                   0
                   0
                   0
                   0
                   0
                   0
                   0
                   0
                   0
                   0
                   0
                   0
                   0
                   0
                   0
                   0
                   0
                   0
                   0
                   0
                   0
                   0
                   0
                   0
                   0
                   0
                   0
                   0
                   0
                   0
                   0
                   0
                   0
                   0
                   0
                   0
                   0
                   0
                   0
                   0
                   0
                   0
                   0
                   0
                   0
                   0
                   0
                   0
                   0
                   0
                   0
                   0
                   0
                   0
                   0
                   0
                   0
                   0
                   0
                   0
                   0
                   0
                   0
                   0
                   0
                   0
                   0
                   0
                   0
                   0
                   0
                   0
                   0
                   0
                   0
                   0
                   0
                   0
                   0
                   0
                   0
                   0
                   0
                   0
                   0
                   0
                   0
                   0
                   0
                   0
                   0
                   0
                   0
                   0
                   0
                   0
                   0
                   0
                   0
                   0
                   0
                   0
                   0
                   0
                   0
                   0
                   0
                   0
                   0
                   0
                   0
                   0
                   0
                   0
                   0
                   0
                   0
                   0
                   0
                   0
                   0
                   0
                   0
                   0
                   0
                   0
                   0
                   0
                   0
                   0
                   0
                   0
                   0
                   0
                   0
                   0
                   0
                   0
                   0
                   0
                   0
                   0
                   0
                   0
                   0
                   0
                   0
                   0
                   0
                   0
                   0
                   0
                   0
                   0
                   0
                   0
                   0
                   0
                   0
                   0
                   0
                   0
                   0
                   0
                   0
                   0
                   0
                   0
                   0
                   0
                   0
                   0
                   0
                   0
                   0
                   0
                   0
                   0
                   0
                   0
                   0
                   0
                   0
                   0
                   0
                   0
                   0
                   0
                   0
                   0
                   0
                   0
                   0
                   0
                   0
                   0
                   0
                   0
                   0
                   0
                   0
                   0
                   0
                   0
                   0
                   0
                   0
                   0
                   0
                   0
                   0
                   0
                   0
                   0
                   0
                   0
                   0
                   0
                   0
                   0
                   0
                   0
                   0
                   0
                   0
                   0
                   0
                   0
                   0
                   0
                   0
                   0
                   0
                   0
                   0
                   0
                   0
                   0
                   0
                   0
                   0
                   0
                   0
                   0
                   0
                   0
                   0
                   0
                   0
                   0
                   0
                   0
                   0
                   0
                   0
                   0
                   0
                   0
                   0
                   0
                   0
                   0
                   0
                   0
                   0
                   0
                   0
                   0
                   0
                   0
                   0
                   0
                   0
                   0
                   0
                   0
                   0
                   0
                   0
                   0
                   0
                   0
                   0
                   0
                   0
                   0
                   0
                   0
                   0
                   0
                   0
                   0
                   0
                   0
                   0
                   0
                   0
                   0
                   0
                   0
                   0
                   0
                   0
                   0
                   0
                   0
                   0
                   0
                   0
                   0
                   0
                   0
                   0
                   0
                   0
                   0
                   0
                   0
                   0
                   0
                   0
                   0
                   0
                   0
                   0
                   0
                   0
                   0
                   0
                   0
                   0
                   0
                   0
                   0
                   0
                   0
                   0
                   0
                   0
                   0
                   0
                   0
                   0
                   0
                   0
                   0
                   0
                   0
                   0
                   0
                   0
                   0
                   0
                   0
                   0
                   0
                   0
                   0
                   0
                   0
                   0
                   0
                   0
                   0
                   0
                   0
                   0
                   0
                   0
                   0
                   0
                   0
                   0
                   0
                   0
                   0
                   0
                   0
                   0
                   0
                   0
                   0
                   0
                   0
                   0
                   0
                   0
                   0
                   0
                   0
                   0
                   0
                   0
                   0
                   0
                   0
                   0
                   0
                   0
                   0
                   0
                   0
                   0
                   0
                   0
                   0
                   0
                   0
                   0
                   0
                   0
                   0
                   0
                   0
                   0
                   0
                   0
                   0
                   0
                   0
                   0
                   0
                   0
                   0
                   0
                   0
                   0
                   0
                   0
                   0
                   0
                   0
                   0
                   0
                   0
                   0
                   0
                   0
                   0
                   0
                   0
                   0
                   0
                   0
                   0
                   0
                   0
                   0
                   0
                   0
                   0
                   0
                   0
                   0
                   0
                   0
                   0
                   0
                   0
                   0
                   0
                   0
                   0
                   0
                   0
                   0
                   0
                   0
                   0
                   0
                   0
                   0
                   0
                   0
                   0
                   0
                   0
                   0
                   0
                   0
                   0
                   0
                   0
                   0
                   0
                   0
                   0
                   0
                   0
                   0
                   0
                   0
                   0
                   0
                   0
                   0
                   0
                   0
                   0
                   0
                   0
                   0
                   0
                   0
                   0
                   0
                   0
                   0
                   0
                   0
                   0
                   0
                   0
                   0
                   0
                   0
                   0
                   0
                   0
                   0
                   0
                   0
                   0
                   0
                   0
                   0
                   0
                   0
                   0
                   0
                   0
                   0
                   0
                   0
                   0
                   0
                   0
                   0
                   0
                   0
                   0
                   0
                   0
                   0
                   0
                   0
                   0
                   0
                   0
                   0
                   0
                   0
                   0
                   0
                   0
                   0
                   0
                   0
                   0
                   0
                   0
                   0
                   0
                   0
                   0
                   0
                   0
                   0
                   0
                   0
                   0
                   0
                   0
                   0
                   0
                   0
                   0
                   0
                   0
                   0
                   0
                   0
                   0
                   0
                   0
                   0
                   0
                   0
                   0
                   0
                   0
                   0
                   0
                   0
                   0
                   0
                   0
                   0
                   0
                   0
                   0
                   0
                   0
                   0
                   0
                   0
                   0
                   0
                   0
                   0
                   0
                   0
                   0
                   0
                   0
                   0
                   0
                   0
                   0
                   0
                   0
                   0
                   0
                   0
                   0
                   0
                   0
                   0
                   0
                   0
                   0
                   0
                   0
                   0
                   0
                   0
                   0
                   0
                   0
                   0
                   0
                   0
                   0
                   0
                   0
                   0
                   0
                   0
                   0
                   0
                   0
                   0
                   0
                   0
                   0
                   0
                   0
                   0
                   0
                   0
                   0
                   0
                   0
                   0
                   0
                   0
                   0
                   0
                   0
                   0
                   0
                   0
                   0
                   0
                   0
                   0
                   0
                   0
                   0
                   0
                   0
                   0
                   0
                   0
                   0
                   0
                   0
                   0
                   0
                   0
                   0
                   0
                   0
                   0
                   0
                   0
                   0
                   0
                   0
                   0
                   0
                   0
                   0
                   0
                   0
                   0
                   0
                   0
                   0
                   0
                   0
                   0
                   0
                   0
                   0
                   0
                   0
                   0
                   0
                   0
                   0
                   0
                   0
                   0
                   0
                   0
                   0
                   0
                   0
                   0
                   0
                   0
                   0
                   0
                   0
                   0
                   0
                   0
                   0
                   0
                   0
                   0
                   0
                   0
                   0
                   0
                   0
                   0
                   0
                   0
                   0
                   0
                   0
                   0
                   0
                   0
                   0
                   0
                   0
                   0
                   0
                   0
                   0
                   0
                   0
                   0
                   0
                   0
                   0
                   0
                   0
                   0
                   0
                   0
                   0
                   0
                   0
                   0
                   0
                   0
                   0
                   0
                   0
                   0
                   0
                   0
                   0
                   0
                   0
                   0
                   0
                   0
                   0
                   0
                   0
                   0
                   0
                   0
                   0
                   0
                   0
                   0
                   0
                   0
                   0
                   0
                   0
                   0
                   0
                   0
                   0
                   0
                   0
                   0
                   0
                   0
                   0
                   0
                   0
                   0
                   0
                   0
                   0
                   0
                   0
                   0
                   0
                   0
                   0
                   0
                   0
                   0
                   0
                   0
                   0
                   0
                   0
                   0
                   0
                   0
                   0
                   0
                   0
                   0
                   0
                   0
                   0
                   0
                   0
                   0
                   0
                   0
                   0
                   0
                   0
                   0
                   0
                   0
                   0
                   0
                   0
                   0
                   0
                   0
                   0
                   0
                   0
                   0
                   0
                   0
                   0
                   0
                   0
                   0
                   0
                   0
                   0
                   0
                   0
                   0
                   0
                   0
                   0
                   0
                   0
                   0
                   0
                   0
                   0
                   0
                   0
                   0
                   0
                   0
                   0
                   0
                   0
                   0
                   0
                   0
                   0
                   0
                   0
                   0
                   0
                   0
                   0
                   0
                   0
                   0
                   0
                   0
                   0
                   0
                   0
                   0
                   0
                   0
                   0
                   0
                   0
                   0
                   0
                   0
                   0
                   0
                   0
                   0
                   0
                   0
                   0
                   0
                   0
                   0
                   0
                   0
                   0
                   0
                   0
                   0
                   0
                   0
                   0
                   0
                   0
                   0
                   0
                   0
                   0
                   0
                   0
                   0
                   0
                   0
                   0
                   0
                   0
                   0
                   0
                   0
                   0
                   0
                   0
                   0
                   0
                   0
                   0
                   0
                   0
                   0
                   0
                   0
                   0
                   0
                   0
                   0
                   0
                   0
                   0
                   0
                   0
                   0
                   0
                   0
                   0
                   0
                   0
                   0
                   0
                   0
                   0
                   0
                   0
                   0
                   0
                   0
                   0
                   0
                   0
                   0
                   0
                   0
                   0
                   0
                   0
                   0
                   0
                   0
                   0
                   0
                   0
                   0
                   0
                   0
                   0
                   0
                   0
                   0
                   0
                   0
                   0
                   0
                   0
                   0
                   0
                   0
                   0
                   0
                   0
                   0
                   0
                   0
                   0
                   0
                   0
                   0
                   0
                   0
                   0
                   0
                   0
                   0
                   0
                   0
                   0
                   0
                   0
                   0
                   0
                   0
                   0
                   0
                   0
                   0
                   0
                   0
                   0
                   0
                   0
                   0
                   0
                   0
                   0
                   0
                   0
                   0
                   0
                   0
                   0
                   0
                   0
                   0
                   0
                   0
                   0
                   0
                   0
                   0
                   0
                   0
                   0
                   0
                   0
                   0
                   0
                   0
                   0
                   0
                   0
                   0
                   0
                   0
                   0
                   0
                   0
                   0
                   0
                   0
                   0
                   0
                   0
                   0
                   0
                   0
                   0
                   0
                   0
                   0
                   0
                   0
                   0
                   0
                   0
                   0
                   0
                   0
                   0
                   0
                   0
                   0
                   0
                   0
                   0
                   0
                   0
                   0
                   0
                   0
                   0
                   0
                   0
                   0
                   0
                   0
                   0
                   0
                   0
                   0
                   0
                   0
                   0
                   0
                   0
                   0
                   0
                   0
                   0
                   0
                   0
                   0
                   0
                   0
                   0
                   0
                   0
                   0
                   0
                   0
                   0
                   0
                   0
                   0
                   0
                   0
                   0
                   0
                   0
                   0
                   0
                   0
                   0
                   0
                   0
                   0
                   0
                   0
                   0
                   0
                   0
                   0
                   0
                   0
                   0
                   0
                   0
                   0
                   0
                   0
                   0
                   0
                   0
                   0
                   0
                   0
                   0
                   0
                   0
                   0
                   0
                   0
                   0
                   0
                   0
                   0
                   0
                   0
                   0
                   0
                   0
                   0
                   0
                   0
                   0
                   0
                   0
                   0
                   0
                   0
                   0
                   0
                   0
                   0
                   0
                   0
                   0
                   0
                   0
                   0
                   0
                   0
                   0
                   0
                   0
                   0
                   0
                   0
                   0
                   0
                   0
                   0
                   0
                   0
                   0
                   0
                   0
                   0
  
SCALARS                         Ispace  double 1
LOOKUP_TABLE default
                  12
                  12
                  12
                  12
                  12
                  12
                  12
                  12
                  12
                  12
                  12
                  12
                  12
                  11
                  12
                  11
                  11
                  11
                  11
                  11
                  11
                  12
                  12
                  11
                  12
                  12
                  11
                  11
                  11
                  11
                  11
                  11
                  11
                  11
                  11
                  11
                  11
                  11
                  11
                  11
                  11
                  11
                  11
                  11
                  11
                  11
                  11
                  11
                  11
                  11
                  11
                  11
                  11
                  11
                  11
                  11
                  11
                  11
                  11
                  11
                  11
                  11
                  11
                  11
                  11
                  11
                  12
                  12
                  12
                  12
                  12
                  12
                  12
                  12
                  11
                  11
                  11
                  11
                  11
                  11
                  11
                  11
                  11
                  11
                  11
                  11
                  11
                  11
                  11
                  11
                  11
                  11
                  11
                  11
                  11
                  11
                  12
                  12
                  12
                  12
                  12
                  12
                  12
                  12
                  12
                  12
                  12
                  12
                  12
                  12
                  12
                  12
                  12
                  12
                  12
                  12
                  11
                  11
                  11
                  11
                  11
                  11
                  11
                  11
                  11
                  11
                  11
                  11
                  11
                  11
                  11
                  11
                  11
                  11
                  11
                  11
                  11
                  11
                  11
                  11
                  11
                  11
                  11
                  11
                  11
                  11
                  12
                  12
                  12
                  12
                  12
                  12
                  12
                  12
                  12
                  12
                  12
                  12
                  12
                  12
                  12
                  12
                  12
                  11
                  11
                  11
                  11
                  12
                  12
                  11
                  11
                  11
                  11
                  11
                  11
                  11
                  11
                  11
                  11
                  11
                  11
                  11
                  11
                  11
                  11
                  11
                  11
                  11
                  11
                  12
                  12
                  12
                  12
                  11
                  11
                  11
                  11
                  11
                  11
                  11
                  11
                  11
                  11
                  11
                  12
                  12
                  12
                  12
                  12
                  12
                  12
                  12
                  12
                  12
                  11
                  11
                  11
                  11
                  11
                  11
                  11
                  11
                  11
                  11
                  11
                  11
                  11
                  11
                  11
                  12
                  12
                  12
                  12
                  12
                  12
                  12
                  12
                  12
                  12
                  12
                  12
                  11
                  11
                  11
                  11
                  12
                  12
                  11
                  11
                  11
                  11
                  11
                  11
                  11
                  11
                  11
                  11
                  11
                  11
                  11
                  11
                  11
                  11
                  11
                  11
                  11
                  11
                  12
                  12
                  12
                  12
                  11
                  11
                  11
                  11
                  11
                  11
                  11
                  11
                  11
                  11
                  11
                  12
                  12
                  12
                  12
                  12
                  12
                  12
                  12
                  12
                  12
                  11
                  11
                  11
                  11
                  11
                  11
                  11
                  11
                  11
                  11
                  11
                  11
                  11
                  11
                  11
                  12
                  12
                  12
                  12
                  12
                  12
                  12
                  12
                  12
                  12
                  12
                  12
                  11
                  11
                  11
                  11
                  12
                  12
                  11
                  11
                  11
                  11
                  11
                  11
                  11
                  11
                  11
                  11
                  11
                  11
                  11
                  11
                  11
                  11
                  11
                  11
                  11
                  11
                  12
                  12
                  12
                  12
                  11
                  11
                  11
                  11
                  11
                  11
                  11
                  11
                  11
                  11
                  11
                  12
                  12
                  12
                  12
                  12
                  12
                  12
                  12
                  12
                  12
                  11
                  11
                  11
                  11
                  11
                  11
                  11
                  11
                  11
                  11
                  11
                  11
                  11
                  11
                  11
                  12
                  12
                  12
                  12
                  12
                  12
                  12
                  12
                  12
                  12
                  12
                  12
                  11
                  11
                  11
                  11
                  12
                  12
                  11
                  11
                  11
                  11
                  11
                  11
                  11
                  11
                  11
                  11
                  11
                  11
                  11
                  11
                  11
                  11
                  11
                  11
                  11
                  11
                  12
                  12
                  12
                  12
                  11
                  11
                  11
                  11
                  11
                  11
                  11
                  11
                  11
                  11
                  11
                  12
                  12
                  12
                  12
                  12
                  12
                  12
                  12
                  12
                  12
                  11
                  11
                  11
                  11
                  11
                  11
                  11
                  11
                  11
                  11
                  11
                  11
                  11
                  11
                  11
                  12
                  12
                  12
                  12
                  12
                  12
                  12
                  12
                  12
                  12
                  12
                  12
                  11
                  11
                  11
                  11
                  12
                  12
                  11
                  11
                  11
                  11
                  11
                  11
                  11
                  11
                  11
                  11
                  11
                  11
                  11
                  11
                  11
                  11
                  11
                  11
                  11
                  11
                  12
                  12
                  12
                  12
                  11
                  11
                  11
                  11
                  11
                  11
                  11
                  11
                  11
                  11
                  11
                  12
                  12
                  12
                  12
                  12
                  12
                  12
                  12
                  12
                  12
                  11
                  11
                  11
                  11
                  11
                  11
                  11
                  11
                  11
                  11
                  11
                  11
                  11
                  11
                  11
                  12
                  12
                  12
                  12
                  12
                  12
                  12
                  12
                  12
                  12
                  12
                  12
                  11
                  11
                  11
                  11
                  12
                  12
                  11
                  11
                  11
                  11
                  11
                  11
                  11
                  11
                  11
                  11
                  11
                  11
                  11
                  11
                  11
                  11
                  11
                  11
                  11
                  11
                  12
                  12
                  12
                  12
                  11
                  11
                  11
                  11
                  11
                  11
                  11
                  11
                  11
                  11
                  11
                  12
                  12
                  12
                  12
                  12
                  12
                  12
                  12
                  12
                  12
                  11
                  11
                  11
                  11
                  11
                  11
                  11
                  11
                  11
                  11
                  11
                  11
                  11
                  11
                  11
                  12
                  12
                  12
                  12
                  12
                  12
                  12
                  12
                  12
                  12
                  12
                  12
                  11
                  11
                  11
                  11
                  12
                  12
                  11
                  11
                  11
                  11
                  11
                  11
                  11
                  11
                  11
                  11
                  11
                  11
                  11
                  11
                  11
                  11
                  11
                  11
                  11
                  11
                  12
                  12
                  12
                  12
                  11
                  11
                  11
                  11
                  11
                  11
                  11
                  11
                  11
                  11
                  11
                  12
                  12
                  12
                  12
                  12
                  12
                  12
                  12
                  12
                  12
                  11
                  11
                  11
                  11
                  11
                  11
                  11
                  11
                  11
                  11
                  11
                  11
                  11
                  11
                  11
                  12
                  12
                  12
                  12
                  12
                  12
                  12
                  12
                  12
                  12
                  12
                  12
                  11
                  11
                  11
                  11
                  12
                  12
                  11
                  11
                  11
                  11
                  11
                  11
                  11
                  11
                  11
                  11
                  11
                  11
                  11
                  11
                  11
                  11
                  11
                  11
                  11
                  11
                  12
                  12
                  12
                  12
                  11
                  11
                  11
                  11
                  11
                  11
                  11
                  11
                  11
                  11
                  11
                  12
                  12
                  12
                  12
                  12
                  12
                  12
                  12
                  12
                  12
                  11
                  11
                  11
                  11
                  11
                  11
                  11
                  11
                  11
                  11
                  11
                  11
                  11
                  11
                  11
                  12
                  12
                  12
                  12
                  12
                  12
                  12
                  12
                  12
                  12
                  12
                  12
                  11
                  11
                  11
                  11
                  12
                  12
                  11
                  11
                  11
                  11
                  11
                  11
                  11
                  11
                  11
                  11
                  11
                  11
                  11
                  11
                  11
                  11
                  11
                  11
                  11
                  11
                  12
                  12
                  12
                  12
                  11
                  11
                  11
                  11
                  11
                  11
                  11
                  11
                  11
                  11
                  11
                  12
                  12
                  12
                  12
                  12
                  12
                  12
                  12
                  12
                  12
                  11
                  11
                  11
                  11
                  11
                  11
                  11
                  11
                  11
                  11
                  11
                  11
                  11
                  11
                  11
                  12
                  12
                  12
                  12
                  12
                  12
                  12
                  12
                  12
                  12
                  12
                  12
                  11
                  11
                  11
                  11
                  12
                  12
                  11
                  11
                  11
                  11
                  11
                  11
                  11
                  11
                  11
                  11
                  11
                  11
                  11
                  11
                  11
                  11
                  11
                  11
                  11
                  11
                  12
                  12
                  12
                  12
                  11
                  11
                  11
                  11
                  11
                  11
                  11
                  11
                  11
                  11
                  11
                  12
                  12
                  12
                  12
                  12
                  12
                  12
                  12
                  12
                  12
                  11
                  11
                  11
                  11
                  11
                  11
                  11
                  11
                  11
                  11
                  11
                  11
                  11
                  11
                  11
                  12
                  12
                  12
                  12
                  12
                  12
                  12
                  12
                  12
                  12
                  12
                  12
                  11
                  11
                  11
                  11
                  12
                  12
                  11
                  11
                  11
                  11
                  11
                  11
                  11
                  11
                  11
                  11
                  11
                  11
                  11
                  11
                  11
                  11
                  11
                  11
                  11
                  11
                  12
                  12
                  12
                  12
                  11
                  11
                  11
                  11
                  11
                  11
                  11
                  11
                  11
                  11
                  11
                  12
                  12
                  12
                  12
                  12
                  12
                  12
                  12
                  12
                  12
                  11
                  11
                  11
                  11
                  11
                  11
                  11
                  11
                  11
                  11
                  11
                  11
                  11
                  11
                  11
                  12
                  12
                  12
                  12
                  12
                  12
                  12
                  12
                  12
                  12
                  12
                  12
                  11
                  11
                  11
                  11
                  12
                  12
                  11
                  11
                  11
                  11
                  11
                  11
                  11
                  11
                  11
                  11
                  11
                  11
                  11
                  11
                  11
                  11
                  11
                  11
                  11
                  11
                  12
                  12
                  12
                  12
                  11
                  11
                  11
                  11
                  11
                  11
                  11
                  11
                  11
                  11
                  11
                  12
                  12
                  12
                  12
                  12
                  12
                  12
                  12
                  12
                  12
                  11
                  11
                  11
                  11
                  11
                  11
                  11
                  11
                  11
                  11
                  11
                  11
                  11
                  11
                  11
                  12
                  12
                  12
                  12
                  12
                  12
                  12
                  12
                  12
                  12
                  12
                  12
                  11
                  11
                  11
                  11
                  12
                  12
                  11
                  11
                  11
                  11
                  11
                  11
                  11
                  11
                  11
                  11
                  11
                  11
                  11
                  11
                  11
                  11
                  11
                  11
                  11
                  11
                  12
                  12
                  12
                  12
                  11
                  11
                  11
                  11
                  11
                  11
                  11
                  11
                  11
                  11
                  11
                  12
                  12
                  12
                  12
                  12
                  12
                  12
                  12
                  12
                  12
                  11
                  11
                  11
                  11
                  11
                  11
                  11
                  11
                  11
                  11
                  11
                  11
                  11
                  11
                  11
                  12
                  12
                  12
                  12
                  12
                  12
                  12
                  12
                  12
                  12
                  12
                  12
                  11
                  11
                  11
                  11
                  12
                  12
                  11
                  11
                  11
                  11
                  11
                  11
                  11
                  11
                  11
                  11
                  11
                  11
                  11
                  11
                  11
                  11
                  11
                  11
                  11
                  11
                  12
                  12
                  12
                  12
                  11
                  11
                  11
                  11
                  11
                  11
                  11
                  11
                  11
                  11
                  11
                  12
                  12
                  12
                  12
                  12
                  12
                  12
                  12
                  12
                  12
                  11
                  11
                  11
                  11
                  11
                  11
                  11
                  11
                  11
                  11
                  11
                  11
                  11
                  11
                  11
                  12
                  12
                  12
                  12
                  12
                  12
                  12
                  12
                  12
                  12
                  12
                  12
                  11
                  11
                  11
                  11
                  12
                  12
                  11
                  11
                  11
                  11
                  11
                  11
                  11
                  11
                  11
                  11
                  11
                  11
                  11
                  11
                  11
                  11
                  11
                  11
                  11
                  11
                  12
                  12
                  12
                  12
                  11
                  11
                  11
                  11
                  11
                  11
                  11
                  11
                  11
                  11
                  11
                  12
                  12
                  12
                  12
                  12
                  12
                  12
                  12
                  12
                  12
                  11
                  11
                  11
                  11
                  11
                  11
                  11
                  11
                  11
                  11
                  11
                  11
                  11
                  11
                  11
                  12
                  12
                  12
                  12
                  12
                  12
                  12
                  12
                  12
                  12
                  12
                  12
                  11
                  11
                  11
                  11
                  12
                  12
                  11
                  11
                  11
                  11
                  11
                  11
                  11
                  11
                  11
                  11
                  11
                  11
                  11
                  11
                  11
                  11
                  11
                  11
                  11
                  11
                  12
                  12
                  12
                  12
                  11
                  11
                  11
                  11
                  11
                  11
                  11
                  11
                  11
                  11
                  11
                  12
                  12
                  12
                  12
                  12
                  12
                  12
                  12
                  12
                  12
                  11
                  11
                  11
                  11
                  11
                  11
                  11
                  11
                  11
                  11
                  11
                  11
                  11
                  11
                  11
                  12
                  12
                  12
                  12
                  12
                  12
                  12
                  12
                  12
                  12
                  12
                  12
                  11
                  11
                  11
                  11
                  12
                  12
                  11
                  11
                  11
                  11
                  11
                  11
                  11
                  11
                  11
                  11
                  11
                  11
                  11
                  11
                  11
                  11
                  11
                  11
                  11
                  11
                  12
                  12
                  12
                  12
                  11
                  11
                  11
                  11
                  11
                  11
                  11
                  11
                  11
                  11
                  11
                  12
                  12
                  12
                  12
                  12
                  12
                  12
                  12
                  12
                  12
                  11
                  11
                  11
                  11
                  11
                  11
                  11
                  11
                  11
                  11
                  11
                  11
                  11
                  11
                  11
                  12
                  12
                  12
                  12
                  12
                  12
                  12
                  12
                  12
                  12
                  12
                  12
                  11
                  11
                  11
                  11
                  12
                  12
                  11
                  11
                  11
                  11
                  11
                  11
                  11
                  11
                  11
                  11
                  11
                  11
                  11
                  11
                  11
                  11
                  11
                  11
                  11
                  11
                  12
                  12
                  12
                  12
                  11
                  11
                  11
                  11
                  11
                  11
                  11
                  11
                  11
                  11
                  11
                  12
                  12
                  12
                  12
                  12
                  12
                  12
                  12
                  12
                  12
                  11
                  11
                  11
                  11
                  11
                  11
                  11
                  11
                  11
                  11
                  11
                  11
                  11
                  11
                  11
                  12
                  12
                  12
                  12
                  12
                  12
                  12
                  12
                  12
                  12
                  12
                  12
                  11
                  11
                  11
                  11
                  12
                  12
                  11
                  11
                  11
                  11
                  11
                  11
                  11
                  11
                  11
                  11
                  11
                  11
                  11
                  11
                  11
                  11
                  11
                  11
                  11
                  11
                  12
                  12
                  12
                  12
                  11
                  11
                  11
                  11
                  11
                  11
                  11
                  11
                  11
                  11
                  11
                  12
                  12
                  12
                  12
                  12
                  12
                  12
                  12
                  12
                  12
                  11
                  11
                  11
                  11
                  11
                  11
                  11
                  11
                  11
                  11
                  11
                  11
                  11
                  11
                  11
                  12
                  12
                  12
                  12
                  12
                  12
                  12
                  12
                  12
                  12
                  12
                  12
                  11
                  11
                  11
                  11
                  12
                  12
                  11
                  11
                  11
                  11
                  11
                  11
                  11
                  11
                  11
                  11
                  11
                  11
                  11
                  11
                  11
                  11
                  11
                  11
                  11
                  11
                  12
                  12
                  12
                  12
                  11
                  11
                  11
                  11
                  11
                  11
                  11
                  11
                  11
                  11
                  11
                  12
                  12
                  12
                  12
                  12
                  12
                  12
                  12
                  12
                  12
                  11
                  11
                  11
                  11
                  11
                  11
                  11
                  11
                  11
                  11
                  11
                  11
                  11
                  11
                  11
                  12
                  12
                  12
                  12
                  12
                  12
                  12
                  12
                  12
                  12
                  12
                  12
                  11
                  11
                  11
                  11
                  12
                  12
                  11
                  11
                  11
                  11
                  11
                  11
                  11
                  11
                  11
                  11
                  11
                  11
                  11
                  11
                  11
                  11
                  11
                  11
                  11
                  11
                  12
                  12
                  12
                  12
                  11
                  11
                  11
                  11
                  11
                  11
                  11
                  11
                  11
                  11
                  11
                  12
                  12
                  12
                  12
                  12
                  12
                  12
                  12
                  12
                  12
                  11
                  11
                  11
                  11
                  11
                  11
                  11
                  11
                  11
                  11
                  11
                  11
                  11
                  11
                  11
                  12
                  12
                  12
                  12
                  12
                  12
                  12
                  12
                  12
                  12
                  12
                  12
                  11
                  11
                  11
                  11
                  12
                  12
                  11
                  11
                  11
                  11
                  11
                  11
                  11
                  11
                  11
                  11
                  11
                  11
                  11
                  11
                  11
                  11
                  11
                  11
                  11
                  11
                  12
                  12
                  12
                  12
                  11
                  11
                  11
                  11
                  11
                  11
                  11
                  11
                  11
                  11
                  11
                  12
                  12
                  12
                  12
                  12
                  12
                  12
                  12
                  12
                  12
                  11
                  11
                  11
                  11
                  11
                  11
                  11
                  11
                  11
                  11
                  11
                  11
                  11
                  11
                  11
                  12
                  12
                  12
                  12
                  12
                  12
                  12
                  12
                  12
                  12
                  12
                  12
                  11
                  11
                  11
                  11
                  12
                  12
                  11
                  11
                  11
                  11
                  11
                  11
                  11
                  11
                  11
                  11
                  11
                  11
                  11
                  11
                  11
                  11
                  11
                  11
                  11
                  11
                  12
                  12
                  12
                  12
                  11
                  11
                  11
                  11
                  11
                  11
                  11
                  11
                  11
                  11
                  11
                  12
                  12
                  12
                  12
                  12
                  12
                  12
                  12
                  12
                  12
                  11
                  11
                  11
                  11
                  11
                  11
                  11
                  11
                  11
                  11
                  11
                  11
                  11
                  11
                  11
                  12
                  12
                  12
                  12
                  12
  
SCALARS                         Jspace  double 1
LOOKUP_TABLE default
                  11
                  12
                  11
                  11
                  11
                  12
                  11
                  11
                  11
                  11
                  11
                  11
                  12
                  12
                  12
                  12
                  11
                  12
                  11
                  12
                  12
                  12
                  12
                  12
                  12
                  12
                  12
                  12
                  12
                  12
                  11
                  11
                  11
                  11
                  11
                  11
                  11
                  11
                  11
                  11
                  11
                  11
                  11
                  11
                  11
                  11
                  11
                  11
                  11
                  11
                  11
                  11
                  12
                  12
                  12
                  12
                  12
                  11
                  12
                  11
                  11
                  11
                  11
                  11
                  11
                  11
                  11
                  11
                  11
                  12
                  11
                  12
                  12
                  12
                  12
                  12
                  12
                  12
                  12
                  12
                  12
                  12
                  12
                  12
                  11
                  11
                  11
                  11
                  11
                  11
                  11
                  11
                  11
                  11
                  11
                  11
                  11
                  11
                  11
                  11
                  11
                  11
                  11
                  11
                  11
                  11
                  11
                  11
                  12
                  12
                  12
                  12
                  12
                  12
                  12
                  12
                  12
                  12
                  12
                  12
                  12
                  12
                  12
                  12
                  12
                  12
                  12
                  12
                  11
                  11
                  11
                  11
                  11
                  11
                  11
                  11
                  11
                  11
                  11
                  11
                  11
                  11
                  11
                  11
                  11
                  11
                  11
                  11
                  11
                  11
                  11
                  11
                  11
                  11
                  11
                  11
                  11
                  12
                  11
                  11
                  11
                  11
                  12
                  12
                  11
                  12
                  12
                  12
                  12
                  12
                  12
                  11
                  11
                  11
                  11
                  11
                  11
                  11
                  11
                  11
                  11
                  11
                  12
                  12
                  12
                  11
                  11
                  11
                  11
                  11
                  11
                  12
                  12
                  12
                  12
                  12
                  12
                  12
                  11
                  11
                  11
                  11
                  11
                  11
                  11
                  11
                  11
                  11
                  11
                  11
                  12
                  12
                  12
                  12
                  12
                  12
                  12
                  12
                  12
                  12
                  11
                  11
                  11
                  11
                  11
                  11
                  11
                  11
                  11
                  11
                  11
                  11
                  11
                  11
                  11
                  12
                  11
                  11
                  11
                  11
                  12
                  12
                  11
                  12
                  12
                  12
                  12
                  12
                  12
                  11
                  11
                  11
                  11
                  11
                  11
                  11
                  11
                  11
                  11
                  11
                  12
                  12
                  12
                  11
                  11
                  11
                  11
                  11
                  11
                  12
                  12
                  12
                  12
                  12
                  12
                  12
                  11
                  11
                  11
                  11
                  11
                  11
                  11
                  11
                  11
                  11
                  11
                  11
                  12
                  12
                  12
                  12
                  12
                  12
                  12
                  12
                  12
                  12
                  11
                  11
                  11
                  11
                  11
                  11
                  11
                  11
                  11
                  11
                  11
                  11
                  11
                  11
                  11
                  12
                  11
                  11
                  11
                  11
                  12
                  12
                  11
                  12
                  12
                  12
                  12
                  12
                  12
                  11
                  11
                  11
                  11
                  11
                  11
                  11
                  11
                  11
                  11
                  11
                  12
                  12
                  12
                  11
                  11
                  11
                  11
                  11
                  11
                  12
                  12
                  12
                  12
                  12
                  12
                  12
                  11
                  11
                  11
                  11
                  11
                  11
                  11
                  11
                  11
                  11
                  11
                  11
                  12
                  12
                  12
                  12
                  12
                  12
                  12
                  12
                  12
                  12
                  11
                  11
                  11
                  11
                  11
                  11
                  11
                  11
                  11
                  11
                  11
                  11
                  11
                  11
                  11
                  12
                  11
                  11
                  11
                  11
                  12
                  12
                  11
                  12
                  12
                  12
                  12
                  12
                  12
                  11
                  11
                  11
                  11
                  11
                  11
                  11
                  11
                  11
                  11
                  11
                  12
                  12
                  12
                  11
                  11
                  11
                  11
                  11
                  11
                  12
                  12
                  12
                  12
                  12
                  12
                  12
                  11
                  11
                  11
                  11
                  11
                  11
                  11
                  11
                  11
                  11
                  11
                  11
                  12
                  12
                  12
                  12
                  12
                  12
                  12
                  12
                  12
                  12
                  11
                  11
                  11
                  11
                  11
                  11
                  11
                  11
                  11
                  11
                  11
                  11
                  11
                  11
                  11
                  12
                  11
                  11
                  11
                  11
                  12
                  12
                  11
                  12
                  12
                  12
                  12
                  12
                  12
                  11
                  11
                  11
                  11
                  11
                  11
                  11
                  11
                  11
                  11
                  11
                  12
                  12
                  12
                  11
                  11
                  11
                  11
                  11
                  11
                  12
                  12
                  12
                  12
                  12
                  12
                  12
                  11
                  11
                  11
                  11
                  11
                  11
                  11
                  11
                  11
                  11
                  11
                  11
                  12
                  12
                  12
                  12
                  12
                  12
                  12
                  12
                  12
                  12
                  11
                  11
                  11
                  11
                  11
                  11
                  11
                  11
                  11
                  11
                  11
                  11
                  11
                  11
                  11
                  12
                  11
                  11
                  11
                  11
                  12
                  12
                  11
                  12
                  12
                  12
                  12
                  12
                  12
                  11
                  11
                  11
                  11
                  11
                  11
                  11
                  11
                  11
                  11
                  11
                  12
                  12
                  12
                  11
                  11
                  11
                  11
                  11
                  11
                  12
                  12
                  12
                  12
                  12
                  12
                  12
                  11
                  11
                  11
                  11
                  11
                  11
                  11
                  11
                  11
                  11
                  11
                  11
                  12
                  12
                  12
                  12
                  12
                  12
                  12
                  12
                  12
                  12
                  11
                  11
                  11
                  11
                  11
                  11
                  11
                  11
                  11
                  11
                  11
                  11
                  11
                  11
                  11
                  12
                  11
                  11
                  11
                  11
                  12
                  12
                  11
                  12
                  12
                  12
                  12
                  12
                  12
                  11
                  11
                  11
                  11
                  11
                  11
                  11
                  11
                  11
                  11
                  11
                  12
                  12
                  12
                  11
                  11
                  11
                  11
                  11
                  11
                  12
                  12
                  12
                  12
                  12
                  12
                  12
                  11
                  11
                  11
                  11
                  11
                  11
                  11
                  11
                  11
                  11
                  11
                  11
                  12
                  12
                  12
                  12
                  12
                  12
                  12
                  12
                  12
                  12
                  11
                  11
                  11
                  11
                  11
                  11
                  11
                  11
                  11
                  11
                  11
                  11
                  11
                  11
                  11
                  12
                  11
                  11
                  11
                  11
                  12
                  12
                  11
                  12
                  12
                  12
                  12
                  12
                  12
                  11
                  11
                  11
                  11
                  11
                  11
                  11
                  11
                  11
                  11
                  11
                  12
                  12
                  12
                  11
                  11
                  11
                  11
                  11
                  11
                  12
                  12
                  12
                  12
                  12
                  12
                  12
                  11
                  11
                  11
                  11
                  11
                  11
                  11
                  11
                  11
                  11
                  11
                  11
                  12
                  12
                  12
                  12
                  12
                  12
                  12
                  12
                  12
                  12
                  11
                  11
                  11
                  11
                  11
                  11
                  11
                  11
                  11
                  11
                  11
                  11
                  11
                  11
                  11
                  12
                  11
                  11
                  11
                  11
                  12
                  12
                  11
                  12
                  12
                  12
                  12
                  12
                  12
                  11
                  11
                  11
                  11
                  11
                  11
                  11
                  11
                  11
                  11
                  11
                  12
                  12
                  12
                  11
                  11
                  11
                  11
                  11
                  11
                  12
                  12
                  12
                  12
                  12
                  12
                  12
                  11
                  11
                  11
                  11
                  11
                  11
                  11
                  11
                  11
                  11
                  11
                  11
                  12
                  12
                  12
                  12
                  12
                  12
                  12
                  12
                  12
                  12
                  11
                  11
                  11
                  11
                  11
                  11
                  11
                  11
                  11
                  11
                  11
                  11
                  11
                  11
                  11
                  12
                  11
                  11
                  11
                  11
                  12
                  12
                  11
                  12
                  12
                  12
                  12
                  12
                  12
                  11
                  11
                  11
                  11
                  11
                  11
                  11
                  11
                  11
                  11
                  11
                  12
                  12
                  12
                  11
                  11
                  11
                  11
                  11
                  11
                  12
                  12
                  12
                  12
                  12
                  12
                  12
                  11
                  11
                  11
                  11
                  11
                  11
                  11
                  11
                  11
                  11
                  11
                  11
                  12
                  12
                  12
                  12
                  12
                  12
                  12
                  12
                  12
                  12
                  11
                  11
                  11
                  11
                  11
                  11
                  11
                  11
                  11
                  11
                  11
                  11
                  11
                  11
                  11
                  12
                  11
                  11
                  11
                  11
                  12
                  12
                  11
                  12
                  12
                  12
                  12
                  12
                  12
                  11
                  11
                  11
                  11
                  11
                  11
                  11
                  11
                  11
                  11
                  11
                  12
                  12
                  12
                  11
                  11
                  11
                  11
                  11
                  11
                  12
                  12
                  12
                  12
                  12
                  12
                  12
                  11
                  11
                  11
                  11
                  11
                  11
                  11
                  11
                  11
                  11
                  11
                  11
                  12
                  12
                  12
                  12
                  12
                  12
                  12
                  12
                  12
                  12
                  11
                  11
                  11
                  11
                  11
                  11
                  11
                  11
                  11
                  11
                  11
                  11
                  11
                  11
                  11
                  12
                  11
                  11
                  11
                  11
                  12
                  12
                  11
                  12
                  12
                  12
                  12
                  12
                  12
                  11
                  11
                  11
                  11
                  11
                  11
                  11
                  11
                  11
                  11
                  11
                  12
                  12
                  12
                  11
                  11
                  11
                  11
                  11
                  11
                  12
                  12
                  12
                  12
                  12
                  12
                  12
                  11
                  11
                  11
                  11
                  11
                  11
                  11
                  11
                  11
                  11
                  11
                  11
                  12
                  12
                  12
                  12
                  12
                  12
                  12
                  12
                  12
                  12
                  11
                  11
                  11
                  11
                  11
                  11
                  11
                  11
                  11
                  11
                  11
                  11
                  11
                  11
                  11
                  12
                  11
                  11
                  11
                  11
                  12
                  12
                  11
                  12
                  12
                  12
                  12
                  12
                  12
                  11
                  11
                  11
                  11
                  11
                  11
                  11
                  11
                  11
                  11
                  11
                  12
                  12
                  12
                  11
                  11
                  11
                  11
                  11
                  11
                  12
                  12
                  12
                  12
                  12
                  12
                  12
                  11
                  11
                  11
                  11
                  11
                  11
                  11
                  11
                  11
                  11
                  11
                  11
                  12
                  12
                  12
                  12
                  12
                  12
                  12
                  12
                  12
                  12
                  11
                  11
                  11
                  11
                  11
                  11
                  11
                  11
                  11
                  11
                  11
                  11
                  11
                  11
                  11
                  12
                  11
                  11
                  11
                  11
                  12
                  12
                  11
                  12
                  12
                  12
                  12
                  12
                  12
                  11
                  11
                  11
                  11
                  11
                  11
                  11
                  11
                  11
                  11
                  11
                  12
                  12
                  12
                  11
                  11
                  11
                  11
                  11
                  11
                  12
                  12
                  12
                  12
                  12
                  12
                  12
                  11
                  11
                  11
                  11
                  11
                  11
                  11
                  11
                  11
                  11
                  11
                  11
                  12
                  12
                  12
                  12
                  12
                  12
                  12
                  12
                  12
                  12
                  11
                  11
                  11
                  11
                  11
                  11
                  11
                  11
                  11
                  11
                  11
                  11
                  11
                  11
                  11
                  12
                  11
                  11
                  11
                  11
                  12
                  12
                  11
                  12
                  12
                  12
                  12
                  12
                  12
                  11
                  11
                  11
                  11
                  11
                  11
                  11
                  11
                  11
                  11
                  11
                  12
                  12
                  12
                  11
                  11
                  11
                  11
                  11
                  11
                  12
                  12
                  12
                  12
                  12
                  12
                  12
                  11
                  11
                  11
                  11
                  11
                  11
                  11
                  11
                  11
                  11
                  11
                  11
                  12
                  12
                  12
                  12
                  12
                  12
                  12
                  12
                  12
                  12
                  11
                  11
                  11
                  11
                  11
                  11
                  11
                  11
                  11
                  11
                  11
                  11
                  11
                  11
                  11
                  12
                  11
                  11
                  11
                  11
                  12
                  12
                  11
                  12
                  12
                  12
                  12
                  12
                  12
                  11
                  11
                  11
                  11
                  11
                  11
                  11
                  11
                  11
                  11
                  11
                  12
                  12
                  12
                  11
                  11
                  11
                  11
                  11
                  11
                  12
                  12
                  12
                  12
                  12
                  12
                  12
                  11
                  11
                  11
                  11
                  11
                  11
                  11
                  11
                  11
                  11
                  11
                  11
                  12
                  12
                  12
                  12
                  12
                  12
                  12
                  12
                  12
                  12
                  11
                  11
                  11
                  11
                  11
                  11
                  11
                  11
                  11
                  11
                  11
                  11
                  11
                  11
                  11
                  12
                  11
                  11
                  11
                  11
                  12
                  12
                  11
                  12
                  12
                  12
                  12
                  12
                  12
                  11
                  11
                  11
                  11
                  11
                  11
                  11
                  11
                  11
                  11
                  11
                  12
                  12
                  12
                  11
                  11
                  11
                  11
                  11
                  11
                  12
                  12
                  12
                  12
                  12
                  12
                  12
                  11
                  11
                  11
                  11
                  11
                  11
                  11
                  11
                  11
                  11
                  11
                  11
                  12
                  12
                  12
                  12
                  12
                  12
                  12
                  12
                  12
                  12
                  11
                  11
                  11
                  11
                  11
                  11
                  11
                  11
                  11
                  11
                  11
                  11
                  11
                  11
                  11
                  12
                  11
                  11
                  11
                  11
                  12
                  12
                  11
                  12
                  12
                  12
                  12
                  12
                  12
                  11
                  11
                  11
                  11
                  11
                  11
                  11
                  11
                  11
                  11
                  11
                  12
                  12
                  12
                  11
                  11
                  11
                  11
                  11
                  11
                  12
                  12
                  12
                  12
                  12
                  12
                  12
                  11
                  11
                  11
                  11
                  11
                  11
                  11
                  11
                  11
                  11
                  11
                  11
                  12
                  12
                  12
                  12
                  12
                  12
                  12
                  12
                  12
                  12
                  11
                  11
                  11
                  11
                  11
                  11
                  11
                  11
                  11
                  11
                  11
                  11
                  11
                  11
                  11
                  12
                  11
                  11
                  11
                  11
                  12
                  12
                  11
                  12
                  12
                  12
                  12
                  12
                  12
                  11
                  11
                  11
                  11
                  11
                  11
                  11
                  11
                  11
                  11
                  11
                  12
                  12
                  12
                  11
                  11
                  11
                  11
                  11
                  11
                  12
                  12
                  12
                  12
                  12
                  12
                  12
                  11
                  11
                  11
                  11
                  11
                  11
                  11
                  11
                  11
                  11
                  11
                  11
                  12
                  12
                  12
                  12
                  12
                  12
                  12
                  12
                  12
                  12
                  11
                  11
                  11
                  11
                  11
                  11
                  11
                  11
                  11
                  11
                  11
                  11
                  11
                  11
                  11
                  12
                  11
                  11
                  11
                  11
                  12
                  12
                  11
                  12
                  12
                  12
                  12
                  12
                  12
                  11
                  11
                  11
                  11
                  11
                  11
                  11
                  11
                  11
                  11
                  11
                  12
                  12
                  12
                  11
                  11
                  11
                  11
                  11
                  11
                  12
                  12
                  12
                  12
                  12
                  12
                  12
                  11
                  11
                  11
                  11
                  11
                  11
                  11
                  11
                  11
                  11
                  11
                  11
                  12
                  12
                  12
                  12
                  12
                  12
                  12
                  12
                  12
                  12
                  11
                  11
                  11
                  11
                  11
                  11
                  11
                  11
                  11
                  11
                  11
                  11
                  11
                  11
                  11
                  12
                  11
                  11
                  11
                  11
                  12
                  12
                  11
                  12
                  12
                  12
                  12
                  12
                  12
                  11
                  11
                  11
                  11
                  11
                  11
                  11
                  11
                  11
                  11
                  11
                  12
                  12
                  12
                  11
                  11
                  11
                  11
                  11
                  11
                  12
                  12
                  12
                  12
                  12
                  12
                  12
                  11
                  11
                  11
                  11
                  11
                  11
                  11
                  11
                  11
                  11
                  11
                  11
                  12
                  12
                  12
                  12
                  12
                  12
                  12
                  12
                  12
                  12
                  11
                  11
                  11
                  11
                  11
                  11
                  11
                  11
                  11
                  11
                  11
                  11
                  11
                  11
                  11
                  12
                  11
                  11
                  11
                  11
                  12
                  12
                  11
                  12
                  12
                  12
                  12
                  12
                  12
                  11
                  11
                  11
                  11
                  11
                  11
                  11
                  11
                  11
                  11
                  11
                  12
                  12
                  12
                  11
                  11
                  11
                  11
                  11
                  11
                  12
                  12
                  12
                  12
                  12
                  12
                  12
                  11
                  11
                  11
                  11
                  11
                  11
                  11
                  11
                  11
                  11
                  11
                  11
                  12
                  12
                  12
                  12
                  12
                  12
                  12
                  12
                  12
                  12
                  11
                  11
                  11
                  11
                  11
                  11
                  11
                  11
                  11
                  11
                  11
                  11
                  11
                  11
                  11
                  12
                  11
                  11
                  11
                  11
                  12
                  12
                  11
                  12
                  12
                  12
                  12
                  12
                  12
                  11
                  11
                  11
                  11
                  11
                  11
                  11
                  11
                  11
                  11
                  11
                  12
                  12
                  12
                  11
                  11
                  11
                  11
                  11
                  11
                  12
                  12
                  12
                  12
                  12
                  12
                  12
                  11
                  11
                  11
                  11
                  11
                  11
                  11
                  11
                  11
                  11
                  11
                  11
                  12
                  12
                  12
                  12
                  12
                  12
                  12
                  12
                  12
                  12
                  11
                  11
                  11
                  11
                  11
                  11
                  11
                  11
                  11
                  11
                  11
                  11
                  11
                  11
  
SCALARS                         Kspace  double 1
LOOKUP_TABLE default
                  11
                  11
                  11
                  11
                  11
                  11
                  11
                  11
                  11
                  11
                  11
                  11
                  11
                  11
                  11
                  11
                  11
                  11
                  11
                  11
                  11
                  11
                  11
                  11
                  11
                  11
                  11
                  11
                  11
                  11
                  11
                  11
                  11
                  11
                  11
                  11
                  11
                  11
                  11
                  11
                  11
                  11
                  11
                  11
                  11
                  11
                  11
                  11
                  11
                  11
                  11
                  11
                  11
                  11
                  11
                  11
                  11
                  11
                  11
                  11
                  11
                  11
                  11
                  11
                  11
                  11
                  11
                  11
                  11
                  11
                  11
                  11
                  11
                  11
                  11
                  11
                  11
                  11
                  11
                  11
                  11
                  11
                  11
                  11
                  11
                  11
                  11
                  11
                  11
                  11
                  11
                  11
                  11
                  11
                  11
                  11
                  11
                  11
                  11
                  11
                  11
                  11
                  11
                  11
                  11
                  11
                  11
                  11
                  11
                  11
                  11
                  11
                  11
                  11
                  11
                  11
                  11
                  11
                  11
                  11
                  11
                  11
                  11
                  11
                  11
                  11
                  11
                  11
                  11
                  11
                  11
                  11
                  11
                  11
                  11
                  11
                  11
                  11
                  11
                  11
                  11
                  11
                  11
                  11
                  11
                  11
                  11
                  11
                  11
                  11
                  11
                  11
                  11
                  11
                  11
                  11
                  11
                  11
                  11
                  11
                  11
                  11
                  11
                  11
                  11
                  11
                  11
                  11
                  11
                  11
                  11
                  11
                  11
                  11
                  11
                  11
                  11
                  11
                  11
                  11
                  11
                  11
                  11
                  11
                  11
                  11
                  11
                  11
                  11
                  11
                  11
                  11
                  11
                  11
                  11
                  11
                  11
                  11
                  11
                  11
                  11
                  11
                  11
                  11
                  11
                  11
                  11
                  11
                  11
                  11
                  11
                  11
                  11
                  11
                  11
                  11
                  11
                  11
                  11
                  11
                  11
                  11
                  11
                  11
                  11
                  11
                  11
                  11
                  11
                  11
                  11
                  11
                  11
                  11
                  11
                  11
                  11
                  11
                  11
                  11
                  11
                  11
                  11
                  11
                  11
                  11
                  11
                  11
                  11
                  11
                  11
                  11
                  11
                  11
                  11
                  11
                  11
                  11
                  11
                  11
                  11
                  11
                  11
                  11
                  11
                  11
                  11
                  11
                  11
                  11
                  11
                  11
                  11
                  11
                  11
                  11
                  11
                  11
                  11
                  11
                  11
                  11
                  11
                  11
                  11
                  11
                  11
                  11
                  11
                  11
                  11
                  11
                  11
                  11
                  11
                  11
                  11
                  11
                  11
                  11
                  11
                  11
                  11
                  11
                  11
                  11
                  11
                  11
                  11
                  11
                  11
                  11
                  12
                  12
                  12
                  12
                  12
                  12
                  12
                  12
                  12
                  12
                  12
                  12
                  12
                  12
                  12
                  12
                  12
                  12
                  12
                  12
                  12
                  12
                  12
                  12
                  12
                  12
                  12
                  12
                  12
                  12
                  12
                  12
                  12
                  12
                  12
                  12
                  12
                  12
                  12
                  12
                  12
                  12
                  12
                  12
                  12
                  12
                  12
                  12
                  12
                  12
                  12
                  12
                  12
                  12
                  12
                  12
                  12
                  12
                  12
                  12
                  12
                  12
                  12
                  12
                  12
                  12
                  12
                  12
                  12
                  12
                  12
                  12
                  12
                  12
                  12
                  12
                  12
                  12
                  12
                  12
                  12
                  12
                  12
                  12
                  12
                  12
                  12
                  12
                  12
                  12
                  12
                  12
                  12
                  12
                  12
                  12
                  12
                  12
                  12
                  12
                  12
                  12
                  12
                  12
                  12
                  12
                  12
                  12
                  12
                  12
                  12
                  12
                  12
                  12
                  12
                  12
                  12
                  12
                  12
                  12
                  12
                  12
                  12
                  12
                  12
                  12
                  12
                  12
                  12
                  12
                  12
                  12
                  12
                  12
                  12
                  12
                  12
                  12
                  12
                  12
                  12
                  12
                  12
                  12
                  12
                  12
                  12
                  12
                  12
                  12
                  12
                  12
                  12
                  12
                  12
                  12
                  12
                  12
                  12
                  12
                  12
                  12
                  12
                  12
                  12
                  12
                  12
                  12
                  12
                  12
                  12
                  12
                  12
                  12
                  12
                  12
                  12
                  12
                  12
                  12
                  12
                  12
                  12
                  12
                  12
                  12
                  12
                  12
                  12
                  12
                  12
                  12
                  12
                  12
                  12
                  12
                  12
                  12
                  12
                  12
                  12
                  12
                  12
                  12
                  12
                  12
                  12
                  12
                  12
                  12
                  12
                  12
                  12
                  12
                  12
                  12
                  12
                  12
                  12
                  12
                  12
                  12
                  12
                  12
                  12
                  12
                  12
                  12
                  12
                  12
                  12
                  12
                  12
                  12
                  13
                  13
                  13
                  13
                  13
                  13
                  13
                  13
                  13
                  13
                  13
                  13
                  13
                  13
                  13
                  13
                  13
                  13
                  13
                  13
                  13
                  13
                  13
                  13
                  13
                  13
                  13
                  13
                  13
                  13
                  13
                  13
                  13
                  13
                  13
                  13
                  13
                  13
                  13
                  13
                  13
                  13
                  13
                  13
                  13
                  13
                  13
                  13
                  13
                  13
                  13
                  13
                  13
                  13
                  13
                  13
                  13
                  13
                  13
                  13
                  13
                  13
                  13
                  13
                  13
                  13
                  13
                  13
                  13
                  13
                  13
                  13
                  13
                  13
                  13
                  13
                  13
                  13
                  13
                  13
                  13
                  13
                  13
                  13
                  13
                  13
                  13
                  13
                  13
                  13
                  13
                  13
                  13
                  13
                  13
                  13
                  13
                  13
                  13
                  13
                  13
                  13
                  13
                  13
                  13
                  13
                  13
                  13
                  13
                  13
                  13
                  13
                  13
                  13
                  13
                  13
                  13
                  13
                  13
                  13
                  13
                  13
                  13
                  13
                  13
                  13
                  13
                  13
                  13
                  13
                  13
                  13
                  13
                  13
                  13
                  13
                  13
                  13
                  13
                  13
                  13
                  13
                  13
                  13
                  13
                  13
                  13
                  13
                  13
                  13
                  13
                  13
                  13
                  13
                  13
                  13
                  13
                  13
                  13
                  13
                  13
                  13
                  13
                  13
                  13
                  13
                  13
                  13
                  13
                  13
                  13
                  13
                  13
                  13
                  13
                  13
                  13
                  13
                  13
                  13
                  13
                  13
                  13
                  13
                  13
                  13
                  13
                  13
                  13
                  13
                  13
                  13
                  13
                  13
                  13
                  13
                  13
                  13
                  13
                  13
                  13
                  13
                  13
                  13
                  13
                  13
                  13
                  13
                  13
                  13
                  13
                  13
                  13
                  13
                  13
                  13
                  13
                  13
                  13
                  13
                  13
                  13
                  13
                  13
                  13
                  13
                  13
                  13
                  13
                  13
                  13
                  13
                  13
                  13
                  14
                  14
                  14
                  14
                  14
                  14
                  14
                  14
                  14
                  14
                  14
                  14
                  14
                  14
                  14
                  14
                  14
                  14
                  14
                  14
                  14
                  14
                  14
                  14
                  14
                  14
                  14
                  14
                  14
                  14
                  14
                  14
                  14
                  14
                  14
                  14
                  14
                  14
                  14
                  14
                  14
                  14
                  14
                  14
                  14
                  14
                  14
                  14
                  14
                  14
                  14
                  14
                  14
                  14
                  14
                  14
                  14
                  14
                  14
                  14
                  14
                  14
                  14
                  14
                  14
                  14
                  14
                  14
                  14
                  14
                  14
                  14
                  14
                  14
                  14
                  14
                  14
                  14
                  14
                  14
                  14
                  14
                  14
                  14
                  14
                  14
                  14
                  14
                  14
                  14
                  14
                  14
                  14
                  14
                  14
                  14
                  14
                  14
                  14
                  14
                  14
                  14
                  14
                  14
                  14
                  14
                  14
                  14
                  14
                  14
                  14
                  14
                  14
                  14
                  14
                  14
                  14
                  14
                  14
                  14
                  14
                  14
                  14
                  14
                  14
                  14
                  14
                  14
                  14
                  14
                  14
                  14
                  14
                  14
                  14
                  14
                  14
                  14
                  14
                  14
                  14
                  14
                  14
                  14
                  14
                  14
                  14
                  14
                  14
                  14
                  14
                  14
                  14
                  14
                  14
                  14
                  14
                  14
                  14
                  14
                  14
                  14
                  14
                  14
                  14
                  14
                  14
                  14
                  14
                  14
                  14
                  14
                  14
                  14
                  14
                  14
                  14
                  14
                  14
                  14
                  14
                  14
                  14
                  14
                  14
                  14
                  14
                  14
                  14
                  14
                  14
                  14
                  14
                  14
                  14
                  14
                  14
                  14
                  14
                  14
                  14
                  14
                  14
                  14
                  14
                  14
                  14
                  14
                  14
                  14
                  14
                  14
                  14
                  14
                  14
                  14
                  14
                  14
                  14
                  14
                  14
                  14
                  14
                  14
                  14
                  14
                  14
                  14
                  14
                  14
                  14
                  14
                  14
                  14
                  15
                  15
                  15
                  15
                  15
                  15
                  15
                  15
                  15
                  15
                  15
                  15
                  15
                  15
                  15
                  15
                  15
                  15
                  15
                  15
                  15
                  15
                  15
                  15
                  15
                  15
                  15
                  15
                  15
                  15
                  15
                  15
                  15
                  15
                  15
                  15
                  15
                  15
                  15
                  15
                  15
                  15
                  15
                  15
                  15
                  15
                  15
                  15
                  15
                  15
                  15
                  15
                  15
                  15
                  15
                  15
                  15
                  15
                  15
                  15
                  15
                  15
                  15
                  15
                  15
                  15
                  15
                  15
                  15
                  15
                  15
                  15
                  15
                  15
                  15
                  15
                  15
                  15
                  15
                  15
                  15
                  15
                  15
                  15
                  15
                  15
                  15
                  15
                  15
                  15
                  15
                  15
                  15
                  15
                  15
                  15
                  15
                  15
                  15
                  15
                  15
                  15
                  15
                  15
                  15
                  15
                  15
                  15
                  15
                  15
                  15
                  15
                  15
                  15
                  15
                  15
                  15
                  15
                  15
                  15
                  15
                  15
                  15
                  15
                  15
                  15
                  15
                  15
                  15
                  15
                  15
                  15
                  15
                  15
                  15
                  15
                  15
                  15
                  15
                  15
                  15
                  15
                  15
                  15
                  15
                  15
                  15
                  15
                  15
                  15
                  15
                  15
                  15
                  15
                  15
                  15
                  15
                  15
                  15
                  15
                  15
                  15
                  15
                  15
                  15
                  15
                  15
                  15
                  15
                  15
                  15
                  15
                  15
                  15
                  15
                  15
                  15
                  15
                  15
                  15
                  15
                  15
                  15
                  15
                  15
                  15
                  15
                  15
                  15
                  15
                  15
                  15
                  15
                  15
                  15
                  15
                  15
                  15
                  15
                  15
                  15
                  15
                  15
                  15
                  15
                  15
                  15
                  15
                  15
                  15
                  15
                  15
                  15
                  15
                  15
                  15
                  15
                  15
                  15
                  15
                  15
                  15
                  15
                  15
                  15
                  15
                  15
                  15
                  15
                  15
                  15
                  15
                  15
                  15
                  15
                  15
                  15
                  15
                  15
                  15
                  15
                  15
                  15
                  15
                  15
                  15
                  15
                  15
                  15
                  15
                  15
                  15
                  15
                  15
                  15
                  15
                  15
                  15
                  15
                  15
                  15
                  15
                  15
                  15
                  15
                  15
                  15
                  15
                  15
                  15
                  15
                  15
                  15
                  15
                  15
                  15
                  15
                  15
                  15
                  15
                  15
                  15
                  15
                  15
                  15
                  15
                  15
                  15
                  15
                  15
                  15
                  15
                  15
                  15
                  15
                  15
                  15
                  15
                  15
                  15
                  15
                  15
                  15
                  15
                  15
                  15
                  15
                  15
                  15
                  15
                  15
                  15
                  16
                  16
                  16
                  16
                  16
                  16
                  16
                  16
                  16
                  16
                  16
                  16
                  16
                  16
                  16
                  16
                  16
                  16
                  16
                  16
                  16
                  16
                  16
                  16
                  16
                  16
                  16
                  16
                  16
                  16
                  16
                  16
                  16
                  16
                  16
                  16
                  16
                  16
                  16
                  16
                  16
                  16
                  16
                  16
                  16
                  16
                  16
                  16
                  16
                  16
                  16
                  16
                  16
                  16
                  16
                  16
                  16
                  16
                  16
                  16
                  16
                  16
                  16
                  16
                  16
                  16
                  16
                  16
                  16
                  16
                  16
                  16
                  16
                  16
                  16
                  16
                  16
                  16
                  16
                  16
                  16
                  16
                  16
                  16
                  16
                  16
                  16
                  16
                  16
                  16
                  16
                  16
                  16
                  16
                  16
                  16
                  16
                  16
                  16
                  16
                  16
                  16
                  16
                  16
                  16
                  16
                  16
                  16
                  16
                  16
                  16
                  16
                  16
                  16
                  16
                  16
                  16
                  16
                  16
                  16
                  16
                  16
                  16
                  16
                  16
                  16
                  16
                  16
                  16
                  16
                  16
                  16
                  16
                  16
                  16
                  16
                  16
                  16
                  16
                  16
                  16
                  16
                  16
                  16
                  16
                  16
                  16
                  16
                  16
                  16
                  16
                  16
                  16
                  16
                  16
                  16
                  16
                  16
                  16
                  16
                  16
                  16
                  16
                  16
                  16
                  16
                  16
                  16
                  16
                  16
                  16
                  16
                  16
                  16
                  16
                  16
                  16
                  16
                  16
                  16
                  16
                  16
                  16
                  16
                  16
                  16
                  16
                  16
                  16
                  16
                  16
                  16
                  16
                  16
                  16
                  16
                  16
                  16
                  16
                  16
                  16
                  16
                  16
                  16
                  16
                  16
                  16
                  16
                  16
                  16
                  16
                  16
                  16
                  16
                  16
                  16
                  16
                  16
                  16
                  16
                  16
                  16
                  16
                  16
                  16
                  16
                  16
                  16
                  16
                  16
                  16
                  16
                  16
                  16
                  17
                  17
                  17
                  17
                  17
                  17
                  17
                  17
                  17
                  17
                  17
                  17
                  17
                  17
                  17
                  17
                  17
                  17
                  17
                  17
                  17
                  17
                  17
                  17
                  17
                  17
                  17
                  17
                  17
                  17
                  17
                  17
                  17
                  17
                  17
                  17
                  17
                  17
                  17
                  17
                  17
                  17
                  17
                  17
                  17
                  17
                  17
                  17
                  17
                  17
                  17
                  17
                  17
                  17
                  17
                  17
                  17
                  17
                  17
                  17
                  17
                  17
                  17
                  17
                  17
                  17
                  17
                  17
                  17
                  17
                  17
                  17
                  17
                  17
                  17
                  17
                  17
                  17
                  17
                  17
                  17
                  17
                  17
                  17
                  17
                  17
                  17
                  17
                  17
                  17
                  17
                  17
                  17
                  17
                  17
                  17
                  17
                  17
                  17
                  17
                  17
                  17
                  17
                  17
                  17
                  17
                  17
                  17
                  17
                  17
                  17
                  17
                  17
                  17
                  17
                  17
                  17
                  17
                  17
                  17
                  17
                  17
                  17
                  17
                  17
                  17
                  17
                  17
                  17
                  17
                  17
                  17
                  17
                  17
                  17
                  17
                  17
                  17
                  17
                  17
                  17
                  17
                  17
                  17
                  17
                  17
                  17
                  17
                  17
                  17
                  17
                  17
                  17
                  17
                  17
                  17
                  17
                  17
                  17
                  17
                  17
                  17
                  17
                  17
                  17
                  17
                  17
                  17
                  17
                  17
                  17
                  17
                  17
                  17
                  17
                  17
                  17
                  17
                  17
                  17
                  17
                  17
                  17
                  17
                  17
                  17
                  17
                  17
                  17
                  17
                  17
                  17
                  17
                  17
                  17
                  17
                  17
                  17
                  17
                  17
                  17
                  17
                  17
                  17
                  17
                  17
                  17
                  17
                  17
                  17
                  17
                  17
                  17
                  17
                  17
                  17
                  17
                  17
                  17
                  17
                  17
                  17
                  17
                  17
                  17
                  17
                  17
                  17
                  17
                  17
                  17
                  17
                  17
                  17
                  18
                  18
                  18
                  18
                  18
                  18
                  18
                  18
                  18
                  18
                  18
                  18
                  18
                  18
                  18
                  18
                  18
                  18
                  18
                  18
                  18
                  18
                  18
                  18
                  18
                  18
                  18
                  18
                  18
                  18
                  18
                  18
                  18
                  18
                  18
                  18
                  18
                  18
                  18
                  18
                  18
                  18
                  18
                  18
                  18
                  18
                  18
                  18
                  18
                  18
                  18
                  18
                  18
                  18
                  18
                  18
                  18
                  18
                  18
                  18
                  18
                  18
                  18
                  18
                  18
                  18
                  18
                  18
                  18
                  18
                  18
                  18
                  18
                  18
                  18
                  18
                  18
                  18
                  18
                  18
                  18
                  18
                  18
                  18
                  18
                  18
                  18
                  18
                  18
                  18
                  18
                  18
                  18
                  18
                  18
                  18
                  18
                  18
                  18
                  18
                  18
                  18
                  18
                  18
                  18
                  18
                  18
                  18
                  18
                  18
                  18
                  18
                  18
                  18
                  18
                  18
                  18
                  18
                  18
                  18
                  18
                  18
                  18
                  18
                  18
                  18
                  18
                  18
                  18
                  18
                  18
                  18
                  18
                  18
                  18
                  18
                  18
                  18
                  18
                  18
                  18
                  18
                  18
                  18
                  18
                  18
                  18
                  18
                  18
                  18
                  18
                  18
                  18
                  18
                  18
                  18
  
SCALARS                 displacement_x  double 1
LOOKUP_TABLE default
        -0.11524E-03
        -0.16283E-03
        -0.15739E-03
        -0.10836E-03
        -0.11157E-04
        -0.10752E-02
        -0.67043E-03
        -0.57117E-03
        -0.16699E-03
        -0.14370E-03
         0.32579E-04
        -0.75118E-03
        -0.17182E-03
        -0.13059E-03
        -0.46313E-04
        -0.62228E-03
        -0.51540E-04
        -0.76240E-04
         0.20776E-05
        -0.49780E-03
        -0.18179E-03
        -0.19701E-03
        -0.16091E-03
        -0.10418E-03
        -0.92336E-03
        -0.72499E-03
        -0.14821E-03
        -0.19519E-03
        -0.68788E-04
        -0.96931E-03
        -0.11143E-04
        -0.20550E-04
        -0.46828E-04
         0.66206E-05
        -0.80305E-04
        -0.21737E-03
         0.33368E-05
        -0.39837E-04
         0.13620E-05
        -0.13904E-04
        -0.42544E-04
        -0.92891E-04
        -0.53448E-04
         0.81358E-06
        -0.23279E-04
        -0.28025E-05
        -0.16472E-04
        -0.34465E-04
        -0.75565E-04
         0.15350E-04
        -0.14719E-04
        -0.28606E-04
        -0.11291E-03
        -0.96110E-04
        -0.13736E-03
        -0.15576E-03
        -0.20014E-03
        -0.12803E-03
        -0.91603E-05
        -0.85473E-03
        -0.26794E-04
        -0.36314E-04
        -0.26727E-04
        -0.34946E-03
        -0.27855E-04
        -0.35370E-04
        -0.60849E-04
        -0.19733E-04
        -0.15005E-03
        -0.14296E-03
        -0.42192E-04
        -0.73339E-03
        -0.13611E-03
        -0.41783E-04
        -0.16979E-03
        -0.82650E-04
        -0.20814E-03
        -0.15992E-03
        -0.28323E-03
        -0.28537E-03
        -0.34972E-03
        -0.28358E-03
        -0.38927E-03
        -0.80427E-03
        -0.18076E-03
        -0.10835E-03
        -0.12022E-04
         0.29335E-04
        -0.11249E-04
         0.91904E-04
        -0.53535E-05
        -0.26538E-04
         0.66851E-04
        -0.73541E-03
        -0.27375E-05
         0.38355E-04
         0.93872E-05
         0.31751E-04
        -0.10724E-04
         0.91770E-04
        -0.37217E-04
        -0.95549E-04
         0.14888E-03
        -0.78097E-03
        -0.12617E-03
        -0.23958E-03
         0.14622E-03
        -0.14379E-02
        -0.70148E-04
        -0.13622E-04
        -0.40224E-04
        -0.21071E-04
        -0.61036E-04
        -0.27773E-04
        -0.12928E-03
        -0.18807E-03
        -0.19028E-03
        -0.32003E-03
        -0.22975E-03
        -0.23982E-03
        -0.31480E-03
        -0.34194E-03
        -0.44337E-03
        -0.49262E-03
        -0.51469E-03
        -0.63485E-03
        -0.41434E-03
        -0.34399E-03
        -0.29066E-03
        -0.48970E-04
        -0.23061E-03
        -0.21749E-04
        -0.15634E-03
         0.12475E-03
        -0.68499E-04
         0.25928E-03
         0.19841E-04
         0.34016E-03
         0.73749E-04
         0.54780E-03
         0.68692E-04
         0.65196E-03
         0.69133E-04
         0.57245E-03
         0.10133E-03
         0.59575E-03
         0.11354E-03
         0.76054E-03
         0.71353E-04
         0.79143E-03
         0.99590E-05
         0.63082E-03
        -0.58501E-04
         0.31286E-03
        -0.13757E-03
         0.16518E-03
         0.86894E-04
         0.10492E-03
         0.12746E-03
         0.10728E-03
         0.19095E-03
         0.18308E-03
         0.11029E-03
         0.10590E-03
         0.94682E-04
         0.10823E-03
         0.11333E-03
         0.10270E-03
         0.11567E-03
         0.10929E-03
         0.83846E-04
         0.11410E-03
         0.11010E-03
         0.89830E-04
         0.12609E-03
         0.10671E-03
         0.10900E-03
         0.80048E-04
         0.13283E-03
         0.13496E-03
         0.10281E-03
         0.13713E-03
         0.97200E-04
         0.82471E-04
         0.67441E-04
         0.87917E-04
         0.12464E-03
         0.14975E-03
         0.12557E-03
         0.16139E-03
         0.22370E-03
         0.17954E-03
         0.13771E-03
         0.54873E-04
         0.33459E-04
         0.21495E-04
         0.83752E-05
         0.37976E-04
         0.57832E-04
         0.15651E-03
         0.18615E-03
         0.21140E-03
         0.18263E-03
         0.16540E-03
         0.18175E-03
         0.22605E-03
         0.26485E-03
         0.22178E-03
         0.33325E-03
         0.29762E-03
         0.27746E-03
         0.17763E-03
         0.10290E-03
         0.56129E-04
         0.14172E-04
        -0.26461E-04
        -0.62936E-04
        -0.90489E-04
        -0.84430E-04
        -0.43361E-04
         0.61006E-05
         0.43114E-04
         0.85540E-04
         0.13912E-03
         0.20640E-03
         0.26781E-03
         0.27605E-03
         0.23511E-03
         0.21859E-03
         0.26558E-03
         0.33581E-03
         0.35682E-03
         0.30180E-03
         0.26219E-03
         0.12136E-03
         0.14198E-03
         0.15312E-03
         0.12113E-03
         0.19789E-03
         0.16849E-03
         0.15673E-03
         0.14378E-03
         0.11386E-03
         0.12920E-03
         0.16338E-03
         0.15612E-03
         0.15524E-03
         0.15220E-03
         0.14347E-03
         0.12289E-03
         0.11632E-03
         0.10741E-03
         0.13386E-03
         0.12208E-03
         0.15930E-03
         0.14558E-03
         0.17650E-03
         0.15183E-03
         0.12661E-03
         0.15081E-03
         0.13786E-03
         0.14307E-03
         0.15676E-03
         0.13229E-03
         0.12764E-03
         0.15633E-03
         0.12483E-03
         0.14802E-03
         0.23735E-03
         0.20001E-03
         0.16317E-03
         0.12984E-03
         0.14154E-03
         0.16801E-03
         0.18396E-03
         0.17065E-03
         0.15075E-03
         0.18572E-03
         0.19817E-03
         0.20871E-03
         0.17360E-03
         0.14816E-03
         0.15703E-03
         0.18800E-03
         0.20962E-03
         0.18296E-03
         0.32628E-03
         0.27511E-03
         0.27701E-03
         0.18919E-03
         0.13902E-03
         0.12381E-03
         0.11789E-03
         0.11023E-03
         0.11973E-03
         0.15562E-03
         0.19187E-03
         0.19603E-03
         0.20942E-03
         0.22968E-03
         0.24368E-03
         0.24552E-03
         0.25068E-03
         0.26757E-03
         0.26183E-03
         0.21231E-03
         0.17811E-03
         0.20028E-03
         0.24603E-03
         0.25693E-03
         0.22624E-03
         0.22002E-03
         0.43634E-04
         0.43895E-04
         0.35102E-04
         0.29560E-04
         0.17064E-04
        -0.11237E-04
         0.53174E-04
         0.50585E-04
         0.41877E-04
         0.46713E-04
         0.59506E-04
         0.64308E-04
         0.51879E-04
         0.56524E-04
         0.66537E-04
         0.44558E-04
         0.42506E-04
         0.37406E-04
         0.52098E-04
         0.50791E-04
         0.77363E-04
         0.78169E-04
         0.74931E-04
         0.59412E-04
         0.51143E-04
         0.52279E-04
         0.55502E-04
         0.67353E-04
         0.85527E-04
         0.63493E-04
         0.31482E-04
         0.36453E-04
         0.21217E-04
         0.32772E-06
         0.26766E-04
         0.33103E-04
         0.39364E-04
         0.68297E-04
         0.84001E-04
         0.10786E-03
         0.12406E-03
         0.10651E-03
         0.87638E-04
         0.59896E-04
         0.37384E-04
         0.14165E-04
         0.79302E-05
        -0.23971E-05
        -0.19915E-04
        -0.49295E-04
        -0.84822E-04
        -0.50649E-04
         0.16298E-04
        -0.10142E-04
         0.18875E-04
         0.30025E-04
         0.48557E-04
         0.71357E-04
         0.89175E-04
         0.93612E-04
         0.10831E-03
         0.13796E-03
         0.15404E-03
         0.14002E-03
         0.13900E-03
         0.15030E-03
         0.14251E-03
         0.10873E-03
         0.64954E-04
         0.23599E-04
        -0.10087E-04
        -0.36285E-04
        -0.62968E-04
        -0.10515E-03
        -0.15957E-03
        -0.18575E-03
        -0.15398E-03
        -0.80825E-04
        -0.74954E-06
        -0.19543E-05
        -0.96240E-05
        -0.78874E-05
        -0.27728E-04
        -0.41369E-04
         0.50326E-05
         0.40897E-05
         0.22947E-05
         0.66696E-05
         0.11714E-04
         0.19604E-04
         0.82645E-05
         0.12041E-04
         0.25058E-04
         0.81073E-05
         0.78811E-05
         0.15700E-05
         0.14184E-04
         0.18468E-04
         0.31601E-04
         0.39328E-04
         0.25052E-04
         0.16699E-04
         0.16803E-04
         0.11036E-04
         0.16729E-04
         0.31017E-04
         0.50529E-04
         0.32324E-04
        -0.11812E-05
        -0.22362E-05
        -0.93485E-05
        -0.28987E-04
        -0.27865E-04
        -0.16806E-04
        -0.45706E-05
         0.32251E-04
         0.48815E-04
         0.70695E-04
         0.85905E-04
         0.70774E-04
         0.52780E-04
         0.10708E-04
        -0.98890E-05
        -0.29550E-04
        -0.26352E-04
        -0.28053E-04
        -0.41847E-04
        -0.68315E-04
        -0.97300E-04
        -0.70066E-04
        -0.50252E-04
        -0.60023E-04
        -0.37674E-04
        -0.12372E-04
         0.11651E-04
         0.33426E-04
         0.49768E-04
         0.58217E-04
         0.75965E-04
         0.10244E-03
         0.11460E-03
         0.98321E-04
         0.86234E-04
         0.85684E-04
         0.71020E-04
         0.39190E-04
         0.11359E-05
        -0.35504E-04
        -0.58694E-04
        -0.65075E-04
        -0.74641E-04
        -0.10662E-03
        -0.15268E-03
        -0.17452E-03
        -0.14952E-03
        -0.98958E-04
        -0.41435E-05
        -0.34458E-05
        -0.50601E-05
        -0.42844E-05
        -0.85484E-05
        -0.10721E-04
        -0.48127E-06
        -0.14141E-05
        -0.24119E-05
         0.73199E-06
         0.28359E-05
         0.64884E-05
         0.17435E-05
         0.35815E-05
         0.10254E-04
         0.24459E-05
         0.19141E-05
        -0.12838E-05
         0.57182E-05
         0.93582E-05
         0.14821E-04
         0.21986E-04
         0.10772E-04
         0.70998E-05
         0.83296E-05
         0.50586E-05
         0.79139E-05
         0.18740E-04
         0.33737E-04
         0.19864E-04
         0.98327E-06
         0.61656E-06
        -0.16623E-05
        -0.65626E-05
        -0.86724E-05
        -0.62830E-05
        -0.29489E-05
         0.17745E-04
         0.31889E-04
         0.49521E-04
         0.62439E-04
         0.50180E-04
         0.34577E-04
         0.45791E-05
        -0.33618E-05
        -0.10142E-04
        -0.72202E-05
        -0.59106E-05
        -0.82845E-05
        -0.13888E-04
        -0.20235E-04
        -0.15499E-04
        -0.13997E-04
        -0.17098E-04
        -0.12045E-04
        -0.58986E-05
         0.27758E-05
         0.11689E-04
         0.20247E-04
         0.31216E-04
         0.51040E-04
         0.75172E-04
         0.87553E-04
         0.75013E-04
         0.57786E-04
         0.47523E-04
         0.33778E-04
         0.15135E-04
        -0.28161E-05
        -0.16719E-04
        -0.22272E-04
        -0.20035E-04
        -0.18441E-04
        -0.23143E-04
        -0.31432E-04
        -0.35950E-04
        -0.33060E-04
        -0.25038E-04
        -0.83946E-06
        -0.33699E-06
        -0.23807E-07
         0.28929E-06
         0.36846E-06
         0.11799E-05
         0.19982E-06
        -0.76658E-07
        -0.75378E-06
         0.59224E-06
         0.99264E-06
         0.11935E-05
        -0.20524E-06
         0.16474E-05
         0.33321E-05
         0.12876E-05
         0.80832E-06
         0.25417E-06
         0.22444E-05
         0.42060E-05
         0.52513E-05
         0.99988E-05
         0.29967E-05
         0.26758E-05
         0.39863E-05
         0.23869E-05
         0.40251E-05
         0.96173E-05
         0.17861E-04
         0.99142E-05
         0.19182E-05
         0.14238E-05
         0.18967E-05
         0.23564E-05
         0.33236E-06
        -0.42264E-06
        -0.10185E-05
         0.82428E-05
         0.16794E-04
         0.27294E-04
         0.35551E-04
         0.28046E-04
         0.18253E-04
         0.97133E-06
        -0.12235E-05
        -0.30244E-05
        -0.76562E-06
         0.10274E-05
         0.23610E-05
         0.36066E-05
         0.42886E-05
         0.30147E-05
         0.30739E-06
        -0.10590E-05
        -0.29847E-05
        -0.52948E-05
        -0.31349E-05
         0.15968E-06
         0.41764E-05
         0.12280E-04
         0.26605E-04
         0.43232E-04
         0.52466E-04
         0.45087E-04
         0.31548E-04
         0.20485E-04
         0.10254E-04
         0.84129E-06
        -0.59231E-05
        -0.92552E-05
        -0.86712E-05
        -0.54636E-05
        -0.19963E-05
         0.10353E-05
         0.41256E-05
         0.55549E-05
         0.33164E-05
        -0.36524E-06
         0.30570E-06
         0.38843E-06
         0.57457E-06
         0.83040E-06
         0.34419E-06
         0.79485E-06
         0.39262E-06
         0.53828E-06
         0.65617E-07
         0.67302E-06
         0.43292E-06
        -0.60198E-06
        -0.10730E-05
         0.98269E-06
         0.51595E-06
         0.79801E-06
         0.54483E-06
         0.53358E-06
         0.88074E-06
         0.18234E-05
         0.92418E-06
         0.36482E-05
        -0.36365E-06
         0.77969E-06
         0.19271E-05
         0.87094E-06
         0.20814E-05
         0.44993E-05
         0.84153E-05
         0.45243E-05
         0.95222E-06
         0.27107E-06
         0.11408E-05
         0.15159E-05
         0.12398E-06
        -0.42026E-06
        -0.11779E-05
         0.29704E-05
         0.73533E-05
         0.12976E-04
         0.17621E-04
         0.13689E-04
         0.83116E-05
        -0.11832E-05
        -0.22220E-05
        -0.34131E-05
        -0.16186E-05
        -0.36408E-06
         0.51820E-06
         0.13448E-05
         0.17107E-05
         0.15399E-05
        -0.52708E-06
        -0.15698E-05
        -0.37579E-05
        -0.64158E-05
        -0.55096E-05
        -0.39005E-05
        -0.23299E-05
         0.15302E-05
         0.98152E-05
         0.20518E-04
         0.27007E-04
         0.22768E-04
         0.13745E-04
         0.57652E-05
        -0.62923E-06
        -0.51267E-05
        -0.79177E-05
        -0.89810E-05
        -0.81158E-05
        -0.61841E-05
        -0.42151E-05
        -0.23861E-05
        -0.20033E-06
         0.12935E-05
         0.69571E-06
        -0.12996E-05
         0.46775E-06
         0.42998E-06
         0.38973E-06
         0.62414E-06
        -0.38826E-06
        -0.28772E-06
         0.41468E-06
         0.67526E-06
         0.26294E-06
         0.65488E-06
         0.29500E-06
        -0.10913E-05
        -0.12364E-05
         0.74011E-06
        -0.58713E-06
         0.65987E-06
         0.47614E-06
         0.47558E-06
         0.53781E-06
         0.90931E-06
        -0.36070E-06
         0.93009E-06
        -0.93306E-06
         0.36841E-06
         0.10521E-05
         0.53489E-06
         0.11875E-05
         0.20945E-05
         0.38376E-05
         0.20802E-05
         0.59127E-06
         0.72463E-07
         0.56336E-06
         0.44468E-06
        -0.66931E-06
        -0.78841E-06
        -0.12463E-05
         0.43956E-06
         0.25984E-05
         0.56358E-05
         0.82035E-05
         0.62837E-05
         0.33794E-05
        -0.12620E-05
        -0.19253E-05
        -0.29284E-05
        -0.16175E-05
        -0.92497E-06
        -0.75336E-06
        -0.74146E-06
        -0.10154E-05
        -0.42166E-06
        -0.19533E-05
        -0.29466E-05
        -0.43460E-05
        -0.63558E-05
        -0.59017E-05
        -0.51219E-05
        -0.49726E-05
        -0.37387E-05
         0.10177E-05
         0.80872E-05
         0.12859E-04
         0.10378E-04
         0.43297E-05
        -0.62863E-06
        -0.37238E-05
        -0.54403E-05
        -0.66323E-05
        -0.72229E-05
        -0.68456E-05
        -0.58092E-05
        -0.49852E-05
        -0.46284E-05
        -0.39110E-05
        -0.29786E-05
        -0.27697E-05
        -0.33784E-05
         0.43909E-06
         0.31993E-06
         0.23659E-06
         0.56027E-06
        -0.63680E-06
        -0.40535E-06
         0.32609E-06
         0.68950E-06
         0.29031E-06
         0.65224E-06
         0.17281E-06
        -0.14587E-05
        -0.15270E-05
         0.63937E-06
        -0.11170E-05
         0.64966E-06
         0.47085E-06
         0.45015E-06
         0.46435E-06
         0.65647E-06
        -0.90972E-06
        -0.62304E-08
        -0.13077E-05
         0.23547E-06
         0.77824E-06
         0.48651E-06
         0.87250E-06
         0.12412E-05
         0.22536E-05
         0.12937E-05
         0.65623E-06
         0.18998E-06
         0.58834E-06
         0.44870E-06
        -0.98993E-06
        -0.10476E-05
        -0.14948E-05
        -0.59975E-06
         0.74675E-06
         0.29299E-05
         0.49429E-05
         0.38376E-05
         0.17735E-05
        -0.13996E-05
        -0.17973E-05
        -0.25708E-05
        -0.11970E-05
        -0.55733E-06
        -0.53221E-06
        -0.62108E-06
        -0.89878E-06
        -0.39486E-06
        -0.24430E-05
        -0.33773E-05
        -0.47978E-05
        -0.68361E-05
        -0.65868E-05
        -0.60822E-05
        -0.63813E-05
        -0.60604E-05
        -0.25997E-05
         0.33152E-05
         0.80923E-05
         0.66062E-05
         0.12165E-05
        -0.32064E-05
        -0.54333E-05
        -0.62882E-05
        -0.67904E-05
        -0.70229E-05
        -0.63735E-05
        -0.49257E-05
        -0.40651E-05
        -0.40544E-05
        -0.36524E-05
        -0.27230E-05
        -0.25943E-05
        -0.35453E-05
         0.43324E-06
         0.22202E-06
         0.15750E-06
         0.61357E-06
        -0.74039E-06
        -0.23001E-06
         0.22536E-06
         0.73182E-06
         0.30570E-06
         0.73126E-06
         0.50163E-07
        -0.19385E-05
        -0.20172E-05
         0.66195E-06
        -0.14336E-05
         0.64719E-06
         0.49392E-06
         0.47858E-06
         0.35873E-06
         0.64636E-06
        -0.14525E-05
        -0.18351E-06
        -0.22266E-05
        -0.86471E-07
         0.83016E-06
         0.23498E-06
         0.95205E-06
         0.12925E-05
         0.23508E-05
         0.13418E-05
         0.67326E-06
        -0.10649E-06
         0.73239E-06
         0.73928E-06
        -0.12267E-05
        -0.13477E-05
        -0.19264E-05
        -0.79025E-06
         0.63642E-06
         0.30143E-05
         0.53532E-05
         0.41874E-05
         0.19044E-05
        -0.24406E-05
        -0.28862E-05
        -0.37667E-05
        -0.17703E-05
        -0.65223E-06
        -0.32330E-06
        -0.14748E-06
        -0.19065E-06
         0.13674E-06
        -0.28598E-05
        -0.37305E-05
        -0.56226E-05
        -0.80847E-05
        -0.79678E-05
        -0.75264E-05
        -0.76679E-05
        -0.70388E-05
        -0.32514E-05
         0.33635E-05
         0.91073E-05
         0.77185E-05
         0.15704E-05
        -0.39508E-05
        -0.72591E-05
        -0.88451E-05
        -0.96642E-05
        -0.98694E-05
        -0.87447E-05
        -0.63888E-05
        -0.46307E-05
        -0.39898E-05
        -0.30666E-05
        -0.16413E-05
        -0.15858E-05
        -0.32922E-05
         0.46674E-06
         0.26421E-06
         0.19283E-06
         0.67442E-06
        -0.71022E-06
        -0.11484E-06
         0.29813E-06
         0.81697E-06
         0.30102E-06
         0.79031E-06
         0.16051E-06
        -0.18840E-05
        -0.20371E-05
         0.82373E-06
        -0.12473E-05
         0.58897E-06
         0.45248E-06
         0.49014E-06
         0.20595E-06
         0.57087E-06
        -0.17396E-05
        -0.22647E-06
        -0.27664E-05
        -0.35780E-06
         0.86391E-06
        -0.10786E-07
         0.11430E-05
         0.15142E-05
         0.26716E-05
         0.13945E-05
         0.56239E-06
        -0.46210E-06
         0.72836E-06
         0.83367E-06
        -0.12147E-05
        -0.13479E-05
        -0.19563E-05
        -0.43381E-06
         0.12004E-05
         0.38142E-05
         0.63375E-05
         0.47315E-05
         0.21005E-05
        -0.31151E-05
        -0.37137E-05
        -0.48597E-05
        -0.25758E-05
        -0.11782E-05
        -0.59299E-06
        -0.15612E-06
        -0.10579E-07
         0.33695E-06
        -0.28203E-05
        -0.37655E-05
        -0.56399E-05
        -0.83530E-05
        -0.82914E-05
        -0.77114E-05
        -0.75880E-05
        -0.65328E-05
        -0.20663E-05
         0.52344E-05
         0.11046E-04
         0.89033E-05
         0.22901E-05
        -0.37717E-05
        -0.78831E-05
        -0.10080E-04
        -0.11257E-04
        -0.11665E-04
        -0.10698E-04
        -0.83339E-05
        -0.62351E-05
        -0.50215E-05
        -0.33776E-05
        -0.13820E-05
        -0.12620E-05
        -0.31695E-05
         0.54161E-06
         0.45738E-06
         0.37822E-06
         0.76096E-06
        -0.48195E-06
         0.36753E-07
         0.51210E-06
         0.89463E-06
         0.28571E-06
         0.76160E-06
         0.40298E-06
        -0.14039E-05
        -0.15492E-05
         0.95801E-06
        -0.91129E-06
         0.50765E-06
         0.34279E-06
         0.48333E-06
         0.58580E-07
         0.30786E-06
        -0.19449E-05
        -0.72280E-06
        -0.29082E-05
        -0.49890E-06
         0.66631E-06
        -0.14251E-06
         0.11534E-05
         0.12696E-05
         0.19088E-05
         0.87016E-06
         0.43879E-06
        -0.63613E-06
         0.67122E-06
         0.88132E-06
        -0.86881E-06
        -0.99634E-06
        -0.15460E-05
        -0.21766E-06
         0.10986E-05
         0.29977E-05
         0.45767E-05
         0.30438E-05
         0.97836E-06
        -0.32493E-05
        -0.39085E-05
        -0.51966E-05
        -0.29545E-05
        -0.15617E-05
        -0.86810E-06
        -0.22068E-06
         0.61499E-07
         0.45707E-06
        -0.22462E-05
        -0.33938E-05
        -0.49698E-05
        -0.75882E-05
        -0.72482E-05
        -0.66292E-05
        -0.68109E-05
        -0.58055E-05
        -0.16310E-05
         0.43787E-05
         0.80440E-05
         0.52192E-05
         0.98045E-07
        -0.45447E-05
        -0.81552E-05
        -0.10164E-04
        -0.11288E-04
        -0.11848E-04
        -0.11215E-04
        -0.91961E-05
        -0.72740E-05
        -0.58651E-05
        -0.36548E-05
        -0.13037E-05
        -0.11557E-05
        -0.29863E-05
         0.60672E-06
         0.60716E-06
         0.56611E-06
         0.84762E-06
        -0.18729E-06
         0.21854E-06
         0.61981E-06
         0.89247E-06
         0.28669E-06
         0.68102E-06
         0.45254E-06
        -0.12155E-05
        -0.12084E-05
         0.88425E-06
        -0.98450E-06
         0.47075E-06
         0.26594E-06
         0.49943E-06
        -0.70979E-08
         0.72963E-07
        -0.20386E-05
        -0.13549E-05
        -0.27795E-05
        -0.49852E-06
         0.42934E-06
        -0.12715E-06
         0.94943E-06
         0.77472E-06
         0.75370E-06
         0.23850E-06
         0.45020E-06
        -0.53822E-06
         0.69908E-06
         0.96795E-06
        -0.44070E-06
        -0.62978E-06
        -0.11888E-05
        -0.55257E-06
         0.26550E-06
         0.12351E-05
         0.16524E-05
         0.60453E-06
        -0.57474E-06
        -0.30002E-05
        -0.35485E-05
        -0.47445E-05
        -0.26976E-05
        -0.14426E-05
        -0.78364E-06
        -0.10151E-06
         0.21223E-06
         0.60717E-06
        -0.15394E-05
        -0.28866E-05
        -0.42827E-05
        -0.67620E-05
        -0.63129E-05
        -0.60157E-05
        -0.68036E-05
        -0.63072E-05
        -0.30773E-05
         0.11552E-05
         0.27925E-05
        -0.21805E-06
        -0.35582E-05
        -0.59360E-05
        -0.82240E-05
        -0.96503E-05
        -0.10429E-04
        -0.10849E-04
        -0.10359E-04
        -0.86244E-05
        -0.69724E-05
        -0.56735E-05
        -0.34429E-05
        -0.11245E-05
        -0.97678E-06
        -0.27197E-05
         0.54897E-06
         0.55747E-06
         0.61651E-06
         0.86259E-06
         0.60458E-07
         0.37937E-06
         0.50767E-06
         0.78198E-06
         0.26727E-06
         0.61035E-06
         0.26347E-06
        -0.14544E-05
        -0.12709E-05
         0.65630E-06
        -0.14252E-05
         0.51220E-06
         0.27843E-06
         0.52819E-06
         0.52885E-07
         0.12158E-06
        -0.18594E-05
        -0.12440E-05
        -0.24854E-05
        -0.36584E-06
         0.38545E-06
         0.45750E-07
         0.68682E-06
         0.43956E-06
         0.26511E-06
         0.16975E-06
         0.61450E-06
        -0.23762E-06
         0.82969E-06
         0.10801E-05
        -0.77483E-07
        -0.39211E-06
        -0.10893E-05
        -0.12833E-05
        -0.83113E-06
        -0.20142E-06
         0.48946E-07
        -0.12594E-06
        -0.69748E-06
        -0.25423E-05
        -0.29215E-05
        -0.40230E-05
        -0.22324E-05
        -0.11475E-05
        -0.56224E-06
         0.60820E-07
         0.32952E-06
         0.73720E-06
        -0.84832E-06
        -0.23268E-05
        -0.35689E-05
        -0.61946E-05
        -0.61769E-05
        -0.63374E-05
        -0.75862E-05
        -0.79516E-05
        -0.59352E-05
        -0.27277E-05
        -0.49977E-06
        -0.15765E-05
        -0.36665E-05
        -0.56606E-05
        -0.77129E-05
        -0.89299E-05
        -0.93391E-05
        -0.94785E-05
        -0.91816E-05
        -0.78965E-05
        -0.65463E-05
        -0.53650E-05
        -0.32824E-05
        -0.10829E-05
        -0.81104E-06
        -0.23450E-05
         0.49626E-06
         0.45083E-06
         0.55956E-06
         0.85230E-06
         0.91975E-07
         0.45365E-06
         0.37639E-06
         0.73069E-06
         0.30127E-06
         0.64848E-06
         0.10209E-06
        -0.17547E-05
        -0.14979E-05
         0.53735E-06
        -0.17863E-05
         0.64965E-06
         0.39964E-06
         0.58237E-06
         0.30256E-06
         0.41671E-06
        -0.12801E-05
        -0.50035E-06
        -0.19526E-05
        -0.45296E-07
         0.54882E-06
         0.32249E-06
         0.62201E-06
         0.55214E-06
         0.83518E-06
         0.62965E-06
         0.78312E-06
         0.25482E-07
         0.95481E-06
         0.11776E-05
        -0.55950E-07
        -0.40059E-06
        -0.11853E-05
        -0.17014E-05
        -0.10324E-05
         0.27310E-06
         0.14787E-05
         0.13887E-05
         0.46713E-06
        -0.20840E-05
        -0.25223E-05
        -0.36716E-05
        -0.19831E-05
        -0.96978E-06
        -0.39726E-06
         0.21777E-06
         0.46324E-06
         0.84591E-06
        -0.76026E-06
        -0.21313E-05
        -0.33460E-05
        -0.61564E-05
        -0.65799E-05
        -0.69688E-05
        -0.84427E-05
        -0.91915E-05
        -0.68963E-05
        -0.22715E-05
         0.21113E-05
         0.20569E-05
        -0.10939E-05
        -0.40096E-05
        -0.63106E-05
        -0.78936E-05
        -0.86109E-05
        -0.89104E-05
        -0.87580E-05
        -0.76484E-05
        -0.64112E-05
        -0.52130E-05
        -0.31252E-05
        -0.94682E-06
        -0.58720E-06
        -0.20127E-05
         0.58537E-06
         0.53933E-06
         0.58259E-06
         0.87024E-06
         0.23833E-07
         0.34925E-06
         0.51816E-06
         0.85320E-06
         0.39561E-06
         0.74942E-06
         0.30414E-06
        -0.14122E-05
        -0.12545E-05
         0.71574E-06
        -0.14238E-05
         0.72461E-06
         0.48903E-06
         0.62569E-06
         0.43370E-06
         0.49881E-06
        -0.10769E-05
        -0.36993E-06
        -0.18086E-05
         0.77447E-07
         0.62643E-06
         0.37181E-06
         0.76290E-06
         0.72577E-06
         0.12047E-05
         0.74699E-06
         0.77185E-06
        -0.40949E-08
         0.92213E-06
         0.10937E-05
        -0.10277E-06
        -0.34889E-06
        -0.10255E-05
        -0.13533E-05
        -0.53137E-06
         0.11905E-05
         0.28704E-05
         0.22088E-05
         0.76153E-06
        -0.21163E-05
        -0.26555E-05
        -0.37812E-05
        -0.20009E-05
        -0.95769E-06
        -0.44121E-06
         0.59591E-07
         0.20960E-06
         0.65614E-06
        -0.84754E-06
        -0.22707E-05
        -0.31756E-05
        -0.58046E-05
        -0.60975E-05
        -0.62536E-05
        -0.75772E-05
        -0.83340E-05
        -0.55833E-05
         0.24613E-06
         0.51889E-05
         0.42081E-05
        -0.41642E-06
        -0.37267E-05
        -0.59296E-05
        -0.77299E-05
        -0.89149E-05
        -0.93720E-05
        -0.89171E-05
        -0.75156E-05
        -0.61809E-05
        -0.51382E-05
        -0.33673E-05
        -0.13495E-05
        -0.94913E-06
        -0.22326E-05
         0.67955E-06
         0.76309E-06
         0.73521E-06
         0.89705E-06
         0.76281E-07
         0.24766E-06
         0.79689E-06
         0.95922E-06
         0.39403E-06
         0.72604E-06
         0.66325E-06
        -0.62816E-06
        -0.59358E-06
         0.93536E-06
        -0.64730E-06
         0.58729E-06
         0.38205E-06
         0.58346E-06
         0.14453E-06
         0.18728E-06
        -0.17541E-05
        -0.10836E-05
        -0.25496E-05
        -0.33740E-06
         0.44530E-06
         0.32973E-07
         0.80723E-06
         0.50095E-06
         0.58146E-06
         0.29250E-06
         0.60069E-06
        -0.29367E-06
         0.79593E-06
         0.95601E-06
         0.86401E-07
        -0.32911E-07
        -0.52456E-06
        -0.81213E-06
        -0.56243E-06
         0.44044E-06
         0.15419E-05
         0.10243E-05
        -0.16407E-06
        -0.27601E-05
        -0.31300E-05
        -0.41088E-05
        -0.22047E-05
        -0.10766E-05
        -0.58379E-06
        -0.19189E-06
        -0.14024E-06
         0.40427E-06
        -0.61968E-06
        -0.23589E-05
        -0.26025E-05
        -0.47644E-05
        -0.45987E-05
        -0.43815E-05
        -0.53167E-05
        -0.63108E-05
        -0.48862E-05
        -0.75128E-06
         0.30661E-05
         0.21504E-05
        -0.19659E-05
        -0.51056E-05
        -0.74655E-05
        -0.91931E-05
        -0.10050E-04
        -0.10077E-04
        -0.92223E-05
        -0.75498E-05
        -0.60443E-05
        -0.51201E-05
        -0.37096E-05
        -0.19152E-05
        -0.15322E-05
        -0.26630E-05
         0.64397E-06
         0.85098E-06
         0.81921E-06
         0.87920E-06
         0.17240E-06
         0.24683E-06
         0.89917E-06
         0.92182E-06
         0.30675E-06
         0.61868E-06
         0.78900E-06
        -0.23366E-06
        -0.15620E-06
         0.95171E-06
        -0.32922E-06
         0.41853E-06
         0.24677E-06
         0.50973E-06
        -0.16048E-06
        -0.83309E-07
        -0.23513E-05
        -0.17548E-05
        -0.30862E-05
        -0.72504E-06
         0.25832E-06
        -0.25904E-06
         0.69925E-06
         0.13700E-06
        -0.28908E-06
        -0.12887E-06
         0.52928E-06
        -0.42577E-06
         0.79307E-06
         0.99493E-06
         0.31051E-06
         0.24344E-06
        -0.14280E-06
        -0.71852E-06
        -0.11444E-05
        -0.11740E-05
        -0.10244E-05
        -0.74470E-06
        -0.11722E-05
        -0.31251E-05
        -0.32532E-05
        -0.40374E-05
        -0.21163E-05
        -0.93862E-06
        -0.39650E-06
         0.13134E-07
         0.33569E-07
         0.44337E-06
        -0.30645E-06
        -0.22697E-05
        -0.20680E-05
        -0.37911E-05
        -0.33873E-05
        -0.33012E-05
        -0.42014E-05
        -0.54200E-05
        -0.56434E-05
        -0.41348E-05
        -0.19664E-05
        -0.17050E-05
        -0.40791E-05
        -0.65930E-05
        -0.85532E-05
        -0.98369E-05
        -0.10234E-04
        -0.99091E-05
        -0.89236E-05
        -0.71616E-05
        -0.55272E-05
        -0.45135E-05
        -0.31404E-05
        -0.16016E-05
        -0.15840E-05
        -0.28029E-05
         0.76776E-06
         0.10372E-05
         0.11998E-05
         0.11932E-05
         0.90024E-06
         0.96582E-06
         0.99000E-06
         0.10109E-05
         0.35223E-06
         0.64262E-06
         0.75555E-06
        -0.55689E-06
        -0.27482E-06
         0.91273E-06
        -0.78733E-06
         0.52942E-06
         0.27639E-06
         0.65649E-06
        -0.58241E-08
        -0.28112E-07
        -0.19456E-05
        -0.16276E-05
        -0.24579E-05
        -0.43394E-06
         0.21578E-06
         0.43257E-07
         0.58446E-06
        -0.14416E-06
        -0.84624E-06
        -0.25240E-06
         0.98243E-06
         0.16134E-06
         0.13401E-05
         0.17751E-05
         0.11385E-05
         0.70734E-06
        -0.46143E-07
        -0.13365E-05
        -0.21105E-05
        -0.26322E-05
        -0.28869E-05
        -0.17007E-05
        -0.14043E-05
        -0.24447E-05
        -0.23349E-05
        -0.27014E-05
        -0.85981E-06
         0.31071E-06
         0.94767E-06
         0.15041E-05
         0.16050E-05
         0.15273E-05
         0.96892E-06
        -0.11036E-05
        -0.15765E-05
        -0.40330E-05
        -0.39821E-05
        -0.43375E-05
        -0.56846E-05
        -0.72532E-05
        -0.83117E-05
        -0.79413E-05
        -0.58640E-05
        -0.36938E-05
        -0.44580E-05
        -0.63147E-05
        -0.73438E-05
        -0.81786E-05
        -0.86747E-05
        -0.82202E-05
        -0.68228E-05
        -0.46857E-05
        -0.28451E-05
        -0.17631E-05
        -0.48448E-06
         0.60750E-06
        -0.14454E-06
        -0.18132E-05
         0.13424E-05
         0.18183E-05
         0.25603E-05
         0.22965E-05
         0.34163E-05
         0.35578E-05
         0.14795E-05
         0.14794E-05
         0.71003E-06
         0.92997E-06
         0.86495E-06
        -0.11870E-05
        -0.24754E-06
         0.94811E-06
        -0.19854E-05
         0.11165E-05
         0.59760E-06
         0.12531E-05
         0.81784E-06
         0.47433E-06
        -0.16976E-06
        -0.51456E-06
        -0.98182E-07
         0.90024E-06
         0.34254E-06
         0.13726E-05
         0.38590E-06
        -0.66283E-06
        -0.17518E-05
        -0.21447E-06
         0.23784E-05
         0.20448E-05
         0.29615E-05
         0.41812E-05
         0.41051E-05
         0.26632E-05
         0.77589E-06
        -0.30828E-05
        -0.44043E-05
        -0.53753E-05
        -0.59299E-05
        -0.31395E-05
        -0.13292E-05
         0.78042E-07
         0.52570E-06
         0.83134E-06
         0.23080E-05
         0.33760E-05
         0.44024E-05
         0.56669E-05
         0.63473E-05
         0.51424E-05
         0.56794E-05
         0.30443E-05
         0.16964E-05
        -0.32476E-05
        -0.49439E-05
        -0.66485E-05
        -0.95902E-05
        -0.12568E-04
        -0.14732E-04
        -0.14981E-04
        -0.11835E-04
        -0.68752E-05
        -0.42843E-05
        -0.37108E-05
        -0.31243E-05
        -0.32242E-05
        -0.39304E-05
        -0.35666E-05
        -0.17324E-05
         0.77920E-06
         0.29146E-05
         0.45579E-05
         0.63571E-05
         0.71804E-05
         0.52532E-05
         0.24059E-05
         0.27778E-05
         0.36392E-05
         0.49564E-05
         0.39971E-05
         0.74422E-05
         0.71733E-05
         0.31476E-05
         0.30123E-05
         0.19588E-05
         0.22771E-05
         0.22526E-05
        -0.31804E-06
         0.12896E-05
         0.21667E-05
        -0.17104E-05
         0.27219E-05
         0.20344E-05
         0.25021E-05
         0.31637E-05
         0.26898E-05
         0.38637E-05
         0.35032E-05
         0.41330E-05
         0.38763E-05
         0.18850E-05
         0.39953E-05
         0.14003E-05
         0.56854E-06
         0.17762E-06
         0.20682E-05
         0.41405E-05
         0.44710E-05
         0.46894E-05
         0.66129E-05
         0.89827E-05
         0.63834E-05
         0.32497E-05
        -0.31963E-05
        -0.43336E-05
        -0.44578E-05
        -0.40898E-05
        -0.26952E-06
         0.23860E-05
         0.38814E-05
         0.37754E-05
         0.38775E-05
         0.48285E-05
         0.54500E-05
         0.66333E-05
         0.87270E-05
         0.10372E-04
         0.90034E-05
         0.13301E-04
         0.10150E-04
         0.85267E-05
         0.75889E-06
        -0.35790E-05
        -0.68381E-05
        -0.11046E-04
        -0.14915E-04
        -0.17053E-04
        -0.16001E-04
        -0.10658E-04
        -0.35681E-05
         0.18567E-05
         0.40888E-05
         0.44366E-05
         0.32721E-05
         0.10172E-05
         0.22204E-06
         0.17939E-05
         0.37915E-05
         0.51298E-05
         0.67377E-05
         0.97820E-05
         0.12300E-04
         0.11564E-04
         0.92496E-05
         0.94940E-06
         0.16210E-05
         0.17090E-05
         0.40853E-06
         0.24691E-05
         0.67719E-06
         0.11827E-05
         0.87037E-06
         0.15522E-06
         0.16618E-06
         0.65575E-06
        -0.67866E-07
         0.11524E-05
         0.59108E-06
        -0.65433E-06
        -0.12045E-05
        -0.67450E-06
        -0.22802E-06
        -0.31561E-05
        -0.23064E-05
        -0.99356E-05
        -0.82404E-05
        -0.11510E-04
        -0.51914E-05
        -0.69640E-06
        -0.44182E-05
         0.18127E-06
        -0.61365E-06
        -0.15378E-05
        -0.19392E-05
        -0.31815E-05
        -0.62995E-05
        -0.26191E-05
        -0.26563E-05
         0.35359E-05
         0.31123E-05
         0.24756E-05
        -0.87868E-06
        -0.10468E-05
        -0.13380E-05
        -0.22850E-05
        -0.36591E-05
        -0.60085E-05
        -0.12005E-04
        -0.13626E-04
        -0.16593E-04
        -0.12228E-04
        -0.99526E-05
        -0.97675E-05
        -0.94191E-05
        -0.84467E-05
        -0.31078E-05
         0.59961E-05
         0.53357E-05
         0.60856E-05
         0.37300E-05
         0.37071E-06
        -0.21174E-05
        -0.43865E-05
        -0.54477E-05
        -0.42948E-05
        -0.26353E-05
        -0.34013E-05
        -0.88828E-05
        -0.17273E-04
        -0.24715E-04
        -0.28294E-04
        -0.29116E-04
        -0.29697E-04
        -0.30107E-04
        -0.28427E-04
        -0.25294E-04
        -0.24441E-04
        -0.25936E-04
        -0.23796E-04
        -0.15208E-04
        -0.48087E-05
         0.25228E-05
        -0.11181E-04
        -0.12054E-04
        -0.16023E-04
        -0.16095E-04
        -0.23221E-04
        -0.27045E-04
        -0.13083E-04
        -0.13516E-04
        -0.11797E-04
        -0.13920E-04
        -0.12995E-04
        -0.88035E-05
        -0.86010E-05
        -0.12644E-04
        -0.68027E-05
        -0.21868E-04
        -0.17091E-04
        -0.14210E-04
        -0.34343E-04
        -0.29614E-04
        -0.67025E-04
        -0.62234E-04
        -0.72871E-04
        -0.46070E-04
        -0.18671E-04
        -0.41959E-04
        -0.12076E-04
        -0.16399E-04
        -0.26021E-04
        -0.29688E-04
        -0.31903E-04
        -0.47934E-04
        -0.29381E-04
        -0.35231E-04
        -0.25155E-04
        -0.17778E-04
        -0.97768E-05
        -0.38346E-05
        -0.59711E-05
        -0.15448E-04
        -0.27466E-04
        -0.41418E-04
        -0.54772E-04
        -0.71861E-04
        -0.74284E-04
        -0.82374E-04
        -0.67434E-04
        -0.57762E-04
        -0.58908E-04
        -0.63720E-04
        -0.65592E-04
        -0.44775E-04
        -0.31996E-04
        -0.26491E-04
        -0.18939E-04
        -0.31118E-05
         0.34104E-06
         0.84390E-06
         0.33161E-05
         0.83783E-05
         0.11845E-04
         0.25667E-05
        -0.24056E-04
        -0.62978E-04
        -0.10700E-03
        -0.13671E-03
        -0.14292E-03
        -0.13559E-03
        -0.12576E-03
        -0.12032E-03
        -0.11596E-03
        -0.10668E-03
        -0.10282E-03
        -0.10920E-03
        -0.10993E-03
        -0.91606E-04
        -0.59811E-04
        -0.32342E-04
  
SCALARS                 displacement_y  double 1
LOOKUP_TABLE default
        -0.26145E-05
         0.50945E-04
         0.10095E-03
         0.25510E-04
        -0.15946E-03
        -0.54198E-04
        -0.15138E-03
        -0.17383E-03
         0.33934E-03
         0.31996E-03
         0.45605E-04
         0.10140E-03
         0.74691E-04
         0.26650E-04
         0.42323E-04
         0.12992E-03
        -0.13755E-04
        -0.10265E-05
         0.53166E-04
        -0.35982E-06
         0.92568E-04
         0.16034E-03
         0.16868E-03
         0.20138E-03
         0.20742E-03
         0.17796E-03
         0.45715E-04
         0.81277E-04
         0.24850E-04
         0.51766E-04
        -0.15236E-04
        -0.72975E-05
        -0.17779E-04
        -0.13008E-04
        -0.78029E-04
         0.37033E-04
        -0.21633E-04
        -0.46082E-05
        -0.17954E-04
        -0.54586E-04
        -0.13718E-03
        -0.15931E-03
         0.10783E-03
         0.23524E-03
        -0.17241E-03
        -0.59790E-04
         0.39346E-05
        -0.16857E-04
        -0.58280E-05
        -0.34446E-04
        -0.44172E-04
         0.46476E-04
        -0.29398E-05
        -0.30252E-04
        -0.47970E-04
        -0.38758E-04
        -0.15183E-03
        -0.40424E-04
         0.70575E-04
         0.73858E-04
        -0.34087E-05
        -0.27272E-04
         0.21063E-04
         0.20978E-03
         0.16367E-04
        -0.20268E-03
         0.10997E-03
         0.92582E-05
         0.38703E-03
         0.23691E-03
         0.32241E-03
         0.14039E-03
         0.16624E-03
         0.93294E-04
        -0.18951E-04
        -0.64435E-04
        -0.14133E-03
        -0.13161E-03
        -0.35013E-03
         0.10653E-04
        -0.65154E-03
        -0.48420E-03
        -0.11283E-03
         0.49142E-04
        -0.28902E-03
         0.24589E-03
        -0.18346E-03
        -0.99139E-04
        -0.15463E-03
        -0.51017E-05
        -0.11319E-03
        -0.13955E-04
         0.21284E-03
         0.17548E-03
         0.44559E-04
        -0.91790E-04
         0.12127E-03
        -0.83009E-04
         0.25620E-03
         0.56626E-04
         0.43712E-03
         0.37590E-03
         0.39882E-03
         0.17774E-03
         0.71438E-03
         0.84595E-03
         0.14150E-02
         0.12936E-02
         0.48624E-03
         0.59724E-03
         0.34678E-03
         0.38151E-03
         0.33088E-03
         0.48816E-03
         0.29807E-03
         0.40645E-03
         0.17524E-03
         0.26342E-03
        -0.22421E-04
         0.64912E-06
        -0.30558E-03
        -0.87335E-04
        -0.85220E-03
        -0.10252E-02
        -0.14428E-02
        -0.23700E-02
        -0.14992E-02
        -0.21627E-02
        -0.10975E-02
        -0.13595E-02
        -0.71990E-03
        -0.83909E-03
        -0.53949E-03
        -0.67358E-03
        -0.49850E-03
        -0.65953E-03
        -0.53084E-03
        -0.82148E-03
        -0.47676E-03
        -0.11194E-02
        -0.24768E-03
        -0.47248E-03
        -0.37238E-04
        -0.91257E-04
         0.13583E-03
         0.16502E-04
         0.34857E-03
         0.60413E-03
         0.57329E-03
         0.10157E-02
         0.79252E-03
         0.16203E-02
         0.92346E-03
         0.17043E-02
         0.92396E-03
         0.14687E-02
         0.75471E-05
         0.45075E-04
         0.75972E-04
         0.35249E-04
         0.18333E-03
         0.16174E-03
         0.54539E-04
         0.20377E-04
        -0.77297E-05
         0.52897E-05
         0.66351E-04
         0.11576E-03
         0.11657E-03
         0.37809E-04
         0.64516E-04
        -0.15254E-04
        -0.39089E-06
        -0.21951E-05
        -0.20096E-04
        -0.20516E-05
        -0.11405E-03
        -0.14508E-03
        -0.12359E-03
        -0.52582E-04
         0.60191E-05
        -0.43013E-04
         0.10119E-04
        -0.29958E-04
        -0.13653E-03
        -0.35369E-04
         0.41283E-05
        -0.25289E-04
         0.30310E-04
         0.70117E-04
         0.20311E-03
         0.13888E-03
         0.10936E-03
        -0.13355E-04
        -0.12829E-03
        -0.31772E-03
        -0.56209E-03
        -0.41925E-03
        -0.25777E-03
        -0.11390E-03
        -0.83929E-04
        -0.45372E-04
         0.81362E-05
         0.49191E-04
         0.74879E-04
         0.10216E-03
         0.14579E-03
         0.15490E-03
         0.33243E-03
         0.38605E-03
         0.24713E-03
         0.20205E-03
         0.21954E-03
         0.21790E-03
         0.12547E-03
        -0.59064E-04
        -0.34969E-03
        -0.78382E-03
        -0.11864E-02
        -0.12097E-02
        -0.90545E-03
        -0.59422E-03
        -0.40815E-03
        -0.31826E-03
        -0.26716E-03
        -0.19065E-03
        -0.69994E-04
         0.48529E-04
         0.11780E-03
         0.13132E-03
         0.13213E-03
         0.19176E-03
         0.30076E-03
         0.37748E-03
         0.13826E-04
         0.26604E-04
         0.28795E-04
         0.25154E-04
         0.28142E-04
         0.12283E-04
         0.33327E-04
         0.19083E-04
         0.73588E-05
         0.17442E-04
         0.42573E-04
         0.71530E-04
         0.64203E-04
         0.32150E-04
         0.49814E-04
         0.97307E-06
         0.14499E-04
         0.13558E-04
        -0.51416E-06
         0.13825E-04
        -0.61238E-04
        -0.94671E-04
        -0.49043E-04
        -0.18051E-04
         0.23271E-04
        -0.12717E-04
         0.23300E-04
        -0.24480E-05
        -0.82336E-04
        -0.73025E-05
         0.16778E-04
         0.25356E-05
         0.28081E-04
         0.19170E-04
         0.34512E-04
         0.38443E-04
         0.48202E-04
         0.43973E-05
        -0.83420E-04
        -0.22945E-03
        -0.40678E-03
        -0.29174E-03
        -0.17629E-03
        -0.30942E-04
        -0.87613E-05
         0.18171E-04
         0.34773E-04
         0.44407E-04
         0.26013E-04
        -0.18064E-04
        -0.61474E-04
        -0.22530E-04
         0.34248E-04
         0.14500E-04
         0.49081E-04
         0.77684E-04
         0.11930E-03
         0.13484E-03
         0.86454E-04
        -0.36932E-04
        -0.27789E-03
        -0.62161E-03
        -0.88366E-03
        -0.87301E-03
        -0.66933E-03
        -0.43100E-03
        -0.24911E-03
        -0.13113E-03
        -0.55698E-04
        -0.60070E-05
         0.39637E-04
         0.88389E-04
         0.85645E-04
        -0.48598E-05
        -0.13230E-03
        -0.18225E-03
        -0.12427E-03
        -0.37830E-04
         0.14797E-04
         0.14022E-04
         0.56129E-05
         0.14491E-04
        -0.26016E-04
        -0.32544E-04
         0.20046E-04
         0.19171E-04
         0.15978E-04
         0.24462E-04
         0.27587E-04
         0.40233E-04
         0.30054E-04
         0.28559E-04
         0.38506E-04
         0.12212E-04
         0.22448E-04
         0.16763E-04
         0.14065E-04
         0.22890E-04
        -0.17439E-04
        -0.42772E-04
        -0.12548E-05
         0.74682E-05
         0.30630E-04
         0.91566E-05
         0.29658E-04
         0.15320E-04
        -0.34142E-04
         0.12143E-04
         0.18093E-04
         0.16060E-04
         0.19086E-04
         0.49091E-06
        -0.26221E-04
        -0.34324E-05
         0.15344E-04
         0.18310E-04
        -0.38335E-04
        -0.13241E-03
        -0.23833E-03
        -0.16076E-03
        -0.91432E-04
         0.12834E-04
         0.22892E-04
         0.33525E-04
         0.32150E-04
         0.28400E-04
         0.70461E-05
        -0.36725E-04
        -0.86560E-04
        -0.58607E-04
        -0.64208E-04
        -0.96834E-04
        -0.23735E-04
         0.18238E-04
         0.53115E-04
         0.70495E-04
         0.57602E-04
        -0.59211E-05
        -0.16991E-03
        -0.40037E-03
        -0.53961E-03
        -0.50982E-03
        -0.39551E-03
        -0.24661E-03
        -0.11597E-03
        -0.24060E-04
         0.31554E-04
         0.51789E-04
         0.55408E-04
         0.62696E-04
         0.44974E-04
        -0.26704E-04
        -0.13258E-03
        -0.19979E-03
        -0.18703E-03
        -0.13698E-03
         0.94629E-05
         0.80715E-05
         0.40979E-05
         0.70891E-05
        -0.61119E-05
        -0.64055E-05
         0.13127E-04
         0.15316E-04
         0.12357E-04
         0.20835E-04
         0.19622E-04
         0.25915E-04
         0.16975E-04
         0.23545E-04
         0.31219E-04
         0.94103E-05
         0.17327E-04
         0.87198E-05
         0.12997E-04
         0.18312E-04
        -0.12020E-05
        -0.15582E-04
         0.72214E-05
         0.99298E-05
         0.25025E-04
         0.91945E-05
         0.27136E-04
         0.19087E-04
        -0.12442E-04
         0.13417E-04
         0.85523E-05
         0.96299E-05
         0.87845E-05
         0.46819E-05
        -0.62929E-05
         0.16840E-05
         0.91054E-05
         0.23594E-04
        -0.10925E-04
        -0.71377E-04
        -0.13910E-03
        -0.90530E-04
        -0.45908E-04
         0.12896E-04
         0.15046E-04
         0.16597E-04
         0.13470E-04
         0.11959E-04
         0.83101E-05
        -0.12931E-05
        -0.14415E-04
        -0.10526E-04
        -0.18836E-04
        -0.28977E-04
        -0.33910E-05
         0.13159E-04
         0.28732E-04
         0.41632E-04
         0.45004E-04
         0.14698E-04
        -0.89085E-04
        -0.23909E-03
        -0.32920E-03
        -0.30229E-03
        -0.21384E-03
        -0.11907E-03
        -0.47221E-04
        -0.89043E-06
         0.24200E-04
         0.30101E-04
         0.25256E-04
         0.22391E-04
         0.19199E-04
         0.69817E-05
        -0.17326E-04
        -0.40079E-04
        -0.44604E-04
        -0.36979E-04
         0.35487E-05
         0.35479E-05
         0.32392E-05
         0.16956E-05
         0.69889E-05
         0.79206E-05
         0.66722E-05
         0.81711E-05
         0.55922E-05
         0.11580E-04
         0.11006E-04
         0.14829E-04
         0.90149E-05
         0.13972E-04
         0.20392E-04
         0.30979E-05
         0.83848E-05
         0.14398E-05
         0.64170E-05
         0.91454E-05
         0.29661E-05
        -0.40542E-05
         0.60977E-05
         0.51757E-05
         0.13657E-04
         0.34858E-05
         0.16755E-04
         0.12606E-04
        -0.50293E-05
         0.72266E-05
         0.40189E-06
         0.19701E-05
         0.99908E-06
         0.43897E-05
         0.77378E-05
         0.60205E-05
         0.61486E-05
         0.18279E-04
        -0.27594E-06
        -0.34441E-04
        -0.73054E-04
        -0.47030E-04
        -0.21221E-04
         0.68150E-05
         0.59073E-05
         0.50296E-05
         0.22950E-05
         0.21316E-05
         0.55731E-05
         0.11371E-04
         0.17033E-04
         0.12122E-04
         0.12593E-04
         0.15111E-04
         0.11720E-04
         0.12342E-04
         0.15956E-04
         0.24047E-04
         0.32613E-04
         0.20520E-04
        -0.37420E-04
        -0.12298E-03
        -0.17784E-03
        -0.15915E-03
        -0.96649E-04
        -0.41792E-04
        -0.88367E-05
         0.82246E-05
         0.14730E-04
         0.13993E-04
         0.88907E-05
         0.51582E-05
         0.76958E-05
         0.17053E-04
         0.27663E-04
         0.31696E-04
         0.27223E-04
         0.20104E-04
         0.37711E-07
         0.32636E-06
         0.68907E-06
        -0.10764E-05
         0.52935E-05
         0.54574E-05
         0.17142E-05
         0.22908E-05
         0.11044E-05
         0.38068E-05
         0.37547E-05
         0.60051E-05
         0.33777E-05
         0.51028E-05
         0.91862E-05
        -0.54308E-06
         0.20819E-05
        -0.14045E-05
         0.14343E-05
         0.24095E-05
         0.31333E-05
         0.53103E-06
         0.41222E-05
         0.13492E-05
         0.43865E-05
        -0.81115E-07
         0.64280E-05
         0.47408E-05
        -0.19569E-05
         0.19618E-05
        -0.24323E-05
        -0.12166E-05
        -0.20882E-05
         0.62082E-06
         0.60342E-05
         0.35054E-05
         0.26248E-05
         0.91687E-05
         0.19244E-05
        -0.11569E-04
        -0.25729E-04
        -0.16037E-04
        -0.60172E-05
         0.33870E-05
         0.20975E-05
         0.12307E-05
        -0.11056E-05
        -0.15970E-05
         0.70511E-06
         0.54575E-05
         0.10997E-04
         0.79945E-05
         0.12152E-04
         0.15937E-04
         0.94931E-05
         0.78834E-05
         0.77422E-05
         0.11364E-04
         0.17744E-04
         0.15144E-04
        -0.76512E-05
        -0.41971E-04
        -0.62891E-04
        -0.51756E-04
        -0.24146E-04
        -0.26292E-05
         0.82104E-05
         0.12071E-04
         0.11785E-04
         0.89026E-05
         0.43850E-05
         0.95849E-06
         0.18500E-05
         0.81893E-05
         0.17265E-04
         0.23458E-04
         0.23291E-04
         0.19758E-04
        -0.12032E-05
        -0.93336E-06
        -0.45536E-06
        -0.16067E-05
         0.29781E-05
         0.29114E-05
        -0.57523E-06
        -0.52516E-06
        -0.71528E-06
        -0.94261E-07
         0.47810E-07
         0.13630E-05
         0.80572E-06
         0.33759E-06
         0.24940E-05
        -0.15462E-05
        -0.73786E-06
        -0.17945E-05
        -0.70911E-06
        -0.83152E-06
         0.22731E-05
         0.17956E-05
         0.27278E-05
        -0.16638E-06
        -0.36090E-06
        -0.10335E-05
         0.68908E-06
         0.25162E-06
        -0.54071E-06
        -0.79042E-06
        -0.23821E-05
        -0.15834E-05
        -0.21793E-05
        -0.67847E-06
         0.34394E-05
         0.16288E-05
         0.93596E-06
         0.32947E-05
         0.23653E-05
         0.42392E-06
        -0.32140E-06
         0.82110E-07
         0.11134E-05
         0.20309E-05
         0.10206E-05
         0.41258E-06
        -0.13336E-05
        -0.18226E-05
        -0.72492E-06
         0.18072E-05
         0.51419E-05
         0.39332E-05
         0.79411E-05
         0.11070E-04
         0.63492E-05
         0.53630E-05
         0.42423E-05
         0.47261E-05
         0.77026E-05
         0.10074E-04
         0.80026E-05
         0.26179E-05
         0.20656E-06
         0.45386E-05
         0.10045E-04
         0.11893E-04
         0.11689E-04
         0.11173E-04
         0.96278E-05
         0.66635E-05
         0.29629E-05
         0.34712E-06
         0.32767E-06
         0.32079E-05
         0.78705E-05
         0.12071E-04
         0.13849E-04
         0.13363E-04
        -0.14930E-05
        -0.12350E-05
        -0.64749E-06
        -0.14825E-05
         0.24328E-05
         0.25988E-05
        -0.13408E-05
        -0.14989E-05
        -0.12771E-05
        -0.15689E-05
        -0.13483E-05
        -0.49930E-06
        -0.13567E-06
        -0.15035E-05
        -0.24287E-06
        -0.16902E-05
        -0.17967E-05
        -0.16839E-05
        -0.15738E-05
        -0.22681E-05
         0.13669E-05
         0.17116E-05
         0.18158E-05
        -0.72374E-06
        -0.23130E-05
        -0.11611E-05
        -0.16199E-05
        -0.16672E-05
        -0.14297E-06
        -0.20976E-05
        -0.19573E-05
        -0.13953E-05
        -0.17135E-05
        -0.41898E-06
         0.26780E-05
         0.10973E-05
         0.41706E-06
         0.79762E-06
         0.23110E-05
         0.50900E-05
         0.99732E-05
         0.64929E-05
         0.36119E-05
         0.14045E-05
         0.65064E-06
         0.18851E-06
        -0.10796E-05
        -0.12753E-05
        -0.22046E-06
         0.19426E-05
         0.47717E-05
         0.36256E-05
         0.65175E-05
         0.95905E-05
         0.52316E-05
         0.44481E-05
         0.28852E-05
         0.19328E-05
         0.35067E-05
         0.78823E-05
         0.13842E-04
         0.20322E-04
         0.26205E-04
         0.27721E-04
         0.23131E-04
         0.15933E-04
         0.11190E-04
         0.93471E-05
         0.77661E-05
         0.51832E-05
         0.21662E-05
         0.38320E-06
         0.79185E-06
         0.34931E-05
         0.74645E-05
         0.10830E-04
         0.12393E-04
         0.11988E-04
        -0.16236E-05
        -0.12865E-05
        -0.56150E-06
        -0.14854E-05
         0.29074E-05
         0.32730E-05
        -0.15766E-05
        -0.18636E-05
        -0.15443E-05
        -0.21468E-05
        -0.18307E-05
        -0.10971E-05
        -0.32111E-06
        -0.21814E-05
        -0.12102E-05
        -0.20119E-05
        -0.23704E-05
        -0.18053E-05
        -0.21298E-05
        -0.30195E-05
         0.16682E-05
         0.22631E-05
         0.19407E-05
        -0.10936E-05
        -0.31511E-05
        -0.14923E-05
        -0.24669E-05
        -0.24119E-05
        -0.17241E-06
        -0.27738E-05
        -0.21064E-05
        -0.16322E-05
        -0.17362E-05
        -0.14109E-06
         0.30960E-05
         0.12957E-05
         0.46690E-06
        -0.48340E-07
         0.23814E-05
         0.66793E-05
         0.13391E-04
         0.86925E-05
         0.48000E-05
         0.13076E-05
         0.44026E-06
        -0.97906E-07
        -0.12934E-05
        -0.12556E-05
         0.20656E-06
         0.29545E-05
         0.64272E-05
         0.47566E-05
         0.73151E-05
         0.10915E-04
         0.56974E-05
         0.47189E-05
         0.27860E-05
         0.11288E-05
         0.21199E-05
         0.72545E-05
         0.16408E-04
         0.26836E-04
         0.35041E-04
         0.36573E-04
         0.30293E-04
         0.21003E-04
         0.14630E-04
         0.11191E-04
         0.84400E-05
         0.52036E-05
         0.17758E-05
         0.13355E-06
         0.12146E-05
         0.50983E-05
         0.10334E-04
         0.14231E-04
         0.15401E-04
         0.14118E-04
        -0.18817E-05
        -0.13981E-05
        -0.48055E-06
        -0.17480E-05
         0.38890E-05
         0.42054E-05
        -0.17809E-05
        -0.22147E-05
        -0.18554E-05
        -0.26102E-05
        -0.21759E-05
        -0.13113E-05
        -0.18975E-06
        -0.27267E-05
        -0.18246E-05
        -0.25112E-05
        -0.28929E-05
        -0.21870E-05
        -0.25313E-05
        -0.35443E-05
         0.27976E-05
         0.35262E-05
         0.29413E-05
        -0.12267E-05
        -0.37752E-05
        -0.17977E-05
        -0.31387E-05
        -0.29712E-05
        -0.19228E-06
        -0.32401E-05
        -0.25793E-05
        -0.18952E-05
        -0.21530E-05
        -0.21320E-06
         0.41663E-05
         0.18618E-05
         0.79354E-06
        -0.65997E-06
         0.24465E-05
         0.79090E-05
         0.15871E-04
         0.10299E-04
         0.61361E-05
         0.20006E-05
         0.94019E-06
         0.32324E-06
        -0.13509E-05
        -0.14442E-05
         0.29128E-06
         0.36289E-05
         0.79271E-05
         0.58963E-05
         0.94894E-05
         0.14034E-04
         0.73010E-05
         0.59917E-05
         0.36612E-05
         0.13375E-05
         0.16810E-05
         0.72643E-05
         0.18769E-04
         0.32270E-04
         0.41608E-04
         0.42977E-04
         0.37778E-04
         0.28240E-04
         0.20518E-04
         0.15569E-04
         0.11629E-04
         0.74225E-05
         0.29683E-05
         0.65728E-06
         0.18601E-05
         0.66697E-05
         0.13038E-04
         0.17717E-04
         0.19292E-04
         0.17927E-04
        -0.21654E-05
        -0.16543E-05
        -0.60471E-06
        -0.20251E-05
         0.41695E-05
         0.43949E-05
        -0.21533E-05
        -0.26010E-05
        -0.20980E-05
        -0.30052E-05
        -0.26759E-05
        -0.18306E-05
        -0.46271E-06
        -0.32837E-05
        -0.25050E-05
        -0.26831E-05
        -0.31404E-05
        -0.24380E-05
        -0.25528E-05
        -0.36902E-05
         0.32848E-05
         0.41689E-05
         0.34160E-05
        -0.11322E-05
        -0.41822E-05
        -0.17998E-05
        -0.36901E-05
        -0.32766E-05
         0.34678E-06
        -0.33148E-05
        -0.27638E-05
        -0.18606E-05
        -0.23844E-05
        -0.36166E-06
         0.45927E-05
         0.20395E-05
         0.75144E-06
        -0.11566E-05
         0.28202E-05
         0.99520E-05
         0.19853E-04
         0.12842E-04
         0.74223E-05
         0.24366E-05
         0.14269E-05
         0.96257E-06
        -0.10227E-05
        -0.13124E-05
         0.42628E-06
         0.38656E-05
         0.83533E-05
         0.61503E-05
         0.10516E-04
         0.15222E-04
         0.81420E-05
         0.64405E-05
         0.36541E-05
         0.88851E-06
         0.93747E-06
         0.70424E-05
         0.20997E-04
         0.38781E-04
         0.51166E-04
         0.50915E-04
         0.42644E-04
         0.30980E-04
         0.22237E-04
         0.16984E-04
         0.12963E-04
         0.87757E-05
         0.43156E-05
         0.17763E-05
         0.28673E-05
         0.78275E-05
         0.14212E-04
         0.18783E-04
         0.20500E-04
         0.19239E-04
        -0.23523E-05
        -0.19794E-05
        -0.85935E-06
        -0.21715E-05
         0.40206E-05
         0.43137E-05
        -0.25346E-05
        -0.28309E-05
        -0.21765E-05
        -0.31684E-05
        -0.31077E-05
        -0.25021E-05
        -0.11383E-05
        -0.36000E-05
        -0.30078E-05
        -0.26115E-05
        -0.31340E-05
        -0.25055E-05
        -0.24015E-05
        -0.36526E-05
         0.32287E-05
         0.41373E-05
         0.33859E-05
        -0.10023E-05
        -0.43503E-05
        -0.16900E-05
        -0.39240E-05
        -0.34287E-05
         0.58797E-06
        -0.33410E-05
        -0.27170E-05
        -0.17263E-05
        -0.23779E-05
        -0.34087E-06
         0.44172E-05
         0.16845E-05
         0.18334E-06
        -0.13219E-05
         0.31370E-05
         0.11025E-04
         0.21954E-04
         0.14115E-04
         0.78409E-05
         0.24559E-05
         0.15821E-05
         0.13171E-05
        -0.67717E-06
        -0.10384E-05
         0.64401E-06
         0.40514E-05
         0.84915E-05
         0.61851E-05
         0.10499E-04
         0.15206E-04
         0.76748E-05
         0.53740E-05
         0.23647E-05
        -0.31872E-06
        -0.19760E-07
         0.70726E-05
         0.22641E-04
         0.42232E-04
         0.56268E-04
         0.54863E-04
         0.43799E-04
         0.30401E-04
         0.21417E-04
         0.16388E-04
         0.12628E-04
         0.88801E-05
         0.49114E-05
         0.25797E-05
         0.36196E-05
         0.83843E-05
         0.14542E-04
         0.18888E-04
         0.20504E-04
         0.19206E-04
        -0.22874E-05
        -0.20010E-05
        -0.89171E-06
        -0.21059E-05
         0.40788E-05
         0.45504E-05
        -0.25343E-05
        -0.27528E-05
        -0.21045E-05
        -0.30763E-05
        -0.31065E-05
        -0.26482E-05
        -0.14146E-05
        -0.35379E-05
        -0.29852E-05
        -0.25321E-05
        -0.30323E-05
        -0.24745E-05
        -0.23467E-05
        -0.35942E-05
         0.28920E-05
         0.38400E-05
         0.30217E-05
        -0.10265E-05
        -0.42631E-05
        -0.16736E-05
        -0.38422E-05
        -0.34168E-05
         0.42168E-06
        -0.33220E-05
        -0.26704E-05
        -0.17011E-05
        -0.23339E-05
        -0.22810E-06
         0.41918E-05
         0.13255E-05
        -0.19991E-06
        -0.11842E-05
         0.30926E-05
         0.10479E-04
         0.21036E-04
         0.13691E-04
         0.76245E-05
         0.21551E-05
         0.14179E-05
         0.12855E-05
        -0.59177E-06
        -0.93933E-06
         0.70062E-06
         0.41378E-05
         0.86880E-05
         0.64528E-05
         0.10062E-04
         0.15477E-04
         0.65594E-05
         0.41004E-05
         0.14169E-05
        -0.87416E-06
        -0.10503E-06
         0.76579E-05
         0.22952E-04
         0.40858E-04
         0.54092E-04
         0.53971E-04
         0.43014E-04
         0.29045E-04
         0.20028E-04
         0.15036E-04
         0.11475E-04
         0.82687E-05
         0.48237E-05
         0.27662E-05
         0.37830E-05
         0.82733E-05
         0.14402E-04
         0.19065E-04
         0.21042E-04
         0.19854E-04
        -0.20781E-05
        -0.17586E-05
        -0.78998E-06
        -0.19908E-05
         0.38662E-05
         0.43183E-05
        -0.22773E-05
        -0.25580E-05
        -0.19933E-05
        -0.29296E-05
        -0.28708E-05
        -0.24011E-05
        -0.11853E-05
        -0.33427E-05
        -0.27510E-05
        -0.25330E-05
        -0.29364E-05
        -0.24116E-05
        -0.23278E-05
        -0.34658E-05
         0.26553E-05
         0.37830E-05
         0.25761E-05
        -0.11674E-05
        -0.40880E-05
        -0.18230E-05
        -0.36688E-05
        -0.32692E-05
         0.41456E-06
        -0.31622E-05
        -0.27108E-05
        -0.18453E-05
        -0.23459E-05
        -0.33277E-06
         0.38619E-05
         0.11964E-05
        -0.10836E-06
        -0.10760E-05
         0.29020E-05
         0.98799E-05
         0.20016E-04
         0.13239E-04
         0.75336E-05
         0.16677E-05
         0.10344E-05
         0.10602E-05
        -0.65774E-06
        -0.95307E-06
         0.57905E-06
         0.37778E-05
         0.80960E-05
         0.60382E-05
         0.92309E-05
         0.14757E-04
         0.57484E-05
         0.37242E-05
         0.14639E-05
        -0.68838E-06
         0.17511E-06
         0.76406E-05
         0.21773E-04
         0.38524E-04
         0.51365E-04
         0.52265E-04
         0.42144E-04
         0.28186E-04
         0.18840E-04
         0.13678E-04
         0.10154E-04
         0.73845E-05
         0.45601E-05
         0.28541E-05
         0.38571E-05
         0.79365E-05
         0.13524E-04
         0.17951E-04
         0.20028E-04
         0.19046E-04
        -0.19334E-05
        -0.15321E-05
        -0.59615E-06
        -0.18229E-05
         0.36183E-05
         0.37928E-05
        -0.21088E-05
        -0.24731E-05
        -0.19585E-05
        -0.28866E-05
        -0.27339E-05
        -0.21942E-05
        -0.90961E-06
        -0.32525E-05
        -0.26616E-05
        -0.26440E-05
        -0.29852E-05
        -0.23340E-05
        -0.24880E-05
        -0.35671E-05
         0.24895E-05
         0.36084E-05
         0.23516E-05
        -0.13917E-05
        -0.40843E-05
        -0.20374E-05
        -0.35899E-05
        -0.32214E-05
         0.43972E-06
        -0.32219E-05
        -0.27220E-05
        -0.19692E-05
        -0.22609E-05
        -0.38514E-06
         0.38226E-05
         0.13968E-05
         0.17854E-06
        -0.11426E-05
         0.27649E-05
         0.98746E-05
         0.20224E-04
         0.13304E-04
         0.73767E-05
         0.14272E-05
         0.84793E-06
         0.96993E-06
        -0.65992E-06
        -0.88860E-06
         0.55036E-06
         0.33951E-05
         0.71720E-05
         0.52513E-05
         0.89007E-05
         0.13491E-04
         0.58361E-05
         0.40652E-05
         0.19051E-05
        -0.32511E-06
         0.21887E-06
         0.68587E-05
         0.20440E-04
         0.37986E-04
         0.51977E-04
         0.52636E-04
         0.41707E-04
         0.27898E-04
         0.18655E-04
         0.13511E-04
         0.99845E-05
         0.72019E-05
         0.45046E-05
         0.29562E-05
         0.39630E-05
         0.76643E-05
         0.12422E-04
         0.16006E-04
         0.17510E-04
         0.16749E-04
        -0.18528E-05
        -0.14674E-05
        -0.43350E-06
        -0.15267E-05
         0.35334E-05
         0.36808E-05
        -0.21168E-05
        -0.24567E-05
        -0.19526E-05
        -0.28816E-05
        -0.27474E-05
        -0.22583E-05
        -0.99176E-06
        -0.32326E-05
        -0.27419E-05
        -0.26767E-05
        -0.30835E-05
        -0.21488E-05
        -0.26352E-05
        -0.36825E-05
         0.26650E-05
         0.36846E-05
         0.26234E-05
        -0.14175E-05
        -0.40982E-05
        -0.20066E-05
        -0.35516E-05
        -0.31669E-05
         0.51830E-06
        -0.32407E-05
        -0.24942E-05
        -0.18168E-05
        -0.19168E-05
        -0.95285E-07
         0.37878E-05
         0.14636E-05
         0.16423E-06
        -0.12734E-05
         0.27725E-05
         0.10103E-04
         0.20507E-04
         0.13359E-04
         0.73570E-05
         0.16930E-05
         0.10606E-05
         0.11121E-05
        -0.52033E-06
        -0.71386E-06
         0.69981E-06
         0.33477E-05
         0.67542E-05
         0.50155E-05
         0.85992E-05
         0.12514E-04
         0.57864E-05
         0.39122E-05
         0.17018E-05
        -0.45292E-06
        -0.10912E-06
         0.60077E-05
         0.19987E-04
         0.38679E-04
         0.52683E-04
         0.52528E-04
         0.41571E-04
         0.28701E-04
         0.19887E-04
         0.14660E-04
         0.10885E-04
         0.76447E-05
         0.45699E-05
         0.28148E-05
         0.36494E-05
         0.71135E-05
         0.11459E-04
         0.14638E-04
         0.15960E-04
         0.15309E-04
        -0.17326E-05
        -0.14977E-05
        -0.54322E-06
        -0.13578E-05
         0.30925E-05
         0.33677E-05
        -0.20671E-05
        -0.23100E-05
        -0.18003E-05
        -0.27464E-05
        -0.26453E-05
        -0.23175E-05
        -0.12121E-05
        -0.30907E-05
        -0.27956E-05
        -0.23384E-05
        -0.28914E-05
        -0.18550E-05
        -0.22758E-05
        -0.33305E-05
         0.32504E-05
         0.42634E-05
         0.31992E-05
        -0.95882E-06
        -0.39138E-05
        -0.15280E-05
        -0.34782E-05
        -0.31005E-05
         0.64794E-06
        -0.29236E-05
        -0.20568E-05
        -0.13383E-05
        -0.15895E-05
        -0.58225E-08
         0.31993E-05
         0.10321E-05
        -0.18884E-06
        -0.15182E-05
         0.24902E-05
         0.99783E-05
         0.20395E-04
         0.13377E-04
         0.77033E-05
         0.22395E-05
         0.15365E-05
         0.14645E-05
        -0.21299E-06
        -0.54558E-06
         0.61194E-06
         0.29289E-05
         0.59857E-05
         0.45616E-05
         0.75384E-05
         0.11245E-04
         0.48381E-05
         0.29730E-05
         0.96191E-06
        -0.91663E-06
        -0.63590E-06
         0.50929E-05
         0.19047E-04
         0.38446E-04
         0.52474E-04
         0.51658E-04
         0.41323E-04
         0.29402E-04
         0.20814E-04
         0.15412E-04
         0.11495E-04
         0.80564E-05
         0.47436E-05
         0.26968E-05
         0.30586E-05
         0.58775E-05
         0.97191E-05
         0.12823E-04
         0.14409E-04
         0.13984E-04
        -0.14724E-05
        -0.13312E-05
        -0.51841E-06
        -0.11547E-05
         0.26895E-05
         0.28891E-05
        -0.18221E-05
        -0.20234E-05
        -0.15203E-05
        -0.24591E-05
        -0.23471E-05
        -0.21177E-05
        -0.11799E-05
        -0.27684E-05
        -0.25933E-05
        -0.18266E-05
        -0.24523E-05
        -0.15043E-05
        -0.16994E-05
        -0.27022E-05
         0.32806E-05
         0.43106E-05
         0.33921E-05
        -0.41917E-06
        -0.34950E-05
        -0.95386E-06
        -0.32211E-05
        -0.29204E-05
         0.73386E-06
        -0.23624E-05
        -0.16133E-05
        -0.84163E-06
        -0.13357E-05
        -0.11187E-06
         0.26423E-05
         0.67731E-06
        -0.35956E-06
        -0.16407E-05
         0.18685E-05
         0.89564E-05
         0.19088E-04
         0.12949E-04
         0.77365E-05
         0.25919E-05
         0.19021E-05
         0.17645E-05
         0.95847E-07
        -0.42824E-06
         0.31455E-06
         0.20856E-05
         0.45943E-05
         0.36696E-05
         0.63544E-05
         0.10014E-04
         0.36093E-05
         0.20309E-05
         0.50008E-06
        -0.10465E-05
        -0.86584E-06
         0.39650E-05
         0.16348E-04
         0.34631E-04
         0.49029E-04
         0.48981E-04
         0.38653E-04
         0.26633E-04
         0.18771E-04
         0.14437E-04
         0.11179E-04
         0.80289E-05
         0.48251E-05
         0.26580E-05
         0.24325E-05
         0.42303E-05
         0.71338E-05
         0.99316E-05
         0.11915E-04
         0.12228E-04
        -0.12192E-05
        -0.11048E-05
        -0.49450E-06
        -0.94267E-06
         0.18716E-05
         0.20414E-05
        -0.16198E-05
        -0.18503E-05
        -0.12549E-05
        -0.22149E-05
        -0.21223E-05
        -0.17632E-05
        -0.90186E-06
        -0.25232E-05
        -0.21112E-05
        -0.14817E-05
        -0.20770E-05
        -0.11526E-05
        -0.14904E-05
        -0.23079E-05
         0.25366E-05
         0.37913E-05
         0.28317E-05
        -0.37977E-06
        -0.30470E-05
        -0.77814E-06
        -0.28742E-05
        -0.24167E-05
         0.14144E-05
        -0.17556E-05
        -0.13363E-05
        -0.69067E-06
        -0.11619E-05
        -0.39175E-06
         0.16744E-05
         0.37814E-06
        -0.20662E-06
        -0.11152E-05
         0.23125E-05
         0.93691E-05
         0.19625E-04
         0.13671E-04
         0.79309E-05
         0.23225E-05
         0.17284E-05
         0.15224E-05
        -0.24602E-07
        -0.64507E-06
        -0.31522E-06
         0.76689E-06
         0.25266E-05
         0.22860E-05
         0.41429E-05
         0.74545E-05
         0.25772E-05
         0.20738E-05
         0.93105E-06
        -0.40317E-06
         0.46071E-07
         0.47323E-05
         0.16341E-04
         0.33992E-04
         0.48986E-04
         0.49617E-04
         0.36959E-04
         0.22769E-04
         0.15219E-04
         0.12290E-04
         0.99901E-05
         0.72344E-05
         0.41680E-05
         0.18815E-05
         0.10660E-05
         0.18058E-05
         0.35443E-05
         0.58606E-05
         0.83582E-05
         0.93705E-05
        -0.16199E-05
        -0.16599E-05
        -0.16121E-05
        -0.15337E-05
        -0.13100E-05
        -0.10921E-05
        -0.21710E-05
        -0.24337E-05
        -0.16279E-05
        -0.27199E-05
        -0.25936E-05
        -0.18769E-05
        -0.13264E-05
        -0.29636E-05
        -0.18505E-05
        -0.19161E-05
        -0.25365E-05
        -0.13830E-05
        -0.22891E-05
        -0.30837E-05
         0.13143E-05
         0.26523E-05
         0.14514E-05
        -0.13480E-05
        -0.35316E-05
        -0.15733E-05
        -0.31678E-05
        -0.26681E-05
         0.98487E-06
        -0.24584E-05
        -0.18607E-05
        -0.14062E-05
        -0.18675E-05
        -0.20784E-05
        -0.18480E-05
        -0.15707E-05
        -0.10571E-05
        -0.59601E-06
         0.27056E-05
         0.92680E-05
         0.19177E-04
         0.13109E-04
         0.70270E-05
         0.10886E-05
         0.76283E-06
         0.61286E-06
        -0.10289E-05
        -0.20581E-05
        -0.26339E-05
        -0.30023E-05
        -0.28549E-05
        -0.18230E-05
        -0.22151E-05
         0.33225E-07
        -0.11919E-05
         0.67885E-06
         0.71520E-06
         0.31169E-06
         0.18434E-05
         0.70463E-05
         0.17862E-04
         0.33753E-04
         0.48141E-04
         0.50059E-04
         0.36955E-04
         0.21820E-04
         0.13600E-04
         0.10124E-04
         0.80878E-05
         0.60957E-05
         0.32177E-05
         0.11896E-06
        -0.23206E-05
        -0.38190E-05
        -0.45204E-05
        -0.34835E-05
        -0.46967E-06
         0.14655E-05
        -0.29188E-05
        -0.31747E-05
        -0.37559E-05
        -0.28847E-05
        -0.63359E-05
        -0.62354E-05
        -0.37070E-05
        -0.40035E-05
        -0.29451E-05
        -0.42253E-05
        -0.40274E-05
        -0.29205E-05
        -0.27936E-05
        -0.43715E-05
        -0.25131E-05
        -0.34263E-05
        -0.41801E-05
        -0.23772E-05
        -0.41970E-05
        -0.50841E-05
         0.12941E-05
         0.27641E-05
         0.12349E-05
        -0.29185E-05
        -0.51945E-05
        -0.29705E-05
        -0.44792E-05
        -0.41681E-05
        -0.97313E-06
        -0.44193E-05
        -0.29103E-05
        -0.21140E-05
        -0.31203E-05
        -0.45757E-05
        -0.69659E-05
        -0.47413E-05
        -0.30429E-05
        -0.11504E-05
         0.15566E-05
         0.69636E-05
         0.16360E-04
         0.11538E-04
         0.66567E-05
         0.96231E-06
         0.13170E-05
         0.17231E-05
        -0.11378E-05
        -0.34532E-05
        -0.54166E-05
        -0.78069E-05
        -0.10213E-04
        -0.79889E-05
        -0.10658E-04
        -0.11299E-04
        -0.65171E-05
        -0.23029E-05
        -0.77794E-06
         0.91013E-07
         0.27173E-05
         0.81342E-05
         0.16973E-04
         0.29288E-04
         0.43294E-04
         0.51685E-04
         0.45038E-04
         0.31424E-04
         0.20942E-04
         0.14503E-04
         0.11375E-04
         0.98249E-05
         0.64645E-05
         0.75358E-06
        -0.51323E-05
        -0.99691E-05
        -0.14297E-04
        -0.16211E-04
        -0.14295E-04
        -0.11745E-04
        -0.82298E-06
        -0.53210E-06
        -0.22633E-06
         0.43232E-06
        -0.36992E-05
        -0.45759E-05
        -0.18268E-05
        -0.26154E-05
        -0.19379E-05
        -0.39094E-05
        -0.25585E-05
        -0.15221E-05
        -0.98732E-06
        -0.34203E-05
        -0.15859E-05
        -0.28404E-05
        -0.50683E-05
        -0.34003E-06
        -0.38734E-05
        -0.63281E-05
         0.11231E-04
         0.12838E-04
         0.12398E-04
         0.52731E-06
        -0.65173E-05
         0.49561E-06
        -0.45601E-05
        -0.49520E-05
         0.36135E-06
        -0.50899E-05
         0.59873E-07
         0.34148E-05
         0.15298E-06
        -0.81124E-06
        -0.28998E-05
        -0.60153E-06
        -0.16430E-06
        -0.10261E-05
         0.17965E-05
         0.10510E-04
         0.27502E-04
         0.23356E-04
         0.17986E-04
         0.12294E-04
         0.13598E-04
         0.14998E-04
         0.71026E-05
         0.11858E-05
        -0.17464E-05
        -0.43464E-05
        -0.82181E-05
        -0.63009E-05
        -0.63614E-05
        -0.12666E-04
        -0.11049E-05
         0.81102E-06
         0.60607E-06
         0.12984E-05
         0.40634E-05
         0.92993E-05
         0.18816E-04
         0.37466E-04
         0.67398E-04
         0.94855E-04
         0.96709E-04
         0.79697E-04
         0.61328E-04
         0.47845E-04
         0.40387E-04
         0.36191E-04
         0.27806E-04
         0.13491E-04
         0.25487E-06
        -0.73882E-05
        -0.12828E-04
        -0.17317E-04
        -0.19134E-04
        -0.17348E-04
         0.10094E-04
         0.12298E-04
         0.16015E-04
         0.14403E-04
         0.15019E-04
         0.11575E-04
         0.88462E-05
         0.67334E-05
         0.57341E-05
         0.21954E-05
         0.67354E-05
         0.69953E-05
         0.93796E-05
         0.44173E-05
         0.50989E-05
         0.41644E-05
        -0.21954E-05
         0.94243E-05
         0.31454E-05
        -0.40257E-05
         0.36642E-04
         0.38013E-04
         0.41399E-04
         0.14895E-04
        -0.49750E-05
         0.14913E-04
         0.22746E-06
        -0.19230E-05
         0.10177E-04
        -0.15562E-05
         0.11862E-04
         0.21331E-04
         0.12831E-04
         0.15197E-04
         0.18909E-04
         0.18419E-04
         0.13872E-04
         0.33226E-05
         0.77985E-05
         0.27816E-04
         0.63897E-04
         0.58306E-04
         0.47964E-04
         0.42094E-04
         0.44535E-04
         0.46695E-04
         0.29236E-04
         0.16090E-04
         0.12617E-04
         0.12849E-04
         0.97879E-05
         0.10505E-04
         0.19815E-04
         0.63627E-05
         0.22780E-04
         0.16296E-04
         0.98374E-05
         0.81494E-05
         0.98590E-05
         0.14546E-04
         0.29571E-04
         0.69436E-04
         0.13514E-03
         0.19357E-03
         0.20251E-03
         0.17301E-03
         0.13918E-03
         0.11501E-03
         0.10096E-03
         0.90964E-04
         0.72275E-04
         0.42237E-04
         0.16311E-04
         0.62190E-05
         0.40896E-05
         0.21649E-06
        -0.57378E-05
        -0.49728E-05
  
SCALARS                 displacement_z  double 1
LOOKUP_TABLE default
        -0.34270E-03
        -0.30876E-03
        -0.32381E-03
        -0.36164E-03
        -0.20671E-17
        -0.20791E-17
        -0.20831E-17
        -0.21346E-17
        -0.34346E-03
        -0.40625E-03
        -0.20390E-17
        -0.23332E-17
        -0.28821E-03
        -0.32486E-03
        -0.20787E-17
        -0.21699E-17
        -0.36058E-03
        -0.35129E-03
        -0.19402E-17
        -0.20571E-17
        -0.25751E-03
        -0.18459E-03
        -0.22695E-03
        -0.18968E-17
        -0.13648E-17
        -0.15856E-17
        -0.27307E-03
        -0.15350E-03
        -0.19001E-17
        -0.11377E-17
        -0.35165E-03
        -0.37374E-03
        -0.35697E-03
        -0.20610E-17
        -0.20370E-17
        -0.19039E-17
        -0.36833E-03
        -0.38697E-03
        -0.22796E-17
        -0.21786E-17
        -0.40187E-03
        -0.39631E-03
        -0.21029E-17
        -0.18773E-17
        -0.40519E-03
        -0.36736E-03
        -0.23122E-17
        -0.24179E-17
        -0.36739E-03
        -0.20852E-17
        -0.36860E-03
        -0.24920E-17
        -0.28464E-03
        -0.17433E-17
        -0.27744E-03
        -0.16037E-17
        -0.24282E-03
        -0.36112E-03
        -0.13718E-17
        -0.20597E-17
        -0.37935E-03
        -0.41098E-03
        -0.22312E-17
        -0.27457E-17
        -0.38892E-03
        -0.22309E-17
        -0.41900E-03
        -0.26409E-17
        -0.29400E-03
        -0.27212E-03
        -0.17878E-17
        -0.17684E-17
        -0.25152E-03
        -0.16780E-17
        -0.11768E-03
        -0.82699E-18
        -0.68103E-04
        -0.54377E-18
        -0.62164E-05
        -0.26487E-18
         0.43408E-04
        -0.15746E-03
        -0.99362E-19
        -0.83571E-18
        -0.32183E-03
        -0.15628E-17
        -0.42814E-03
        -0.25712E-17
        -0.48296E-03
        -0.29416E-17
        -0.54478E-03
        -0.50339E-03
        -0.31397E-17
        -0.30305E-17
        -0.47640E-03
        -0.26393E-17
        -0.48213E-03
        -0.26787E-17
        -0.50855E-03
        -0.30216E-17
        -0.53751E-03
        -0.47710E-03
        -0.30684E-17
        -0.28193E-17
        -0.25817E-03
        -0.35333E-03
        -0.12585E-17
        -0.14609E-17
        -0.19309E-03
        -0.10212E-17
        -0.16397E-03
        -0.88202E-18
        -0.12783E-03
        -0.77320E-18
        -0.42416E-04
        -0.53949E-18
         0.67538E-04
        -0.24479E-18
         0.17882E-03
        -0.12642E-20
         0.33948E-03
         0.29704E-18
         0.49159E-03
         0.57652E-18
         0.42847E-03
         0.47705E-18
         0.11195E-03
        -0.15278E-18
        -0.21894E-03
        -0.80932E-18
        -0.41177E-03
        -0.11761E-17
        -0.48056E-03
        -0.14155E-17
        -0.50438E-03
        -0.16429E-17
        -0.54741E-03
        -0.18694E-17
        -0.63068E-03
        -0.22734E-17
        -0.68266E-03
        -0.26732E-17
        -0.66821E-03
        -0.25035E-17
        -0.64714E-03
        -0.22291E-17
        -0.65252E-03
        -0.22805E-17
        -0.66720E-03
        -0.24924E-17
        -0.65940E-03
        -0.25641E-17
        -0.58947E-03
        -0.21797E-17
        -0.47049E-03
        -0.17121E-17
        -0.49153E-03
        -0.45678E-03
        -0.47354E-03
        -0.51450E-03
        -0.50289E-03
        -0.56488E-03
        -0.43862E-03
        -0.48001E-03
        -0.51225E-03
        -0.51195E-03
        -0.40497E-03
        -0.31219E-03
        -0.36852E-03
        -0.42373E-03
        -0.26242E-03
        -0.50508E-03
        -0.52973E-03
        -0.51107E-03
        -0.52461E-03
        -0.54999E-03
        -0.57287E-03
        -0.56506E-03
        -0.57387E-03
        -0.52553E-03
        -0.53366E-03
        -0.52858E-03
        -0.43736E-03
        -0.42900E-03
        -0.38357E-03
        -0.52632E-03
        -0.54180E-03
        -0.57164E-03
        -0.54790E-03
        -0.57427E-03
        -0.45355E-03
        -0.42412E-03
        -0.39839E-03
        -0.20371E-03
        -0.13579E-03
        -0.58369E-04
         0.90227E-05
        -0.26230E-03
        -0.47034E-03
        -0.59291E-03
        -0.63790E-03
        -0.67812E-03
        -0.63272E-03
        -0.59862E-03
        -0.59817E-03
        -0.62754E-03
        -0.66423E-03
        -0.62787E-03
        -0.43077E-03
        -0.53316E-03
        -0.35267E-03
        -0.31171E-03
        -0.25498E-03
        -0.12435E-03
         0.60268E-04
         0.25944E-03
         0.50173E-03
         0.69162E-03
         0.56523E-03
         0.11708E-03
        -0.33108E-03
        -0.60269E-03
        -0.69459E-03
        -0.70678E-03
        -0.72694E-03
        -0.77057E-03
        -0.77435E-03
        -0.70747E-03
        -0.64264E-03
        -0.63117E-03
        -0.67601E-03
        -0.74127E-03
        -0.73264E-03
        -0.64431E-03
        -0.51264E-03
        -0.49852E-03
        -0.50621E-03
        -0.52597E-03
        -0.52386E-03
        -0.54178E-03
        -0.49532E-03
        -0.51618E-03
        -0.52405E-03
        -0.53526E-03
        -0.48093E-03
        -0.42456E-03
        -0.46049E-03
        -0.49226E-03
        -0.38476E-03
        -0.52517E-03
        -0.53747E-03
        -0.52701E-03
        -0.53744E-03
        -0.55618E-03
        -0.57646E-03
        -0.57296E-03
        -0.56715E-03
        -0.53823E-03
        -0.55210E-03
        -0.53766E-03
        -0.49982E-03
        -0.49397E-03
        -0.46224E-03
        -0.54989E-03
        -0.54242E-03
        -0.54689E-03
        -0.54036E-03
        -0.54180E-03
        -0.50849E-03
        -0.49215E-03
        -0.47763E-03
        -0.33216E-03
        -0.27700E-03
        -0.22469E-03
        -0.17973E-03
        -0.37372E-03
        -0.51141E-03
        -0.55805E-03
        -0.55243E-03
        -0.53314E-03
        -0.52093E-03
        -0.50165E-03
        -0.48931E-03
        -0.49651E-03
        -0.51135E-03
        -0.54321E-03
        -0.51430E-03
        -0.54622E-03
        -0.48017E-03
        -0.45017E-03
        -0.40106E-03
        -0.29994E-03
        -0.14386E-03
         0.42465E-04
         0.24884E-03
         0.36956E-03
         0.23683E-03
        -0.97638E-04
        -0.41228E-03
        -0.61235E-03
        -0.67247E-03
        -0.64600E-03
        -0.59837E-03
        -0.55265E-03
        -0.49759E-03
        -0.41642E-03
        -0.33262E-03
        -0.29024E-03
        -0.33434E-03
        -0.45302E-03
        -0.54130E-03
        -0.56348E-03
        -0.51137E-03
        -0.50892E-03
        -0.50917E-03
        -0.51306E-03
        -0.51335E-03
        -0.50796E-03
        -0.51292E-03
        -0.52017E-03
        -0.51615E-03
        -0.52903E-03
        -0.51073E-03
        -0.48614E-03
        -0.50195E-03
        -0.51598E-03
        -0.46250E-03
        -0.51642E-03
        -0.52452E-03
        -0.51550E-03
        -0.52567E-03
        -0.53837E-03
        -0.55051E-03
        -0.55210E-03
        -0.53822E-03
        -0.52412E-03
        -0.53957E-03
        -0.51917E-03
        -0.51876E-03
        -0.51539E-03
        -0.49952E-03
        -0.54149E-03
        -0.51607E-03
        -0.51220E-03
        -0.51183E-03
        -0.50400E-03
        -0.51634E-03
        -0.51239E-03
        -0.50803E-03
        -0.42595E-03
        -0.38931E-03
        -0.36195E-03
        -0.34164E-03
        -0.45246E-03
        -0.52342E-03
        -0.51995E-03
        -0.50009E-03
        -0.47420E-03
        -0.47601E-03
        -0.46713E-03
        -0.45184E-03
        -0.44430E-03
        -0.44335E-03
        -0.48604E-03
        -0.52782E-03
        -0.51975E-03
        -0.52521E-03
        -0.51079E-03
        -0.48138E-03
        -0.42584E-03
        -0.32918E-03
        -0.19660E-03
        -0.53820E-04
         0.85410E-05
        -0.98097E-04
        -0.29947E-03
        -0.47032E-03
        -0.58019E-03
        -0.60886E-03
        -0.57588E-03
        -0.52015E-03
        -0.46624E-03
        -0.42356E-03
        -0.38113E-03
        -0.32690E-03
        -0.27715E-03
        -0.28429E-03
        -0.36237E-03
        -0.44629E-03
        -0.49724E-03
        -0.50387E-03
        -0.50342E-03
        -0.50099E-03
        -0.50029E-03
        -0.50066E-03
        -0.49695E-03
        -0.50791E-03
        -0.51152E-03
        -0.50664E-03
        -0.51709E-03
        -0.50902E-03
        -0.49856E-03
        -0.50402E-03
        -0.51228E-03
        -0.48605E-03
        -0.50284E-03
        -0.51196E-03
        -0.50146E-03
        -0.51080E-03
        -0.52073E-03
        -0.52416E-03
        -0.52860E-03
        -0.51541E-03
        -0.50785E-03
        -0.52393E-03
        -0.50300E-03
        -0.51438E-03
        -0.51267E-03
        -0.50317E-03
        -0.52555E-03
        -0.49940E-03
        -0.49913E-03
        -0.49768E-03
        -0.49489E-03
        -0.50370E-03
        -0.50401E-03
        -0.50438E-03
        -0.46271E-03
        -0.43800E-03
        -0.42026E-03
        -0.40760E-03
        -0.47482E-03
        -0.51535E-03
        -0.50526E-03
        -0.49721E-03
        -0.49088E-03
        -0.49154E-03
        -0.48851E-03
        -0.48195E-03
        -0.47707E-03
        -0.47515E-03
        -0.48856E-03
        -0.50851E-03
        -0.50159E-03
        -0.51138E-03
        -0.50787E-03
        -0.49690E-03
        -0.47192E-03
        -0.41759E-03
        -0.32848E-03
        -0.22836E-03
        -0.18627E-03
        -0.25518E-03
        -0.38190E-03
        -0.48573E-03
        -0.54343E-03
        -0.55354E-03
        -0.53466E-03
        -0.50922E-03
        -0.48969E-03
        -0.48029E-03
        -0.47551E-03
        -0.46248E-03
        -0.44084E-03
        -0.43268E-03
        -0.44967E-03
        -0.47452E-03
        -0.49184E-03
        -0.49813E-03
        -0.49806E-03
        -0.49612E-03
        -0.49504E-03
        -0.49621E-03
        -0.49673E-03
        -0.50103E-03
        -0.50291E-03
        -0.49967E-03
        -0.50630E-03
        -0.50252E-03
        -0.49881E-03
        -0.49978E-03
        -0.50456E-03
        -0.49333E-03
        -0.49607E-03
        -0.50264E-03
        -0.49499E-03
        -0.50121E-03
        -0.50737E-03
        -0.50742E-03
        -0.51183E-03
        -0.50214E-03
        -0.49883E-03
        -0.51016E-03
        -0.49595E-03
        -0.50637E-03
        -0.50578E-03
        -0.50046E-03
        -0.51107E-03
        -0.49416E-03
        -0.49533E-03
        -0.49431E-03
        -0.49578E-03
        -0.49664E-03
        -0.49714E-03
        -0.49844E-03
        -0.48088E-03
        -0.46680E-03
        -0.45637E-03
        -0.44895E-03
        -0.48555E-03
        -0.50675E-03
        -0.49817E-03
        -0.49735E-03
        -0.49950E-03
        -0.49946E-03
        -0.49968E-03
        -0.50018E-03
        -0.50120E-03
        -0.50262E-03
        -0.49906E-03
        -0.49762E-03
        -0.49797E-03
        -0.49872E-03
        -0.49940E-03
        -0.49782E-03
        -0.48930E-03
        -0.46287E-03
        -0.41117E-03
        -0.35072E-03
        -0.32570E-03
        -0.36391E-03
        -0.43753E-03
        -0.49568E-03
        -0.52042E-03
        -0.51981E-03
        -0.50977E-03
        -0.50183E-03
        -0.50031E-03
        -0.50428E-03
        -0.51086E-03
        -0.51542E-03
        -0.51620E-03
        -0.51463E-03
        -0.51073E-03
        -0.50539E-03
        -0.50072E-03
        -0.49591E-03
        -0.49603E-03
        -0.49522E-03
        -0.49460E-03
        -0.49600E-03
        -0.49732E-03
        -0.49734E-03
        -0.49795E-03
        -0.49647E-03
        -0.49928E-03
        -0.49826E-03
        -0.49762E-03
        -0.49722E-03
        -0.49915E-03
        -0.49632E-03
        -0.49489E-03
        -0.49761E-03
        -0.49431E-03
        -0.49702E-03
        -0.49956E-03
        -0.49933E-03
        -0.50234E-03
        -0.49665E-03
        -0.49586E-03
        -0.50080E-03
        -0.49472E-03
        -0.50014E-03
        -0.50039E-03
        -0.49939E-03
        -0.50171E-03
        -0.49415E-03
        -0.49468E-03
        -0.49454E-03
        -0.49630E-03
        -0.49557E-03
        -0.49555E-03
        -0.49627E-03
        -0.49228E-03
        -0.48778E-03
        -0.48529E-03
        -0.48433E-03
        -0.49644E-03
        -0.50239E-03
        -0.49514E-03
        -0.49537E-03
        -0.49710E-03
        -0.49751E-03
        -0.49838E-03
        -0.50005E-03
        -0.50239E-03
        -0.50478E-03
        -0.50052E-03
        -0.49592E-03
        -0.49845E-03
        -0.49574E-03
        -0.49653E-03
        -0.49709E-03
        -0.49581E-03
        -0.48772E-03
        -0.46849E-03
        -0.44616E-03
        -0.43976E-03
        -0.45720E-03
        -0.48555E-03
        -0.50453E-03
        -0.50825E-03
        -0.50360E-03
        -0.49804E-03
        -0.49524E-03
        -0.49621E-03
        -0.49985E-03
        -0.50474E-03
        -0.50959E-03
        -0.51405E-03
        -0.51689E-03
        -0.51492E-03
        -0.50906E-03
        -0.50302E-03
        -0.49567E-03
        -0.49568E-03
        -0.49540E-03
        -0.49532E-03
        -0.49617E-03
        -0.49747E-03
        -0.49603E-03
        -0.49610E-03
        -0.49577E-03
        -0.49619E-03
        -0.49632E-03
        -0.49648E-03
        -0.49595E-03
        -0.49650E-03
        -0.49702E-03
        -0.49542E-03
        -0.49585E-03
        -0.49518E-03
        -0.49570E-03
        -0.49608E-03
        -0.49589E-03
        -0.49737E-03
        -0.49506E-03
        -0.49540E-03
        -0.49630E-03
        -0.49522E-03
        -0.49670E-03
        -0.49712E-03
        -0.49840E-03
        -0.49698E-03
        -0.49522E-03
        -0.49519E-03
        -0.49548E-03
        -0.49662E-03
        -0.49540E-03
        -0.49519E-03
        -0.49552E-03
        -0.49732E-03
        -0.49794E-03
        -0.49988E-03
        -0.50276E-03
        -0.50165E-03
        -0.49959E-03
        -0.49469E-03
        -0.49481E-03
        -0.49543E-03
        -0.49610E-03
        -0.49695E-03
        -0.49824E-03
        -0.50010E-03
        -0.50209E-03
        -0.49965E-03
        -0.49538E-03
        -0.49833E-03
        -0.49461E-03
        -0.49497E-03
        -0.49560E-03
        -0.49665E-03
        -0.49772E-03
        -0.49775E-03
        -0.49797E-03
        -0.50191E-03
        -0.50830E-03
        -0.51012E-03
        -0.50671E-03
        -0.50070E-03
        -0.49619E-03
        -0.49397E-03
        -0.49316E-03
        -0.49376E-03
        -0.49567E-03
        -0.49841E-03
        -0.50142E-03
        -0.50481E-03
        -0.50802E-03
        -0.50857E-03
        -0.50606E-03
        -0.50228E-03
        -0.49581E-03
        -0.49578E-03
        -0.49562E-03
        -0.49576E-03
        -0.49629E-03
        -0.49762E-03
        -0.49580E-03
        -0.49564E-03
        -0.49571E-03
        -0.49519E-03
        -0.49580E-03
        -0.49615E-03
        -0.49571E-03
        -0.49567E-03
        -0.49723E-03
        -0.49580E-03
        -0.49531E-03
        -0.49569E-03
        -0.49531E-03
        -0.49470E-03
        -0.49466E-03
        -0.49516E-03
        -0.49483E-03
        -0.49545E-03
        -0.49462E-03
        -0.49567E-03
        -0.49548E-03
        -0.49584E-03
        -0.49786E-03
        -0.49499E-03
        -0.49588E-03
        -0.49575E-03
        -0.49610E-03
        -0.49701E-03
        -0.49538E-03
        -0.49520E-03
        -0.49547E-03
        -0.49921E-03
        -0.50193E-03
        -0.50561E-03
        -0.51004E-03
        -0.50346E-03
        -0.49806E-03
        -0.49502E-03
        -0.49522E-03
        -0.49560E-03
        -0.49631E-03
        -0.49719E-03
        -0.49839E-03
        -0.49998E-03
        -0.50167E-03
        -0.49957E-03
        -0.49512E-03
        -0.49816E-03
        -0.49428E-03
        -0.49464E-03
        -0.49524E-03
        -0.49680E-03
        -0.50091E-03
        -0.50866E-03
        -0.51850E-03
        -0.52692E-03
        -0.52916E-03
        -0.51995E-03
        -0.50674E-03
        -0.49723E-03
        -0.49366E-03
        -0.49321E-03
        -0.49335E-03
        -0.49393E-03
        -0.49535E-03
        -0.49764E-03
        -0.50053E-03
        -0.50377E-03
        -0.50664E-03
        -0.50716E-03
        -0.50513E-03
        -0.50190E-03
        -0.49583E-03
        -0.49582E-03
        -0.49569E-03
        -0.49582E-03
        -0.49641E-03
        -0.49801E-03
        -0.49577E-03
        -0.49552E-03
        -0.49563E-03
        -0.49483E-03
        -0.49570E-03
        -0.49611E-03
        -0.49565E-03
        -0.49547E-03
        -0.49749E-03
        -0.49580E-03
        -0.49501E-03
        -0.49573E-03
        -0.49506E-03
        -0.49407E-03
        -0.49428E-03
        -0.49450E-03
        -0.49466E-03
        -0.49535E-03
        -0.49392E-03
        -0.49572E-03
        -0.49515E-03
        -0.49541E-03
        -0.49754E-03
        -0.49409E-03
        -0.49603E-03
        -0.49595E-03
        -0.49628E-03
        -0.49740E-03
        -0.49541E-03
        -0.49521E-03
        -0.49546E-03
        -0.50018E-03
        -0.50368E-03
        -0.50781E-03
        -0.51250E-03
        -0.50384E-03
        -0.49744E-03
        -0.49506E-03
        -0.49546E-03
        -0.49603E-03
        -0.49679E-03
        -0.49785E-03
        -0.49938E-03
        -0.50136E-03
        -0.50340E-03
        -0.50055E-03
        -0.49506E-03
        -0.49841E-03
        -0.49418E-03
        -0.49451E-03
        -0.49507E-03
        -0.49690E-03
        -0.50235E-03
        -0.51317E-03
        -0.52677E-03
        -0.53664E-03
        -0.53647E-03
        -0.52320E-03
        -0.50750E-03
        -0.49717E-03
        -0.49336E-03
        -0.49294E-03
        -0.49331E-03
        -0.49422E-03
        -0.49597E-03
        -0.49872E-03
        -0.50250E-03
        -0.50687E-03
        -0.51040E-03
        -0.51056E-03
        -0.50739E-03
        -0.50293E-03
        -0.49571E-03
        -0.49570E-03
        -0.49556E-03
        -0.49565E-03
        -0.49651E-03
        -0.49844E-03
        -0.49560E-03
        -0.49533E-03
        -0.49544E-03
        -0.49447E-03
        -0.49548E-03
        -0.49586E-03
        -0.49533E-03
        -0.49522E-03
        -0.49759E-03
        -0.49560E-03
        -0.49464E-03
        -0.49552E-03
        -0.49471E-03
        -0.49350E-03
        -0.49394E-03
        -0.49416E-03
        -0.49428E-03
        -0.49507E-03
        -0.49333E-03
        -0.49551E-03
        -0.49480E-03
        -0.49504E-03
        -0.49729E-03
        -0.49338E-03
        -0.49591E-03
        -0.49583E-03
        -0.49619E-03
        -0.49760E-03
        -0.49535E-03
        -0.49504E-03
        -0.49521E-03
        -0.50090E-03
        -0.50506E-03
        -0.50954E-03
        -0.51429E-03
        -0.50409E-03
        -0.49716E-03
        -0.49470E-03
        -0.49520E-03
        -0.49593E-03
        -0.49690E-03
        -0.49823E-03
        -0.50014E-03
        -0.50266E-03
        -0.50530E-03
        -0.50165E-03
        -0.49507E-03
        -0.49906E-03
        -0.49388E-03
        -0.49397E-03
        -0.49434E-03
        -0.49647E-03
        -0.50345E-03
        -0.51719E-03
        -0.53386E-03
        -0.54468E-03
        -0.54174E-03
        -0.52540E-03
        -0.50909E-03
        -0.49796E-03
        -0.49323E-03
        -0.49232E-03
        -0.49250E-03
        -0.49360E-03
        -0.49585E-03
        -0.49939E-03
        -0.50425E-03
        -0.50988E-03
        -0.51438E-03
        -0.51459E-03
        -0.51052E-03
        -0.50472E-03
        -0.49555E-03
        -0.49555E-03
        -0.49541E-03
        -0.49548E-03
        -0.49653E-03
        -0.49855E-03
        -0.49544E-03
        -0.49513E-03
        -0.49524E-03
        -0.49415E-03
        -0.49533E-03
        -0.49584E-03
        -0.49520E-03
        -0.49505E-03
        -0.49791E-03
        -0.49545E-03
        -0.49437E-03
        -0.49534E-03
        -0.49451E-03
        -0.49311E-03
        -0.49364E-03
        -0.49372E-03
        -0.49408E-03
        -0.49492E-03
        -0.49288E-03
        -0.49537E-03
        -0.49465E-03
        -0.49507E-03
        -0.49773E-03
        -0.49296E-03
        -0.49578E-03
        -0.49569E-03
        -0.49609E-03
        -0.49760E-03
        -0.49531E-03
        -0.49489E-03
        -0.49505E-03
        -0.50194E-03
        -0.50721E-03
        -0.51275E-03
        -0.51804E-03
        -0.50533E-03
        -0.49701E-03
        -0.49452E-03
        -0.49502E-03
        -0.49582E-03
        -0.49690E-03
        -0.49840E-03
        -0.50051E-03
        -0.50316E-03
        -0.50595E-03
        -0.50198E-03
        -0.49517E-03
        -0.49958E-03
        -0.49368E-03
        -0.49373E-03
        -0.49421E-03
        -0.49674E-03
        -0.50496E-03
        -0.52120E-03
        -0.54162E-03
        -0.55546E-03
        -0.55083E-03
        -0.52897E-03
        -0.50961E-03
        -0.49753E-03
        -0.49271E-03
        -0.49196E-03
        -0.49219E-03
        -0.49335E-03
        -0.49576E-03
        -0.49971E-03
        -0.50523E-03
        -0.51145E-03
        -0.51602E-03
        -0.51596E-03
        -0.51161E-03
        -0.50554E-03
        -0.49544E-03
        -0.49545E-03
        -0.49534E-03
        -0.49538E-03
        -0.49661E-03
        -0.49866E-03
        -0.49533E-03
        -0.49498E-03
        -0.49514E-03
        -0.49399E-03
        -0.49523E-03
        -0.49589E-03
        -0.49522E-03
        -0.49496E-03
        -0.49819E-03
        -0.49535E-03
        -0.49426E-03
        -0.49522E-03
        -0.49444E-03
        -0.49293E-03
        -0.49344E-03
        -0.49336E-03
        -0.49393E-03
        -0.49483E-03
        -0.49262E-03
        -0.49525E-03
        -0.49460E-03
        -0.49498E-03
        -0.49764E-03
        -0.49259E-03
        -0.49561E-03
        -0.49555E-03
        -0.49597E-03
        -0.49760E-03
        -0.49535E-03
        -0.49487E-03
        -0.49504E-03
        -0.50269E-03
        -0.50836E-03
        -0.51405E-03
        -0.51934E-03
        -0.50540E-03
        -0.49658E-03
        -0.49440E-03
        -0.49497E-03
        -0.49589E-03
        -0.49689E-03
        -0.49833E-03
        -0.50047E-03
        -0.50324E-03
        -0.50614E-03
        -0.50215E-03
        -0.49533E-03
        -0.49999E-03
        -0.49371E-03
        -0.49387E-03
        -0.49450E-03
        -0.49713E-03
        -0.50605E-03
        -0.52395E-03
        -0.54614E-03
        -0.56061E-03
        -0.55463E-03
        -0.52977E-03
        -0.50898E-03
        -0.49673E-03
        -0.49209E-03
        -0.49161E-03
        -0.49210E-03
        -0.49353E-03
        -0.49616E-03
        -0.50007E-03
        -0.50537E-03
        -0.51143E-03
        -0.51612E-03
        -0.51624E-03
        -0.51202E-03
        -0.50606E-03
        -0.49542E-03
        -0.49543E-03
        -0.49541E-03
        -0.49542E-03
        -0.49681E-03
        -0.49893E-03
        -0.49525E-03
        -0.49492E-03
        -0.49514E-03
        -0.49394E-03
        -0.49514E-03
        -0.49584E-03
        -0.49510E-03
        -0.49485E-03
        -0.49827E-03
        -0.49529E-03
        -0.49429E-03
        -0.49516E-03
        -0.49446E-03
        -0.49294E-03
        -0.49338E-03
        -0.49324E-03
        -0.49387E-03
        -0.49479E-03
        -0.49256E-03
        -0.49517E-03
        -0.49440E-03
        -0.49462E-03
        -0.49711E-03
        -0.49249E-03
        -0.49550E-03
        -0.49548E-03
        -0.49588E-03
        -0.49764E-03
        -0.49550E-03
        -0.49493E-03
        -0.49500E-03
        -0.50262E-03
        -0.50773E-03
        -0.51273E-03
        -0.51779E-03
        -0.50477E-03
        -0.49640E-03
        -0.49433E-03
        -0.49501E-03
        -0.49610E-03
        -0.49699E-03
        -0.49825E-03
        -0.50029E-03
        -0.50319E-03
        -0.50632E-03
        -0.50242E-03
        -0.49550E-03
        -0.50038E-03
        -0.49378E-03
        -0.49382E-03
        -0.49433E-03
        -0.49719E-03
        -0.50689E-03
        -0.52518E-03
        -0.54607E-03
        -0.55806E-03
        -0.55159E-03
        -0.52920E-03
        -0.50870E-03
        -0.49627E-03
        -0.49185E-03
        -0.49146E-03
        -0.49205E-03
        -0.49378E-03
        -0.49674E-03
        -0.50057E-03
        -0.50529E-03
        -0.51086E-03
        -0.51577E-03
        -0.51648E-03
        -0.51267E-03
        -0.50672E-03
        -0.49551E-03
        -0.49548E-03
        -0.49551E-03
        -0.49549E-03
        -0.49690E-03
        -0.49890E-03
        -0.49525E-03
        -0.49497E-03
        -0.49523E-03
        -0.49403E-03
        -0.49510E-03
        -0.49572E-03
        -0.49496E-03
        -0.49483E-03
        -0.49821E-03
        -0.49532E-03
        -0.49442E-03
        -0.49521E-03
        -0.49455E-03
        -0.49316E-03
        -0.49349E-03
        -0.49341E-03
        -0.49399E-03
        -0.49485E-03
        -0.49278E-03
        -0.49519E-03
        -0.49438E-03
        -0.49465E-03
        -0.49721E-03
        -0.49285E-03
        -0.49550E-03
        -0.49552E-03
        -0.49585E-03
        -0.49754E-03
        -0.49562E-03
        -0.49500E-03
        -0.49495E-03
        -0.50232E-03
        -0.50704E-03
        -0.51176E-03
        -0.51683E-03
        -0.50485E-03
        -0.49674E-03
        -0.49443E-03
        -0.49511E-03
        -0.49626E-03
        -0.49711E-03
        -0.49827E-03
        -0.50012E-03
        -0.50281E-03
        -0.50581E-03
        -0.50215E-03
        -0.49565E-03
        -0.50037E-03
        -0.49381E-03
        -0.49358E-03
        -0.49389E-03
        -0.49690E-03
        -0.50692E-03
        -0.52454E-03
        -0.54380E-03
        -0.55458E-03
        -0.54872E-03
        -0.52897E-03
        -0.50864E-03
        -0.49608E-03
        -0.49204E-03
        -0.49179E-03
        -0.49234E-03
        -0.49402E-03
        -0.49701E-03
        -0.50089E-03
        -0.50537E-03
        -0.51044E-03
        -0.51489E-03
        -0.51551E-03
        -0.51206E-03
        -0.50646E-03
        -0.49563E-03
        -0.49560E-03
        -0.49568E-03
        -0.49565E-03
        -0.49700E-03
        -0.49870E-03
        -0.49531E-03
        -0.49506E-03
        -0.49534E-03
        -0.49419E-03
        -0.49511E-03
        -0.49560E-03
        -0.49495E-03
        -0.49488E-03
        -0.49792E-03
        -0.49541E-03
        -0.49455E-03
        -0.49536E-03
        -0.49462E-03
        -0.49335E-03
        -0.49368E-03
        -0.49370E-03
        -0.49418E-03
        -0.49493E-03
        -0.49306E-03
        -0.49529E-03
        -0.49456E-03
        -0.49503E-03
        -0.49784E-03
        -0.49327E-03
        -0.49566E-03
        -0.49569E-03
        -0.49597E-03
        -0.49746E-03
        -0.49584E-03
        -0.49518E-03
        -0.49502E-03
        -0.50192E-03
        -0.50693E-03
        -0.51224E-03
        -0.51778E-03
        -0.50574E-03
        -0.49730E-03
        -0.49464E-03
        -0.49535E-03
        -0.49645E-03
        -0.49723E-03
        -0.49828E-03
        -0.49992E-03
        -0.50227E-03
        -0.50486E-03
        -0.50154E-03
        -0.49595E-03
        -0.50024E-03
        -0.49400E-03
        -0.49356E-03
        -0.49377E-03
        -0.49654E-03
        -0.50578E-03
        -0.52214E-03
        -0.54130E-03
        -0.55396E-03
        -0.54991E-03
        -0.53023E-03
        -0.50923E-03
        -0.49649E-03
        -0.49259E-03
        -0.49238E-03
        -0.49288E-03
        -0.49440E-03
        -0.49716E-03
        -0.50074E-03
        -0.50491E-03
        -0.50952E-03
        -0.51335E-03
        -0.51356E-03
        -0.51024E-03
        -0.50541E-03
        -0.49580E-03
        -0.49583E-03
        -0.49599E-03
        -0.49598E-03
        -0.49728E-03
        -0.49879E-03
        -0.49556E-03
        -0.49525E-03
        -0.49544E-03
        -0.49435E-03
        -0.49538E-03
        -0.49590E-03
        -0.49534E-03
        -0.49513E-03
        -0.49794E-03
        -0.49552E-03
        -0.49459E-03
        -0.49561E-03
        -0.49460E-03
        -0.49341E-03
        -0.49371E-03
        -0.49387E-03
        -0.49422E-03
        -0.49494E-03
        -0.49323E-03
        -0.49540E-03
        -0.49484E-03
        -0.49538E-03
        -0.49823E-03
        -0.49347E-03
        -0.49589E-03
        -0.49584E-03
        -0.49624E-03
        -0.49763E-03
        -0.49619E-03
        -0.49553E-03
        -0.49537E-03
        -0.50191E-03
        -0.50726E-03
        -0.51286E-03
        -0.51846E-03
        -0.50622E-03
        -0.49763E-03
        -0.49475E-03
        -0.49545E-03
        -0.49638E-03
        -0.49709E-03
        -0.49805E-03
        -0.49957E-03
        -0.50174E-03
        -0.50410E-03
        -0.50125E-03
        -0.49632E-03
        -0.50027E-03
        -0.49447E-03
        -0.49409E-03
        -0.49444E-03
        -0.49692E-03
        -0.50500E-03
        -0.52070E-03
        -0.54098E-03
        -0.55486E-03
        -0.55091E-03
        -0.53112E-03
        -0.51000E-03
        -0.49698E-03
        -0.49282E-03
        -0.49255E-03
        -0.49308E-03
        -0.49450E-03
        -0.49683E-03
        -0.49971E-03
        -0.50329E-03
        -0.50748E-03
        -0.51115E-03
        -0.51169E-03
        -0.50888E-03
        -0.50478E-03
        -0.49593E-03
        -0.49606E-03
        -0.49622E-03
        -0.49621E-03
        -0.49743E-03
        -0.49883E-03
        -0.49586E-03
        -0.49542E-03
        -0.49552E-03
        -0.49445E-03
        -0.49576E-03
        -0.49641E-03
        -0.49586E-03
        -0.49538E-03
        -0.49814E-03
        -0.49565E-03
        -0.49465E-03
        -0.49584E-03
        -0.49463E-03
        -0.49348E-03
        -0.49367E-03
        -0.49391E-03
        -0.49417E-03
        -0.49497E-03
        -0.49328E-03
        -0.49548E-03
        -0.49493E-03
        -0.49528E-03
        -0.49793E-03
        -0.49346E-03
        -0.49605E-03
        -0.49587E-03
        -0.49642E-03
        -0.49768E-03
        -0.49643E-03
        -0.49586E-03
        -0.49578E-03
        -0.50173E-03
        -0.50680E-03
        -0.51217E-03
        -0.51753E-03
        -0.50561E-03
        -0.49747E-03
        -0.49473E-03
        -0.49532E-03
        -0.49599E-03
        -0.49670E-03
        -0.49760E-03
        -0.49898E-03
        -0.50100E-03
        -0.50327E-03
        -0.50097E-03
        -0.49653E-03
        -0.50017E-03
        -0.49497E-03
        -0.49479E-03
        -0.49533E-03
        -0.49764E-03
        -0.50482E-03
        -0.51979E-03
        -0.53989E-03
        -0.55368E-03
        -0.54938E-03
        -0.52959E-03
        -0.50942E-03
        -0.49681E-03
        -0.49256E-03
        -0.49233E-03
        -0.49289E-03
        -0.49411E-03
        -0.49602E-03
        -0.49833E-03
        -0.50129E-03
        -0.50487E-03
        -0.50844E-03
        -0.50977E-03
        -0.50789E-03
        -0.50435E-03
        -0.49604E-03
        -0.49619E-03
        -0.49636E-03
        -0.49637E-03
        -0.49742E-03
        -0.49866E-03
        -0.49598E-03
        -0.49551E-03
        -0.49564E-03
        -0.49458E-03
        -0.49589E-03
        -0.49660E-03
        -0.49612E-03
        -0.49548E-03
        -0.49804E-03
        -0.49584E-03
        -0.49483E-03
        -0.49604E-03
        -0.49480E-03
        -0.49373E-03
        -0.49367E-03
        -0.49395E-03
        -0.49426E-03
        -0.49513E-03
        -0.49347E-03
        -0.49567E-03
        -0.49492E-03
        -0.49507E-03
        -0.49752E-03
        -0.49366E-03
        -0.49620E-03
        -0.49598E-03
        -0.49650E-03
        -0.49754E-03
        -0.49652E-03
        -0.49607E-03
        -0.49605E-03
        -0.50094E-03
        -0.50513E-03
        -0.51004E-03
        -0.51538E-03
        -0.50475E-03
        -0.49735E-03
        -0.49487E-03
        -0.49533E-03
        -0.49575E-03
        -0.49644E-03
        -0.49721E-03
        -0.49826E-03
        -0.49994E-03
        -0.50195E-03
        -0.50035E-03
        -0.49657E-03
        -0.49981E-03
        -0.49538E-03
        -0.49540E-03
        -0.49590E-03
        -0.49796E-03
        -0.50425E-03
        -0.51716E-03
        -0.53437E-03
        -0.54700E-03
        -0.54483E-03
        -0.52696E-03
        -0.50796E-03
        -0.49576E-03
        -0.49186E-03
        -0.49217E-03
        -0.49297E-03
        -0.49393E-03
        -0.49534E-03
        -0.49723E-03
        -0.49956E-03
        -0.50217E-03
        -0.50514E-03
        -0.50700E-03
        -0.50628E-03
        -0.50356E-03
        -0.49621E-03
        -0.49630E-03
        -0.49653E-03
        -0.49668E-03
        -0.49740E-03
        -0.49855E-03
        -0.49600E-03
        -0.49557E-03
        -0.49587E-03
        -0.49476E-03
        -0.49586E-03
        -0.49656E-03
        -0.49617E-03
        -0.49547E-03
        -0.49785E-03
        -0.49618E-03
        -0.49512E-03
        -0.49641E-03
        -0.49503E-03
        -0.49406E-03
        -0.49360E-03
        -0.49397E-03
        -0.49431E-03
        -0.49534E-03
        -0.49383E-03
        -0.49598E-03
        -0.49500E-03
        -0.49533E-03
        -0.49807E-03
        -0.49417E-03
        -0.49657E-03
        -0.49625E-03
        -0.49682E-03
        -0.49762E-03
        -0.49649E-03
        -0.49615E-03
        -0.49616E-03
        -0.50048E-03
        -0.50457E-03
        -0.50990E-03
        -0.51588E-03
        -0.50555E-03
        -0.49777E-03
        -0.49507E-03
        -0.49545E-03
        -0.49553E-03
        -0.49621E-03
        -0.49691E-03
        -0.49774E-03
        -0.49904E-03
        -0.50066E-03
        -0.49977E-03
        -0.49630E-03
        -0.49928E-03
        -0.49540E-03
        -0.49564E-03
        -0.49616E-03
        -0.49803E-03
        -0.50380E-03
        -0.51538E-03
        -0.53120E-03
        -0.54449E-03
        -0.54505E-03
        -0.52806E-03
        -0.50767E-03
        -0.49465E-03
        -0.49099E-03
        -0.49185E-03
        -0.49304E-03
        -0.49379E-03
        -0.49451E-03
        -0.49568E-03
        -0.49741E-03
        -0.49942E-03
        -0.50187E-03
        -0.50401E-03
        -0.50436E-03
        -0.50258E-03
        -0.49631E-03
        -0.49635E-03
        -0.49669E-03
        -0.49711E-03
        -0.49727E-03
        -0.49829E-03
        -0.49586E-03
        -0.49545E-03
        -0.49594E-03
        -0.49469E-03
        -0.49564E-03
        -0.49632E-03
        -0.49604E-03
        -0.49530E-03
        -0.49765E-03
        -0.49651E-03
        -0.49508E-03
        -0.49692E-03
        -0.49486E-03
        -0.49380E-03
        -0.49302E-03
        -0.49350E-03
        -0.49384E-03
        -0.49525E-03
        -0.49378E-03
        -0.49621E-03
        -0.49496E-03
        -0.49546E-03
        -0.49847E-03
        -0.49414E-03
        -0.49715E-03
        -0.49647E-03
        -0.49737E-03
        -0.49774E-03
        -0.49638E-03
        -0.49622E-03
        -0.49621E-03
        -0.50028E-03
        -0.50448E-03
        -0.51024E-03
        -0.51698E-03
        -0.50668E-03
        -0.49804E-03
        -0.49482E-03
        -0.49503E-03
        -0.49431E-03
        -0.49516E-03
        -0.49595E-03
        -0.49663E-03
        -0.49752E-03
        -0.49858E-03
        -0.49883E-03
        -0.49591E-03
        -0.49831E-03
        -0.49549E-03
        -0.49586E-03
        -0.49612E-03
        -0.49783E-03
        -0.50355E-03
        -0.51439E-03
        -0.52939E-03
        -0.54338E-03
        -0.54651E-03
        -0.53171E-03
        -0.50912E-03
        -0.49398E-03
        -0.48968E-03
        -0.49053E-03
        -0.49194E-03
        -0.49219E-03
        -0.49146E-03
        -0.49107E-03
        -0.49201E-03
        -0.49375E-03
        -0.49620E-03
        -0.49924E-03
        -0.50116E-03
        -0.50078E-03
        -0.49634E-03
        -0.49648E-03
        -0.49706E-03
        -0.49767E-03
        -0.49725E-03
        -0.49765E-03
        -0.49578E-03
        -0.49528E-03
        -0.49579E-03
        -0.49444E-03
        -0.49557E-03
        -0.49627E-03
        -0.49604E-03
        -0.49531E-03
        -0.49781E-03
        -0.49687E-03
        -0.49465E-03
        -0.49756E-03
        -0.49426E-03
        -0.49311E-03
        -0.49173E-03
        -0.49318E-03
        -0.49240E-03
        -0.49476E-03
        -0.49347E-03
        -0.49635E-03
        -0.49513E-03
        -0.49585E-03
        -0.49953E-03
        -0.49410E-03
        -0.49784E-03
        -0.49632E-03
        -0.49801E-03
        -0.49763E-03
        -0.49678E-03
        -0.49676E-03
        -0.49653E-03
        -0.50062E-03
        -0.50509E-03
        -0.51173E-03
        -0.52014E-03
        -0.50978E-03
        -0.49960E-03
        -0.49359E-03
        -0.49312E-03
        -0.49033E-03
        -0.49185E-03
        -0.49316E-03
        -0.49391E-03
        -0.49438E-03
        -0.49463E-03
        -0.49685E-03
        -0.49638E-03
        -0.49703E-03
        -0.49659E-03
        -0.49660E-03
        -0.49617E-03
        -0.49762E-03
        -0.50343E-03
        -0.51376E-03
        -0.52808E-03
        -0.54340E-03
        -0.55128E-03
        -0.54088E-03
        -0.51584E-03
        -0.49508E-03
        -0.48706E-03
        -0.48675E-03
        -0.48793E-03
        -0.48665E-03
        -0.48269E-03
        -0.47931E-03
        -0.47956E-03
        -0.48207E-03
        -0.48568E-03
        -0.49075E-03
        -0.49527E-03
        -0.49732E-03
        -0.49708E-03
        -0.49794E-03
        -0.49914E-03
        -0.49915E-03
        -0.49904E-03
        -0.49765E-03
        -0.49687E-03
        -0.49557E-03
        -0.49571E-03
        -0.49392E-03
        -0.49678E-03
        -0.49839E-03
        -0.49800E-03
        -0.49613E-03
        -0.50029E-03
        -0.49772E-03
        -0.49364E-03
        -0.49884E-03
        -0.49305E-03
        -0.49146E-03
        -0.48877E-03
        -0.49315E-03
        -0.48887E-03
        -0.49380E-03
        -0.49263E-03
        -0.49642E-03
        -0.49589E-03
        -0.49806E-03
        -0.50614E-03
        -0.49487E-03
        -0.49851E-03
        -0.49496E-03
        -0.49866E-03
        -0.49731E-03
        -0.49995E-03
        -0.49986E-03
        -0.49891E-03
        -0.50434E-03
        -0.51259E-03
        -0.52630E-03
        -0.54303E-03
        -0.52602E-03
        -0.50683E-03
        -0.48989E-03
        -0.48719E-03
        -0.47972E-03
        -0.48337E-03
        -0.48649E-03
        -0.48815E-03
        -0.48874E-03
        -0.48846E-03
        -0.49418E-03
        -0.50049E-03
        -0.49727E-03
        -0.50148E-03
        -0.50029E-03
        -0.49933E-03
        -0.50133E-03
        -0.50836E-03
        -0.52133E-03
        -0.54305E-03
        -0.57258E-03
        -0.59414E-03
        -0.58219E-03
        -0.53999E-03
        -0.49945E-03
        -0.48030E-03
        -0.47660E-03
        -0.47608E-03
        -0.47084E-03
        -0.46109E-03
        -0.45360E-03
        -0.45461E-03
        -0.46075E-03
        -0.46851E-03
        -0.47834E-03
        -0.48768E-03
        -0.49367E-03
        -0.49930E-03
        -0.50183E-03
        -0.50429E-03
        -0.50253E-03
        -0.50410E-03
        -0.49954E-03
        -0.49989E-03
        -0.49668E-03
        -0.49603E-03
        -0.49299E-03
        -0.49984E-03
        -0.50369E-03
        -0.50303E-03
        -0.49801E-03
        -0.50607E-03
        -0.49951E-03
        -0.49178E-03
        -0.50139E-03
        -0.49110E-03
        -0.48804E-03
        -0.48343E-03
        -0.49225E-03
        -0.48299E-03
        -0.49232E-03
        -0.49078E-03
        -0.49640E-03
        -0.49738E-03
        -0.50323E-03
        -0.52222E-03
        -0.49655E-03
        -0.49916E-03
        -0.49181E-03
        -0.49943E-03
        -0.49700E-03
        -0.50726E-03
        -0.50690E-03
        -0.50465E-03
        -0.51316E-03
        -0.53165E-03
        -0.56256E-03
        -0.59604E-03
        -0.56220E-03
        -0.52122E-03
        -0.48334E-03
        -0.47642E-03
        -0.46165E-03
        -0.46882E-03
        -0.47517E-03
        -0.47870E-03
        -0.48033E-03
        -0.48044E-03
        -0.49151E-03
        -0.50929E-03
        -0.50067E-03
        -0.51125E-03
        -0.50824E-03
        -0.50714E-03
        -0.51098E-03
        -0.52122E-03
        -0.54185E-03
        -0.58315E-03
        -0.64377E-03
        -0.68754E-03
        -0.66322E-03
        -0.58267E-03
        -0.50511E-03
        -0.46825E-03
        -0.45993E-03
        -0.45635E-03
        -0.44480E-03
        -0.42708E-03
        -0.41479E-03
        -0.41765E-03
        -0.43000E-03
        -0.44549E-03
        -0.46345E-03
        -0.48046E-03
        -0.49200E-03
  
SCALARS                     velocity_x  double 1
LOOKUP_TABLE default
         0.00000E+00
         0.93056E+01
        -0.29360E+02
         0.13044E+02
        -0.39324E+01
        -0.21454E+04
        -0.14804E+04
        -0.11215E+04
        -0.11792E+04
         0.68765E+02
         0.13064E+03
        -0.14235E+04
        -0.14802E+04
        -0.77008E+02
        -0.11141E+03
        -0.12735E+04
        -0.69129E+03
         0.44320E+02
        -0.78994E+01
        -0.98966E+03
        -0.30686E+04
        -0.99321E+02
        -0.74166E+02
        -0.14334E+03
        -0.17678E+04
        -0.11076E+04
        -0.60119E+03
        -0.90904E+02
        -0.20248E+03
        -0.18797E+04
        -0.44626E+03
         0.13766E+02
         0.31316E+02
         0.91833E+01
        -0.15778E+03
        -0.42586E+03
        -0.18427E+03
        -0.63683E+01
         0.16755E+02
        -0.24379E+02
        -0.65662E+02
        -0.38332E+02
        -0.11820E+03
         0.23725E+01
        -0.16464E+02
        -0.12070E+02
        -0.24314E+02
        -0.61430E+02
        -0.16334E+02
         0.29725E+02
        -0.57088E+03
        -0.63882E+02
        -0.22621E+03
        -0.22750E+03
        -0.10966E+04
        -0.35719E+03
        -0.12545E+04
        -0.22629E+03
        -0.37354E+02
        -0.17522E+04
        -0.26081E+03
        -0.10270E+03
        -0.52254E+02
        -0.70143E+03
        -0.38414E+03
        -0.71012E+02
        -0.18942E+03
        -0.37415E+02
        -0.22398E+04
         0.72269E+02
         0.59413E+02
        -0.14279E+04
        -0.67900E+03
        -0.15784E+02
        -0.45283E+03
        -0.69203E+02
        -0.90062E+03
        -0.16248E+03
        -0.10027E+04
        -0.49020E+03
        -0.11838E+04
        -0.30007E+03
        -0.88791E+03
        -0.14491E+04
        -0.72191E+03
        -0.29233E+03
        -0.68768E+03
         0.12611E+03
        -0.76652E+03
         0.29432E+03
        -0.14214E+04
         0.16811E+03
         0.23789E+03
        -0.14588E+04
        -0.34026E+03
         0.11586E+03
        -0.28895E+03
         0.21986E+03
        -0.10091E+04
         0.61084E+03
        -0.15743E+04
         0.38513E+03
         0.65189E+03
        -0.13283E+04
        -0.19583E+04
         0.16547E+03
         0.59063E+03
        -0.28298E+04
        -0.14946E+04
         0.23939E+03
        -0.68399E+03
        -0.22863E+02
        -0.21050E+03
        -0.39126E+03
         0.19434E+03
        -0.10132E+04
         0.58219E+03
        -0.13914E+04
         0.65986E+03
        -0.15020E+04
         0.10109E+04
        -0.21348E+04
         0.15633E+04
        -0.23050E+04
        -0.41840E+03
        -0.15928E+04
        -0.15447E+04
        -0.77226E+03
        -0.14736E+04
        -0.28498E+03
        -0.15446E+04
        -0.21194E+03
        -0.16549E+04
         0.20963E+03
        -0.16525E+04
         0.64486E+03
        -0.13986E+04
         0.94938E+03
        -0.11987E+04
         0.15361E+04
        -0.21182E+04
         0.19146E+04
        -0.16640E+04
         0.18200E+04
        -0.12709E+04
         0.19568E+04
        -0.15297E+04
         0.33071E+04
        -0.22415E+04
         0.45876E+04
        -0.22100E+04
         0.45311E+04
        -0.17223E+04
         0.21976E+04
        -0.18434E+04
         0.88633E+03
        -0.91676E+03
         0.68253E+03
         0.57009E+03
         0.36667E+03
         0.67867E+03
         0.60212E+03
         0.12288E+04
         0.47371E+03
         0.51565E+03
         0.93757E+03
         0.20556E+04
         0.57594E+03
         0.22756E+03
         0.38579E+03
         0.63134E+03
         0.17590E+03
         0.49323E+03
         0.43349E+03
         0.97279E+03
         0.29378E+03
         0.32254E+03
         0.18490E+03
         0.15763E+03
         0.74640E+03
         0.37541E+03
         0.75693E+03
         0.60474E+03
         0.71084E+03
         0.74164E+03
         0.46680E+03
         0.28441E+03
         0.67354E+03
         0.43541E+03
         0.52909E+03
         0.15635E+04
         0.69503E+03
         0.63497E+03
         0.39171E+03
         0.42789E+03
         0.52039E+03
         0.69343E+03
         0.32735E+03
         0.39114E+03
         0.24176E+03
         0.69385E+03
         0.12306E+04
         0.79999E+03
         0.58066E+03
         0.67211E+03
         0.11109E+04
         0.20295E+04
         0.12670E+04
         0.30433E+04
         0.13683E+04
         0.19290E+04
         0.84157E+03
         0.29926E+03
        -0.19593E+03
        -0.65016E+03
        -0.10191E+04
        -0.14862E+04
        -0.21952E+04
        -0.15335E+04
         0.35165E+02
         0.50867E+03
         0.54345E+03
         0.73898E+03
         0.10042E+04
         0.13299E+04
         0.17407E+04
         0.22423E+04
         0.16213E+04
         0.13331E+04
         0.21700E+04
         0.34660E+04
         0.48829E+04
         0.34348E+04
         0.23159E+04
         0.85698E+03
         0.30882E+03
         0.23794E+03
         0.14627E+03
         0.35287E+03
         0.15335E+03
         0.30505E+03
         0.20945E+03
         0.20304E+03
         0.35285E+03
         0.78873E+03
         0.27563E+03
         0.16644E+03
         0.17726E+03
         0.32632E+03
         0.13587E+03
         0.24213E+03
         0.19262E+03
         0.43008E+03
         0.17855E+03
         0.23767E+03
         0.16935E+03
         0.30265E+03
         0.30229E+03
         0.16825E+03
         0.40510E+03
         0.29984E+03
         0.35437E+03
         0.37224E+03
         0.19898E+03
         0.23019E+03
         0.43619E+03
         0.21243E+03
         0.33845E+03
         0.52460E+03
         0.24740E+03
         0.21301E+03
         0.15652E+03
         0.24497E+03
         0.28470E+03
         0.49328E+03
         0.26159E+03
         0.15049E+03
         0.35282E+03
         0.24665E+03
         0.36245E+03
         0.14308E+03
         0.14618E+03
         0.18150E+03
         0.28726E+03
         0.26593E+03
         0.67514E+02
         0.50336E+03
         0.28669E+03
         0.19121E+03
         0.23920E+03
         0.16160E+03
         0.76016E+02
         0.24912E+02
         0.13588E+02
        -0.95306E+02
        -0.25891E+03
        -0.20620E+03
         0.14675E+03
         0.47229E+03
         0.39380E+03
         0.56595E+03
         0.50855E+03
         0.39209E+03
         0.30671E+03
         0.18978E+03
         0.47947E+01
        -0.10220E+03
        -0.25136E+03
        -0.56321E+03
        -0.71479E+03
        -0.18979E-01
        -0.16303E+03
        -0.31479E+02
         0.26842E+02
         0.93817E+01
        -0.21587E+02
         0.35031E+02
        -0.11753E+03
        -0.25528E+03
         0.30540E+02
         0.27834E+02
         0.52155E+01
         0.12078E+03
         0.68031E+02
         0.76722E+02
         0.47591E+02
         0.74290E+02
         0.57636E+02
         0.13096E+02
         0.80822E+01
         0.16959E+02
         0.63062E+01
         0.28398E+02
         0.31452E+02
         0.11074E+03
        -0.22769E+01
         0.36938E+01
         0.51405E+02
         0.11488E+02
         0.66692E+02
         0.75244E+02
         0.75207E+02
         0.66327E+02
         0.17919E+02
         0.24637E+01
        -0.10253E+02
        -0.21737E+03
        -0.17390E+03
        -0.68166E+02
        -0.10309E+02
         0.90987E+02
         0.76874E+02
         0.15966E+03
         0.96736E+02
         0.73119E+02
         0.20306E+03
        -0.50402E+02
        -0.17623E+03
        -0.17925E+03
        -0.13923E+03
        -0.17757E+03
        -0.14402E+03
        -0.57527E+03
        -0.65272E+03
        -0.12181E+04
        -0.43088E+03
        -0.79622E+03
        -0.21835E+03
        -0.58122E+02
         0.14411E+03
         0.31459E+03
         0.95224E+02
         0.33346E+02
        -0.46259E+02
        -0.15177E+03
        -0.74972E+02
         0.67004E+02
         0.25193E+03
         0.32735E+03
         0.21103E+03
        -0.33250E+02
        -0.29831E+03
        -0.61063E+03
        -0.56331E+03
        -0.56669E+03
        -0.86413E+03
        -0.20614E+04
        -0.32139E+04
        -0.24017E+04
        -0.16339E+04
        -0.49004E+03
        -0.99012E+01
        -0.13498E+02
        -0.12418E+02
        -0.16772E+02
        -0.46267E+02
        -0.10041E+03
         0.21210E+01
         0.59848E+01
         0.17958E+00
         0.35919E+02
         0.32413E+02
         0.47022E+02
         0.21835E+02
         0.45081E+02
         0.50837E+02
        -0.11324E+02
         0.19040E+01
        -0.24717E+02
        -0.18629E+01
         0.21049E+02
         0.33148E+02
         0.98215E+02
         0.24100E+02
        -0.75860E+00
         0.41332E+02
        -0.12880E+00
         0.72768E+02
         0.15943E+03
         0.17120E+03
         0.52613E+02
        -0.11329E+02
        -0.43254E+01
        -0.35596E+02
        -0.12177E+03
        -0.59849E+02
        -0.22245E+02
         0.17012E+01
         0.15764E+03
         0.23484E+03
         0.37074E+03
         0.20736E+03
         0.17575E+03
         0.18447E+03
        -0.44278E+01
        -0.32950E+02
        -0.29474E+02
        -0.24395E+02
        -0.45159E+02
        -0.57928E+02
        -0.17807E+03
        -0.15418E+03
        -0.31610E+03
        -0.16432E+03
        -0.24430E+03
        -0.37294E+02
         0.21021E+02
         0.99234E+02
         0.18757E+03
         0.13983E+03
         0.13754E+03
         0.17853E+03
         0.15364E+03
         0.12213E+03
         0.14153E+03
         0.28201E+03
         0.27908E+03
         0.19087E+03
         0.55563E+02
        -0.56290E+02
        -0.13815E+03
        -0.98726E+02
        -0.82750E+02
        -0.23468E+03
        -0.41724E+03
        -0.68961E+03
        -0.58771E+03
        -0.44152E+03
        -0.13619E+03
        -0.11364E+02
        -0.52229E+00
         0.19914E+01
        -0.38312E+01
         0.11603E+01
         0.29207E+01
        -0.14744E+01
        -0.25613E+00
        -0.10369E+02
         0.35261E+01
         0.89556E+01
         0.21021E+02
         0.13291E+02
         0.16233E+02
         0.24296E+02
        -0.12961E+02
        -0.69558E+01
        -0.11941E+02
        -0.62205E+01
         0.40729E+01
         0.18248E+02
         0.51679E+02
         0.18792E+02
        -0.21449E+01
         0.20360E+02
        -0.50083E+01
         0.38118E+02
         0.78246E+02
         0.83115E+02
         0.26300E+02
         0.96031E+01
         0.53128E+01
         0.13180E+02
         0.29597E+02
         0.15412E+01
         0.42234E+01
         0.53780E+01
         0.85553E+02
         0.14561E+03
         0.25960E+03
         0.12882E+03
         0.80206E+02
         0.98442E+02
         0.13338E+02
         0.32861E+02
         0.32195E+02
         0.30370E+02
         0.39353E+02
         0.20429E+02
         0.69134E+02
         0.41537E+02
         0.74779E+02
        -0.15240E+02
        -0.14327E+02
        -0.10143E+02
         0.44061E+01
         0.35106E+02
         0.55479E+02
         0.74437E+02
         0.12453E+03
         0.19515E+03
         0.22810E+03
         0.23730E+03
         0.18254E+03
         0.20132E+03
         0.19380E+03
         0.94185E+02
         0.30182E+02
         0.16566E+02
         0.48583E+02
         0.59443E+02
         0.81991E+02
         0.12127E+03
         0.16221E+03
         0.15761E+03
         0.90826E+02
         0.28069E+02
         0.96027E+00
        -0.79929E+01
        -0.12440E+01
         0.19643E+01
        -0.13085E+00
         0.49002E+01
         0.17239E+02
        -0.27886E+01
        -0.31445E+01
        -0.14315E+02
        -0.11787E+02
        -0.12661E+01
         0.75591E+01
         0.51809E+01
         0.10321E+01
         0.12260E+02
        -0.87358E+01
        -0.71667E+01
        -0.10773E+02
        -0.49941E+01
        -0.26070E+01
         0.87923E+01
         0.24320E+02
         0.70352E+01
        -0.20725E+01
         0.13961E+01
        -0.40541E+01
         0.94349E+01
         0.33143E+02
         0.44417E+02
         0.65609E+01
         0.46617E+01
         0.19882E+01
         0.68938E+01
         0.28796E+02
         0.32607E+01
         0.41639E+01
         0.28970E+01
         0.50180E+02
         0.88457E+02
         0.12827E+03
         0.10786E+03
         0.61384E+02
         0.43549E+02
         0.41295E+01
         0.10954E+02
         0.10646E+02
         0.12790E+02
         0.19340E+02
         0.27094E+02
         0.57186E+02
         0.40892E+02
         0.71762E+02
        -0.15694E+02
        -0.55489E+01
        -0.16341E+02
        -0.11811E+02
         0.34237E+01
         0.91130E+01
         0.61272E+02
         0.11866E+03
         0.23649E+03
         0.27916E+03
         0.20738E+03
         0.14406E+03
         0.11662E+03
         0.82103E+02
         0.27059E+02
        -0.92736E+01
        -0.20074E+02
        -0.10501E+02
         0.12828E+02
         0.26198E+02
         0.48227E+02
         0.84670E+02
         0.11683E+03
         0.84539E+02
         0.44289E+02
         0.32256E+01
        -0.25394E+01
         0.20087E+01
         0.22577E+01
         0.11619E+01
         0.92168E+00
         0.28743E+01
         0.10702E+01
        -0.22769E+01
        -0.54140E+01
        -0.87168E+01
         0.11190E+01
         0.54172E+01
         0.43611E+01
         0.53888E+00
         0.62593E+01
        -0.14074E+01
        -0.26625E+01
        -0.46268E+01
        -0.52254E+00
        -0.10061E+01
         0.34035E+01
         0.13523E+02
         0.50534E+01
         0.12346E+01
        -0.28139E+01
         0.23422E+01
         0.99465E+00
         0.38308E+01
         0.11256E+02
         0.28107E+01
         0.11731E+01
         0.14235E+01
        -0.23565E+00
        -0.36882E+00
         0.11807E+01
         0.30300E+01
         0.34001E+01
         0.21933E+02
         0.40532E+02
         0.81136E+02
         0.51511E+02
         0.29736E+02
         0.29209E+02
         0.15452E+01
        -0.30420E+00
        -0.29074E+01
        -0.42066E+00
         0.87938E+00
         0.19801E+01
         0.34424E+01
         0.38824E+01
         0.98056E+01
        -0.18148E+02
        -0.21133E+02
        -0.23735E+02
        -0.17717E+02
        -0.86630E+01
        -0.21572E+00
         0.90504E+01
         0.45303E+02
         0.12158E+03
         0.17186E+03
         0.12501E+03
         0.10054E+03
         0.75217E+02
         0.26767E+02
        -0.10389E+02
        -0.31960E+02
        -0.41030E+02
        -0.37623E+02
        -0.24532E+02
        -0.18393E+02
        -0.15230E+02
        -0.57665E+01
        -0.10122E+01
         0.94882E+01
         0.54088E+01
        -0.16750E+01
         0.63882E+00
         0.30258E+01
         0.33176E+01
         0.17358E+01
         0.88137E+00
         0.28703E+01
         0.20899E+01
        -0.50906E+00
        -0.28620E+01
        -0.81390E+01
         0.29063E+01
         0.49312E+01
         0.50720E+01
         0.45764E+00
         0.34655E+01
         0.44007E+00
        -0.16887E+01
        -0.16552E+01
         0.82998E+00
        -0.11012E+01
         0.25551E+01
         0.60481E+01
         0.30649E+01
         0.15105E+01
        -0.38044E+01
         0.26193E+01
        -0.22364E+01
        -0.41492E+01
         0.76463E+00
        -0.14441E+01
         0.20093E+01
         0.26548E+01
        -0.63830E+00
        -0.27430E+01
         0.21641E+01
         0.34424E+01
         0.39296E+01
         0.94407E+01
         0.14802E+02
         0.32613E+02
         0.24048E+02
         0.86638E+01
         0.86541E+01
         0.19067E+01
         0.29102E+01
        -0.58295E+00
         0.13401E+01
         0.92734E+00
        -0.89088E+00
         0.14891E+01
         0.28873E+01
         0.65304E+01
        -0.17449E+02
        -0.15267E+02
        -0.15728E+02
        -0.18280E+02
        -0.13110E+02
        -0.12474E+02
         0.21827E+00
         0.35128E+02
         0.93352E+02
         0.12369E+03
         0.71384E+02
         0.32228E+02
         0.15882E+02
         0.93336E+01
        -0.99589E+01
        -0.20642E+02
        -0.20744E+02
        -0.26614E+02
        -0.19493E+02
        -0.15357E+02
        -0.18766E+02
        -0.13129E+02
        -0.14772E+02
        -0.12638E+02
        -0.66554E+01
        -0.61603E+01
         0.12255E+01
         0.31313E+01
         0.27925E+01
         0.11591E+01
         0.88574E+00
        -0.93039E+00
         0.29908E+01
         0.12450E+00
        -0.20499E+01
        -0.49953E+01
         0.34728E+01
         0.44210E+01
         0.66471E+01
         0.85343E+00
         0.26449E+01
         0.67424E+00
        -0.10740E+01
        -0.16609E+01
         0.14515E+01
        -0.17648E+01
         0.35589E+01
         0.24591E+01
         0.81758E+01
         0.28638E+01
        -0.47325E+01
         0.35737E+01
        -0.22886E+01
        -0.56981E+01
        -0.28748E+01
        -0.34645E+01
         0.28819E+01
         0.29209E+01
         0.20916E+00
        -0.26845E+01
         0.12740E+01
         0.31696E+01
         0.38065E+01
         0.28426E+01
         0.36407E+01
         0.11308E+02
         0.96922E+01
         0.77730E+00
         0.14763E+01
         0.69321E+01
         0.78235E+01
         0.36791E+01
         0.34619E+01
         0.20638E+01
         0.48692E+00
         0.24772E-01
         0.14906E+01
         0.22438E+00
        -0.16660E+02
        -0.20384E+02
        -0.17122E+02
        -0.17890E+02
        -0.12961E+02
        -0.12386E+02
        -0.84477E+01
         0.16536E+02
         0.49139E+02
         0.79747E+02
         0.59789E+02
         0.17767E+02
         0.56875E+01
        -0.28155E+01
        -0.72138E+01
        -0.75732E+01
        -0.12319E+02
        -0.15075E+02
        -0.44286E+01
        -0.56653E+01
        -0.90570E+01
        -0.63393E+01
        -0.52682E+01
        -0.55335E+01
        -0.11909E+02
        -0.85996E+01
         0.12546E+01
         0.43511E+01
         0.20778E+01
        -0.72720E+00
        -0.57588E+00
        -0.31089E+00
         0.37593E+01
         0.17612E+00
        -0.30275E+01
        -0.69006E+01
         0.34968E+01
         0.42167E+01
         0.66265E+01
         0.13915E+01
         0.22074E+01
         0.48909E+00
        -0.19552E+01
        -0.25729E+01
         0.10190E+01
        -0.25897E+01
         0.36327E+01
        -0.90777E-01
         0.76081E+01
         0.28588E+01
        -0.56099E+01
         0.51066E+01
        -0.26373E+01
        -0.60310E+01
        -0.28067E+01
        -0.59316E+01
         0.30591E+01
         0.37960E+01
         0.49166E+00
         0.15119E+01
         0.19810E+01
         0.37827E+01
         0.44269E+01
         0.21206E+01
         0.12821E+01
         0.44892E+01
         0.89439E+01
         0.31151E+01
        -0.45821E+01
         0.60511E+01
         0.65870E+01
         0.30608E+01
         0.40774E+01
         0.37154E+01
         0.18721E+01
         0.43898E+01
         0.45987E+01
         0.56161E+01
        -0.26071E+02
        -0.28099E+02
        -0.22985E+02
        -0.24577E+02
        -0.21783E+02
        -0.21576E+02
        -0.11544E+02
         0.77966E+01
         0.35396E+02
         0.72709E+02
         0.49964E+02
         0.16763E+02
         0.54417E+01
        -0.10212E+02
        -0.20881E+02
        -0.27821E+02
        -0.36536E+02
        -0.37964E+02
        -0.14761E+02
        -0.76686E+01
        -0.18139E+01
         0.67794E+01
         0.21345E+02
         0.23722E+02
         0.55559E+01
        -0.32824E+01
         0.59263E+00
         0.35004E+01
         0.29090E+01
         0.30699E+00
         0.13790E+01
         0.84163E-03
         0.36263E+01
         0.26937E+00
        -0.32509E+01
        -0.77946E+01
         0.46840E+01
         0.59102E+01
         0.84677E+01
         0.13445E+01
         0.34133E+01
         0.54752E-01
        -0.26447E+01
        -0.30788E+01
         0.49531E+00
        -0.36463E+01
         0.21074E+01
        -0.28342E+00
         0.59778E+01
         0.26378E+01
        -0.75609E+01
         0.45971E+01
        -0.18264E+01
        -0.51956E+01
         0.13038E+01
        -0.41787E+01
         0.27339E+01
         0.30208E+01
        -0.72500E+00
        -0.55293E+01
        -0.67143E+00
         0.18770E+01
         0.44997E+01
         0.77070E+01
         0.63454E+01
         0.21048E+02
         0.19838E+02
         0.32041E+01
         0.30789E+00
         0.36536E+01
         0.36905E+01
         0.79768E+00
         0.31875E+01
         0.31372E+01
         0.50285E+00
         0.14152E+01
         0.14354E+01
         0.45588E+00
        -0.22102E+02
        -0.19685E+02
        -0.27932E+02
        -0.27414E+02
        -0.24630E+02
        -0.15727E+02
        -0.91958E+01
         0.22594E+02
         0.72412E+02
         0.12194E+03
         0.83897E+02
         0.30862E+02
         0.16644E+02
        -0.55196E+01
        -0.22432E+02
        -0.30107E+02
        -0.35907E+02
        -0.38410E+02
        -0.19419E+02
        -0.12868E+02
        -0.56564E+01
        -0.27315E+01
         0.20944E+02
         0.12332E+02
         0.55427E+01
        -0.72028E+01
         0.11898E+01
         0.51051E+01
         0.30792E+01
        -0.10164E+01
        -0.52187E+00
        -0.22416E+01
         0.40488E+01
         0.33955E+00
        -0.39619E+01
        -0.87467E+01
         0.50299E+01
         0.71449E+01
         0.10327E+02
         0.14854E+01
         0.37348E+01
        -0.56235E-01
        -0.27041E+01
        -0.34584E+01
         0.40903E+00
        -0.34869E+01
         0.24764E+01
        -0.27251E+00
         0.50402E+01
         0.25855E+01
        -0.65020E+01
         0.49169E+01
        -0.17482E+01
        -0.56599E+01
        -0.34668E+01
        -0.58111E+01
         0.21566E+01
         0.30968E+01
        -0.21490E+00
        -0.39176E+01
         0.13440E+01
         0.45009E+01
         0.50989E+01
         0.44865E+01
         0.37152E+01
         0.89348E+01
         0.76923E+01
        -0.21510E+01
        -0.27832E+01
         0.40969E+01
         0.36764E+01
         0.56810E+00
         0.26688E+01
         0.16485E+01
         0.32332E+01
         0.75992E+01
         0.65589E+01
         0.68160E+01
        -0.21039E+02
        -0.15687E+02
        -0.26227E+02
        -0.20084E+02
        -0.14419E+02
        -0.14556E+02
        -0.17708E+01
         0.25973E+02
         0.50048E+02
         0.71397E+02
         0.26716E+02
         0.36717E+02
         0.94364E+01
        -0.13193E+02
        -0.23071E+02
        -0.29662E+02
        -0.36686E+02
        -0.42450E+02
        -0.24202E+02
        -0.16657E+02
        -0.11850E+02
         0.70091E+01
         0.23078E+02
         0.12573E+02
         0.17679E+01
        -0.10620E+01
         0.24452E+01
         0.44181E+01
         0.31595E+01
        -0.19293E+00
         0.60474E+00
         0.15824E+01
         0.30590E+01
         0.43288E+00
        -0.30945E+01
        -0.73855E+01
         0.53077E+01
         0.46711E+01
         0.82370E+01
         0.11856E+01
         0.32518E+01
        -0.61298E+00
        -0.28153E+01
        -0.38287E+01
         0.66260E+00
        -0.31195E+01
         0.26738E+01
         0.49209E+00
         0.48754E+01
         0.18778E+01
        -0.61712E+01
         0.35519E+01
        -0.30471E+01
        -0.10702E+02
        -0.74864E+01
        -0.55964E+01
         0.15046E+01
         0.23602E+01
        -0.13018E+01
        -0.26268E+01
         0.40012E+01
         0.52110E+01
         0.58581E+01
        -0.95011E-01
        -0.31269E+01
        -0.69951E+01
         0.55731E+00
        -0.27768E+01
        -0.60875E+01
         0.31088E+01
         0.35366E+01
         0.98693E+00
         0.25867E+01
         0.21559E+01
         0.45097E+01
         0.82322E+01
         0.68675E+01
         0.12716E+02
        -0.19889E+02
        -0.15887E+02
        -0.22476E+02
        -0.18260E+02
        -0.14272E+02
        -0.18324E+02
        -0.35158E+00
         0.27285E+02
         0.57194E+02
         0.41358E+02
        -0.94535E+01
        -0.36385E+02
        -0.13846E+01
        -0.14723E+02
        -0.23451E+02
        -0.27371E+02
        -0.34207E+02
        -0.38632E+02
        -0.18144E+02
        -0.12542E+02
        -0.10356E+02
         0.89907E+01
         0.23982E+02
         0.17521E+02
         0.83503E+01
        -0.23293E+01
         0.87669E+00
         0.24902E+01
         0.35989E+01
         0.13101E+01
         0.32054E+01
         0.58844E+01
         0.25844E+01
         0.12519E+00
        -0.34878E+01
        -0.80287E+01
         0.50066E+01
         0.28886E+01
         0.52434E+01
         0.11723E+01
         0.18669E+01
        -0.38224E+00
        -0.19896E+01
        -0.46040E+01
         0.12392E+01
        -0.21223E+01
         0.15980E+01
         0.64129E+00
         0.39988E+01
         0.20575E+01
        -0.74411E+01
         0.47834E+01
        -0.47743E+01
        -0.93304E+01
        -0.62855E+01
        -0.39304E+01
         0.19394E+01
         0.33735E+01
        -0.11713E+01
        -0.99435E+00
         0.32839E+01
         0.34310E+01
         0.35805E+01
        -0.49337E+00
        -0.43122E+01
        -0.76506E+01
        -0.15901E+02
        -0.85555E+01
        -0.54733E+01
         0.44948E+01
         0.56072E+01
         0.21313E+01
         0.39464E+01
         0.40155E+01
         0.19867E+01
         0.88698E+01
         0.77754E+01
         0.20090E+02
        -0.15289E+02
        -0.60903E+01
        -0.15365E+02
        -0.16470E+02
        -0.15605E+02
        -0.17808E+02
        -0.55685E+01
         0.10562E+01
        -0.10271E+02
        -0.11079E+02
        -0.41796E+02
        -0.11849E+02
        -0.11360E+02
        -0.19432E+02
        -0.21897E+02
        -0.25067E+02
        -0.26447E+02
        -0.32014E+02
        -0.17885E+02
        -0.11183E+02
        -0.70448E+01
        -0.85721E+00
         0.10554E+02
         0.13792E+02
         0.73745E+01
        -0.70826E+01
         0.41123E+00
         0.24259E+01
         0.27473E+01
        -0.93895E-01
         0.15964E+01
         0.30711E+01
         0.26637E+01
         0.55897E+00
        -0.28250E+01
        -0.57642E+01
         0.37575E+01
         0.21653E+01
         0.37015E+01
         0.69256E-02
         0.17667E+01
        -0.20868E+00
        -0.19733E+01
        -0.34426E+01
         0.90518E+00
        -0.24364E+01
         0.20831E+01
        -0.83200E-01
         0.78868E+01
         0.29786E+01
        -0.63697E+01
         0.47149E+01
        -0.27075E+01
        -0.77824E+01
        -0.20825E+01
        -0.39169E+01
         0.31208E+01
         0.44614E+01
        -0.44525E+00
        -0.13088E+01
         0.38379E+01
         0.32734E+01
         0.37778E+01
        -0.14530E+00
        -0.21195E+01
         0.26738E+01
         0.50155E+01
         0.23878E+01
        -0.11768E+01
         0.62581E+01
         0.71247E+01
         0.34254E+01
         0.42879E+01
         0.46585E+01
         0.45112E+01
         0.82952E+01
         0.55616E+01
         0.10388E+02
        -0.17623E+02
        -0.76657E+01
        -0.21674E+02
        -0.24575E+02
        -0.22530E+02
        -0.23305E+02
        -0.19601E+02
        -0.77741E+01
        -0.14400E+02
         0.29684E+02
         0.41593E+02
         0.14134E+02
         0.94928E+01
        -0.51363E+01
        -0.21188E+02
        -0.21222E+02
        -0.24882E+02
        -0.30925E+02
        -0.14916E+02
        -0.10240E+02
        -0.53088E+01
         0.76979E+01
         0.23935E+02
         0.19529E+02
         0.13313E+02
         0.96324E+00
        -0.92878E-01
         0.30355E+01
         0.24186E+01
         0.23845E+00
         0.31992E+01
         0.46569E+01
         0.31263E+01
         0.25141E+00
        -0.26984E+01
        -0.59903E+01
         0.49862E+01
         0.32832E+01
         0.63657E+01
         0.15942E+01
         0.20411E+01
         0.13757E+01
        -0.14384E+01
        -0.23866E+01
         0.18875E+01
        -0.18151E+01
         0.45878E+01
         0.29410E+01
         0.68079E+01
         0.34767E+01
        -0.60623E+01
         0.57820E+01
        -0.29564E+01
        -0.87295E+01
        -0.16729E+01
        -0.45085E+01
         0.48530E+01
         0.44383E+01
         0.83636E+00
         0.34692E+00
         0.17081E+01
         0.26238E+01
         0.30552E+01
         0.12611E+01
         0.15991E+01
         0.40354E+00
         0.28292E+01
        -0.34375E+00
        -0.76883E-01
         0.65423E+01
         0.80506E+01
         0.39631E+01
         0.48512E+01
         0.42141E+01
         0.67617E+01
         0.95540E+01
         0.64404E+01
         0.15950E+02
        -0.17122E+02
        -0.72327E+01
        -0.15905E+02
        -0.19893E+02
        -0.18016E+02
        -0.23899E+02
        -0.21024E+02
        -0.71509E+01
         0.47894E+02
         0.72029E+02
         0.33047E+02
         0.25069E+00
         0.15529E+01
         0.79722E+01
        -0.38608E+01
        -0.15295E+02
        -0.23192E+02
        -0.27282E+02
        -0.13595E+02
        -0.94454E+01
        -0.57398E+01
         0.56058E+01
         0.15544E+02
         0.12436E+02
         0.86355E+01
         0.32148E+00
         0.22172E+01
         0.46464E+01
         0.45605E+01
         0.26198E+01
         0.54332E+01
         0.92780E+01
         0.37246E+01
         0.67204E+00
        -0.12543E+01
        -0.59647E+01
         0.51582E+01
         0.62396E+01
         0.96896E+01
         0.11419E+01
         0.26301E+01
         0.63051E+00
        -0.10828E+01
        -0.20386E+01
         0.12747E+01
        -0.13351E+01
         0.17648E+01
        -0.80631E+00
         0.53501E+01
         0.22878E+01
        -0.33179E+01
         0.41547E+01
        -0.29662E+01
        -0.85198E+01
        -0.69101E+01
        -0.33664E+01
         0.37003E+01
         0.29696E+01
         0.14820E+01
         0.35635E+01
         0.42837E+01
         0.67248E+01
         0.70437E+01
        -0.25268E+01
        -0.70204E+01
        -0.12254E+02
        -0.60111E+01
        -0.11236E+02
        -0.13461E+00
         0.50880E+01
         0.58017E+01
         0.20748E+01
         0.37531E+01
         0.44492E+01
         0.36637E+01
         0.10370E+02
         0.81872E+01
         0.20285E+02
        -0.14642E+02
        -0.55588E+01
        -0.19330E+02
        -0.14464E+02
        -0.10434E+02
        -0.11144E+02
        -0.55795E+01
         0.10889E+02
         0.34323E+02
         0.57198E+02
         0.32865E+02
        -0.28853E+01
         0.95598E+01
        -0.12190E+02
        -0.20337E+02
        -0.27350E+02
        -0.30333E+02
        -0.29894E+02
        -0.15654E+02
        -0.94353E+01
        -0.77963E+01
        -0.18495E+01
         0.95653E+01
         0.12761E+02
         0.44608E+01
        -0.21339E+01
         0.88101E+00
         0.40006E+01
         0.28377E+01
         0.22815E+01
         0.37922E+01
         0.67438E+01
         0.44393E+01
         0.25324E+00
        -0.23656E+01
        -0.79556E+01
         0.40794E+01
         0.50837E+01
         0.80636E+01
         0.13948E+01
         0.18584E+01
        -0.75620E-01
        -0.18901E+01
        -0.16588E+01
         0.58815E-01
        -0.32964E+01
        -0.25957E+00
        -0.44083E+01
         0.15252E+01
         0.15357E+01
        -0.50954E+01
         0.30524E+01
        -0.85213E+00
        -0.54933E+01
        -0.28880E+01
        -0.44472E+01
         0.41859E+01
         0.35572E+01
         0.20592E+01
         0.45842E+01
         0.43439E+01
         0.59941E+01
         0.56568E+01
        -0.39812E+01
        -0.11100E+02
        -0.19864E+02
        -0.99559E+01
        -0.79993E+01
        -0.11121E+02
         0.30775E+01
         0.66203E+01
         0.28420E+01
         0.43103E+01
         0.49661E+01
         0.54974E+01
         0.10924E+02
         0.68583E+01
         0.18204E+02
        -0.16992E+02
        -0.26305E+01
        -0.68544E+01
        -0.38687E+01
        -0.53552E+01
        -0.93210E+01
        -0.10595E+02
        -0.14088E+02
        -0.18251E+02
        -0.13399E+02
        -0.22153E+02
        -0.26135E+02
        -0.17700E+02
        -0.29429E+02
        -0.32849E+02
        -0.29068E+02
        -0.31397E+02
        -0.33225E+02
        -0.16988E+02
        -0.11162E+02
        -0.61950E+01
        -0.23117E+01
         0.60498E+01
         0.86271E+01
         0.24481E+01
        -0.32494E+01
         0.19967E+01
         0.52258E+01
         0.40165E+01
         0.38450E+01
         0.43735E+01
         0.83727E+01
         0.40851E+01
         0.48891E+00
        -0.17091E+01
        -0.41721E+01
         0.51510E+01
         0.64538E+01
         0.95453E+01
         0.11939E+01
         0.24223E+01
         0.69312E+00
        -0.10538E+01
        -0.28756E+00
         0.12028E+01
        -0.12785E+01
         0.84955E+00
        -0.11368E+01
         0.57319E+01
         0.20680E+01
        -0.36495E+01
         0.37795E+01
        -0.33236E+01
        -0.81611E+01
        -0.56809E+01
        -0.34506E+01
         0.53289E+01
         0.30766E+01
         0.35233E+01
         0.83102E+01
         0.73566E+01
         0.74991E+01
         0.69650E+01
        -0.95878E+00
        -0.58355E+01
        -0.13720E+02
        -0.41543E+01
        -0.48120E+01
        -0.97523E+01
         0.37135E+01
         0.59065E+01
         0.46420E+01
         0.42284E+01
         0.66743E+01
         0.60071E+01
         0.12327E+02
         0.81150E+01
         0.23170E+02
        -0.10860E+02
        -0.13239E+02
        -0.10997E+02
        -0.67313E+01
        -0.78990E+01
        -0.10038E+02
        -0.40523E+01
        -0.70070E+01
        -0.63384E+01
        -0.86245E+01
         0.15149E+02
        -0.30766E+01
        -0.18456E+02
        -0.15664E+02
        -0.22928E+02
        -0.26198E+02
        -0.27436E+02
        -0.24864E+02
        -0.97192E+01
        -0.18076E+01
        -0.20915E+01
         0.28300E+01
         0.11756E+02
         0.89203E+01
         0.21347E+01
        -0.34145E+01
         0.37919E+01
         0.45032E+01
         0.58036E+01
         0.10289E+02
         0.96341E+01
         0.23121E+02
         0.35201E+01
         0.77748E+00
        -0.10812E+01
        -0.34644E+01
         0.34560E+01
         0.42846E+01
         0.75512E+01
         0.26482E+01
         0.20261E+01
         0.17624E+01
        -0.76149E+00
         0.10967E+01
         0.16412E+01
        -0.12413E+01
         0.17715E+01
        -0.19060E+01
         0.56203E+01
         0.27616E+01
        -0.46550E+01
         0.51218E+01
        -0.33695E+01
        -0.80626E+01
        -0.67433E+01
        -0.40658E+01
         0.12102E+02
         0.67598E+01
         0.10257E+02
         0.23017E+02
         0.99355E+01
         0.73141E+01
         0.63307E+01
        -0.72184E+00
        -0.68457E+01
        -0.16401E+02
        -0.13783E+02
        -0.80259E+01
        -0.58765E+01
         0.72911E+01
         0.15550E+02
         0.12231E+02
         0.12922E+02
         0.15511E+02
         0.18757E+02
         0.35021E+02
         0.18461E+02
         0.48356E+02
        -0.78051E+01
        -0.29276E+01
        -0.91523E+01
        -0.11678E+02
        -0.13381E+02
        -0.21804E+02
        -0.22673E+02
        -0.23833E+02
        -0.35268E+02
        -0.40935E+02
        -0.23019E+02
        -0.19266E+02
        -0.31081E+02
        -0.11779E+02
        -0.95418E+01
        -0.11055E+02
        -0.10192E+02
        -0.50602E+01
         0.12601E+02
         0.22441E+02
         0.30633E+02
         0.25371E+02
         0.35058E+02
         0.24589E+02
         0.15070E+02
         0.13117E+01
         0.19642E+01
         0.42156E+01
         0.55816E+01
         0.10334E+02
         0.11403E+02
         0.34220E+02
         0.12958E+01
         0.42170E+00
        -0.86777E+00
        -0.40041E+01
         0.20379E+01
        -0.41053E+01
         0.16961E+01
        -0.10046E+01
        -0.28958E+01
         0.91631E+00
        -0.18779E+01
         0.38489E+01
        -0.10522E+01
        -0.47810E+01
         0.82131E+01
         0.10262E+02
         0.14272E+02
         0.21499E+01
        -0.57700E+01
         0.55806E+01
        -0.49241E+01
        -0.10932E+02
        -0.90650E+01
        -0.31773E+01
         0.19171E+02
         0.99911E+01
         0.15174E+02
         0.35717E+02
         0.73833E+01
         0.57982E+01
         0.32467E+01
        -0.13729E+02
        -0.24569E+02
        -0.43628E+02
        -0.25829E+02
        -0.37097E+00
         0.72955E+01
         0.13543E+02
         0.27785E+02
         0.21650E+02
         0.20686E+02
         0.25093E+02
         0.35136E+02
         0.57796E+02
         0.32249E+02
         0.83084E+02
         0.20388E+01
         0.29440E+02
        -0.13251E+02
        -0.22269E+02
        -0.30053E+02
        -0.51100E+02
        -0.56641E+02
        -0.79735E+02
        -0.12325E+03
        -0.14556E+03
        -0.82926E+02
        -0.16970E+02
         0.23462E+02
         0.57400E+02
         0.56217E+02
         0.32070E+02
         0.10950E+02
         0.20829E+02
         0.33961E+02
         0.40040E+02
         0.46301E+02
         0.66380E+02
         0.71441E+02
         0.53802E+02
         0.46649E+02
         0.16775E+02
         0.97639E+01
         0.22477E+01
         0.93227E-01
         0.80599E+01
         0.11227E+02
         0.30422E+02
         0.61649E+01
         0.52781E+01
         0.14068E+02
         0.44387E+02
         0.28410E+01
         0.17908E+01
         0.36020E+01
         0.34249E+01
        -0.14056E+01
         0.19493E+02
         0.10953E+02
         0.12869E+02
         0.21496E+02
         0.19868E+02
         0.51857E+02
         0.88852E+02
         0.77068E+02
         0.21996E+02
         0.77236E+01
         0.31941E+02
         0.80061E+01
         0.24868E+02
         0.39650E+02
         0.18412E+02
         0.29602E+02
         0.19316E+02
         0.13800E+02
         0.28725E+02
         0.47788E+01
        -0.18045E+01
        -0.20077E+01
        -0.49829E+01
         0.53533E+01
         0.51841E+02
         0.50963E+02
         0.76342E+02
         0.10112E+03
         0.45504E+02
         0.53826E+02
         0.22138E+02
         0.21048E+02
         0.23193E+02
         0.29918E+02
         0.35513E+02
         0.17402E+02
         0.62704E+02
         0.20225E+02
         0.64563E+02
        -0.13239E+02
        -0.23726E+02
        -0.22309E+02
        -0.26938E+02
        -0.43590E+02
        -0.48203E+02
        -0.44159E+02
         0.20129E+01
         0.67230E+02
         0.14919E+03
         0.20169E+03
         0.20744E+03
         0.15490E+03
         0.83231E+02
         0.31670E+02
         0.36038E+02
         0.30921E+02
         0.17980E+02
         0.55428E+01
        -0.22751E+02
         0.22815E+01
         0.29799E+02
         0.54636E+02
         0.59360E+02
        -0.39620E+02
        -0.83557E+00
        -0.18245E+01
        -0.38202E+02
        -0.11344E+02
        -0.74912E+02
        -0.22421E+00
        -0.18455E+02
        -0.55689E+02
        -0.16809E+03
         0.10655E+02
         0.18454E+02
         0.24995E+02
        -0.15156E+02
         0.87903E+01
        -0.34194E+02
        -0.45905E+02
        -0.38104E+02
        -0.59414E+02
        -0.72962E+02
        -0.14133E+03
        -0.24349E+03
        -0.22394E+03
        -0.59045E+02
        -0.85474E+02
        -0.68292E+02
        -0.56083E+02
        -0.10093E+03
        -0.10762E+03
        -0.68847E+02
        -0.68412E+02
        -0.52854E+02
        -0.44824E+02
        -0.10671E+03
         0.18033E+02
         0.16633E+02
         0.16866E+02
        -0.30668E+01
        -0.27355E+02
        -0.11873E+03
        -0.10643E+03
        -0.20293E+03
        -0.27682E+03
        -0.13269E+03
        -0.20705E+03
        -0.13629E+03
        -0.11022E+03
        -0.11074E+03
        -0.12829E+03
        -0.17974E+03
        -0.94387E+02
        -0.19553E+03
         0.46861E+02
         0.20629E+01
         0.54429E+02
         0.39743E+02
         0.31343E+02
         0.37928E+02
         0.73593E+02
         0.13296E+03
         0.21006E+03
         0.15070E+03
        -0.90604E+02
        -0.40422E+03
        -0.67440E+03
        -0.78958E+03
        -0.71354E+03
        -0.54714E+03
        -0.46756E+03
        -0.48002E+03
        -0.36044E+03
        -0.36077E+03
        -0.40498E+03
        -0.44025E+03
        -0.36687E+03
        -0.19643E+03
        -0.10555E+03
  
SCALARS                     velocity_y  double 1
LOOKUP_TABLE default
        -0.14913E+03
         0.96396E+02
        -0.18014E+02
        -0.10695E+03
        -0.23770E+03
         0.14807E+02
        -0.23420E+03
        -0.31741E+03
         0.30174E+03
         0.21467E+03
         0.83026E+02
         0.19666E+03
         0.18373E+03
         0.16471E+03
         0.18505E+03
         0.27446E+03
         0.43882E+02
         0.68991E+01
         0.10551E+03
         0.71404E+01
         0.39077E+03
         0.25225E+03
         0.20051E+03
         0.50363E+03
         0.44854E+03
         0.35202E+03
         0.96552E+02
         0.13822E+03
         0.74549E+02
         0.19874E+03
        -0.14545E+02
        -0.53965E+02
         0.30763E+02
        -0.25232E+02
        -0.14864E+03
         0.73058E+02
        -0.10890E+02
        -0.47902E+02
        -0.36263E+02
        -0.10670E+03
         0.16511E+03
         0.29033E+03
         0.19803E+03
         0.42184E+03
         0.94950E+01
        -0.43934E+02
         0.15422E+01
        -0.40929E+02
        -0.53705E+02
        -0.57079E+02
         0.48027E+01
         0.79474E+02
        -0.34067E+02
        -0.86347E+02
        -0.81238E+02
        -0.21126E+03
        -0.52105E+02
         0.11417E+03
        -0.14276E+03
         0.14523E+03
        -0.42500E+02
         0.13625E+03
         0.46808E+02
         0.39887E+03
        -0.13653E+03
        -0.35702E+03
         0.17368E+03
         0.34425E+02
         0.43015E+03
         0.22462E+03
         0.61746E+03
         0.26242E+03
         0.13638E+03
         0.17270E+03
        -0.37737E+03
        -0.68192E+03
        -0.67748E+03
        -0.15759E+04
        -0.62576E+03
        -0.13580E+04
        -0.88392E+03
        -0.12806E+03
        -0.11216E+04
        -0.10098E+03
         0.28986E+03
         0.42508E+03
        -0.13131E+03
        -0.20381E+03
        -0.66338E+02
        -0.42989E+01
         0.15770E+03
         0.15046E+03
         0.44020E+03
         0.34933E+03
         0.33249E+02
        -0.14774E+03
         0.17149E+03
        -0.12042E+03
         0.31216E+03
         0.12398E+03
         0.52733E+03
         0.31044E+03
         0.68095E+03
         0.31580E+03
         0.13053E+04
         0.13683E+04
         0.26081E+04
         0.24334E+04
         0.55451E+03
         0.89617E+03
         0.93384E+02
         0.49037E+02
        -0.63677E+02
        -0.26071E+03
         0.52748E+02
         0.15775E+02
         0.67447E+02
         0.54245E+03
         0.44236E+02
         0.12152E+04
         0.14314E+04
         0.63021E+04
         0.89557E+03
         0.58101E+04
        -0.26574E+04
        -0.40560E+04
        -0.29339E+04
        -0.42577E+04
        -0.16062E+04
        -0.24754E+04
        -0.10866E+04
        -0.14981E+04
        -0.80031E+03
        -0.11699E+04
        -0.70624E+03
        -0.11537E+04
        -0.77248E+03
        -0.15079E+04
        -0.87102E+03
        -0.20208E+04
        -0.29311E+03
        -0.70857E+03
         0.25886E+03
        -0.28230E+02
         0.23609E+03
         0.14446E+03
         0.70574E+03
         0.11320E+04
         0.53073E+03
         0.17637E+04
         0.63184E+03
         0.27099E+04
         0.11306E+04
         0.29354E+04
         0.13542E+04
         0.26418E+04
        -0.18823E+01
         0.41344E+02
         0.17165E+03
         0.12375E+03
         0.26723E+03
         0.28110E+03
         0.10967E+03
         0.52064E+02
        -0.42028E+02
         0.18196E+02
         0.21162E+03
         0.24053E+03
         0.21415E+03
         0.71586E+02
         0.35152E+02
        -0.70426E+02
        -0.59967E+02
        -0.37133E+02
        -0.59797E+01
         0.86643E+02
         0.21597E+03
         0.40095E+03
        -0.81993E+02
        -0.20313E+03
        -0.49890E+02
        -0.19260E+03
         0.53554E+02
         0.11741E+03
         0.19284E+03
         0.14794E+03
         0.98457E+02
        -0.10055E+03
         0.29854E+03
         0.53738E+03
         0.28780E+03
         0.20830E+03
         0.15329E+03
        -0.12479E+03
        -0.24060E+03
        -0.31685E+03
        -0.92681E+03
        -0.56278E+02
         0.36555E+03
        -0.17300E+03
        -0.17178E+03
        -0.12488E+03
         0.13087E+03
         0.34969E+03
         0.50313E+03
         0.59908E+03
         0.44147E+03
         0.32924E+03
         0.50145E+03
         0.46209E+03
         0.18022E+03
         0.50401E+02
         0.17165E+03
         0.30087E+03
         0.97824E+02
        -0.44156E+03
        -0.43117E+03
        -0.13652E+04
        -0.37282E+04
        -0.34897E+04
        -0.21769E+04
        -0.14530E+04
        -0.93911E+03
        -0.69000E+03
        -0.47221E+03
        -0.72611E+02
         0.17567E+03
         0.75339E+03
         0.74666E+03
         0.52937E+03
        -0.13632E+04
        -0.24363E+04
        -0.13922E+04
         0.12713E+03
         0.78054E+02
         0.71380E+02
         0.22942E+03
         0.24592E+03
         0.11249E+03
         0.19455E+03
         0.29402E+02
         0.21546E+02
         0.26542E+02
         0.36303E+02
         0.51558E+02
         0.13100E+03
         0.12028E+03
         0.89315E+02
         0.12707E+03
         0.11632E+01
         0.39951E+02
         0.64836E+02
         0.44588E+02
         0.14234E+03
         0.19009E+03
         0.31739E+03
         0.49151E+02
        -0.45917E+02
         0.86729E+02
        -0.10739E+03
         0.13959E+03
         0.22908E+03
         0.22504E+03
         0.19053E+03
         0.12521E+03
        -0.54095E+02
         0.35220E+03
         0.40861E+03
        -0.23987E+02
         0.10087E+03
         0.11095E+03
         0.11950E+03
         0.12010E+03
         0.31387E+02
        -0.43455E+03
         0.10676E+03
         0.35398E+03
        -0.33954E+02
        -0.15260E+02
         0.48037E+02
         0.15763E+03
         0.37577E+03
         0.31342E+03
         0.40026E+03
        -0.60195E+02
         0.16699E+03
        -0.72347E+03
        -0.10883E+04
        -0.22765E+03
         0.48315E+02
         0.26098E+03
         0.37151E+03
         0.13086E+03
        -0.49979E+02
        -0.63615E+03
        -0.18228E+04
        -0.28582E+04
        -0.23282E+04
        -0.17143E+04
        -0.11438E+04
        -0.53807E+03
        -0.11004E+02
         0.38997E+03
         0.56429E+03
         0.40996E+03
         0.84744E+03
         0.81072E+03
        -0.16419E+02
        -0.21060E+04
        -0.27101E+04
        -0.24119E+04
        -0.16435E+04
         0.33200E+02
         0.15807E+02
         0.62979E+02
         0.10031E+03
         0.30177E+02
         0.98884E+02
        -0.57053E+00
         0.34348E+02
         0.50045E+02
         0.85152E+02
         0.32105E+02
         0.81521E+02
         0.33762E+02
         0.89149E+02
         0.12623E+03
         0.26552E+02
         0.58171E+02
         0.37068E+02
         0.65543E+02
         0.12094E+03
         0.19201E+03
         0.30733E+03
         0.80921E+02
         0.45492E+02
         0.13844E+03
         0.66344E+01
         0.17301E+03
         0.20969E+03
         0.21515E+03
         0.21459E+03
         0.78389E+02
         0.12860E+02
         0.15009E+03
         0.18386E+03
        -0.16882E+02
         0.33651E+02
         0.32061E+02
         0.17327E+03
         0.16079E+03
         0.10442E+03
        -0.24108E+03
         0.76688E+02
         0.36696E+03
         0.29496E+02
         0.23118E+02
         0.37404E+02
         0.73663E+02
         0.11882E+03
         0.14228E+03
         0.18612E+03
         0.10231E+03
         0.82195E+02
        -0.47242E+03
        -0.64548E+03
        -0.15660E+03
         0.44499E+02
         0.18354E+03
         0.24214E+03
         0.19921E+03
         0.76688E+02
        -0.51080E+03
        -0.15786E+04
        -0.19162E+04
        -0.12853E+04
        -0.13291E+04
        -0.79379E+03
        -0.40520E+03
        -0.74261E+02
         0.16820E+03
         0.23712E+03
         0.12794E+03
         0.17962E+03
         0.23110E+03
         0.69314E+02
        -0.56694E+03
        -0.17596E+04
        -0.15487E+04
        -0.81436E+03
         0.11653E+02
         0.27951E+01
         0.46693E+01
         0.11418E+01
         0.15460E+02
         0.16893E+02
        -0.28927E+00
         0.42134E+02
         0.27054E+02
         0.71761E+02
         0.56692E+02
         0.53008E+02
         0.91728E+01
         0.99274E+02
         0.13031E+03
         0.19448E+02
         0.45934E+02
        -0.10905E+01
         0.55134E+02
         0.81459E+02
         0.13228E+03
         0.21090E+03
         0.62103E+02
         0.51952E+02
         0.10646E+03
         0.27105E+02
         0.13249E+03
         0.22255E+03
         0.27239E+03
         0.12482E+03
        -0.68966E+01
         0.11391E+02
        -0.22581E+02
        -0.31230E+01
         0.28212E+02
         0.10195E+02
         0.27296E+01
         0.20524E+03
         0.22406E+03
         0.19121E+03
        -0.10064E+03
         0.16094E+03
         0.23615E+03
         0.31687E+02
         0.97152E+01
        -0.86141E+01
        -0.12722E+02
        -0.21819E+02
         0.30516E+01
         0.24700E+02
         0.77113E+02
         0.35043E+02
         0.25399E+02
        -0.48970E+01
         0.48200E+02
         0.56997E+02
         0.10497E+03
         0.17901E+03
         0.18904E+03
         0.19009E+03
        -0.22964E+03
        -0.11181E+04
        -0.16656E+04
        -0.14891E+04
        -0.80988E+03
        -0.48357E+03
        -0.24345E+03
        -0.92439E+02
        -0.27404E+02
        -0.19299E+02
        -0.52648E+02
        -0.71133E+02
         0.97615E+01
         0.98784E+02
         0.26351E+03
         0.25280E+03
         0.13137E+03
         0.57624E+02
         0.52581E+00
        -0.11831E+02
        -0.18066E+02
        -0.18663E+02
        -0.29097E+01
        -0.11559E+02
         0.11877E+01
         0.18317E+02
         0.10954E+02
         0.36272E+02
         0.25882E+02
         0.21655E+02
         0.32765E+00
         0.43574E+02
         0.58966E+02
         0.33933E+01
         0.25513E+02
        -0.14103E+02
         0.23007E+02
         0.37188E+02
         0.53357E+02
         0.91975E+02
         0.21946E+02
         0.17412E+02
         0.57658E+02
         0.57576E+01
         0.71941E+02
         0.11780E+03
         0.13063E+03
         0.64165E+02
        -0.31426E+02
        -0.13021E+02
        -0.44968E+02
        -0.38627E+02
         0.16308E+02
        -0.45043E+01
        -0.54861E+01
         0.12029E+03
         0.14792E+03
         0.14310E+03
         0.18923E+02
         0.72171E+02
         0.14059E+03
         0.52514E+01
        -0.42419E+01
        -0.11883E+02
        -0.27356E+02
        -0.39242E+02
        -0.28763E+02
        -0.21047E+02
         0.36774E+02
         0.91913E+00
         0.10196E+03
         0.13910E+03
         0.53833E+02
         0.29848E+02
         0.32188E+02
         0.85536E+02
         0.18959E+03
         0.17029E+03
        -0.15492E+03
        -0.72011E+03
        -0.11535E+04
        -0.92954E+03
        -0.44482E+03
        -0.21127E+03
        -0.62168E+02
         0.21384E+00
         0.99393E+01
         0.12644E+01
        -0.20657E+02
        -0.39993E+02
        -0.34096E+02
         0.46894E+02
         0.20085E+03
         0.32996E+03
         0.24575E+03
         0.15296E+03
        -0.52671E+01
        -0.74086E+01
        -0.16673E+02
        -0.13226E+02
        -0.64181E+01
        -0.10864E+02
        -0.14207E+01
         0.33939E+01
         0.34070E+01
         0.13609E+02
         0.31458E+01
         0.62337E+01
        -0.33799E+01
         0.14960E+02
         0.22157E+02
        -0.20648E+01
         0.84096E+01
        -0.73532E+01
         0.47798E+01
         0.99335E+01
         0.57365E+01
         0.19132E+02
        -0.64099E+00
        -0.24110E+01
         0.19970E+02
        -0.67184E+01
         0.31075E+02
         0.52424E+02
         0.61804E+02
         0.19713E+02
        -0.17832E+02
        -0.13783E+02
        -0.24047E+02
        -0.22016E+02
        -0.80940E+01
        -0.87845E+01
        -0.59927E+01
         0.63144E+02
         0.81148E+02
         0.61793E+02
        -0.33286E+02
         0.34645E+02
         0.36359E+02
        -0.78865E+01
        -0.97262E+01
        -0.14421E+02
        -0.17637E+02
        -0.22053E+02
        -0.18158E+02
        -0.18598E+02
        -0.27470E+01
        -0.13794E+02
         0.29114E+02
         0.62065E+02
         0.23360E+02
         0.16221E+02
         0.14555E+02
         0.28141E+02
         0.93728E+02
         0.85629E+02
        -0.28098E+02
        -0.31990E+03
        -0.50759E+03
        -0.32337E+03
        -0.15917E+03
        -0.45618E+02
         0.12995E+02
         0.30983E+02
         0.32630E+02
         0.31268E+02
         0.12483E+02
        -0.12051E+02
        -0.18113E+02
         0.91702E+01
         0.50041E+02
         0.10303E+03
         0.88279E+02
         0.61665E+02
        -0.52771E+01
        -0.78887E+01
        -0.11262E+02
        -0.84853E+01
        -0.67770E+01
        -0.79178E+01
        -0.51097E+01
        -0.87268E+00
         0.86844E-02
         0.35292E+01
        -0.91262E+01
        -0.83396E+00
        -0.53920E+01
        -0.32520E+01
         0.10245E+01
        -0.33856E+01
         0.12642E+01
        -0.40867E+01
        -0.16796E+01
         0.77951E+00
        -0.20308E+01
        -0.12895E+02
        -0.60179E+01
        -0.89883E+01
         0.49119E+01
        -0.90050E+01
         0.40724E+01
         0.27646E+01
         0.63496E+01
         0.58239E+01
        -0.10613E+02
        -0.11676E+02
        -0.11652E+02
        -0.12903E+02
        -0.42790E+01
        -0.66774E+01
        -0.57526E+01
         0.93169E+01
         0.10794E+02
         0.29927E+00
        -0.12620E+02
        -0.12794E+02
        -0.73927E+01
        -0.71216E+01
        -0.68159E+01
        -0.89129E+01
        -0.10567E+02
        -0.10427E+02
        -0.81755E+01
        -0.90903E+01
        -0.21153E+01
        -0.82569E+01
         0.22745E+02
         0.51032E+02
         0.21394E+02
         0.16866E+02
         0.10233E+02
         0.17760E+02
         0.35891E+02
         0.47197E+02
         0.36029E+02
        -0.38694E+02
        -0.74147E+02
        -0.27306E+02
         0.94842E+01
         0.30925E+02
         0.32600E+02
         0.40939E+02
         0.37697E+02
         0.27958E+02
         0.15586E+02
        -0.86523E-02
        -0.16186E+01
         0.72741E+01
         0.18352E+02
         0.51728E+02
         0.59309E+02
         0.52527E+02
        -0.62750E+01
        -0.56839E+01
        -0.14141E+02
        -0.88557E+01
        -0.61120E+01
        -0.76744E+01
        -0.56025E+01
        -0.24829E+01
        -0.14140E+01
        -0.13133E+01
        -0.10702E+02
        -0.82856E+01
        -0.65850E+01
        -0.56613E+01
        -0.89863E+01
        -0.27440E+01
        -0.24198E+01
        -0.36391E+01
        -0.47728E+01
        -0.72496E+01
        -0.13293E+02
        -0.26558E+02
        -0.45063E+01
        -0.45507E+01
        -0.31257E+01
        -0.54915E+01
        -0.51309E+01
        -0.92579E+01
        -0.15560E+02
        -0.11843E+02
        -0.93795E+01
        -0.86566E+01
        -0.10755E+02
        -0.94815E+01
        -0.56056E+01
        -0.64517E+01
        -0.53814E+01
        -0.95156E+01
        -0.11270E+02
        -0.14781E+02
        -0.57993E+01
        -0.18284E+02
        -0.29624E+02
        -0.26847E+01
        -0.38691E+01
        -0.69126E+01
        -0.83755E+01
        -0.84503E+01
        -0.53877E+01
        -0.38333E+01
         0.38921E+01
        -0.36474E+01
         0.23795E+02
         0.47713E+02
         0.17778E+02
         0.17405E+02
         0.85282E+01
         0.46370E+01
         0.10763E+02
         0.33368E+02
         0.38105E+02
         0.43449E+02
         0.83574E+02
         0.93920E+02
         0.85622E+02
         0.51791E+02
         0.24764E+02
         0.27750E+02
         0.24438E+02
         0.21331E+02
         0.12663E+02
        -0.37365E+00
         0.88141E+00
         0.90278E+01
         0.32534E+02
         0.52926E+02
         0.57053E+02
         0.58411E+02
        -0.50054E+01
        -0.70225E+01
        -0.11125E+02
        -0.86009E+01
        -0.45590E+01
        -0.58262E+01
        -0.54388E+01
        -0.37887E+01
        -0.25814E+01
        -0.32205E+01
        -0.12324E+02
        -0.92434E+01
        -0.67843E+01
        -0.10542E+02
        -0.12821E+02
        -0.31891E+01
        -0.28039E+01
        -0.32867E+01
        -0.60230E+01
        -0.83156E+01
        -0.16279E+02
        -0.27290E+02
        -0.90609E+01
        -0.96279E+01
        -0.77172E+01
        -0.62412E+01
        -0.95624E+01
        -0.15706E+02
        -0.26963E+02
        -0.15656E+02
        -0.86833E+01
        -0.78329E+01
        -0.10113E+02
        -0.11259E+02
        -0.42883E+01
        -0.47859E+01
        -0.48013E+01
        -0.13416E+02
        -0.16412E+02
        -0.22563E+02
        -0.11451E+02
        -0.30118E+02
        -0.43126E+02
        -0.81053E+01
        -0.84447E+01
        -0.11705E+02
        -0.10542E+02
        -0.83135E+01
        -0.10221E+02
        -0.72169E+01
         0.60461E+01
        -0.40131E+01
         0.24571E+02
         0.43422E+02
         0.18665E+02
         0.16698E+02
         0.51034E+01
        -0.29350E+01
         0.67962E+01
         0.15259E+02
         0.45217E+02
         0.86508E+02
         0.15749E+03
         0.17546E+03
         0.10917E+03
         0.67938E+02
         0.46340E+02
         0.34118E+02
         0.19958E+02
         0.13331E+02
        -0.44114E+00
        -0.58595E+01
        -0.40244E+01
         0.16514E+02
         0.48690E+02
         0.80866E+02
         0.67372E+02
         0.49384E+02
        -0.70660E+01
        -0.79046E+01
        -0.14606E+02
        -0.11988E+02
        -0.78878E+01
        -0.95460E+01
        -0.55981E+01
        -0.43041E+01
        -0.21783E+01
        -0.43131E+01
        -0.13684E+02
        -0.97543E+01
        -0.70095E+01
        -0.10322E+02
        -0.16861E+02
        -0.50326E+01
        -0.40516E+01
        -0.46350E+01
        -0.11179E+02
        -0.14347E+02
        -0.30072E+02
        -0.45995E+02
        -0.14969E+02
        -0.15641E+02
        -0.89158E+01
        -0.11890E+02
        -0.10522E+02
        -0.16541E+02
        -0.26735E+02
        -0.22437E+02
        -0.13357E+02
        -0.13037E+02
        -0.15121E+02
        -0.16870E+02
        -0.84978E+01
        -0.87039E+01
        -0.65980E+01
        -0.21915E+02
        -0.28338E+02
        -0.36346E+02
        -0.16149E+02
        -0.31190E+02
        -0.59350E+02
        -0.11966E+02
        -0.96709E+01
        -0.13523E+02
        -0.15274E+02
        -0.14955E+02
        -0.11463E+02
        -0.13823E+02
        -0.19289E+01
        -0.10940E+02
         0.40991E+02
         0.73222E+02
         0.28192E+02
         0.23623E+02
         0.10190E+02
         0.20551E+01
        -0.34147E+01
         0.16053E+02
         0.54987E+02
         0.10744E+03
         0.17074E+03
         0.15078E+03
         0.18264E+03
         0.11972E+03
         0.86525E+02
         0.63481E+02
         0.45470E+02
         0.35891E+02
         0.11431E+02
        -0.74939E+01
        -0.18653E+01
         0.19215E+02
         0.62490E+02
         0.10804E+03
         0.97192E+02
         0.86775E+02
        -0.65536E+01
        -0.95119E+01
        -0.14665E+02
        -0.11200E+02
        -0.73457E+01
        -0.98171E+01
        -0.49086E+01
        -0.54719E+01
        -0.25064E+01
        -0.58602E+01
        -0.16164E+02
        -0.10951E+02
        -0.86021E+01
        -0.14766E+02
        -0.20820E+02
        -0.53662E+01
        -0.55397E+01
        -0.45739E+01
        -0.97805E+01
        -0.13557E+02
        -0.25729E+02
        -0.43932E+02
        -0.11859E+02
        -0.13810E+02
        -0.11648E+02
        -0.10767E+02
        -0.14361E+02
        -0.21837E+02
        -0.32372E+02
        -0.19501E+02
        -0.11268E+02
        -0.93906E+01
        -0.14944E+02
        -0.16619E+02
        -0.79178E+00
        -0.65916E+01
        -0.59736E+01
        -0.22973E+02
        -0.32220E+02
        -0.38392E+02
        -0.18472E+02
        -0.32973E+02
        -0.59947E+02
        -0.90733E+01
        -0.76519E+01
        -0.11933E+02
        -0.16307E+02
        -0.15286E+02
        -0.14276E+02
        -0.14775E+02
        -0.75563E+00
        -0.95653E+01
         0.36048E+02
         0.68436E+02
         0.33106E+02
         0.27254E+02
         0.16867E+02
         0.68408E-01
        -0.31630E+01
         0.36766E+01
         0.52736E+02
         0.14796E+03
         0.26532E+03
         0.23994E+03
         0.18988E+03
         0.11698E+03
         0.70414E+02
         0.53447E+02
         0.38681E+02
         0.31424E+02
         0.14605E+02
        -0.55932E-01
        -0.41145E+00
         0.26726E+02
         0.62264E+02
         0.90248E+02
         0.93421E+02
         0.82032E+02
        -0.89984E+01
        -0.10415E+02
        -0.19314E+02
        -0.13548E+02
        -0.76411E+01
        -0.13680E+02
        -0.66271E+01
        -0.66895E+01
        -0.29354E+01
        -0.60577E+01
        -0.21070E+02
        -0.14188E+02
        -0.10429E+02
        -0.15047E+02
        -0.21851E+02
        -0.43308E+01
        -0.45862E+01
        -0.41254E+01
        -0.88024E+01
        -0.13662E+02
        -0.24266E+02
        -0.45509E+02
        -0.12737E+02
        -0.12742E+02
        -0.13003E+02
        -0.11395E+02
        -0.14879E+02
        -0.27587E+02
        -0.45480E+02
        -0.24743E+02
        -0.12769E+02
        -0.13028E+02
        -0.15755E+02
        -0.17470E+02
        -0.68649E+01
        -0.11481E+02
        -0.91930E+01
        -0.26733E+02
        -0.40151E+02
        -0.49948E+02
        -0.55961E+01
        -0.37802E+02
        -0.67440E+02
        -0.10340E+02
        -0.85608E+01
        -0.88108E+01
        -0.11970E+02
        -0.14697E+02
        -0.11779E+02
        -0.11805E+02
         0.22184E+01
        -0.11106E+02
         0.43623E+02
         0.66435E+02
         0.32723E+02
         0.19992E+02
         0.30903E+01
        -0.69740E+01
        -0.18309E+02
        -0.46615E+01
         0.56476E+02
         0.16621E+03
         0.32122E+03
         0.25167E+03
         0.20872E+03
         0.11895E+03
         0.77021E+02
         0.57724E+02
         0.38296E+02
         0.29201E+02
         0.16997E+02
         0.18882E+01
         0.42300E+01
         0.28552E+02
         0.65932E+02
         0.89741E+02
         0.85083E+02
         0.75200E+02
        -0.79893E+01
        -0.91488E+01
        -0.18475E+02
        -0.13777E+02
        -0.82216E+01
        -0.10927E+02
        -0.58787E+01
        -0.56014E+01
        -0.28579E+01
        -0.62973E+01
        -0.17319E+02
        -0.12931E+02
        -0.10210E+02
        -0.14779E+02
        -0.22890E+02
        -0.44573E+01
        -0.50909E+01
        -0.48798E+01
        -0.89123E+01
        -0.13109E+02
        -0.28670E+02
        -0.50761E+02
        -0.13756E+02
        -0.10800E+02
        -0.11093E+02
        -0.87072E+01
        -0.13628E+02
        -0.24688E+02
        -0.45595E+02
        -0.23701E+02
        -0.13329E+02
        -0.11752E+02
        -0.15861E+02
        -0.16624E+02
        -0.54701E+01
        -0.93292E+01
        -0.88690E+01
        -0.32328E+02
        -0.42059E+02
        -0.56098E+02
        -0.20256E+02
        -0.54009E+02
        -0.71374E+02
        -0.99727E+01
        -0.72531E+01
        -0.85920E+01
        -0.11697E+02
        -0.11864E+02
        -0.11957E+02
        -0.88834E+01
         0.78511E+01
        -0.69255E+01
         0.41903E+02
         0.71430E+02
         0.26083E+02
         0.13944E+02
         0.17405E+01
        -0.78813E+01
        -0.18584E+02
        -0.35049E+00
         0.76463E+02
         0.16180E+03
         0.31394E+03
         0.30532E+03
         0.20835E+03
         0.10376E+03
         0.73112E+02
         0.50544E+02
         0.33843E+02
         0.29957E+02
         0.15034E+02
         0.77648E+00
         0.53459E+01
         0.24920E+02
         0.61536E+02
         0.98747E+02
         0.10064E+03
         0.91131E+02
        -0.48832E+01
        -0.80359E+01
        -0.13773E+02
        -0.97162E+01
        -0.84590E+01
        -0.12193E+02
        -0.43569E+01
        -0.53944E+01
        -0.27770E+01
        -0.55779E+01
        -0.19414E+02
        -0.11450E+02
        -0.58627E+01
        -0.14060E+02
        -0.20370E+02
        -0.43343E+01
        -0.55257E+01
        -0.57300E+01
        -0.65657E+01
        -0.13087E+02
        -0.23021E+02
        -0.40894E+02
        -0.10384E+02
        -0.11029E+02
        -0.11916E+02
        -0.10935E+02
        -0.14483E+02
        -0.21755E+02
        -0.31754E+02
        -0.25582E+02
        -0.13987E+02
        -0.12371E+02
        -0.16450E+02
        -0.14961E+02
        -0.79779E+01
        -0.81295E+01
        -0.51862E+01
        -0.27352E+02
        -0.40005E+02
        -0.45777E+02
        -0.11071E+02
        -0.33761E+02
        -0.57770E+02
        -0.95082E+01
        -0.76827E+01
        -0.95342E+01
        -0.14173E+02
        -0.14177E+02
        -0.81969E+01
        -0.10962E+02
        -0.54918E+00
        -0.10688E+02
         0.34147E+02
         0.66833E+02
         0.19770E+02
         0.13628E+02
         0.11123E+01
        -0.97661E+01
        -0.16398E+02
         0.20570E+01
         0.55644E+02
         0.16347E+03
         0.26948E+03
         0.23246E+03
         0.20651E+03
         0.10973E+03
         0.66113E+02
         0.44150E+02
         0.24576E+02
         0.22669E+02
         0.16076E+02
         0.28945E+01
         0.71235E+01
         0.20500E+02
         0.54859E+02
         0.84405E+02
         0.93504E+02
         0.88807E+02
        -0.57834E+01
        -0.59035E+01
        -0.12821E+02
        -0.10564E+02
        -0.88852E+01
        -0.11818E+02
        -0.54535E+01
        -0.49469E+01
        -0.24975E+01
        -0.52258E+01
        -0.18005E+02
        -0.85039E+01
        -0.47245E+01
        -0.14337E+02
        -0.21426E+02
        -0.43583E+01
        -0.35554E+01
        -0.50492E+01
        -0.57531E+01
        -0.10704E+02
        -0.22569E+02
        -0.43452E+02
        -0.13263E+02
        -0.14742E+02
        -0.10368E+02
        -0.10939E+02
        -0.13871E+02
        -0.22070E+02
        -0.40753E+02
        -0.25531E+02
        -0.13483E+02
        -0.12711E+02
        -0.16627E+02
        -0.16542E+02
        -0.47842E+01
        -0.86410E+01
        -0.56600E+01
        -0.28609E+02
        -0.35203E+02
        -0.45082E+02
        -0.20949E+02
        -0.47399E+02
        -0.61156E+02
        -0.12450E+02
        -0.98228E+01
        -0.10636E+02
        -0.12867E+02
        -0.12645E+02
        -0.11828E+02
        -0.11319E+02
        -0.18155E+00
        -0.10415E+02
         0.34739E+02
         0.69000E+02
         0.18350E+02
         0.17970E+02
         0.62186E+01
        -0.63135E+01
        -0.16339E+02
         0.66620E+01
         0.54862E+02
         0.14942E+03
         0.27959E+03
         0.28390E+03
         0.19973E+03
         0.10946E+03
         0.58334E+02
         0.43011E+02
         0.26845E+02
         0.23647E+02
         0.15441E+02
         0.46339E+01
         0.95655E+01
         0.24425E+02
         0.46476E+02
         0.78857E+02
         0.73812E+02
         0.64976E+02
        -0.66250E+01
        -0.71944E+01
        -0.92665E+01
        -0.70124E+01
        -0.32809E+01
        -0.60020E+01
        -0.57461E+01
        -0.58822E+01
        -0.36099E+01
        -0.60463E+01
        -0.18766E+02
        -0.12181E+02
        -0.65724E+01
        -0.13255E+02
        -0.21723E+02
        -0.62046E+01
        -0.51992E+01
        -0.50672E+01
        -0.97879E+01
        -0.13947E+02
        -0.27633E+02
        -0.44672E+02
        -0.11515E+02
        -0.15319E+02
        -0.12721E+02
        -0.14131E+02
        -0.15512E+02
        -0.24442E+02
        -0.39727E+02
        -0.23296E+02
        -0.12523E+02
        -0.14776E+02
        -0.13282E+02
        -0.88055E+01
        -0.15236E+01
        -0.44573E+01
        -0.32352E+01
        -0.20758E+02
        -0.29059E+02
        -0.48639E+02
        -0.21333E+02
        -0.39435E+02
        -0.59122E+02
        -0.11662E+02
        -0.92806E+01
        -0.10566E+02
        -0.11488E+02
        -0.99920E+01
        -0.69247E+01
        -0.43173E+01
         0.37237E+01
        -0.37807E+01
         0.36154E+02
         0.61028E+02
         0.16734E+02
         0.14831E+02
         0.36254E+01
        -0.77983E+01
        -0.10249E+02
        -0.66876E+01
         0.48883E+02
         0.15296E+03
         0.25480E+03
         0.25186E+03
         0.17011E+03
         0.11151E+03
         0.64522E+02
         0.51219E+02
         0.31714E+02
         0.25066E+02
         0.15957E+02
         0.44665E+01
         0.77786E+01
         0.26788E+02
         0.51776E+02
         0.72162E+02
         0.74613E+02
         0.68446E+02
        -0.64101E+01
        -0.70404E+01
        -0.13166E+02
        -0.77256E+01
        -0.44430E+01
        -0.52864E+01
        -0.51763E+01
        -0.42894E+01
        -0.22119E+01
        -0.54356E+01
        -0.17777E+02
        -0.12105E+02
        -0.85790E+01
        -0.13620E+02
        -0.22456E+02
        -0.47367E+01
        -0.48597E+01
        -0.32905E+01
        -0.97009E+01
        -0.14294E+02
        -0.24918E+02
        -0.42857E+02
        -0.11931E+02
        -0.15736E+02
        -0.10152E+02
        -0.98901E+01
        -0.14072E+02
        -0.23248E+02
        -0.34578E+02
        -0.23294E+02
        -0.97893E+01
        -0.89148E+01
        -0.10038E+02
        -0.84738E+01
        -0.40289E+01
        -0.74404E+01
        -0.68082E+01
        -0.30073E+02
        -0.42184E+02
        -0.49643E+02
        -0.21503E+02
        -0.45003E+02
        -0.54307E+02
        -0.11035E+02
        -0.92853E+01
        -0.80936E+01
        -0.95261E+01
        -0.82618E+01
        -0.63150E+01
        -0.51417E+01
         0.53590E+01
        -0.48002E+01
         0.32920E+02
         0.48922E+02
         0.23051E+02
         0.15735E+02
         0.56255E+00
        -0.65320E+01
        -0.16771E+02
         0.33312E+01
         0.54195E+02
         0.19759E+03
         0.34063E+03
         0.27531E+03
         0.18875E+03
         0.12699E+03
         0.77806E+02
         0.52265E+02
         0.35873E+02
         0.26919E+02
         0.16511E+02
         0.40797E+01
         0.76037E+01
         0.22191E+02
         0.44632E+02
         0.71534E+02
         0.66927E+02
         0.66073E+02
        -0.52686E+01
        -0.44238E+01
        -0.93389E+01
        -0.70319E+01
        -0.55427E+01
        -0.58931E+01
        -0.40667E+01
        -0.52745E+01
        -0.22881E+01
        -0.62457E+01
        -0.13637E+02
        -0.11149E+02
        -0.61473E+01
        -0.10928E+02
        -0.18336E+02
        -0.33249E+01
        -0.48053E+01
        -0.25529E+01
        -0.83246E+01
        -0.13795E+02
        -0.18525E+02
        -0.41876E+02
        -0.72904E+01
        -0.77342E+01
        -0.12012E+02
        -0.76817E+01
        -0.11684E+02
        -0.22697E+02
        -0.34946E+02
        -0.24573E+02
        -0.95610E+01
        -0.10190E+02
        -0.10856E+02
        -0.87144E+01
        -0.42442E+01
        -0.57801E+01
        -0.45642E+01
        -0.26699E+02
        -0.34739E+02
        -0.53338E+02
        -0.21817E+02
        -0.41972E+02
        -0.41402E+02
        -0.63046E+01
        -0.57831E+01
        -0.45812E+01
        -0.78257E+01
        -0.64735E+01
        -0.40886E+01
        -0.44280E+01
         0.29460E+01
        -0.41833E+01
         0.30295E+02
         0.50999E+02
         0.74996E+01
         0.36780E+01
        -0.24678E+01
        -0.96954E+01
        -0.11449E+02
        -0.10094E+02
         0.32062E+02
         0.14834E+03
         0.25647E+03
         0.21795E+03
         0.16276E+03
         0.10377E+03
         0.66357E+02
         0.50247E+02
         0.34656E+02
         0.33110E+02
         0.21152E+02
         0.80208E+01
         0.64004E+01
         0.14719E+02
         0.30489E+02
         0.47947E+02
         0.52677E+02
         0.57141E+02
        -0.30689E+01
        -0.38724E+01
        -0.65908E+01
        -0.41230E+01
        -0.24867E+01
        -0.32722E+01
        -0.32190E+01
        -0.38392E+01
        -0.78143E+00
        -0.45885E+01
        -0.13632E+02
        -0.10308E+02
        -0.50140E+01
        -0.11267E+02
        -0.15768E+02
        -0.18447E+01
        -0.29070E+01
        -0.10826E+01
        -0.39435E+01
        -0.98610E+01
        -0.13449E+02
        -0.25561E+02
        -0.73780E+01
        -0.95293E+01
        -0.60677E+01
        -0.55796E+01
        -0.11244E+02
        -0.19299E+02
        -0.28369E+02
        -0.14041E+02
        -0.48797E+01
        -0.59649E+01
        -0.51865E+01
        -0.35679E+01
        -0.26071E+01
        -0.39932E+01
        -0.33841E+01
        -0.19303E+02
        -0.27130E+02
        -0.37509E+02
        -0.73612E+01
        -0.20539E+02
        -0.25310E+02
        -0.34044E+01
        -0.26033E+01
        -0.18024E+01
        -0.37154E+01
        -0.34994E+01
        -0.17853E+01
        -0.16400E+01
         0.16650E+01
        -0.30492E+01
         0.16260E+02
         0.39686E+02
         0.13667E+02
         0.12554E+02
         0.46025E+01
        -0.68550E+01
        -0.17759E+02
        -0.28002E+01
         0.47412E+02
         0.16674E+03
         0.29683E+03
         0.25094E+03
         0.15427E+03
         0.75061E+02
         0.42177E+02
         0.45979E+02
         0.34664E+02
         0.27428E+02
         0.17639E+02
         0.63047E+01
         0.47165E+01
         0.10791E+02
         0.19355E+02
         0.33776E+02
         0.41012E+02
         0.49744E+02
        -0.21019E+01
        -0.72419E+00
        -0.33561E+01
        -0.16075E+01
        -0.44752E+01
        -0.48061E+01
        -0.45546E+01
        -0.53266E+01
         0.77016E+00
        -0.61375E+01
        -0.15584E+02
        -0.12186E+02
        -0.42083E+01
        -0.11958E+02
        -0.15568E+02
        -0.15174E+01
        -0.19964E+01
         0.14212E+01
        -0.60080E+01
        -0.97048E+01
        -0.18774E+02
        -0.36655E+02
        -0.96388E+01
        -0.86864E+01
        -0.93806E+01
        -0.75200E+01
        -0.14026E+02
        -0.22773E+02
        -0.29942E+02
        -0.21373E+02
        -0.26540E+01
        -0.81522E+01
        -0.15538E+00
        -0.25794E+01
        -0.60842E+01
        -0.32995E+01
        -0.70575E+00
        -0.20187E+02
        -0.30875E+02
        -0.43474E+02
        -0.11563E+02
        -0.42702E+02
        -0.44259E+02
        -0.76494E+01
        -0.55922E+01
        -0.59386E+01
        -0.52950E+01
        -0.18049E+01
        -0.25835E+01
        -0.51892E+01
        -0.11158E+02
        -0.61044E+01
        -0.25460E+02
         0.59726E+01
        -0.37570E+01
         0.10650E+02
         0.43569E+01
        -0.34947E+01
         0.78160E+00
         0.39675E+01
         0.52365E+02
         0.17602E+03
         0.30450E+03
         0.28979E+03
         0.15438E+03
         0.87883E+02
         0.50427E+02
         0.33783E+02
         0.23675E+02
         0.23871E+02
         0.15346E+02
         0.27981E+01
        -0.69533E+01
        -0.11592E+02
        -0.25731E+02
        -0.30764E+02
        -0.25395E+01
         0.14611E+02
        -0.81239E+01
        -0.60400E+01
        -0.35331E+01
         0.58568E+00
        -0.12360E+02
        -0.92236E+01
        -0.13347E+02
        -0.14193E+02
        -0.46489E+01
        -0.15034E+02
        -0.29015E+02
        -0.17347E+02
        -0.89365E+01
        -0.20571E+02
        -0.16612E+02
        -0.63941E+01
        -0.72333E+01
        -0.16232E+01
        -0.12222E+02
        -0.11623E+02
        -0.32595E+02
        -0.46812E+02
        -0.19907E+02
        -0.21688E+02
        -0.13035E+02
        -0.15068E+02
        -0.16460E+02
        -0.17377E+02
        -0.23942E+02
        -0.20468E+02
        -0.34842E+01
        -0.12151E+02
         0.26918E+01
        -0.18497E+01
        -0.25508E+02
        -0.86146E+01
        -0.26613E+01
        -0.19413E+02
        -0.18633E+02
        -0.14602E+02
        -0.28885E+01
        -0.30708E+02
        -0.52421E+02
        -0.16857E+02
        -0.10587E+02
        -0.72425E+01
        -0.79253E+01
        -0.43673E+01
        -0.10739E+02
        -0.14492E+02
        -0.37712E+02
        -0.15903E+02
        -0.83159E+02
        -0.60112E+02
        -0.41053E+02
        -0.72532E+01
        -0.25483E+01
        -0.45357E+01
         0.85423E+01
         0.32895E+02
         0.60721E+02
         0.10468E+03
         0.14744E+03
         0.17846E+03
         0.15087E+03
         0.90603E+02
         0.56156E+02
         0.27034E+02
         0.12913E+02
         0.32925E+02
         0.37768E+02
         0.99731E+01
        -0.24388E+02
        -0.54257E+02
        -0.10021E+03
        -0.12393E+03
        -0.97972E+02
        -0.64827E+02
        -0.17568E+02
        -0.13581E+02
        -0.89584E+01
        -0.24911E+01
        -0.14389E+02
        -0.78970E+01
        -0.19223E+02
        -0.21509E+02
        -0.10477E+02
        -0.23511E+02
        -0.33089E+02
        -0.18504E+02
        -0.14934E+02
        -0.24945E+02
        -0.19425E+02
        -0.13826E+02
        -0.93740E+01
        -0.61344E+01
        -0.25312E+02
        -0.16517E+02
        -0.78625E+02
        -0.10354E+03
        -0.49075E+02
        -0.43512E+02
        -0.13866E+02
        -0.30515E+02
        -0.22194E+02
        -0.22735E+02
        -0.31461E+02
        -0.25684E+02
        -0.85990E+01
        -0.19345E+02
         0.32144E+00
         0.10663E+01
        -0.27031E+02
        -0.11799E+02
        -0.98422E+01
        -0.16380E+02
        -0.13057E+02
        -0.22111E+02
        -0.27900E+02
        -0.61190E+02
        -0.10336E+03
        -0.33262E+02
        -0.14302E+02
        -0.15101E+01
        -0.46049E+01
        -0.19107E+01
        -0.28379E+01
        -0.71044E+01
        -0.33660E+02
        -0.11369E+02
        -0.77066E+02
        -0.10307E+03
        -0.36304E+02
        -0.12862E+02
        -0.95286E+01
         0.94851E-01
         0.70562E+01
         0.25781E+02
         0.37971E+02
         0.39082E+02
         0.82775E+02
         0.19375E+03
         0.23244E+03
         0.22147E+03
         0.17261E+03
         0.10812E+03
         0.63259E+02
         0.82825E+02
         0.86211E+02
         0.28295E+02
        -0.22131E+02
        -0.31306E+02
        -0.90559E+02
        -0.14402E+03
        -0.13720E+03
        -0.11321E+03
         0.19439E+02
         0.28435E+02
         0.69632E+02
         0.45681E+02
         0.77159E+02
         0.71239E+02
         0.22702E+02
         0.18772E+02
         0.12693E+02
         0.75513E+01
         0.36352E+02
         0.12975E+02
         0.11092E+02
         0.10270E+02
         0.93630E+00
        -0.92790E+01
         0.23203E+01
         0.15955E+02
        -0.42741E+02
        -0.52565E+02
        -0.15072E+03
        -0.23543E+03
        -0.42661E+02
        -0.37669E+02
        -0.99181E+01
        -0.16410E+02
        -0.81292E+01
        -0.32260E+02
        -0.76342E+02
        -0.83412E+02
         0.22486E+02
         0.15302E+02
         0.48253E+02
         0.77311E+02
         0.11496E+03
         0.59020E+02
         0.20803E+02
        -0.18895E+02
        -0.33441E+02
        -0.53544E+02
        -0.32531E+02
        -0.91886E+02
        -0.22273E+03
        -0.46395E+01
         0.51226E+02
         0.10804E+03
         0.39223E+02
         0.33917E+02
         0.45002E+02
         0.84013E+02
         0.11003E+03
         0.81931E+02
         0.13203E+03
         0.97070E+01
         0.13232E+03
         0.50083E+02
         0.11742E+02
         0.12680E+02
         0.18722E+02
         0.39576E+01
        -0.23801E+02
        -0.94571E+01
         0.27083E+03
         0.74098E+03
         0.93073E+03
         0.87896E+03
         0.69550E+03
         0.50914E+03
         0.36104E+03
         0.35756E+03
         0.32753E+03
         0.14156E+03
         0.41459E+01
        -0.32162E+02
        -0.22276E+02
        -0.47153E+02
        -0.74369E+02
        -0.47219E+02
  
SCALARS                     velocity_z  double 1
LOOKUP_TABLE default
        -0.44910E+03
        -0.16587E+03
        -0.31843E+03
        -0.39705E+03
         0.00000E+00
         0.00000E+00
         0.00000E+00
         0.00000E+00
        -0.41465E+03
        -0.51943E+03
         0.00000E+00
         0.00000E+00
        -0.14330E+03
        -0.32919E+03
         0.00000E+00
         0.00000E+00
        -0.41634E+03
        -0.39838E+03
         0.00000E+00
         0.00000E+00
         0.11963E+03
         0.24022E+03
         0.70375E+02
         0.00000E+00
         0.00000E+00
         0.00000E+00
        -0.17206E+03
         0.17406E+03
         0.00000E+00
         0.00000E+00
        -0.44126E+03
        -0.46083E+03
        -0.43658E+03
         0.00000E+00
         0.00000E+00
         0.00000E+00
        -0.41705E+03
        -0.44477E+03
         0.00000E+00
         0.00000E+00
        -0.44951E+03
        -0.49186E+03
         0.00000E+00
         0.00000E+00
        -0.38297E+03
        -0.33798E+03
         0.00000E+00
         0.00000E+00
        -0.54787E+03
         0.00000E+00
        -0.22828E+03
         0.00000E+00
        -0.25435E+03
         0.00000E+00
        -0.22198E+03
         0.00000E+00
        -0.19414E+03
        -0.69194E+03
         0.00000E+00
         0.00000E+00
        -0.28306E+03
        -0.28882E+03
         0.00000E+00
         0.00000E+00
        -0.32582E+03
         0.00000E+00
        -0.56069E+03
         0.00000E+00
        -0.34381E+03
        -0.96078E+02
         0.00000E+00
         0.00000E+00
        -0.61710E+02
         0.00000E+00
         0.54036E+03
         0.00000E+00
         0.75490E+03
         0.00000E+00
         0.87150E+03
         0.00000E+00
         0.98799E+03
        -0.32023E+03
         0.00000E+00
         0.00000E+00
        -0.78096E+03
         0.00000E+00
        -0.25640E+03
         0.00000E+00
        -0.54916E+03
         0.00000E+00
        -0.94131E+03
        -0.55813E+03
         0.00000E+00
         0.00000E+00
        -0.45268E+03
         0.00000E+00
        -0.71527E+03
         0.00000E+00
        -0.82179E+03
         0.00000E+00
        -0.93127E+03
        -0.63770E+03
         0.00000E+00
         0.00000E+00
        -0.30382E+02
        -0.42213E+03
         0.00000E+00
         0.00000E+00
         0.28706E+03
         0.00000E+00
         0.14172E+03
         0.00000E+00
        -0.79288E+02
         0.00000E+00
        -0.18230E+03
         0.00000E+00
        -0.21207E+03
         0.00000E+00
        -0.78342E+03
         0.00000E+00
        -0.81061E+03
         0.00000E+00
         0.15724E+04
         0.00000E+00
         0.30686E+04
         0.00000E+00
         0.11605E+04
         0.00000E+00
        -0.13064E+03
         0.00000E+00
        -0.64222E+03
         0.00000E+00
        -0.89740E+03
         0.00000E+00
        -0.95431E+03
         0.00000E+00
        -0.94031E+03
         0.00000E+00
        -0.13903E+04
         0.00000E+00
        -0.18596E+04
         0.00000E+00
        -0.13665E+04
         0.00000E+00
        -0.13203E+04
         0.00000E+00
        -0.10189E+04
         0.00000E+00
        -0.77963E+03
         0.00000E+00
        -0.14777E+04
         0.00000E+00
        -0.14090E+04
         0.00000E+00
        -0.87667E+03
         0.00000E+00
        -0.43994E+03
        -0.24875E+03
        -0.40578E+03
        -0.50535E+03
        -0.51697E+03
        -0.66147E+03
        -0.27401E+03
        -0.41633E+03
        -0.45444E+03
        -0.49120E+03
        -0.94500E+02
        -0.62682E+02
        -0.13285E+03
        -0.32161E+03
         0.10343E+03
        -0.32916E+03
        -0.52864E+03
        -0.34799E+03
        -0.34934E+03
        -0.61285E+03
        -0.48060E+03
        -0.65120E+03
        -0.44453E+03
        -0.22427E+03
        -0.69332E+03
        -0.38604E+03
        -0.40306E+03
        -0.51082E+03
        -0.63976E+03
        -0.81015E+03
        -0.74605E+03
        -0.70526E+03
        -0.82279E+03
        -0.90662E+03
        -0.49273E+03
        -0.21770E+03
        -0.17622E+03
         0.20254E+03
         0.28762E+03
         0.32258E+03
         0.53126E+03
        -0.54895E+03
        -0.77184E+03
        -0.55967E+03
        -0.72536E+03
        -0.97136E+03
        -0.85996E+03
        -0.92232E+03
        -0.94878E+03
        -0.10529E+04
        -0.11645E+04
        -0.85846E+03
        -0.57604E+03
        -0.73844E+03
        -0.16451E+03
        -0.21124E+03
        -0.12782E+03
         0.18653E+03
         0.70213E+03
         0.10054E+04
         0.13141E+04
         0.30823E+04
         0.35657E+04
         0.12920E+04
        -0.39247E+02
        -0.89369E+03
        -0.11203E+04
        -0.10515E+04
        -0.98941E+03
        -0.87011E+03
        -0.58509E+03
         0.99740E+01
         0.95623E+03
         0.15348E+04
         0.20978E+04
         0.31920E+03
        -0.11629E+04
        -0.10088E+04
        -0.43152E+03
        -0.39361E+03
        -0.42673E+03
        -0.52355E+03
        -0.52130E+03
        -0.70317E+03
        -0.41283E+03
        -0.45740E+03
        -0.43728E+03
        -0.47692E+03
        -0.52801E+03
        -0.47919E+03
        -0.44373E+03
        -0.55849E+03
        -0.48673E+03
        -0.38405E+03
        -0.45225E+03
        -0.40952E+03
        -0.40522E+03
        -0.52391E+03
        -0.50605E+03
        -0.59403E+03
        -0.51673E+03
        -0.42201E+03
        -0.59775E+03
        -0.55420E+03
        -0.59388E+03
        -0.73556E+03
        -0.79645E+03
        -0.66060E+03
        -0.76243E+03
        -0.68175E+03
        -0.81332E+03
        -0.90838E+03
        -0.50926E+03
        -0.45727E+03
        -0.41608E+03
        -0.48205E+03
        -0.45929E+03
        -0.38941E+03
        -0.95683E+02
        -0.65687E+03
        -0.73632E+03
        -0.51857E+03
        -0.58661E+03
        -0.55531E+03
        -0.68756E+03
        -0.87348E+03
        -0.79406E+03
        -0.84682E+03
        -0.72202E+03
        -0.77434E+03
        -0.75549E+03
        -0.84676E+03
        -0.66787E+03
        -0.53514E+03
        -0.32975E+03
         0.34329E+01
         0.43171E+03
         0.75945E+03
         0.14828E+04
         0.21940E+04
         0.19724E+04
         0.57891E+03
        -0.15138E+03
        -0.85644E+03
        -0.10804E+04
        -0.88472E+03
        -0.45141E+03
         0.15230E+03
         0.55320E+03
         0.73967E+03
         0.17920E+04
         0.23490E+04
         0.26601E+04
         0.10407E+04
        -0.12311E+03
        -0.67390E+03
        -0.40571E+03
        -0.39891E+03
        -0.38907E+03
        -0.40625E+03
        -0.41777E+03
        -0.44500E+03
        -0.41686E+03
        -0.44108E+03
        -0.41249E+03
        -0.46867E+03
        -0.53738E+03
        -0.50970E+03
        -0.44456E+03
        -0.52422E+03
        -0.52308E+03
        -0.37671E+03
        -0.42660E+03
        -0.38928E+03
        -0.38880E+03
        -0.47476E+03
        -0.45932E+03
        -0.55130E+03
        -0.41685E+03
        -0.37500E+03
        -0.53967E+03
        -0.42127E+03
        -0.56610E+03
        -0.61366E+03
        -0.68639E+03
        -0.63185E+03
        -0.48050E+03
        -0.42680E+03
        -0.50437E+03
        -0.54123E+03
        -0.46563E+03
        -0.42608E+03
        -0.40998E+03
        -0.51383E+03
        -0.51570E+03
        -0.51344E+03
        -0.50887E+03
        -0.59967E+03
        -0.69287E+03
        -0.43304E+03
        -0.42726E+03
        -0.38088E+03
        -0.40113E+03
        -0.42038E+03
        -0.44853E+03
        -0.47012E+03
        -0.43731E+03
        -0.53790E+03
        -0.59871E+03
        -0.53196E+03
        -0.61509E+03
        -0.51443E+03
        -0.38572E+03
        -0.22073E+03
         0.97678E+02
         0.59242E+03
         0.96647E+03
         0.14039E+04
         0.91183E+03
         0.16050E+01
        -0.24909E+03
        -0.70572E+03
        -0.84143E+03
        -0.71904E+03
        -0.48132E+03
        -0.21153E+03
        -0.98327E+02
        -0.10104E+03
         0.63123E+01
         0.74034E+03
         0.12555E+04
         0.79057E+03
        -0.53218E+02
        -0.38924E+03
        -0.39026E+03
        -0.37977E+03
        -0.36725E+03
        -0.36462E+03
        -0.36427E+03
        -0.36326E+03
        -0.39666E+03
        -0.40973E+03
        -0.39782E+03
        -0.43521E+03
        -0.46013E+03
        -0.45973E+03
        -0.41226E+03
        -0.47026E+03
        -0.50260E+03
        -0.36676E+03
        -0.41686E+03
        -0.36495E+03
        -0.38322E+03
        -0.44456E+03
        -0.42051E+03
        -0.48896E+03
        -0.38056E+03
        -0.35224E+03
        -0.49579E+03
        -0.33660E+03
        -0.51181E+03
        -0.59835E+03
        -0.64942E+03
        -0.54598E+03
        -0.31516E+03
        -0.31297E+03
        -0.32428E+03
        -0.33924E+03
        -0.37232E+03
        -0.36965E+03
        -0.38119E+03
        -0.55630E+03
        -0.55949E+03
        -0.56342E+03
        -0.40887E+03
        -0.62416E+03
        -0.59595E+03
        -0.36283E+03
        -0.34971E+03
        -0.36741E+03
        -0.33779E+03
        -0.31447E+03
        -0.33958E+03
        -0.33783E+03
        -0.35282E+03
        -0.34879E+03
        -0.39921E+03
        -0.35039E+03
        -0.38840E+03
        -0.39119E+03
        -0.37321E+03
        -0.29715E+03
        -0.10791E+03
         0.24791E+03
         0.77041E+03
         0.11683E+04
         0.89772E+03
         0.25151E+03
        -0.32902E+03
        -0.57351E+03
        -0.61327E+03
        -0.52261E+03
        -0.46201E+03
        -0.47743E+03
        -0.53755E+03
        -0.60735E+03
        -0.62553E+03
        -0.57342E+03
        -0.49169E+03
        -0.41972E+03
        -0.36269E+03
        -0.36139E+03
        -0.36922E+03
        -0.36627E+03
        -0.35494E+03
        -0.35290E+03
        -0.35583E+03
        -0.35012E+03
        -0.37751E+03
        -0.38359E+03
        -0.37458E+03
        -0.39600E+03
        -0.40627E+03
        -0.40713E+03
        -0.38515E+03
        -0.41235E+03
        -0.45731E+03
        -0.36018E+03
        -0.38900E+03
        -0.35106E+03
        -0.37163E+03
        -0.40205E+03
        -0.39203E+03
        -0.42583E+03
        -0.37104E+03
        -0.35581E+03
        -0.43705E+03
        -0.34387E+03
        -0.44527E+03
        -0.49251E+03
        -0.50909E+03
        -0.45881E+03
        -0.31400E+03
        -0.32962E+03
        -0.31174E+03
        -0.32478E+03
        -0.35689E+03
        -0.36309E+03
        -0.37317E+03
        -0.49464E+03
        -0.54267E+03
        -0.54194E+03
        -0.46174E+03
        -0.48436E+03
        -0.50131E+03
        -0.35960E+03
        -0.35442E+03
        -0.36875E+03
        -0.35323E+03
        -0.33572E+03
        -0.33973E+03
        -0.34203E+03
        -0.36869E+03
        -0.34411E+03
        -0.35156E+03
        -0.35722E+03
        -0.36013E+03
        -0.37934E+03
        -0.39188E+03
        -0.37973E+03
        -0.25370E+03
         0.44204E+02
         0.39199E+03
         0.68265E+03
         0.54955E+03
        -0.91602E+02
        -0.40197E+03
        -0.51198E+03
        -0.47993E+03
        -0.41470E+03
        -0.38548E+03
        -0.40721E+03
        -0.45067E+03
        -0.47840E+03
        -0.53413E+03
        -0.58029E+03
        -0.64502E+03
        -0.61646E+03
        -0.45318E+03
        -0.39019E+03
        -0.36594E+03
        -0.36750E+03
        -0.36062E+03
        -0.36041E+03
        -0.36185E+03
        -0.35957E+03
        -0.37016E+03
        -0.37093E+03
        -0.36773E+03
        -0.37805E+03
        -0.37587E+03
        -0.38187E+03
        -0.37314E+03
        -0.38282E+03
        -0.40432E+03
        -0.36487E+03
        -0.37479E+03
        -0.35984E+03
        -0.36862E+03
        -0.37918E+03
        -0.37503E+03
        -0.38897E+03
        -0.36974E+03
        -0.36275E+03
        -0.38952E+03
        -0.36177E+03
        -0.39851E+03
        -0.42404E+03
        -0.42481E+03
        -0.39845E+03
        -0.35264E+03
        -0.35954E+03
        -0.34659E+03
        -0.35072E+03
        -0.35700E+03
        -0.36550E+03
        -0.37037E+03
        -0.44134E+03
        -0.46617E+03
        -0.46949E+03
        -0.44463E+03
        -0.43455E+03
        -0.41491E+03
        -0.36582E+03
        -0.36475E+03
        -0.36979E+03
        -0.36571E+03
        -0.36114E+03
        -0.36287E+03
        -0.36590E+03
        -0.38012E+03
        -0.36057E+03
        -0.36122E+03
        -0.37023E+03
        -0.37197E+03
        -0.37613E+03
        -0.37878E+03
        -0.38311E+03
        -0.35478E+03
        -0.24990E+03
        -0.53277E+02
         0.40491E+02
        -0.58600E+02
        -0.30672E+03
        -0.42569E+03
        -0.44149E+03
        -0.41448E+03
        -0.38126E+03
        -0.36567E+03
        -0.36901E+03
        -0.38371E+03
        -0.39342E+03
        -0.41797E+03
        -0.43853E+03
        -0.48422E+03
        -0.47561E+03
        -0.42618E+03
        -0.39282E+03
        -0.36858E+03
        -0.36748E+03
        -0.36390E+03
        -0.36562E+03
        -0.36340E+03
        -0.36524E+03
        -0.36996E+03
        -0.37007E+03
        -0.36913E+03
        -0.37075E+03
        -0.36480E+03
        -0.37186E+03
        -0.36912E+03
        -0.36972E+03
        -0.37600E+03
        -0.36888E+03
        -0.37097E+03
        -0.36671E+03
        -0.37013E+03
        -0.37179E+03
        -0.37056E+03
        -0.36760E+03
        -0.36864E+03
        -0.36725E+03
        -0.37306E+03
        -0.36836E+03
        -0.37143E+03
        -0.37172E+03
        -0.37439E+03
        -0.37402E+03
        -0.36476E+03
        -0.36774E+03
        -0.36187E+03
        -0.36041E+03
        -0.35907E+03
        -0.36594E+03
        -0.36895E+03
        -0.37732E+03
        -0.37598E+03
        -0.37811E+03
        -0.38925E+03
        -0.38348E+03
        -0.38104E+03
        -0.36879E+03
        -0.36917E+03
        -0.37055E+03
        -0.36992E+03
        -0.36869E+03
        -0.36879E+03
        -0.36979E+03
        -0.37619E+03
        -0.36625E+03
        -0.36253E+03
        -0.37842E+03
        -0.36397E+03
        -0.36793E+03
        -0.36841E+03
        -0.37542E+03
        -0.39124E+03
        -0.37360E+03
        -0.33441E+03
        -0.31921E+03
        -0.42270E+03
        -0.42601E+03
        -0.42020E+03
        -0.39005E+03
        -0.36945E+03
        -0.36307E+03
        -0.36247E+03
        -0.36461E+03
        -0.36848E+03
        -0.37225E+03
        -0.37976E+03
        -0.39306E+03
        -0.42164E+03
        -0.43951E+03
        -0.42531E+03
        -0.39991E+03
        -0.36874E+03
        -0.36919E+03
        -0.36583E+03
        -0.36660E+03
        -0.36428E+03
        -0.36683E+03
        -0.36919E+03
        -0.36908E+03
        -0.36924E+03
        -0.36779E+03
        -0.36533E+03
        -0.36679E+03
        -0.36953E+03
        -0.36390E+03
        -0.36481E+03
        -0.37122E+03
        -0.36908E+03
        -0.36896E+03
        -0.36967E+03
        -0.36539E+03
        -0.36384E+03
        -0.35577E+03
        -0.36896E+03
        -0.37046E+03
        -0.36575E+03
        -0.37065E+03
        -0.36405E+03
        -0.35801E+03
        -0.35598E+03
        -0.35788E+03
        -0.36598E+03
        -0.36919E+03
        -0.36289E+03
        -0.36381E+03
        -0.35897E+03
        -0.36667E+03
        -0.37093E+03
        -0.36167E+03
        -0.35911E+03
        -0.36373E+03
        -0.37834E+03
        -0.36145E+03
        -0.35213E+03
        -0.37037E+03
        -0.37024E+03
        -0.37064E+03
        -0.37111E+03
        -0.36903E+03
        -0.37127E+03
        -0.37279E+03
        -0.38080E+03
        -0.36986E+03
        -0.36032E+03
        -0.38322E+03
        -0.36515E+03
        -0.36698E+03
        -0.36720E+03
        -0.37497E+03
        -0.39584E+03
        -0.42876E+03
        -0.44530E+03
        -0.47089E+03
        -0.51318E+03
        -0.47472E+03
        -0.41014E+03
        -0.36328E+03
        -0.35551E+03
        -0.36251E+03
        -0.36590E+03
        -0.36642E+03
        -0.37111E+03
        -0.37508E+03
        -0.38653E+03
        -0.39811E+03
        -0.42104E+03
        -0.42502E+03
        -0.40826E+03
        -0.39965E+03
        -0.36900E+03
        -0.37039E+03
        -0.36569E+03
        -0.36604E+03
        -0.36701E+03
        -0.36674E+03
        -0.37094E+03
        -0.36930E+03
        -0.36907E+03
        -0.36739E+03
        -0.36513E+03
        -0.36601E+03
        -0.36958E+03
        -0.36439E+03
        -0.36521E+03
        -0.37160E+03
        -0.36943E+03
        -0.37021E+03
        -0.37014E+03
        -0.36557E+03
        -0.36411E+03
        -0.35630E+03
        -0.36777E+03
        -0.36911E+03
        -0.36087E+03
        -0.37061E+03
        -0.35913E+03
        -0.34918E+03
        -0.33989E+03
        -0.35461E+03
        -0.36560E+03
        -0.36951E+03
        -0.36299E+03
        -0.36239E+03
        -0.36171E+03
        -0.36794E+03
        -0.37120E+03
        -0.36287E+03
        -0.35651E+03
        -0.35409E+03
        -0.36838E+03
        -0.34606E+03
        -0.33918E+03
        -0.37017E+03
        -0.37114E+03
        -0.37251E+03
        -0.37011E+03
        -0.36850E+03
        -0.36754E+03
        -0.37048E+03
        -0.38087E+03
        -0.36846E+03
        -0.35997E+03
        -0.37881E+03
        -0.36230E+03
        -0.36883E+03
        -0.36904E+03
        -0.37705E+03
        -0.40475E+03
        -0.43148E+03
        -0.47836E+03
        -0.54004E+03
        -0.60174E+03
        -0.48697E+03
        -0.39956E+03
        -0.36378E+03
        -0.35449E+03
        -0.36009E+03
        -0.36651E+03
        -0.36857E+03
        -0.37196E+03
        -0.37709E+03
        -0.39640E+03
        -0.42358E+03
        -0.45070E+03
        -0.45182E+03
        -0.41660E+03
        -0.39166E+03
        -0.36905E+03
        -0.37037E+03
        -0.36455E+03
        -0.36385E+03
        -0.36337E+03
        -0.36223E+03
        -0.37137E+03
        -0.36919E+03
        -0.36910E+03
        -0.36660E+03
        -0.36595E+03
        -0.36547E+03
        -0.37061E+03
        -0.36489E+03
        -0.36048E+03
        -0.37095E+03
        -0.36754E+03
        -0.36863E+03
        -0.36740E+03
        -0.36040E+03
        -0.35738E+03
        -0.34677E+03
        -0.36500E+03
        -0.36756E+03
        -0.35980E+03
        -0.36986E+03
        -0.35831E+03
        -0.35027E+03
        -0.34260E+03
        -0.34875E+03
        -0.36281E+03
        -0.36846E+03
        -0.35922E+03
        -0.35852E+03
        -0.35844E+03
        -0.36631E+03
        -0.37139E+03
        -0.34634E+03
        -0.33967E+03
        -0.33609E+03
        -0.35705E+03
        -0.34134E+03
        -0.32881E+03
        -0.36869E+03
        -0.36987E+03
        -0.37118E+03
        -0.36870E+03
        -0.36510E+03
        -0.36473E+03
        -0.36716E+03
        -0.38144E+03
        -0.36449E+03
        -0.35654E+03
        -0.37649E+03
        -0.36537E+03
        -0.36784E+03
        -0.36470E+03
        -0.37090E+03
        -0.40153E+03
        -0.46451E+03
        -0.51931E+03
        -0.56118E+03
        -0.56775E+03
        -0.45751E+03
        -0.42925E+03
        -0.36659E+03
        -0.34959E+03
        -0.35415E+03
        -0.35812E+03
        -0.36117E+03
        -0.36891E+03
        -0.38280E+03
        -0.40816E+03
        -0.42959E+03
        -0.47635E+03
        -0.49149E+03
        -0.44671E+03
        -0.40875E+03
        -0.36937E+03
        -0.36915E+03
        -0.36429E+03
        -0.36509E+03
        -0.36414E+03
        -0.36348E+03
        -0.37105E+03
        -0.36887E+03
        -0.36884E+03
        -0.36485E+03
        -0.36583E+03
        -0.36537E+03
        -0.36917E+03
        -0.36159E+03
        -0.35733E+03
        -0.37066E+03
        -0.36592E+03
        -0.36863E+03
        -0.36784E+03
        -0.35961E+03
        -0.35876E+03
        -0.34622E+03
        -0.36566E+03
        -0.36826E+03
        -0.35644E+03
        -0.37010E+03
        -0.35494E+03
        -0.34319E+03
        -0.33327E+03
        -0.34937E+03
        -0.36376E+03
        -0.36916E+03
        -0.35824E+03
        -0.35749E+03
        -0.35862E+03
        -0.36629E+03
        -0.37041E+03
        -0.35084E+03
        -0.33410E+03
        -0.33542E+03
        -0.36340E+03
        -0.33685E+03
        -0.32517E+03
        -0.36902E+03
        -0.37030E+03
        -0.37163E+03
        -0.36909E+03
        -0.36555E+03
        -0.36491E+03
        -0.36588E+03
        -0.37898E+03
        -0.36577E+03
        -0.36009E+03
        -0.38365E+03
        -0.35972E+03
        -0.36467E+03
        -0.36187E+03
        -0.37284E+03
        -0.41303E+03
        -0.47288E+03
        -0.55244E+03
        -0.65522E+03
        -0.67981E+03
        -0.49216E+03
        -0.41735E+03
        -0.35255E+03
        -0.35106E+03
        -0.35677E+03
        -0.36066E+03
        -0.36422E+03
        -0.37068E+03
        -0.38315E+03
        -0.40585E+03
        -0.44130E+03
        -0.47695E+03
        -0.47072E+03
        -0.44244E+03
        -0.40329E+03
        -0.36696E+03
        -0.36881E+03
        -0.36238E+03
        -0.36267E+03
        -0.36045E+03
        -0.35953E+03
        -0.36964E+03
        -0.36919E+03
        -0.36844E+03
        -0.36586E+03
        -0.36208E+03
        -0.36347E+03
        -0.36942E+03
        -0.36017E+03
        -0.35693E+03
        -0.37089E+03
        -0.36681E+03
        -0.36872E+03
        -0.36815E+03
        -0.36139E+03
        -0.35836E+03
        -0.34497E+03
        -0.36484E+03
        -0.36852E+03
        -0.35443E+03
        -0.36980E+03
        -0.35565E+03
        -0.33894E+03
        -0.32026E+03
        -0.34701E+03
        -0.36113E+03
        -0.36613E+03
        -0.35774E+03
        -0.35660E+03
        -0.35662E+03
        -0.36488E+03
        -0.37041E+03
        -0.35328E+03
        -0.34006E+03
        -0.33368E+03
        -0.36457E+03
        -0.31909E+03
        -0.32066E+03
        -0.36877E+03
        -0.36822E+03
        -0.36855E+03
        -0.36701E+03
        -0.36358E+03
        -0.36622E+03
        -0.36864E+03
        -0.38498E+03
        -0.36400E+03
        -0.36171E+03
        -0.38638E+03
        -0.35917E+03
        -0.36480E+03
        -0.36440E+03
        -0.37334E+03
        -0.40839E+03
        -0.48881E+03
        -0.58778E+03
        -0.69259E+03
        -0.71166E+03
        -0.47225E+03
        -0.41424E+03
        -0.35174E+03
        -0.34162E+03
        -0.35243E+03
        -0.35871E+03
        -0.36650E+03
        -0.37900E+03
        -0.38873E+03
        -0.41063E+03
        -0.44111E+03
        -0.47438E+03
        -0.47443E+03
        -0.43770E+03
        -0.40991E+03
        -0.36857E+03
        -0.36882E+03
        -0.36255E+03
        -0.36319E+03
        -0.36294E+03
        -0.36204E+03
        -0.36864E+03
        -0.36878E+03
        -0.36809E+03
        -0.36483E+03
        -0.36397E+03
        -0.36152E+03
        -0.36713E+03
        -0.35988E+03
        -0.35452E+03
        -0.37080E+03
        -0.36594E+03
        -0.36759E+03
        -0.36976E+03
        -0.35995E+03
        -0.35867E+03
        -0.34241E+03
        -0.36531E+03
        -0.36864E+03
        -0.35802E+03
        -0.36790E+03
        -0.35278E+03
        -0.34018E+03
        -0.32012E+03
        -0.34451E+03
        -0.35994E+03
        -0.36499E+03
        -0.35620E+03
        -0.35746E+03
        -0.35930E+03
        -0.36697E+03
        -0.37006E+03
        -0.33521E+03
        -0.31702E+03
        -0.31203E+03
        -0.34571E+03
        -0.31669E+03
        -0.31475E+03
        -0.36734E+03
        -0.36842E+03
        -0.37177E+03
        -0.36914E+03
        -0.36664E+03
        -0.36558E+03
        -0.37177E+03
        -0.38883E+03
        -0.36739E+03
        -0.36043E+03
        -0.38686E+03
        -0.35816E+03
        -0.36236E+03
        -0.36149E+03
        -0.37284E+03
        -0.42101E+03
        -0.51376E+03
        -0.58962E+03
        -0.68205E+03
        -0.70749E+03
        -0.51214E+03
        -0.40750E+03
        -0.35172E+03
        -0.34365E+03
        -0.35139E+03
        -0.35663E+03
        -0.36774E+03
        -0.38615E+03
        -0.38976E+03
        -0.40860E+03
        -0.42825E+03
        -0.47361E+03
        -0.48727E+03
        -0.45024E+03
        -0.41493E+03
        -0.36915E+03
        -0.36855E+03
        -0.36632E+03
        -0.36591E+03
        -0.36331E+03
        -0.36277E+03
        -0.36999E+03
        -0.36931E+03
        -0.36857E+03
        -0.36655E+03
        -0.36277E+03
        -0.36182E+03
        -0.36847E+03
        -0.36039E+03
        -0.35279E+03
        -0.37050E+03
        -0.36690E+03
        -0.36688E+03
        -0.37065E+03
        -0.36109E+03
        -0.35949E+03
        -0.34579E+03
        -0.36578E+03
        -0.36826E+03
        -0.35689E+03
        -0.36711E+03
        -0.35085E+03
        -0.34143E+03
        -0.33762E+03
        -0.34567E+03
        -0.36030E+03
        -0.36445E+03
        -0.35487E+03
        -0.35944E+03
        -0.35877E+03
        -0.36654E+03
        -0.37015E+03
        -0.34151E+03
        -0.32287E+03
        -0.31264E+03
        -0.34429E+03
        -0.33234E+03
        -0.32526E+03
        -0.36654E+03
        -0.36641E+03
        -0.37004E+03
        -0.36768E+03
        -0.36404E+03
        -0.36662E+03
        -0.36811E+03
        -0.38191E+03
        -0.36663E+03
        -0.36109E+03
        -0.38300E+03
        -0.36004E+03
        -0.36254E+03
        -0.36146E+03
        -0.37202E+03
        -0.42857E+03
        -0.50235E+03
        -0.59639E+03
        -0.65797E+03
        -0.62751E+03
        -0.52175E+03
        -0.40599E+03
        -0.34173E+03
        -0.33954E+03
        -0.35244E+03
        -0.35822E+03
        -0.36710E+03
        -0.38401E+03
        -0.39446E+03
        -0.41433E+03
        -0.42210E+03
        -0.46050E+03
        -0.46997E+03
        -0.44950E+03
        -0.41637E+03
        -0.36900E+03
        -0.36971E+03
        -0.36451E+03
        -0.36488E+03
        -0.36387E+03
        -0.36275E+03
        -0.36985E+03
        -0.36947E+03
        -0.36957E+03
        -0.36605E+03
        -0.36215E+03
        -0.36522E+03
        -0.36774E+03
        -0.35906E+03
        -0.35438E+03
        -0.37068E+03
        -0.36911E+03
        -0.36822E+03
        -0.37065E+03
        -0.36451E+03
        -0.35980E+03
        -0.34409E+03
        -0.36412E+03
        -0.36695E+03
        -0.35816E+03
        -0.36722E+03
        -0.35184E+03
        -0.34176E+03
        -0.32703E+03
        -0.34705E+03
        -0.36043E+03
        -0.36533E+03
        -0.35578E+03
        -0.35658E+03
        -0.36102E+03
        -0.36613E+03
        -0.37007E+03
        -0.33941E+03
        -0.32762E+03
        -0.32738E+03
        -0.35249E+03
        -0.33233E+03
        -0.32828E+03
        -0.36624E+03
        -0.36783E+03
        -0.37390E+03
        -0.36982E+03
        -0.36600E+03
        -0.36432E+03
        -0.36682E+03
        -0.37987E+03
        -0.36543E+03
        -0.36546E+03
        -0.39119E+03
        -0.35915E+03
        -0.36193E+03
        -0.36042E+03
        -0.37031E+03
        -0.42071E+03
        -0.49684E+03
        -0.53511E+03
        -0.66018E+03
        -0.69982E+03
        -0.52186E+03
        -0.40174E+03
        -0.34445E+03
        -0.34903E+03
        -0.35853E+03
        -0.36076E+03
        -0.37030E+03
        -0.38785E+03
        -0.39877E+03
        -0.41138E+03
        -0.42329E+03
        -0.46184E+03
        -0.46084E+03
        -0.43438E+03
        -0.40935E+03
        -0.36808E+03
        -0.36951E+03
        -0.36817E+03
        -0.36752E+03
        -0.36815E+03
        -0.36909E+03
        -0.37090E+03
        -0.36998E+03
        -0.36851E+03
        -0.36682E+03
        -0.36421E+03
        -0.36201E+03
        -0.36860E+03
        -0.36244E+03
        -0.35343E+03
        -0.37033E+03
        -0.36674E+03
        -0.36847E+03
        -0.36850E+03
        -0.36110E+03
        -0.35832E+03
        -0.34599E+03
        -0.36505E+03
        -0.36672E+03
        -0.35637E+03
        -0.36687E+03
        -0.35500E+03
        -0.34245E+03
        -0.34342E+03
        -0.34851E+03
        -0.36330E+03
        -0.36560E+03
        -0.35991E+03
        -0.36511E+03
        -0.36411E+03
        -0.36789E+03
        -0.37112E+03
        -0.34948E+03
        -0.34111E+03
        -0.32958E+03
        -0.36892E+03
        -0.33601E+03
        -0.32425E+03
        -0.36772E+03
        -0.37034E+03
        -0.37545E+03
        -0.37180E+03
        -0.36923E+03
        -0.36866E+03
        -0.37178E+03
        -0.38106E+03
        -0.37202E+03
        -0.36703E+03
        -0.39146E+03
        -0.36398E+03
        -0.36449E+03
        -0.36359E+03
        -0.37077E+03
        -0.41000E+03
        -0.46913E+03
        -0.57771E+03
        -0.65547E+03
        -0.64404E+03
        -0.54682E+03
        -0.40513E+03
        -0.35298E+03
        -0.34794E+03
        -0.35816E+03
        -0.36548E+03
        -0.37330E+03
        -0.38520E+03
        -0.38977E+03
        -0.40380E+03
        -0.42237E+03
        -0.44684E+03
        -0.45804E+03
        -0.42653E+03
        -0.41226E+03
        -0.36922E+03
        -0.37100E+03
        -0.36707E+03
        -0.36796E+03
        -0.36927E+03
        -0.36941E+03
        -0.37222E+03
        -0.36886E+03
        -0.36942E+03
        -0.36539E+03
        -0.36593E+03
        -0.36631E+03
        -0.37069E+03
        -0.36191E+03
        -0.36132E+03
        -0.37108E+03
        -0.36787E+03
        -0.36975E+03
        -0.36797E+03
        -0.36184E+03
        -0.35837E+03
        -0.34661E+03
        -0.36397E+03
        -0.36598E+03
        -0.35918E+03
        -0.36927E+03
        -0.35562E+03
        -0.34456E+03
        -0.32795E+03
        -0.35007E+03
        -0.36632E+03
        -0.36934E+03
        -0.36401E+03
        -0.36600E+03
        -0.36562E+03
        -0.36974E+03
        -0.37238E+03
        -0.34156E+03
        -0.32650E+03
        -0.32099E+03
        -0.34549E+03
        -0.32570E+03
        -0.32951E+03
        -0.36840E+03
        -0.36960E+03
        -0.37295E+03
        -0.37105E+03
        -0.37004E+03
        -0.37070E+03
        -0.37264E+03
        -0.38593E+03
        -0.37063E+03
        -0.36895E+03
        -0.39104E+03
        -0.36241E+03
        -0.36352E+03
        -0.36466E+03
        -0.37312E+03
        -0.40826E+03
        -0.48623E+03
        -0.59685E+03
        -0.72384E+03
        -0.70429E+03
        -0.50950E+03
        -0.41745E+03
        -0.35595E+03
        -0.34843E+03
        -0.35747E+03
        -0.36211E+03
        -0.37032E+03
        -0.38271E+03
        -0.38472E+03
        -0.39321E+03
        -0.41248E+03
        -0.44229E+03
        -0.45539E+03
        -0.42877E+03
        -0.40839E+03
        -0.36906E+03
        -0.37191E+03
        -0.36857E+03
        -0.36822E+03
        -0.36871E+03
        -0.36881E+03
        -0.37114E+03
        -0.36813E+03
        -0.36939E+03
        -0.36398E+03
        -0.36604E+03
        -0.36531E+03
        -0.37010E+03
        -0.36424E+03
        -0.36021E+03
        -0.37141E+03
        -0.36651E+03
        -0.37047E+03
        -0.36757E+03
        -0.36099E+03
        -0.35951E+03
        -0.34722E+03
        -0.36688E+03
        -0.36850E+03
        -0.35640E+03
        -0.36926E+03
        -0.35969E+03
        -0.34332E+03
        -0.33345E+03
        -0.34684E+03
        -0.36594E+03
        -0.36877E+03
        -0.36521E+03
        -0.36603E+03
        -0.36660E+03
        -0.37064E+03
        -0.37238E+03
        -0.34516E+03
        -0.33465E+03
        -0.31262E+03
        -0.34463E+03
        -0.32915E+03
        -0.33883E+03
        -0.36977E+03
        -0.37045E+03
        -0.37325E+03
        -0.37176E+03
        -0.37028E+03
        -0.37037E+03
        -0.37240E+03
        -0.38261E+03
        -0.37185E+03
        -0.36931E+03
        -0.38960E+03
        -0.36721E+03
        -0.36846E+03
        -0.36683E+03
        -0.37432E+03
        -0.39707E+03
        -0.45207E+03
        -0.53352E+03
        -0.60741E+03
        -0.60078E+03
        -0.47454E+03
        -0.39847E+03
        -0.34788E+03
        -0.34423E+03
        -0.35581E+03
        -0.36286E+03
        -0.36834E+03
        -0.37262E+03
        -0.37801E+03
        -0.38663E+03
        -0.39506E+03
        -0.41392E+03
        -0.43272E+03
        -0.42226E+03
        -0.40478E+03
        -0.37013E+03
        -0.37203E+03
        -0.37094E+03
        -0.37058E+03
        -0.37162E+03
        -0.37185E+03
        -0.37197E+03
        -0.36925E+03
        -0.37104E+03
        -0.36684E+03
        -0.36478E+03
        -0.36701E+03
        -0.37066E+03
        -0.36284E+03
        -0.36189E+03
        -0.37264E+03
        -0.36929E+03
        -0.37204E+03
        -0.36973E+03
        -0.36399E+03
        -0.36463E+03
        -0.35494E+03
        -0.36679E+03
        -0.36980E+03
        -0.36267E+03
        -0.37175E+03
        -0.35648E+03
        -0.34769E+03
        -0.33958E+03
        -0.35833E+03
        -0.37080E+03
        -0.37174E+03
        -0.36939E+03
        -0.37142E+03
        -0.36866E+03
        -0.37110E+03
        -0.37265E+03
        -0.35236E+03
        -0.33890E+03
        -0.33604E+03
        -0.35792E+03
        -0.34273E+03
        -0.34860E+03
        -0.37105E+03
        -0.37251E+03
        -0.37460E+03
        -0.37301E+03
        -0.37277E+03
        -0.37381E+03
        -0.37443E+03
        -0.38216E+03
        -0.37518E+03
        -0.36909E+03
        -0.38529E+03
        -0.36586E+03
        -0.36988E+03
        -0.36947E+03
        -0.37561E+03
        -0.40814E+03
        -0.46748E+03
        -0.55627E+03
        -0.64706E+03
        -0.68135E+03
        -0.47467E+03
        -0.40756E+03
        -0.34630E+03
        -0.34150E+03
        -0.35719E+03
        -0.36628E+03
        -0.37061E+03
        -0.37048E+03
        -0.37110E+03
        -0.37539E+03
        -0.38693E+03
        -0.39773E+03
        -0.41552E+03
        -0.41226E+03
        -0.40450E+03
        -0.37085E+03
        -0.37206E+03
        -0.37289E+03
        -0.37342E+03
        -0.37217E+03
        -0.37496E+03
        -0.36943E+03
        -0.36842E+03
        -0.37165E+03
        -0.36527E+03
        -0.36227E+03
        -0.36275E+03
        -0.36911E+03
        -0.36271E+03
        -0.35868E+03
        -0.37301E+03
        -0.36939E+03
        -0.37380E+03
        -0.36897E+03
        -0.36303E+03
        -0.35959E+03
        -0.34926E+03
        -0.36685E+03
        -0.36933E+03
        -0.35935E+03
        -0.37320E+03
        -0.35301E+03
        -0.34232E+03
        -0.33529E+03
        -0.34852E+03
        -0.37810E+03
        -0.37781E+03
        -0.37768E+03
        -0.37589E+03
        -0.36760E+03
        -0.37141E+03
        -0.37326E+03
        -0.34703E+03
        -0.33633E+03
        -0.33010E+03
        -0.35956E+03
        -0.32953E+03
        -0.33897E+03
        -0.37217E+03
        -0.37574E+03
        -0.37649E+03
        -0.37761E+03
        -0.37936E+03
        -0.37736E+03
        -0.37740E+03
        -0.38189E+03
        -0.37761E+03
        -0.36027E+03
        -0.37914E+03
        -0.36954E+03
        -0.37317E+03
        -0.37319E+03
        -0.38412E+03
        -0.41769E+03
        -0.46966E+03
        -0.52536E+03
        -0.61676E+03
        -0.66213E+03
        -0.54458E+03
        -0.39617E+03
        -0.34055E+03
        -0.33317E+03
        -0.35312E+03
        -0.36481E+03
        -0.36641E+03
        -0.35802E+03
        -0.35100E+03
        -0.35349E+03
        -0.35930E+03
        -0.35470E+03
        -0.37373E+03
        -0.39291E+03
        -0.39607E+03
        -0.36803E+03
        -0.37039E+03
        -0.37346E+03
        -0.37748E+03
        -0.37295E+03
        -0.37992E+03
        -0.36513E+03
        -0.36376E+03
        -0.36950E+03
        -0.36038E+03
        -0.35728E+03
        -0.35953E+03
        -0.36690E+03
        -0.35970E+03
        -0.36402E+03
        -0.37206E+03
        -0.36551E+03
        -0.37496E+03
        -0.36760E+03
        -0.36226E+03
        -0.35885E+03
        -0.34927E+03
        -0.36630E+03
        -0.36707E+03
        -0.35795E+03
        -0.37497E+03
        -0.35869E+03
        -0.35306E+03
        -0.34430E+03
        -0.35129E+03
        -0.39207E+03
        -0.39039E+03
        -0.39035E+03
        -0.38545E+03
        -0.36271E+03
        -0.37141E+03
        -0.37213E+03
        -0.35650E+03
        -0.36088E+03
        -0.36060E+03
        -0.38023E+03
        -0.35548E+03
        -0.33828E+03
        -0.37248E+03
        -0.37996E+03
        -0.37737E+03
        -0.38451E+03
        -0.38989E+03
        -0.38742E+03
        -0.38163E+03
        -0.37518E+03
        -0.38269E+03
        -0.35939E+03
        -0.37003E+03
        -0.37153E+03
        -0.37414E+03
        -0.37017E+03
        -0.38046E+03
        -0.41872E+03
        -0.45393E+03
        -0.47673E+03
        -0.53137E+03
        -0.57168E+03
        -0.53771E+03
        -0.42361E+03
        -0.34937E+03
        -0.32815E+03
        -0.33470E+03
        -0.35168E+03
        -0.34956E+03
        -0.31061E+03
        -0.28081E+03
        -0.27746E+03
        -0.28740E+03
        -0.28409E+03
        -0.30677E+03
        -0.35170E+03
        -0.37139E+03
        -0.36682E+03
        -0.36864E+03
        -0.37377E+03
        -0.37811E+03
        -0.37433E+03
        -0.38110E+03
        -0.36508E+03
        -0.36374E+03
        -0.36696E+03
        -0.35973E+03
        -0.36019E+03
        -0.36707E+03
        -0.36746E+03
        -0.36206E+03
        -0.37120E+03
        -0.37247E+03
        -0.36296E+03
        -0.37329E+03
        -0.36877E+03
        -0.36129E+03
        -0.35614E+03
        -0.34164E+03
        -0.36723E+03
        -0.37272E+03
        -0.35741E+03
        -0.38298E+03
        -0.36075E+03
        -0.35648E+03
        -0.35055E+03
        -0.34767E+03
        -0.40214E+03
        -0.40455E+03
        -0.39554E+03
        -0.39308E+03
        -0.37508E+03
        -0.37296E+03
        -0.37092E+03
        -0.37277E+03
        -0.37154E+03
        -0.37176E+03
        -0.39752E+03
        -0.35943E+03
        -0.32861E+03
        -0.37670E+03
        -0.38624E+03
        -0.37733E+03
        -0.38846E+03
        -0.39649E+03
        -0.39206E+03
        -0.38814E+03
        -0.37297E+03
        -0.38534E+03
        -0.38176E+03
        -0.37009E+03
        -0.38162E+03
        -0.37414E+03
        -0.36837E+03
        -0.37205E+03
        -0.39730E+03
        -0.41713E+03
        -0.42965E+03
        -0.47653E+03
        -0.58790E+03
        -0.63389E+03
        -0.50887E+03
        -0.36773E+03
        -0.28998E+03
        -0.28287E+03
        -0.31252E+03
        -0.30685E+03
        -0.24663E+03
        -0.20571E+03
        -0.21802E+03
        -0.25520E+03
        -0.23847E+03
        -0.26499E+03
        -0.32098E+03
        -0.35342E+03
        -0.38821E+03
        -0.38865E+03
        -0.41816E+03
        -0.40371E+03
        -0.42772E+03
        -0.41532E+03
        -0.38056E+03
        -0.37662E+03
        -0.37129E+03
        -0.36478E+03
        -0.38025E+03
        -0.38396E+03
        -0.38111E+03
        -0.36767E+03
        -0.38342E+03
        -0.38201E+03
        -0.35555E+03
        -0.38275E+03
        -0.36696E+03
        -0.33375E+03
        -0.32385E+03
        -0.30433E+03
        -0.34863E+03
        -0.39509E+03
        -0.33849E+03
        -0.42002E+03
        -0.35801E+03
        -0.35349E+03
        -0.37987E+03
        -0.29865E+03
        -0.43817E+03
        -0.44661E+03
        -0.42921E+03
        -0.42654E+03
        -0.45761E+03
        -0.40767E+03
        -0.38370E+03
        -0.39100E+03
        -0.41513E+03
        -0.46731E+03
        -0.63766E+03
        -0.44702E+03
        -0.29597E+03
        -0.37580E+03
        -0.39610E+03
        -0.36942E+03
        -0.40273E+03
        -0.41947E+03
        -0.42065E+03
        -0.40667E+03
        -0.37861E+03
        -0.40273E+03
        -0.49400E+03
        -0.39647E+03
        -0.43088E+03
        -0.37780E+03
        -0.38247E+03
        -0.39747E+03
        -0.39594E+03
        -0.39223E+03
        -0.44739E+03
        -0.69481E+03
        -0.11410E+04
        -0.12303E+04
        -0.84846E+03
        -0.37180E+03
        -0.11615E+03
        -0.89916E+02
        -0.14037E+03
        -0.12214E+03
        -0.28648E+02
         0.21156E+02
        -0.53763E+02
        -0.13006E+03
        -0.18727E+03
        -0.23289E+03
        -0.34125E+03
        -0.37777E+03
  
SCALARS                 acceleration_x  double 1
LOOKUP_TABLE default
         0.00000E+00
         0.26473E+09
         0.89411E+08
         0.69837E+08
         0.11562E+09
        -0.25327E+10
        -0.22439E+10
        -0.12759E+10
        -0.13426E+10
         0.22649E+09
         0.60334E+09
        -0.14253E+10
        -0.14147E+10
         0.36179E+07
        -0.29019E+09
        -0.17327E+10
        -0.79939E+09
         0.42151E+08
        -0.58908E+08
        -0.11138E+10
        -0.35168E+10
        -0.15997E+09
         0.27374E+08
         0.34260E+09
        -0.18618E+10
         0.61083E+08
        -0.29591E+09
        -0.14117E+09
        -0.41018E+09
        -0.19677E+10
        -0.29730E+09
         0.16455E+08
         0.42178E+08
        -0.93043E+07
        -0.16926E+09
        -0.45873E+09
        -0.22361E+09
         0.45737E+07
         0.60182E+08
        -0.20444E+08
        -0.69048E+08
        -0.46233E+08
        -0.18073E+09
        -0.67293E+07
        -0.41839E+08
         0.26050E+08
        -0.12492E+08
        -0.57230E+08
        -0.17498E+08
        -0.48857E+08
        -0.55469E+09
        -0.10468E+09
        -0.27462E+09
        -0.28310E+09
        -0.11467E+10
         0.13318E+09
        -0.15862E+10
         0.27413E+09
        -0.91467E+08
        -0.27619E+10
        -0.29827E+09
        -0.37264E+09
        -0.11947E+09
        -0.88009E+09
        -0.46259E+09
        -0.37489E+09
        -0.24496E+09
        -0.52130E+09
        -0.21394E+10
         0.27267E+09
         0.55148E+09
        -0.15440E+10
        -0.73039E+09
         0.20931E+09
        -0.45429E+09
         0.23851E+10
        -0.12162E+09
         0.43903E+10
         0.47029E+09
         0.34293E+10
         0.91285E+09
         0.32561E+09
         0.66942E+08
         0.43725E+08
        -0.69935E+09
        -0.50295E+09
        -0.72785E+09
         0.24360E+09
        -0.94878E+09
         0.53859E+09
        -0.16682E+10
         0.34027E+09
         0.43084E+09
        -0.15956E+10
        -0.38804E+09
         0.10889E+09
        -0.28047E+09
         0.97683E+09
        -0.75167E+09
         0.36294E+10
        -0.69388E+09
         0.25996E+10
         0.35071E+10
        -0.11300E+08
        -0.13094E+10
         0.52423E+09
         0.32118E+10
        -0.31498E+10
        -0.15013E+10
         0.13589E+10
        -0.47278E+09
         0.19370E+09
         0.85450E+09
        -0.13201E+10
         0.40661E+10
        -0.31334E+10
         0.73391E+10
        -0.46723E+10
         0.99765E+10
        -0.11186E+11
         0.19491E+11
        -0.22121E+11
         0.40668E+11
        -0.22851E+11
         0.27225E+11
        -0.62178E+10
         0.23837E+10
        -0.11409E+09
        -0.54573E+09
        -0.39516E+09
        -0.85817E+09
        -0.71699E+09
        -0.16499E+10
        -0.10950E+09
        -0.22001E+10
         0.87301E+09
        -0.19027E+10
         0.16185E+10
        -0.13837E+10
         0.26775E+10
        -0.22115E+10
         0.35811E+10
        -0.15758E+10
         0.43915E+10
        -0.10406E+10
         0.57494E+10
        -0.62594E+09
         0.11888E+11
         0.18542E+09
         0.25656E+11
         0.16412E+10
         0.33388E+11
         0.10297E+10
         0.17445E+11
        -0.39277E+09
         0.67924E+10
        -0.64473E+09
         0.11890E+10
         0.78745E+09
         0.47471E+09
         0.72537E+09
         0.77459E+09
         0.22083E+10
         0.44076E+09
         0.66464E+09
         0.12199E+10
         0.25208E+10
         0.53937E+09
        -0.38570E+09
         0.13848E+09
         0.80681E+09
        -0.88618E+08
         0.75240E+09
         0.62455E+09
         0.13373E+10
         0.38514E+09
         0.36122E+09
         0.17281E+09
         0.55969E+08
         0.90393E+09
         0.46106E+09
         0.98400E+09
         0.64216E+09
         0.12888E+10
         0.16025E+10
         0.94350E+09
         0.29444E+09
         0.63777E+09
         0.54751E+09
         0.27162E+09
         0.10646E+10
         0.12090E+10
         0.78257E+09
         0.43393E+09
         0.78629E+08
         0.29800E+09
        -0.88576E+08
        -0.37958E+09
         0.47288E+09
         0.48856E+08
         0.88781E+09
         0.15393E+10
         0.93146E+09
         0.70086E+09
         0.76213E+09
         0.20900E+10
         0.48677E+10
         0.36730E+10
         0.65966E+10
         0.18245E+10
         0.20455E+10
         0.11017E+10
        -0.60347E+08
        -0.21810E+10
        -0.46058E+10
        -0.74004E+10
        -0.15263E+11
        -0.29594E+11
        -0.26362E+11
        -0.48436E+10
         0.33003E+09
         0.24798E+09
         0.49300E+09
         0.10836E+10
         0.16530E+10
         0.21294E+10
         0.25745E+10
         0.16153E+10
         0.12670E+10
         0.38810E+10
         0.82033E+10
         0.18060E+11
         0.14344E+11
         0.70186E+10
         0.15627E+10
         0.69808E+09
         0.38219E+09
         0.22829E+09
         0.73750E+09
        -0.24330E+09
        -0.68679E+09
         0.26926E+09
         0.38273E+09
         0.51047E+09
         0.16823E+10
         0.41559E+09
        -0.86096E+08
         0.10289E+09
         0.46382E+09
         0.54407E+08
         0.35517E+09
         0.26412E+09
         0.59845E+09
         0.21151E+09
         0.32242E+09
         0.20814E+09
         0.37913E+09
         0.32877E+09
         0.20730E+09
         0.58627E+09
         0.41071E+09
         0.61458E+09
         0.74453E+09
         0.44158E+09
         0.30913E+09
         0.69464E+09
         0.29405E+09
         0.66242E+09
         0.24645E+09
        -0.46548E+08
         0.78257E+08
         0.14072E+09
        -0.14499E+09
        -0.33527E+09
        -0.11680E+09
        -0.21828E+09
         0.14382E+09
         0.47079E+09
         0.20316E+09
         0.16574E+09
        -0.17259E+09
        -0.98106E+08
        -0.18178E+09
         0.54680E+09
         0.38902E+06
        -0.79216E+09
        -0.14230E+10
        -0.12539E+10
        -0.24544E+10
        -0.40195E+09
        -0.26202E+09
        -0.62660E+09
        -0.14324E+10
        -0.18621E+10
        -0.43320E+10
        -0.89042E+10
        -0.96795E+10
        -0.28837E+10
         0.17389E+09
        -0.83236E+08
         0.39194E+09
         0.60241E+09
         0.32709E+09
        -0.39875E+08
        -0.11667E+10
        -0.12935E+10
        -0.11890E+10
        -0.25575E+10
        -0.67526E+10
        -0.74367E+10
        -0.90919E+09
        -0.32608E+10
        -0.10458E+10
         0.13591E+09
         0.62945E+08
        -0.11719E+09
        -0.11657E+09
        -0.76674E+09
        -0.16073E+10
         0.86740E+08
         0.76502E+08
        -0.29254E+08
         0.22584E+09
         0.25346E+09
         0.11789E+09
         0.54004E+08
         0.17940E+09
         0.82554E+08
         0.19607E+08
         0.32454E+08
        -0.62678E+08
         0.43331E+08
         0.95120E+08
         0.97354E+08
         0.21125E+09
         0.33921E+08
         0.18388E+08
         0.11042E+09
         0.24795E+08
         0.20094E+09
         0.21421E+09
         0.75609E+08
         0.12742E+09
        -0.18993E+09
        -0.33540E+08
         0.17687E+08
        -0.14252E+10
        -0.48555E+09
        -0.44579E+09
        -0.52456E+08
         0.19404E+09
        -0.26023E+08
         0.26891E+09
        -0.72748E+08
         0.21382E+09
         0.27256E+09
        -0.94451E+08
        -0.38276E+09
        -0.39875E+09
        -0.36222E+09
        -0.53575E+09
        -0.12353E+10
        -0.24409E+10
        -0.35840E+10
        -0.72907E+10
        -0.26019E+10
        -0.50682E+10
        -0.13777E+10
        -0.22941E+09
         0.12021E+09
         0.44108E+09
        -0.46888E+09
        -0.12127E+10
        -0.21547E+10
        -0.20749E+10
        -0.12427E+10
        -0.54253E+09
        -0.36032E+09
         0.19667E+09
         0.40278E+09
         0.99869E+08
        -0.46407E+09
        -0.12276E+10
        -0.11783E+10
        -0.13409E+10
        -0.20499E+10
        -0.71036E+10
        -0.11625E+11
        -0.11123E+11
        -0.87644E+10
        -0.27003E+10
         0.21110E+08
        -0.14874E+08
        -0.19674E+08
         0.33496E+08
        -0.21130E+09
        -0.33514E+09
         0.26579E+08
         0.11157E+08
        -0.58598E+07
         0.13932E+09
         0.71038E+08
         0.98919E+08
         0.78888E+08
         0.74138E+08
         0.59700E+08
        -0.34195E+08
         0.91526E+07
        -0.39645E+08
        -0.53614E+06
         0.70116E+08
         0.91201E+08
         0.23811E+09
         0.11044E+09
         0.50165E+07
         0.10691E+09
         0.38078E+08
         0.47408E+08
         0.37626E+09
         0.35140E+09
         0.13746E+09
         0.46102E+08
         0.23805E+08
        -0.79639E+08
        -0.25766E+09
        -0.17773E+09
        -0.16007E+08
         0.13567E+08
         0.32342E+09
         0.48416E+09
         0.61763E+09
         0.98356E+08
         0.23780E+09
         0.37743E+09
         0.76761E+08
         0.11663E+09
         0.93644E+08
         0.56679E+08
         0.22635E+08
         0.10116E+08
        -0.16312E+09
        -0.24826E+09
        -0.75597E+09
        -0.67293E+09
        -0.10421E+10
        -0.59116E+08
         0.86069E+08
         0.29085E+09
         0.33237E+09
         0.19136E+09
        -0.46917E+09
        -0.10699E+10
        -0.15917E+10
        -0.11276E+10
        -0.41575E+09
         0.10819E+09
         0.48133E+09
         0.55313E+09
         0.40783E+09
         0.29212E+09
         0.24954E+09
         0.25205E+09
         0.29010E+09
         0.11336E+08
         0.53678E+08
        -0.89570E+09
        -0.19026E+10
        -0.15886E+10
        -0.59413E+09
        -0.21259E+08
        -0.52784E+07
         0.57871E+06
        -0.17354E+08
         0.67008E+07
         0.29933E+07
         0.64028E+07
        -0.10858E+08
        -0.10898E+08
         0.25148E+08
         0.17861E+08
         0.34364E+08
         0.25859E+08
         0.48281E+08
         0.45955E+08
        -0.27174E+08
        -0.96171E+07
        -0.24977E+08
        -0.21227E+08
         0.27295E+08
         0.61619E+08
         0.15651E+09
         0.72344E+08
        -0.96293E+07
         0.90957E+08
        -0.29388E+08
         0.97169E+08
         0.14187E+09
         0.11246E+09
         0.50910E+08
         0.32468E+08
         0.17082E+08
         0.61875E+08
         0.22354E+09
         0.86845E+07
         0.18896E+08
         0.19415E+08
         0.22303E+09
         0.33409E+09
         0.46100E+09
         0.70863E+08
         0.12960E+09
         0.23398E+09
         0.69323E+08
         0.17341E+09
         0.18551E+09
         0.16257E+09
         0.21812E+09
         0.15227E+09
         0.46938E+09
         0.30978E+09
         0.57082E+09
         0.45712E+08
         0.10116E+09
         0.44449E+08
         0.73867E+08
         0.12984E+09
         0.17138E+09
        -0.57040E+08
        -0.13318E+09
        -0.36645E+09
        -0.88432E+09
        -0.64095E+09
        -0.27950E+09
         0.43883E+09
         0.53189E+09
         0.30502E+09
         0.13716E+09
         0.14617E+09
         0.44037E+09
         0.47492E+09
         0.60569E+09
         0.87960E+09
         0.11981E+10
         0.10626E+10
         0.76479E+09
         0.38804E+09
         0.72247E+08
        -0.21961E+08
        -0.78178E+07
        -0.68022E+06
         0.40641E+07
         0.13129E+08
         0.79848E+08
        -0.37044E+08
        -0.79273E+07
        -0.46184E+08
         0.28640E+08
        -0.28285E+08
        -0.41385E+07
        -0.99694E+07
         0.89072E+07
         0.26852E+08
        -0.29012E+08
        -0.21824E+08
        -0.30625E+08
        -0.20029E+08
         0.72196E+07
         0.23503E+08
         0.47327E+08
         0.11849E+08
        -0.79015E+07
         0.33510E+08
        -0.23285E+08
         0.52430E+08
         0.18775E+09
         0.24636E+09
         0.50368E+08
        -0.40573E+07
        -0.76567E+07
         0.10694E+08
         0.13842E+09
         0.10926E+08
         0.12572E+08
         0.43097E+07
         0.18421E+09
         0.19687E+09
         0.36458E+09
         0.39698E+09
         0.29897E+09
         0.11303E+09
        -0.24571E+06
         0.20110E+08
         0.21479E+08
         0.25983E+08
         0.47281E+08
         0.84148E+08
         0.20711E+09
         0.16420E+09
         0.41138E+09
        -0.12139E+07
         0.63818E+08
         0.42404E+07
         0.15462E+08
         0.35194E+08
         0.55645E+08
         0.88500E+08
         0.54272E+08
         0.10029E+10
         0.43814E+09
         0.57150E+09
         0.64251E+09
         0.27705E+09
         0.29882E+09
         0.18453E+09
         0.52018E+08
        -0.12313E+08
         0.23146E+08
         0.76391E+08
         0.67652E+08
         0.16802E+09
         0.35062E+09
         0.37482E+09
         0.21118E+09
         0.18156E+09
         0.50488E+08
        -0.19451E+08
        -0.35252E+07
        -0.34299E+07
        -0.16119E+08
        -0.43240E+07
        -0.39146E+07
        -0.78473E+07
        -0.13044E+08
        -0.23135E+08
        -0.24724E+08
        -0.80275E+07
         0.60441E+07
        -0.10655E+08
        -0.37494E+07
         0.11746E+08
        -0.64748E+07
        -0.71304E+07
        -0.19922E+08
        -0.35837E+07
         0.54843E+07
         0.18618E+08
         0.52543E+08
        -0.74479E+06
        -0.26160E+07
         0.10699E+08
        -0.72704E+07
         0.28695E+08
         0.68728E+08
         0.98213E+08
         0.38172E+08
        -0.98918E+07
        -0.65361E+07
        -0.14266E+08
        -0.13958E+08
        -0.61063E+07
        -0.69491E+07
        -0.73180E+07
         0.86863E+08
         0.18167E+09
         0.34482E+09
         0.26032E+09
         0.13338E+09
         0.14983E+09
        -0.12490E+08
        -0.28478E+08
        -0.25845E+08
        -0.19880E+08
        -0.20856E+08
        -0.16540E+07
         0.10737E+08
         0.15880E+08
         0.15434E+08
        -0.35676E+08
         0.40985E+07
        -0.45734E+08
        -0.27203E+08
         0.23019E+07
         0.52899E+08
         0.40660E+08
         0.21353E+09
         0.36276E+09
         0.77805E+09
         0.54858E+09
         0.51902E+09
         0.53369E+09
         0.30402E+09
         0.12346E+09
        -0.62752E+07
        -0.65476E+08
        -0.95086E+08
        -0.77139E+08
        -0.74777E+08
        -0.78675E+08
        -0.14636E+08
         0.54400E+08
         0.73756E+08
         0.45853E+08
         0.22418E+08
        -0.11382E+08
        -0.43386E+07
        -0.26362E+07
        -0.10870E+08
        -0.12660E+08
        -0.17386E+08
        -0.92453E+07
        -0.45689E+07
        -0.12799E+08
        -0.34078E+08
        -0.89309E+06
        -0.29106E+07
        -0.65572E+07
        -0.14686E+08
         0.31057E+07
        -0.30226E+07
        -0.71747E+07
        -0.10472E+08
         0.14446E+07
        -0.21480E+07
         0.96736E+07
         0.30686E+08
         0.10301E+08
         0.13657E+07
        -0.10898E+08
         0.27143E+07
        -0.18834E+08
        -0.18152E+08
        -0.13173E+07
         0.55067E+07
        -0.80634E+07
         0.20103E+07
        -0.14683E+08
        -0.26613E+08
        -0.10419E+08
        -0.48073E+07
        -0.27971E+07
         0.20566E+08
         0.72193E+08
         0.20691E+09
         0.15408E+09
         0.46983E+08
         0.68584E+08
         0.47013E+07
        -0.17369E+07
        -0.10402E+08
        -0.89077E+07
        -0.16570E+08
        -0.43551E+07
         0.40093E+06
         0.92318E+07
         0.14807E+08
        -0.36158E+08
        -0.66853E+07
        -0.22576E+08
        -0.30052E+08
        -0.19472E+08
        -0.34815E+07
         0.75859E+08
         0.20509E+09
         0.62058E+09
         0.73973E+09
         0.45423E+09
         0.20781E+09
         0.12365E+09
         0.13482E+09
        -0.36496E+08
        -0.32594E+08
        -0.11033E+08
        -0.27672E+08
        -0.35567E+08
        -0.33461E+08
        -0.51410E+08
        -0.37796E+08
        -0.68174E+08
        -0.57711E+08
         0.34759E+08
         0.14970E+08
        -0.12573E+07
         0.11490E+07
         0.44668E+07
        -0.21303E+07
        -0.30982E+07
        -0.11471E+08
         0.58675E+06
         0.11135E+07
        -0.75341E+07
        -0.22367E+08
        -0.24800E+05
        -0.24448E+07
         0.15642E+07
        -0.48076E+07
         0.40478E+06
         0.12979E+07
        -0.43803E+07
        -0.59703E+07
         0.24589E+07
        -0.49222E+07
         0.28732E+07
        -0.21429E+07
         0.13658E+08
         0.72670E+07
        -0.15083E+08
         0.94352E+07
        -0.11635E+08
        -0.22374E+08
        -0.44456E+07
        -0.11201E+08
         0.23562E+07
         0.53639E+07
        -0.89429E+07
        -0.24882E+08
        -0.27466E+07
        -0.13901E+07
         0.40616E+07
         0.96187E+07
         0.17096E+08
         0.67307E+08
         0.58335E+08
         0.35110E+07
         0.94430E+07
         0.11067E+08
         0.12100E+08
         0.50775E+07
         0.36498E+07
        -0.51076E+06
         0.41956E+07
        -0.54102E+07
         0.19706E+08
         0.76930E+07
        -0.28885E+08
        -0.30228E+08
        -0.20139E+08
        -0.20130E+08
        -0.14864E+08
        -0.12547E+08
         0.33244E+08
         0.14776E+09
         0.27413E+09
         0.34863E+09
         0.22979E+09
         0.65540E+08
         0.11828E+09
         0.36716E+08
         0.12288E+08
        -0.32445E+07
        -0.13185E+08
        -0.12824E+08
        -0.82112E+07
        -0.86373E+07
        -0.36154E+08
         0.23088E+08
        -0.34127E+08
        -0.47310E+08
        -0.54705E+08
        -0.26161E+08
        -0.25653E+07
         0.40007E+07
         0.96256E+06
        -0.12919E+08
        -0.82805E+07
        -0.17714E+08
         0.49700E+07
        -0.24673E+07
        -0.64193E+07
        -0.33939E+08
        -0.37332E+07
        -0.34237E+06
         0.48533E+07
        -0.37972E+07
         0.29940E+06
        -0.20976E+07
        -0.71651E+07
        -0.69831E+07
        -0.33830E+07
        -0.13254E+08
        -0.35525E+07
        -0.20650E+08
        -0.22844E+07
         0.15826E+05
        -0.18943E+08
         0.25972E+07
        -0.20579E+08
        -0.34158E+08
        -0.24371E+08
        -0.23221E+08
        -0.58855E+07
         0.16492E+07
        -0.54036E+07
        -0.13225E+07
         0.28249E+07
        -0.10728E+07
        -0.14128E+06
        -0.79676E+07
        -0.21171E+08
        -0.21948E+08
         0.13255E+08
        -0.22720E+07
        -0.30979E+08
         0.11465E+07
        -0.83772E+06
         0.77272E+06
         0.35922E+07
        -0.72077E+06
        -0.73587E+07
        -0.23953E+07
         0.52784E+07
        -0.19966E+08
        -0.51196E+08
         0.69135E+07
        -0.35799E+08
        -0.39279E+08
        -0.35051E+08
        -0.18094E+08
         0.34348E+08
         0.12439E+09
         0.25563E+09
         0.32067E+09
         0.13380E+09
        -0.17652E+08
         0.78366E+08
         0.35943E+08
         0.86731E+06
        -0.24746E+08
        -0.45032E+08
        -0.45944E+08
        -0.16743E+08
         0.86236E+07
         0.51395E+08
         0.56558E+08
         0.10886E+09
         0.11812E+09
         0.53388E+08
        -0.42679E+07
        -0.65374E+07
        -0.22151E+06
         0.64924E+06
        -0.78279E+07
        -0.23039E+07
        -0.98731E+07
         0.42634E+07
        -0.30603E+07
        -0.90651E+07
        -0.33767E+08
         0.12407E+07
        -0.43868E+06
         0.25480E+07
        -0.60499E+07
         0.20106E+07
        -0.33812E+07
        -0.80228E+07
        -0.74825E+07
        -0.39447E+07
        -0.15419E+08
        -0.45151E+07
        -0.16319E+08
        -0.36025E+07
         0.45894E+05
        -0.23555E+08
         0.83431E+06
        -0.94954E+07
        -0.13180E+08
         0.61447E+07
        -0.11398E+08
        -0.48416E+07
        -0.13926E+06
        -0.77748E+07
        -0.24545E+08
        -0.58487E+07
        -0.66416E+07
         0.52245E+06
         0.19867E+08
         0.51273E+08
         0.11398E+09
         0.92818E+08
         0.13491E+08
         0.17099E+08
        -0.20259E+07
        -0.40917E+07
        -0.57950E+07
        -0.22098E+07
        -0.32256E+07
        -0.14495E+08
        -0.23101E+08
        -0.13510E+08
        -0.37572E+08
        -0.16763E+08
        -0.11055E+08
        -0.41242E+08
        -0.34414E+08
        -0.34539E+08
        -0.88288E+07
         0.43614E+08
         0.13659E+09
         0.27751E+09
         0.35127E+09
         0.30172E+09
         0.17404E+09
         0.11247E+09
         0.61452E+08
        -0.16977E+08
        -0.40231E+08
        -0.47534E+08
        -0.46059E+08
        -0.18081E+08
        -0.23526E+07
         0.82577E+07
         0.27444E+08
         0.12882E+09
         0.35069E+08
         0.51295E+08
        -0.10046E+08
        -0.42946E+07
         0.29384E+07
        -0.25314E+07
        -0.15615E+08
        -0.18831E+08
        -0.38036E+08
        -0.72970E+06
        -0.24904E+07
        -0.13916E+08
        -0.29338E+08
         0.50027E+06
         0.23695E+07
         0.94974E+07
        -0.80915E+07
         0.31637E+07
        -0.31623E+07
        -0.10391E+08
        -0.90824E+07
        -0.32696E+07
        -0.19182E+08
        -0.15735E+07
        -0.10130E+08
         0.11170E+07
         0.11832E+07
        -0.16239E+08
         0.13938E+07
        -0.95838E+07
        -0.16870E+08
        -0.88571E+07
        -0.17788E+08
        -0.11502E+08
        -0.13948E+07
        -0.69961E+07
        -0.42297E+08
        -0.72434E+06
        -0.26656E+07
         0.17126E+07
         0.44700E+07
         0.17650E+08
         0.68550E+08
         0.56675E+08
         0.19216E+08
        -0.31997E+08
         0.45084E+06
        -0.45914E+07
        -0.42562E+07
        -0.28882E+07
        -0.91112E+07
        -0.24810E+07
        -0.20582E+06
        -0.18682E+07
        -0.49983E+08
        -0.31220E+08
        -0.40088E+08
        -0.38097E+08
        -0.28111E+08
        -0.16533E+08
        -0.45610E+07
         0.59341E+08
         0.18131E+09
         0.37172E+09
         0.43647E+09
         0.10193E+09
         0.24565E+09
         0.74230E+08
         0.17112E+08
        -0.19330E+08
        -0.34045E+08
        -0.44496E+08
        -0.45789E+08
        -0.17896E+08
        -0.58205E+07
         0.17687E+08
         0.12869E+09
         0.17594E+09
         0.87228E+08
         0.41506E+08
         0.15130E+08
        -0.20976E+06
         0.38709E+07
        -0.17436E+07
        -0.15726E+08
        -0.11416E+08
        -0.16274E+08
         0.83620E+06
        -0.10865E+07
        -0.89163E+07
        -0.24629E+08
         0.55232E+07
        -0.34939E+07
        -0.10439E+07
        -0.72817E+07
        -0.31384E+07
        -0.53991E+07
        -0.99986E+07
        -0.91134E+07
        -0.15575E+07
        -0.12039E+08
        -0.16224E+07
        -0.11945E+08
        -0.16490E+07
        -0.14308E+06
        -0.33532E+08
         0.71499E+06
        -0.96021E+07
         0.10305E+08
         0.17234E+08
        -0.22389E+08
        -0.59430E+07
        -0.20392E+07
        -0.98445E+07
        -0.28310E+08
         0.51317E+07
        -0.16933E+07
         0.36161E+07
        -0.90560E+07
        -0.17187E+08
         0.29225E+08
        -0.96270E+07
         0.26603E+07
        -0.16686E+08
        -0.27935E+07
        -0.60752E+07
        -0.29940E+07
         0.15988E+06
        -0.23199E+06
         0.32121E+07
         0.21734E+08
         0.27395E+08
        -0.49479E+07
        -0.27483E+08
         0.44773E+08
        -0.28349E+08
        -0.27480E+08
        -0.19780E+08
        -0.15503E+08
         0.69678E+08
         0.18276E+09
         0.19730E+09
        -0.81770E+08
        -0.14547E+09
        -0.19424E+09
         0.79001E+08
        -0.21043E+08
        -0.67600E+08
        -0.40976E+08
        -0.47565E+08
        -0.46641E+08
        -0.19557E+08
        -0.43185E+07
         0.91250E+07
         0.92273E+08
         0.11670E+09
         0.35518E+08
         0.18038E+08
         0.17350E+08
        -0.36094E+07
         0.44692E+06
         0.14049E+07
        -0.81724E+07
         0.18930E+07
        -0.44314E+07
        -0.25841E+07
        -0.34465E+07
        -0.84004E+07
        -0.30015E+08
         0.22237E+07
        -0.48247E+07
         0.13929E+07
        -0.10862E+08
        -0.53885E+07
        -0.26156E+07
        -0.39342E+07
        -0.10643E+08
         0.10635E+07
        -0.79953E+07
        -0.92539E+07
        -0.16479E+08
        -0.10154E+08
         0.69621E+06
        -0.29271E+08
        -0.20570E+07
        -0.33922E+08
        -0.50376E+08
        -0.53969E+08
        -0.11900E+08
        -0.10133E+08
        -0.84823E+06
        -0.10261E+08
        -0.23665E+08
        -0.23579E+07
         0.11985E+07
         0.84290E+05
        -0.14517E+08
        -0.39649E+08
        -0.64960E+08
        -0.98588E+08
        -0.40132E+08
        -0.71838E+07
        -0.33467E+07
        -0.49015E+07
        -0.52617E+06
         0.88680E+06
        -0.38479E+06
         0.10731E+07
         0.12572E+08
         0.23054E+08
         0.23107E+08
        -0.17159E+08
         0.57055E+08
        -0.14286E+08
        -0.19105E+08
        -0.16055E+08
         0.29467E+06
         0.47289E+08
         0.48403E+08
         0.45979E+08
         0.38164E+06
        -0.28887E+09
        -0.15969E+09
         0.24394E+08
         0.51057E+08
        -0.99493E+07
        -0.64177E+08
        -0.42731E+08
        -0.25466E+08
        -0.36326E+07
         0.44467E+07
         0.26848E+08
         0.13319E+08
         0.54532E+08
         0.65182E+08
         0.69745E+08
        -0.40290E+07
        -0.58376E+07
        -0.64608E+07
        -0.24447E+07
        -0.15548E+08
        -0.12805E+07
         0.36263E+06
        -0.28231E+07
        -0.30213E+07
        -0.99755E+07
        -0.75490E+07
        -0.66368E+07
        -0.51529E+06
        -0.24020E+07
        -0.10116E+08
        -0.49038E+07
        -0.28557E+07
        -0.69332E+07
        -0.10614E+08
        -0.23290E+07
        -0.14381E+08
         0.23584E+07
         0.23416E+07
         0.34702E+07
         0.80515E+06
        -0.27499E+08
         0.69204E+06
        -0.23788E+08
        -0.31693E+08
         0.91731E+07
        -0.16334E+08
        -0.13370E+08
        -0.20426E+05
        -0.15595E+08
        -0.23911E+08
         0.55505E+07
        -0.51326E+07
        -0.35115E+07
         0.58798E+07
         0.24720E+08
         0.60545E+08
         0.59559E+08
         0.75480E+07
        -0.14865E+08
         0.22323E+07
         0.19047E+07
         0.60808E+07
         0.31121E+06
         0.32270E+07
        -0.15439E+06
         0.79875E+07
         0.78289E+07
         0.97747E+07
        -0.48851E+07
         0.41783E+08
        -0.36640E+08
        -0.46243E+08
        -0.38125E+08
        -0.31681E+07
         0.15151E+08
         0.26466E+08
        -0.20963E+09
         0.79786E+08
         0.18092E+09
        -0.12765E+09
         0.36596E+08
         0.17839E+08
        -0.14018E+08
         0.25697E+07
        -0.32579E+08
        -0.13151E+08
         0.68808E+07
         0.18895E+08
         0.40196E+08
         0.72733E+08
         0.13807E+09
         0.92869E+08
         0.82560E+08
         0.33492E+08
        -0.33403E+07
        -0.21098E+07
         0.40413E+07
        -0.70274E+07
         0.85139E+07
         0.19227E+08
        -0.88854E+06
        -0.27897E+07
        -0.50182E+07
        -0.33742E+08
         0.11510E+07
        -0.55078E+05
        -0.19855E+07
        -0.28375E+07
        -0.27091E+07
         0.16051E+07
        -0.25741E+07
        -0.62756E+07
         0.15892E+07
        -0.72364E+07
        -0.39915E+07
        -0.22793E+08
         0.91715E+06
         0.46166E+07
        -0.18232E+08
         0.63113E+07
        -0.13320E+08
        -0.29255E+08
        -0.17201E+07
        -0.15255E+08
        -0.17486E+07
         0.35840E+07
        -0.90432E+07
        -0.36477E+07
         0.15929E+07
        -0.26456E+07
         0.11576E+07
        -0.11217E+08
        -0.43725E+07
        -0.38933E+08
        -0.50294E+08
        -0.43432E+08
        -0.19314E+08
         0.63783E+07
         0.12241E+08
         0.90851E+07
         0.89310E+07
         0.36059E+07
         0.12042E+08
         0.11732E+08
         0.16765E+08
         0.45213E+08
        -0.21921E+07
         0.27984E+08
        -0.21606E+08
        -0.23166E+08
        -0.23897E+08
        -0.17527E+08
        -0.35083E+08
        -0.56897E+08
         0.37218E+08
         0.11274E+09
         0.17505E+09
         0.61808E+08
        -0.11192E+08
        -0.50225E+07
         0.12720E+08
         0.10745E+08
        -0.12269E+07
        -0.23743E+07
         0.82313E+07
         0.14952E+08
         0.17139E+08
         0.87152E+08
         0.10050E+09
         0.58349E+08
         0.37597E+08
         0.19904E+08
        -0.19350E+07
         0.38406E+07
         0.54358E+07
        -0.14682E+07
         0.12912E+08
         0.26173E+08
         0.72129E+07
        -0.11640E+07
        -0.70309E+07
        -0.33094E+08
         0.10477E+07
         0.13927E+07
         0.10450E+08
        -0.92329E+07
        -0.18406E+07
         0.22917E+07
        -0.64506E+07
        -0.95226E+07
        -0.31200E+06
        -0.83164E+07
        -0.67581E+07
        -0.31526E+08
        -0.64526E+07
         0.17804E+07
        -0.22087E+08
         0.62628E+07
        -0.20020E+08
        -0.29343E+08
        -0.23691E+08
         0.17742E+07
         0.15664E+07
         0.43842E+07
        -0.42347E+07
         0.52437E+07
         0.13582E+08
         0.79759E+07
         0.94766E+07
        -0.22358E+08
        -0.57645E+08
        -0.12368E+09
        -0.92819E+08
        -0.48391E+08
        -0.35114E+07
         0.52516E+07
         0.78094E+07
         0.46870E+07
         0.43762E+07
         0.69971E+07
         0.85319E+07
         0.34890E+08
         0.35262E+08
         0.69814E+08
         0.43783E+07
         0.66694E+08
        -0.16799E+08
        -0.13571E+08
        -0.11735E+08
        -0.22129E+08
         0.38065E+08
         0.24490E+08
        -0.18534E+08
         0.59219E+08
        -0.14815E+09
        -0.16358E+09
        -0.10561E+09
        -0.11151E+09
        -0.57993E+08
        -0.57550E+08
        -0.44131E+08
        -0.25564E+08
        -0.45325E+07
         0.46607E+07
         0.26970E+08
         0.65133E+08
         0.10985E+09
         0.10392E+09
         0.78111E+08
         0.21441E+08
        -0.22560E+06
         0.33790E+07
         0.28627E+07
         0.46919E+06
         0.12496E+08
         0.13858E+08
         0.62667E+07
        -0.26571E+07
        -0.53726E+07
        -0.31000E+08
         0.85794E+06
         0.12880E+07
         0.78028E+07
         0.14945E+07
         0.50873E+06
        -0.29199E+07
        -0.56843E+07
        -0.28146E+07
        -0.29368E+07
        -0.12277E+08
        -0.11481E+08
        -0.30306E+08
        -0.89757E+07
         0.17685E+07
        -0.20261E+08
         0.32617E+07
        -0.78018E+06
        -0.23189E+08
        -0.98722E+07
        -0.18354E+08
        -0.40540E+06
         0.29702E+07
        -0.89237E+06
         0.56089E+07
         0.86959E+07
         0.96583E+07
         0.85101E+07
        -0.17699E+08
        -0.27738E+08
        -0.59013E+08
        -0.70936E+08
        -0.35269E+08
        -0.52856E+08
         0.38424E+06
         0.58610E+07
         0.47466E+07
         0.72464E+07
         0.84906E+07
         0.14536E+08
         0.37759E+08
         0.29211E+08
         0.58309E+08
        -0.81763E+07
         0.49180E+08
         0.65496E+07
        -0.33162E+07
        -0.13663E+08
        -0.27192E+08
         0.12202E+08
        -0.52179E+08
        -0.11925E+09
        -0.94718E+08
        -0.26490E+08
        -0.39629E+08
        -0.23833E+08
        -0.14447E+08
        -0.33107E+08
        -0.37457E+08
        -0.33536E+08
        -0.22513E+08
         0.85708E+07
         0.17334E+08
         0.37298E+08
         0.53817E+08
         0.83411E+08
         0.84337E+08
         0.68552E+08
         0.26241E+08
         0.18270E+07
         0.64454E+07
         0.75097E+07
         0.10575E+08
         0.13528E+08
         0.27467E+08
         0.59234E+07
        -0.18424E+07
        -0.21862E+07
        -0.13327E+08
         0.53945E+06
         0.19196E+07
         0.92144E+07
        -0.88433E+07
         0.28504E+07
         0.38740E+07
        -0.43873E+07
         0.11306E+07
         0.32240E+06
        -0.48453E+07
         0.31180E+07
        -0.42838E+07
         0.60498E+07
         0.20351E+07
        -0.19838E+08
         0.37133E+07
        -0.22307E+08
        -0.50233E+08
        -0.28223E+08
        -0.11492E+08
         0.11528E+08
         0.53760E+07
         0.49715E+07
         0.12743E+08
         0.13685E+08
         0.13079E+08
         0.10345E+08
        -0.27122E+08
        -0.54060E+08
        -0.12621E+09
        -0.10360E+08
        -0.23948E+08
        -0.52119E+08
         0.24556E+07
         0.69247E+07
         0.56287E+07
         0.81050E+07
         0.99948E+07
         0.25975E+08
         0.30284E+08
         0.24736E+08
         0.58374E+08
         0.13573E+08
         0.30234E+08
         0.21207E+07
        -0.89039E+06
         0.70013E+06
         0.42628E+07
         0.79286E+08
        -0.50136E+08
        -0.14667E+09
         0.22028E+08
        -0.12911E+09
        -0.58803E+08
        -0.10153E+09
        -0.35496E+08
        -0.20099E+08
        -0.21817E+08
        -0.22063E+08
        -0.15365E+08
         0.12760E+07
         0.49330E+08
         0.62944E+08
         0.61653E+07
         0.33575E+08
         0.62561E+08
         0.56192E+08
         0.14320E+08
        -0.15325E+07
         0.16197E+07
         0.51576E+07
         0.73685E+07
         0.23830E+08
         0.65755E+08
         0.67223E+06
        -0.86631E+06
        -0.14067E+07
        -0.26119E+08
         0.26617E+07
         0.34993E+07
         0.91755E+07
         0.20013E+07
         0.65210E+07
         0.55215E+07
        -0.16833E+07
         0.68672E+07
         0.28447E+07
        -0.43827E+07
        -0.27318E+07
        -0.68614E+07
         0.10285E+07
         0.24055E+07
        -0.22863E+08
         0.45903E+07
        -0.24750E+08
        -0.38519E+08
        -0.36956E+08
        -0.16978E+08
         0.19872E+08
         0.96672E+07
         0.27375E+08
         0.25265E+08
         0.25084E+08
         0.10530E+08
         0.57562E+07
         0.24450E+07
        -0.20692E+08
        -0.96578E+08
        -0.10704E+09
        -0.57059E+08
        -0.26558E+08
         0.63994E+07
         0.28258E+08
         0.31211E+08
         0.33762E+08
         0.46388E+08
         0.28107E+08
         0.52838E+08
         0.33802E+08
         0.90596E+08
         0.19926E+08
         0.68479E+08
         0.31162E+07
         0.42877E+07
         0.86740E+06
        -0.44613E+07
         0.50549E+08
         0.76155E+08
         0.22558E+08
        -0.23993E+08
        -0.12076E+09
        -0.17238E+09
        -0.96274E+08
        -0.48702E+08
        -0.16350E+08
        -0.71978E+07
         0.11333E+08
         0.30371E+08
         0.83746E+08
         0.12341E+09
         0.16818E+09
        -0.23671E+08
         0.27452E+08
         0.65544E+08
         0.98170E+08
         0.36891E+08
        -0.20152E+08
        -0.14908E+08
        -0.33509E+07
         0.13247E+07
         0.58118E+07
         0.42609E+08
        -0.13965E+08
        -0.70700E+07
        -0.75898E+07
        -0.34358E+08
        -0.71546E+07
        -0.25175E+08
        -0.21239E+08
        -0.14506E+08
        -0.12938E+08
        -0.76427E+07
        -0.67772E+07
        -0.43793E+07
        -0.77697E+07
        -0.15857E+08
         0.21073E+08
         0.13237E+08
         0.32849E+08
        -0.62599E+05
        -0.17459E+08
         0.15632E+06
        -0.12091E+08
        -0.39784E+08
        -0.48535E+08
        -0.14634E+08
         0.23485E+08
         0.12535E+08
         0.19173E+08
         0.25750E+08
        -0.68390E+07
        -0.11400E+08
        -0.95968E+07
        -0.62583E+08
        -0.12522E+09
        -0.27532E+09
        -0.19498E+09
        -0.64683E+08
        -0.28696E+08
         0.26286E+08
         0.49408E+08
         0.42891E+08
         0.39230E+08
         0.44391E+08
         0.65847E+08
         0.10118E+09
         0.52001E+08
         0.12989E+09
        -0.14456E+08
         0.78414E+08
        -0.41935E+08
        -0.53647E+08
        -0.60361E+08
        -0.74920E+08
        -0.68312E+08
        -0.19088E+09
        -0.52470E+09
        -0.74024E+09
        -0.57457E+09
        -0.23231E+09
         0.55138E+08
         0.28604E+09
         0.33186E+09
         0.21220E+09
         0.83411E+08
         0.84779E+08
         0.11139E+09
         0.12288E+09
         0.11704E+09
         0.12315E+09
         0.13958E+09
         0.11771E+09
         0.11910E+09
         0.55474E+08
        -0.43461E+08
        -0.54272E+08
        -0.46016E+08
        -0.65256E+08
        -0.36826E+08
        -0.37598E+08
        -0.27379E+08
        -0.11045E+08
         0.23945E+07
         0.44095E+08
        -0.28522E+08
        -0.38109E+08
        -0.54611E+08
        -0.28523E+08
        -0.34875E+08
         0.49255E+08
         0.28121E+08
         0.15493E+08
         0.79648E+08
         0.77077E+08
         0.22195E+09
         0.35804E+09
         0.31992E+09
         0.80052E+08
        -0.21106E+07
         0.88621E+08
        -0.17682E+08
         0.23521E+08
         0.76444E+08
         0.53212E+08
         0.39792E+08
         0.43882E+08
        -0.13241E+08
        -0.72102E+08
        -0.75533E+08
        -0.76578E+08
        -0.58771E+08
        -0.90463E+08
        -0.12103E+09
        -0.93932E+08
         0.11488E+08
         0.18764E+09
         0.34335E+09
         0.16347E+09
         0.12676E+09
         0.50321E+08
         0.36973E+08
         0.18968E+08
        -0.34590E+07
        -0.64314E+08
        -0.43523E+08
        -0.71097E+08
        -0.81102E+08
         0.27039E+08
        -0.15762E+09
        -0.14016E+09
        -0.10711E+09
        -0.89988E+08
        -0.16841E+09
        -0.27971E+09
        -0.44542E+09
        -0.51978E+09
        -0.10700E+09
         0.47258E+09
         0.96682E+09
         0.12024E+10
         0.10053E+10
         0.57902E+09
         0.25515E+09
         0.17748E+09
         0.99572E+08
         0.37566E+08
        -0.35922E+08
        -0.20185E+09
        -0.20570E+09
        -0.86422E+08
         0.86450E+07
         0.46178E+08
         0.11270E+09
         0.13699E+09
         0.10812E+09
         0.16773E+09
         0.81097E+08
         0.90638E+07
         0.79332E+08
         0.19135E+08
        -0.13209E+08
        -0.22566E+09
         0.57963E+08
         0.54004E+08
         0.11975E+09
         0.76367E+07
         0.27120E+08
        -0.53428E+08
        -0.86439E+08
         0.64182E+08
        -0.21393E+09
        -0.25353E+09
        -0.72032E+09
        -0.11823E+10
        -0.98505E+09
        -0.21641E+09
        -0.17251E+09
        -0.18169E+09
        -0.71937E+08
        -0.17337E+09
        -0.21653E+09
        -0.20915E+09
        -0.21521E+08
        -0.10465E+09
         0.51321E+08
         0.81822E+08
         0.15946E+09
         0.16532E+09
         0.12734E+09
         0.43111E+08
         0.93884E+08
         0.10110E+09
        -0.11008E+08
        -0.52721E+09
        -0.10851E+10
        -0.50096E+09
        -0.57225E+09
        -0.31860E+09
        -0.27114E+09
        -0.23205E+09
        -0.22747E+09
        -0.32124E+09
        -0.21005E+09
        -0.28110E+09
         0.20270E+09
         0.70443E+08
         0.27187E+09
         0.18824E+09
         0.93418E+08
         0.65581E+08
         0.13721E+09
         0.35900E+09
         0.88791E+09
         0.12115E+10
         0.45629E+09
        -0.83706E+09
        -0.22649E+10
        -0.32026E+10
        -0.30753E+10
        -0.22221E+10
        -0.16136E+10
        -0.13406E+10
        -0.93849E+09
        -0.10022E+10
        -0.11109E+10
        -0.11273E+10
        -0.86411E+09
        -0.59587E+09
        -0.33413E+09
  
SCALARS                 acceleration_y  double 1
LOOKUP_TABLE default
        -0.48127E+08
         0.48371E+09
         0.24382E+09
         0.42125E+08
        -0.25161E+09
         0.46414E+09
         0.52886E+08
        -0.13978E+09
         0.42343E+09
         0.31546E+09
         0.14350E+09
         0.19151E+09
         0.52651E+09
         0.23972E+09
         0.62558E+09
         0.33318E+09
         0.42700E+08
        -0.39629E+08
         0.11500E+09
        -0.25906E+08
         0.62072E+09
        -0.31063E+09
         0.11265E+08
         0.79381E+09
         0.14613E+09
         0.29434E+09
         0.11549E+09
         0.37040E+09
         0.32848E+08
         0.51937E+09
        -0.18631E+08
        -0.61759E+08
         0.32743E+08
        -0.25771E+08
        -0.14563E+09
         0.79010E+08
        -0.24344E+08
        -0.63540E+08
        -0.42428E+08
        -0.11719E+09
         0.15361E+09
         0.21606E+09
         0.13605E+09
         0.24370E+09
         0.10158E+07
        -0.79654E+08
        -0.28155E+08
        -0.69358E+08
        -0.46543E+08
         0.74617E+08
        -0.52891E+08
         0.66249E+08
        -0.31758E+09
        -0.52834E+09
        -0.15431E+10
        -0.26247E+10
        -0.27922E+10
         0.21422E+09
        -0.47896E+10
         0.18334E+09
         0.22866E+09
         0.12222E+09
         0.91103E+08
         0.38489E+09
         0.35136E+09
        -0.20545E+09
         0.91576E+09
         0.11008E+09
         0.43179E+09
         0.31803E+09
         0.63096E+09
         0.25276E+09
         0.13619E+09
         0.16851E+09
        -0.54114E+10
        -0.90140E+10
        -0.10157E+11
        -0.22673E+11
        -0.10027E+11
        -0.24457E+11
        -0.76031E+10
        -0.19031E+10
        -0.14058E+11
        -0.26714E+10
         0.15133E+09
         0.10666E+09
        -0.15280E+09
        -0.24018E+09
        -0.76353E+08
         0.27573E+08
         0.18994E+09
         0.28766E+09
         0.50812E+09
         0.38006E+09
         0.52584E+09
        -0.11353E+08
         0.12498E+10
         0.10459E+09
         0.14415E+10
         0.30334E+09
         0.68421E+09
         0.78786E+09
         0.49908E+09
         0.29878E+09
         0.84246E+09
         0.35140E+09
         0.22463E+10
         0.21028E+10
        -0.14508E+09
         0.41667E+08
        -0.14038E+10
        -0.24821E+10
        -0.29571E+10
        -0.54751E+10
        -0.35542E+10
        -0.50660E+10
        -0.42129E+10
        -0.27380E+10
        -0.15936E+10
         0.99552E+10
         0.27581E+11
         0.10521E+12
         0.41057E+11
         0.14990E+12
         0.91156E+10
         0.20342E+11
        -0.28558E+10
        -0.39004E+10
        -0.11139E+10
        -0.17644E+10
        -0.89183E+09
        -0.11506E+10
        -0.67270E+09
        -0.79448E+09
        -0.52851E+09
        -0.82049E+09
        -0.39089E+09
        -0.12146E+10
        -0.23500E+09
        -0.14794E+10
         0.38445E+09
        -0.91201E+08
         0.15637E+10
         0.45324E+09
         0.10154E+10
         0.65833E+09
         0.18194E+10
         0.11880E+10
        -0.10156E+10
         0.92852E+09
        -0.64717E+10
         0.65130E+09
        -0.47661E+10
         0.11890E+10
        -0.13993E+10
         0.16382E+10
         0.40770E+09
         0.73126E+09
         0.68174E+09
         0.10152E+10
         0.59527E+09
         0.86025E+09
         0.34773E+09
         0.32807E+09
         0.60819E+08
         0.20725E+09
         0.40723E+09
        -0.18656E+09
         0.89313E+08
         0.15323E+09
        -0.10047E+10
        -0.57899E+08
        -0.18006E+08
         0.21021E+09
         0.63674E+07
         0.11611E+09
         0.40757E+09
         0.51846E+09
         0.11754E+08
        -0.29131E+09
        -0.40834E+08
        -0.31698E+09
        -0.29485E+09
        -0.98308E+09
        -0.13124E+10
         0.27273E+09
         0.71002E+09
        -0.88958E+08
         0.17693E+10
         0.34052E+10
         0.26653E+09
         0.50541E+09
         0.28532E+09
        -0.34603E+10
        -0.63754E+10
        -0.61286E+10
        -0.65244E+10
        -0.14643E+10
         0.24773E+09
        -0.12558E+09
        -0.81715E+08
         0.52095E+08
         0.84625E+09
         0.21189E+10
         0.23582E+10
         0.26546E+10
         0.62960E+09
         0.12897E+09
        -0.10732E+10
        -0.20034E+10
        -0.79644E+09
        -0.89942E+09
        -0.16886E+10
        -0.24194E+10
        -0.39091E+10
        -0.53964E+10
         0.64777E+10
         0.14157E+11
        -0.54787E+09
        -0.33448E+10
        -0.20546E+10
        -0.15751E+10
        -0.10555E+10
        -0.48888E+09
         0.20399E+09
         0.10738E+10
         0.12583E+10
         0.36115E+10
         0.37921E+10
         0.31714E+10
        -0.95295E+10
        -0.23428E+11
        -0.19091E+11
        -0.49136E+10
         0.39980E+09
         0.23404E+09
         0.14662E+10
         0.17497E+10
         0.64714E+09
         0.11220E+10
         0.18224E+09
         0.13603E+09
         0.95547E+08
         0.15023E+09
         0.35711E+08
         0.20708E+09
         0.27608E+09
         0.29869E+09
         0.75484E+08
         0.66285E+08
         0.11088E+09
         0.24925E+09
         0.15050E+09
         0.31766E+09
         0.45636E+09
         0.55971E+09
         0.18457E+09
        -0.41738E+08
         0.21734E+09
        -0.16801E+09
         0.35326E+09
         0.36605E+09
        -0.15005E+09
         0.39241E+09
         0.73900E+09
         0.74758E+08
         0.12681E+10
         0.24985E+10
        -0.79485E+07
         0.36725E+09
         0.22567E+09
        -0.31563E+09
        -0.11076E+10
        -0.17675E+10
        -0.24212E+10
        -0.61129E+09
         0.34613E+09
         0.90048E+08
         0.11278E+09
         0.21453E+09
         0.78953E+09
         0.17766E+10
         0.73084E+09
         0.10256E+10
        -0.19607E+10
        -0.68755E+08
        -0.35144E+10
        -0.67486E+10
        -0.95128E+09
        -0.93478E+08
         0.28391E+08
        -0.11396E+09
        -0.47547E+09
        -0.16020E+10
        -0.26896E+10
        -0.35797E+10
        -0.46981E+10
        -0.26603E+10
        -0.14628E+10
        -0.17706E+10
        -0.10721E+10
        -0.53911E+08
         0.91905E+09
         0.12091E+10
         0.86970E+09
         0.29975E+10
         0.30848E+10
         0.28592E+09
        -0.45601E+10
        -0.62439E+09
        -0.75565E+10
        -0.10656E+11
        -0.17178E+08
        -0.26904E+08
         0.17013E+08
         0.49405E+09
        -0.57259E+08
         0.52202E+09
        -0.43980E+08
         0.77773E+08
         0.11878E+09
         0.19549E+09
         0.99993E+08
         0.19286E+09
         0.59338E+08
         0.15776E+09
         0.11940E+09
         0.89150E+08
         0.82881E+08
         0.98498E+08
         0.15718E+09
         0.35736E+09
         0.60611E+09
         0.75326E+09
         0.30544E+09
         0.19210E+09
         0.39180E+09
         0.10415E+09
         0.49777E+09
         0.41392E+09
         0.38305E+09
         0.55753E+09
         0.33768E+09
         0.91457E+08
         0.30999E+09
         0.90441E+09
        -0.11155E+09
         0.14410E+09
         0.40110E+08
         0.32800E+09
         0.29346E+09
        -0.17313E+09
        -0.92139E+09
         0.93840E+08
         0.67302E+09
         0.13286E+09
         0.41973E+08
         0.89601E+07
         0.25347E+09
         0.46710E+09
         0.75139E+09
         0.10073E+10
         0.75973E+09
         0.35468E+09
        -0.15554E+10
        -0.30939E+10
        -0.40968E+09
         0.21621E+09
         0.29270E+09
         0.48234E+09
         0.37518E+09
        -0.66022E+09
        -0.18196E+10
        -0.37793E+10
        -0.38584E+10
        -0.23599E+10
        -0.26234E+10
        -0.18464E+10
        -0.11657E+10
        -0.54986E+09
        -0.97544E+08
        -0.14754E+09
        -0.28268E+09
         0.17367E+08
         0.17517E+09
         0.15214E+10
        -0.13022E+10
        -0.62004E+10
        -0.68284E+10
        -0.36144E+10
         0.10203E+08
        -0.30135E+08
        -0.50489E+08
        -0.29702E+08
         0.38338E+08
         0.30804E+08
        -0.68985E+08
         0.52878E+08
         0.49209E+08
         0.12432E+09
         0.70376E+08
         0.74015E+08
        -0.28535E+08
         0.31002E+09
         0.32985E+09
         0.36198E+08
         0.12253E+09
        -0.98056E+08
         0.20621E+09
         0.28175E+09
         0.47548E+09
         0.68517E+09
         0.22602E+09
         0.22202E+09
         0.34086E+09
         0.11457E+09
         0.34488E+09
         0.46885E+09
         0.51688E+09
         0.40140E+09
        -0.11873E+09
        -0.97681E+07
        -0.20763E+09
        -0.12617E+09
         0.77557E+08
         0.66394E+07
        -0.28991E+08
         0.62443E+09
         0.58667E+09
         0.44410E+09
        -0.10189E+09
         0.50911E+09
         0.72324E+09
         0.96832E+08
        -0.32323E+08
        -0.15362E+09
        -0.14965E+09
        -0.21332E+09
        -0.14774E+09
        -0.39486E+08
         0.37268E+09
         0.74790E+08
         0.36237E+09
         0.27078E+09
         0.22103E+09
         0.14778E+09
         0.27513E+09
         0.49883E+09
         0.33404E+09
         0.17211E+09
        -0.87292E+09
        -0.31142E+10
        -0.45168E+10
        -0.36877E+10
        -0.23997E+10
        -0.15799E+10
        -0.95752E+09
        -0.60819E+09
        -0.48468E+09
        -0.54538E+09
        -0.54756E+09
        -0.52568E+09
        -0.15754E+09
         0.25198E+09
         0.63516E+09
         0.11115E+10
         0.66183E+09
         0.27333E+09
        -0.43478E+07
        -0.63071E+08
        -0.81899E+08
        -0.58790E+08
        -0.45168E+08
        -0.68559E+08
        -0.57487E+07
         0.44218E+08
         0.10109E+08
         0.13525E+09
         0.69315E+08
         0.44975E+08
        -0.26057E+08
         0.12094E+09
         0.22486E+09
         0.25460E+07
         0.76907E+08
        -0.85030E+08
         0.89605E+08
         0.14332E+09
         0.28592E+09
         0.43948E+09
         0.11215E+09
         0.83843E+08
         0.22027E+09
         0.36813E+08
         0.28377E+09
         0.43755E+09
         0.49791E+09
         0.26845E+09
        -0.12581E+09
        -0.55811E+08
        -0.19944E+09
        -0.19610E+09
         0.85742E+07
        -0.58823E+08
        -0.51255E+08
         0.55407E+09
         0.56824E+09
         0.35725E+09
         0.22944E+09
         0.56980E+09
         0.51564E+09
         0.56408E+06
        -0.32610E+08
        -0.90333E+08
        -0.12964E+09
        -0.16319E+09
        -0.12780E+09
        -0.11824E+09
         0.15838E+09
        -0.11432E+07
         0.34566E+09
         0.57240E+09
         0.11333E+09
         0.26379E+08
         0.85336E+07
         0.22524E+09
         0.41902E+09
         0.16217E+09
        -0.63491E+09
        -0.24534E+10
        -0.38356E+10
        -0.34570E+10
        -0.17627E+10
        -0.10222E+10
        -0.39497E+09
        -0.13799E+09
        -0.80123E+08
        -0.17994E+09
        -0.23128E+09
        -0.31802E+09
        -0.29729E+09
        -0.31839E+08
         0.78088E+09
         0.12141E+10
         0.75368E+09
         0.90145E+09
        -0.12321E+08
        -0.25513E+08
        -0.47513E+08
        -0.43889E+08
        -0.23910E+08
        -0.34717E+08
        -0.15165E+08
         0.23667E+08
         0.21339E+08
         0.71368E+08
         0.15700E+08
         0.20313E+08
        -0.11901E+08
         0.76430E+08
         0.12040E+09
        -0.25412E+07
         0.45989E+08
        -0.33292E+08
         0.35425E+08
         0.65272E+08
         0.69258E+08
         0.13011E+09
         0.18561E+08
         0.88898E+07
         0.11679E+09
        -0.21312E+08
         0.17644E+09
         0.32099E+09
         0.31855E+09
         0.15704E+09
        -0.57728E+08
        -0.36131E+08
        -0.79930E+08
        -0.90347E+08
        -0.33723E+08
        -0.42041E+08
        -0.21617E+08
         0.26791E+09
         0.32943E+09
         0.35309E+09
         0.35447E+08
         0.10994E+09
         0.91406E+08
        -0.21614E+07
        -0.13968E+08
        -0.37153E+08
        -0.41015E+08
        -0.54815E+08
        -0.53059E+08
        -0.76553E+08
        -0.42249E+08
        -0.47687E+08
         0.55289E+08
         0.21432E+09
         0.81444E+07
        -0.22993E+07
         0.12327E+08
         0.16263E+09
         0.36200E+09
         0.38183E+09
        -0.37913E+09
        -0.17484E+10
        -0.30660E+10
        -0.22523E+10
        -0.79021E+09
        -0.43836E+09
        -0.18515E+09
        -0.15238E+08
         0.43601E+08
         0.86564E+08
         0.63248E+08
        -0.15803E+08
        -0.98179E+08
         0.41144E+08
         0.79119E+08
         0.12878E+09
         0.21308E+09
         0.21521E+09
        -0.10643E+08
        -0.24255E+08
        -0.36382E+08
        -0.25657E+08
        -0.20304E+08
        -0.28459E+08
        -0.10246E+08
         0.18088E+07
         0.93104E+07
         0.32818E+08
        -0.31444E+07
         0.21411E+08
        -0.10505E+08
         0.74440E+07
         0.49611E+08
        -0.44413E+07
         0.23573E+08
        -0.79321E+07
         0.74485E+07
         0.27669E+08
         0.17712E+08
        -0.22217E+07
        -0.17572E+07
        -0.50423E+07
         0.50358E+08
        -0.19077E+08
         0.30398E+08
         0.97322E+08
         0.13337E+09
         0.89071E+08
        -0.24572E+08
        -0.25264E+08
        -0.26291E+08
        -0.33143E+08
        -0.23219E+08
        -0.22630E+08
        -0.16683E+08
         0.10781E+09
         0.14431E+09
         0.69932E+08
        -0.87773E+08
        -0.39555E+08
         0.88165E+08
        -0.25633E+07
        -0.22741E+07
        -0.57406E+07
        -0.17380E+08
        -0.17275E+08
        -0.17207E+08
        -0.22373E+08
        -0.35302E+07
        -0.26867E+08
         0.48280E+08
         0.18347E+09
         0.17805E+08
         0.12991E+08
         0.19420E+08
         0.78360E+08
         0.22298E+09
         0.12787E+09
         0.38203E+08
        -0.70441E+09
        -0.10034E+10
        -0.46023E+09
        -0.41234E+09
        -0.11399E+09
        -0.13023E+08
         0.32784E+08
         0.74962E+08
         0.72770E+08
         0.77764E+08
         0.43383E+08
         0.11041E+08
        -0.63150E+07
         0.43061E+08
         0.98291E+08
         0.11859E+09
         0.20789E+09
        -0.21772E+08
        -0.15644E+08
        -0.46705E+08
        -0.31508E+08
        -0.24069E+08
        -0.34113E+08
        -0.12135E+08
        -0.44798E+07
         0.91916E+06
         0.94846E+07
        -0.25170E+08
        -0.85450E+07
        -0.15652E+08
        -0.10721E+08
        -0.15846E+07
        -0.46071E+07
         0.23118E+07
        -0.11081E+08
        -0.13041E+08
        -0.99070E+07
        -0.36283E+08
        -0.55525E+08
        -0.11588E+08
        -0.44065E+07
         0.12013E+08
        -0.98741E+07
        -0.29404E+07
         0.64669E+04
         0.51694E+07
         0.75160E+07
        -0.27835E+08
        -0.30277E+08
        -0.30268E+08
        -0.35931E+08
        -0.88534E+07
        -0.18754E+08
        -0.12441E+08
         0.11768E+08
         0.55726E+08
         0.57381E+08
         0.15656E+08
         0.49763E+07
        -0.43549E+08
        -0.94640E+07
        -0.11148E+08
        -0.24472E+08
        -0.26504E+08
        -0.26603E+08
        -0.14679E+08
         0.68188E+07
         0.29666E+08
         0.19224E+07
         0.10595E+09
         0.18405E+09
         0.16804E+08
         0.23275E+08
         0.18028E+08
         0.34395E+08
         0.45153E+08
         0.10531E+09
         0.70737E+08
        -0.26055E+09
        -0.38671E+09
        -0.14778E+09
         0.10621E+09
         0.11662E+09
         0.94562E+08
         0.70833E+08
         0.62540E+08
         0.30671E+08
         0.19289E+08
        -0.25543E+08
        -0.15239E+08
         0.17992E+06
         0.67954E+08
         0.15401E+09
         0.21571E+09
         0.15987E+09
        -0.17593E+08
        -0.25780E+08
        -0.38046E+08
        -0.24771E+08
        -0.57785E+07
        -0.90829E+07
        -0.12579E+08
        -0.64931E+07
        -0.52986E+07
        -0.59154E+07
        -0.50102E+08
        -0.17904E+08
        -0.17242E+08
        -0.21452E+08
        -0.34084E+08
        -0.10373E+08
        -0.86266E+07
        -0.14679E+08
        -0.21092E+08
        -0.27694E+08
        -0.28121E+08
        -0.48859E+08
        -0.33023E+08
        -0.26505E+08
        -0.16029E+08
        -0.29424E+08
        -0.13826E+08
        -0.24224E+08
        -0.35221E+08
        -0.33236E+08
        -0.30925E+08
        -0.25977E+08
        -0.36771E+08
        -0.27174E+08
        -0.47167E+07
        -0.15982E+08
        -0.16365E+08
        -0.23131E+08
        -0.34786E+08
        -0.37874E+08
        -0.41427E+08
        -0.43206E+08
        -0.11000E+09
        -0.15300E+08
        -0.22101E+08
        -0.32727E+08
        -0.28845E+08
        -0.37953E+08
        -0.17292E+08
        -0.15084E+07
         0.32501E+08
         0.32922E+07
         0.66320E+08
         0.10463E+09
         0.37927E+08
         0.27080E+08
         0.51165E+07
         0.94583E+07
         0.79022E+07
         0.18920E+08
         0.27625E+08
         0.61002E+08
         0.14526E+09
         0.37722E+09
         0.47739E+09
         0.27512E+09
         0.18044E+09
         0.99945E+08
         0.27990E+08
         0.27715E+08
        -0.21996E+07
        -0.18480E+08
        -0.22445E+08
         0.51612E+08
         0.11055E+09
         0.17906E+09
         0.13423E+09
         0.13499E+09
        -0.17319E+08
        -0.20573E+08
        -0.32960E+08
        -0.31455E+08
        -0.18906E+08
        -0.25127E+08
        -0.11924E+08
        -0.76439E+07
        -0.44224E+07
        -0.67519E+07
        -0.32790E+08
        -0.18032E+08
        -0.16062E+08
        -0.28426E+08
        -0.37240E+08
        -0.11919E+08
        -0.69926E+07
        -0.10161E+08
        -0.23106E+08
        -0.33931E+08
        -0.77824E+08
        -0.13490E+09
        -0.35904E+08
        -0.28039E+08
        -0.15791E+08
        -0.20038E+08
        -0.25266E+08
        -0.36536E+08
        -0.72860E+08
        -0.52875E+08
        -0.32602E+08
        -0.26401E+08
        -0.37042E+08
        -0.42941E+08
        -0.18635E+08
        -0.16562E+08
        -0.13266E+08
        -0.31859E+08
        -0.37815E+08
        -0.82433E+08
        -0.63370E+08
        -0.95977E+08
        -0.18153E+09
        -0.23272E+08
        -0.17847E+08
        -0.32328E+08
        -0.38786E+08
        -0.39353E+08
        -0.37250E+08
        -0.42523E+08
         0.13812E+08
        -0.27406E+08
         0.11827E+09
         0.20980E+09
         0.59432E+08
         0.38175E+08
         0.12930E+08
        -0.94484E+07
        -0.15812E+08
        -0.11084E+08
         0.10107E+09
         0.23047E+09
         0.42920E+09
         0.48295E+09
         0.53793E+09
         0.36150E+09
         0.21289E+09
         0.12575E+09
         0.71607E+08
         0.61364E+08
         0.12798E+08
        -0.28236E+08
        -0.72005E+07
         0.25973E+08
         0.11806E+09
         0.31693E+09
         0.26543E+09
         0.24613E+09
        -0.12181E+08
        -0.26977E+08
        -0.24192E+08
        -0.34449E+08
        -0.15476E+08
        -0.17423E+08
        -0.10361E+08
        -0.17061E+08
        -0.23371E+07
        -0.15663E+08
        -0.38594E+08
        -0.24970E+08
        -0.16677E+08
        -0.33243E+08
        -0.46706E+08
        -0.10181E+08
        -0.92863E+07
        -0.13277E+08
        -0.22817E+08
        -0.38471E+08
        -0.91659E+08
        -0.16062E+09
        -0.36668E+08
        -0.27162E+08
        -0.28334E+08
        -0.17692E+08
        -0.27700E+08
        -0.44281E+08
        -0.10391E+09
        -0.50398E+08
        -0.17149E+08
        -0.14951E+08
        -0.27413E+08
        -0.36199E+08
         0.72437E+07
        -0.13257E+08
        -0.60777E+07
        -0.44051E+08
        -0.59667E+08
        -0.58645E+08
         0.90621E+07
        -0.72868E+08
        -0.12179E+09
        -0.21854E+08
        -0.14566E+08
        -0.29946E+08
        -0.38876E+08
        -0.41110E+08
        -0.32612E+08
        -0.32777E+08
         0.12068E+08
        -0.25214E+08
         0.89614E+08
         0.12814E+09
         0.65441E+08
         0.43141E+08
         0.36655E+08
         0.42683E+07
        -0.38055E+08
        -0.41468E+08
         0.74029E+07
         0.20687E+09
         0.47592E+09
         0.55638E+09
         0.63147E+09
         0.39492E+09
         0.22944E+09
         0.11994E+09
         0.54189E+08
         0.28602E+08
        -0.23096E+07
        -0.22414E+08
        -0.21217E+08
         0.55013E+08
         0.15067E+09
         0.20873E+09
         0.24380E+09
         0.17890E+09
        -0.20746E+08
        -0.19459E+08
        -0.45324E+08
        -0.35923E+08
        -0.15114E+08
        -0.34983E+08
        -0.17574E+08
        -0.20232E+08
        -0.11834E+08
        -0.16538E+08
        -0.38451E+08
        -0.27662E+08
        -0.23967E+08
        -0.41678E+08
        -0.43445E+08
        -0.84794E+07
        -0.12178E+08
        -0.81011E+07
        -0.25857E+08
        -0.45269E+08
        -0.87814E+08
        -0.18039E+09
        -0.46200E+08
        -0.29806E+08
        -0.28759E+08
        -0.17708E+08
        -0.45053E+08
        -0.97013E+08
        -0.16413E+09
        -0.63089E+08
        -0.26469E+08
        -0.21360E+08
        -0.32181E+08
        -0.44155E+08
        -0.74454E+07
        -0.27183E+08
        -0.21733E+08
        -0.85519E+08
        -0.15886E+09
        -0.18071E+09
        -0.52884E+08
        -0.18612E+09
        -0.26584E+09
        -0.28294E+08
        -0.19740E+08
        -0.24037E+08
        -0.26577E+08
        -0.37547E+08
        -0.30173E+08
        -0.27607E+08
         0.10472E+08
        -0.21888E+08
         0.13781E+09
         0.20654E+09
         0.65324E+08
         0.32182E+08
         0.20491E+07
        -0.29687E+08
        -0.89544E+08
        -0.12195E+09
         0.15711E+08
         0.46965E+09
         0.99568E+09
         0.10994E+10
         0.83062E+09
         0.45481E+09
         0.23078E+09
         0.11288E+09
         0.58381E+08
         0.35168E+08
        -0.21710E+07
        -0.30627E+08
        -0.25754E+08
         0.77713E+08
         0.14388E+09
         0.22084E+09
         0.19592E+09
         0.25556E+09
        -0.15275E+08
        -0.17536E+08
        -0.60507E+08
        -0.41098E+08
        -0.21797E+08
        -0.25053E+08
        -0.11861E+08
        -0.14365E+08
        -0.80744E+07
        -0.21979E+08
        -0.39314E+08
        -0.35704E+08
        -0.24558E+08
        -0.46843E+08
        -0.65248E+08
        -0.14297E+08
        -0.15421E+08
        -0.13446E+08
        -0.24098E+08
        -0.50060E+08
        -0.10760E+09
        -0.17938E+09
        -0.33023E+08
        -0.20988E+08
        -0.31520E+08
        -0.15813E+08
        -0.37225E+08
        -0.84780E+08
        -0.13340E+09
        -0.69056E+08
        -0.24082E+08
        -0.20898E+08
        -0.28837E+08
        -0.37735E+08
        -0.25536E+07
        -0.17797E+08
        -0.24285E+08
        -0.96454E+08
        -0.11687E+09
        -0.15099E+09
        -0.83654E+08
        -0.25456E+09
        -0.26904E+09
        -0.16799E+08
        -0.15598E+08
        -0.21004E+08
        -0.22805E+08
        -0.23112E+08
        -0.26554E+08
        -0.17173E+08
         0.19979E+08
        -0.18514E+08
         0.11970E+09
         0.20150E+09
         0.59593E+08
         0.12519E+08
        -0.13715E+08
        -0.42415E+08
        -0.97912E+08
        -0.13215E+09
         0.17010E+09
         0.44512E+09
         0.95042E+09
         0.13205E+10
         0.90795E+09
         0.45606E+09
         0.20463E+09
         0.10358E+09
         0.53545E+08
         0.32572E+08
         0.92996E+06
        -0.15099E+08
        -0.69588E+07
         0.49480E+08
         0.10114E+09
         0.20657E+09
         0.26695E+09
         0.23293E+09
        -0.13387E+08
        -0.14461E+08
        -0.37444E+08
        -0.27385E+08
        -0.20366E+08
        -0.35416E+08
        -0.85588E+07
        -0.10850E+08
        -0.53637E+07
        -0.19964E+08
        -0.46297E+08
        -0.16146E+08
        -0.89274E+07
        -0.36249E+08
        -0.55596E+08
        -0.12172E+08
        -0.16693E+08
        -0.13327E+08
        -0.21224E+08
        -0.43881E+08
        -0.60427E+08
        -0.12907E+09
        -0.19776E+08
        -0.25668E+08
        -0.31955E+08
        -0.13612E+08
        -0.52525E+08
        -0.59297E+08
        -0.61130E+08
        -0.65025E+08
        -0.23949E+08
        -0.21333E+08
        -0.30523E+08
        -0.37215E+08
        -0.13426E+08
        -0.11966E+08
        -0.65991E+07
        -0.79991E+08
        -0.78011E+08
        -0.12838E+09
         0.37589E+07
        -0.21779E+09
        -0.23848E+09
        -0.16115E+08
        -0.16579E+08
        -0.26499E+08
        -0.31570E+08
        -0.31411E+08
        -0.14400E+08
        -0.20023E+08
        -0.34557E+07
        -0.24794E+08
         0.89099E+08
         0.19544E+09
         0.48166E+08
         0.28981E+08
        -0.75366E+07
        -0.30061E+08
        -0.12940E+09
        -0.14978E+09
         0.45169E+08
         0.47195E+09
         0.90450E+09
         0.58592E+09
         0.84320E+09
         0.32870E+09
         0.12211E+09
         0.53720E+08
         0.30562E+08
         0.19265E+08
         0.87180E+07
        -0.68975E+07
         0.82173E+07
         0.27067E+08
         0.99523E+08
         0.23556E+09
         0.28075E+09
         0.24425E+09
        -0.17643E+08
        -0.14950E+08
        -0.33394E+08
        -0.30120E+08
        -0.24983E+08
        -0.31920E+08
        -0.13738E+08
        -0.18674E+08
        -0.44021E+07
        -0.95073E+07
        -0.58994E+08
        -0.14529E+08
        -0.11708E+08
        -0.37364E+08
        -0.47456E+08
        -0.88322E+07
        -0.76923E+07
        -0.12801E+08
        -0.15948E+08
        -0.27082E+08
        -0.55852E+08
        -0.11146E+09
        -0.34124E+08
        -0.26135E+08
        -0.38531E+08
        -0.18338E+08
        -0.31981E+08
        -0.61954E+08
        -0.12449E+09
        -0.82619E+08
        -0.31111E+08
        -0.27365E+08
        -0.37229E+08
        -0.40118E+08
        -0.21659E+08
        -0.19303E+08
        -0.64781E+07
        -0.70924E+08
        -0.66718E+08
        -0.14455E+09
        -0.16334E+09
        -0.23682E+09
        -0.21209E+09
        -0.27719E+08
        -0.20930E+08
        -0.29730E+08
        -0.27702E+08
        -0.28965E+08
        -0.22909E+08
        -0.26469E+08
        -0.14436E+08
        -0.26664E+08
         0.81654E+08
         0.17368E+09
         0.46166E+07
         0.33268E+08
         0.12039E+08
        -0.37244E+08
        -0.13560E+09
         0.23569E+06
         0.12488E+09
         0.54118E+09
         0.62759E+09
         0.92989E+09
         0.82816E+09
         0.42468E+09
         0.15545E+09
         0.69483E+08
         0.32928E+08
         0.64919E+07
        -0.20250E+07
        -0.10697E+08
         0.12487E+08
         0.50601E+08
         0.12194E+09
         0.14556E+09
         0.19709E+09
         0.14790E+09
        -0.16924E+08
        -0.22423E+08
        -0.27478E+08
        -0.21223E+08
        -0.15551E+07
        -0.14477E+08
        -0.14582E+08
        -0.20628E+08
        -0.81534E+07
        -0.26332E+08
        -0.47937E+08
        -0.32287E+08
        -0.12138E+08
        -0.30451E+08
        -0.44751E+08
        -0.11254E+08
        -0.10410E+08
        -0.11773E+08
        -0.22330E+08
        -0.37100E+08
        -0.88233E+08
        -0.16804E+09
        -0.37813E+08
        -0.34628E+08
        -0.38136E+08
        -0.27526E+08
        -0.50858E+08
        -0.46796E+08
        -0.86240E+08
        -0.69919E+08
        -0.24335E+08
        -0.30663E+08
        -0.27959E+08
        -0.33814E+08
        -0.12563E+08
        -0.15706E+08
        -0.86519E+07
        -0.61140E+08
        -0.64852E+08
        -0.15288E+09
        -0.94340E+08
        -0.15840E+09
        -0.20745E+09
        -0.26724E+08
        -0.22861E+08
        -0.25719E+08
        -0.20582E+08
        -0.27749E+08
        -0.14129E+08
        -0.13196E+08
        -0.17201E+07
        -0.11401E+08
         0.74455E+08
         0.14042E+09
         0.25208E+08
         0.12573E+08
        -0.49803E+07
        -0.32059E+08
        -0.76113E+08
        -0.10633E+09
         0.42256E+08
         0.21664E+09
         0.93140E+09
         0.10294E+10
         0.57110E+09
         0.33412E+09
         0.18060E+09
         0.84249E+08
         0.37845E+08
         0.15205E+08
         0.59318E+07
        -0.73044E+07
         0.48286E+07
         0.69373E+08
         0.97140E+08
         0.18091E+09
         0.21640E+09
         0.17554E+09
        -0.11585E+08
        -0.13769E+08
        -0.18479E+08
        -0.12068E+08
         0.44423E+07
        -0.83420E+06
        -0.12538E+08
        -0.98394E+07
        -0.94149E+07
        -0.15659E+08
        -0.46480E+08
        -0.37654E+08
        -0.19405E+08
        -0.41859E+08
        -0.59975E+08
        -0.96971E+07
        -0.12435E+08
        -0.10958E+08
        -0.27148E+08
        -0.45207E+08
        -0.63003E+08
        -0.11630E+09
        -0.29523E+08
        -0.32929E+08
        -0.31290E+08
        -0.21849E+08
        -0.52577E+08
        -0.73402E+08
        -0.10122E+09
        -0.81882E+08
        -0.23403E+08
        -0.16631E+08
        -0.23025E+08
        -0.21989E+08
        -0.74962E+06
        -0.21229E+08
        -0.14712E+08
        -0.75969E+08
        -0.12173E+09
        -0.14401E+09
        -0.66704E+08
        -0.15221E+09
        -0.21059E+09
        -0.17590E+08
        -0.21447E+08
        -0.22259E+08
        -0.23145E+08
        -0.18859E+08
        -0.19886E+08
        -0.41965E+07
         0.32230E+08
        -0.12404E+08
         0.88235E+08
         0.14933E+09
         0.19410E+08
         0.19904E+08
        -0.12759E+08
        -0.55191E+08
        -0.96846E+08
        -0.38302E+08
         0.57031E+08
         0.58788E+09
         0.11715E+10
         0.10853E+10
         0.56312E+09
         0.36465E+09
         0.21923E+09
         0.10868E+09
         0.61235E+08
         0.38731E+08
         0.26202E+08
         0.31805E+07
         0.22436E+08
         0.64873E+08
         0.12083E+09
         0.15342E+09
         0.13831E+09
         0.16120E+09
        -0.12200E+08
        -0.13414E+08
        -0.26266E+08
        -0.18115E+08
        -0.10446E+08
        -0.14554E+08
        -0.10470E+08
        -0.18880E+08
        -0.47368E+07
        -0.24148E+08
        -0.47895E+08
        -0.30135E+08
        -0.10298E+08
        -0.26394E+08
        -0.43498E+08
        -0.66618E+07
        -0.18685E+08
        -0.17152E+07
        -0.17642E+08
        -0.29080E+08
        -0.58445E+08
        -0.79390E+08
        -0.17104E+08
        -0.26211E+08
        -0.40532E+08
        -0.17477E+08
        -0.33954E+08
        -0.52778E+08
        -0.87026E+08
        -0.79086E+08
        -0.19113E+08
        -0.18792E+08
        -0.21083E+08
        -0.22342E+08
        -0.21197E+07
        -0.10834E+08
        -0.82779E+07
        -0.99423E+08
        -0.10595E+09
        -0.64036E+08
         0.89642E+08
        -0.28321E+08
        -0.14040E+09
        -0.12611E+08
        -0.77532E+07
         0.10787E+07
        -0.11649E+08
        -0.49431E+07
        -0.62628E+07
         0.49074E+05
         0.17988E+08
        -0.59608E+07
         0.75392E+08
         0.13154E+09
         0.61300E+07
         0.32123E+07
        -0.18810E+08
        -0.49765E+08
        -0.70995E+08
        -0.50039E+08
        -0.24652E+08
         0.28732E+09
         0.97701E+09
         0.12065E+10
         0.36113E+09
         0.25036E+09
         0.10781E+09
         0.65859E+08
         0.34990E+08
         0.38217E+08
         0.19535E+08
         0.18337E+08
         0.15374E+08
         0.41139E+08
         0.63678E+08
         0.13040E+09
         0.13504E+09
         0.13045E+09
        -0.66014E+07
        -0.61909E+07
        -0.57024E+07
        -0.36990E+07
        -0.29777E+07
        -0.37195E+07
        -0.56809E+07
        -0.14142E+08
         0.34863E+06
        -0.92610E+07
        -0.15508E+08
        -0.31433E+08
        -0.86782E+07
        -0.43563E+08
        -0.55389E+08
        -0.28153E+07
        -0.12707E+08
         0.25002E+07
        -0.10820E+08
        -0.22800E+08
        -0.30175E+08
        -0.60306E+08
        -0.22504E+08
        -0.18909E+08
        -0.17291E+08
        -0.72559E+07
        -0.48944E+08
        -0.73022E+08
        -0.14097E+09
        -0.55298E+08
        -0.82620E+07
        -0.15994E+08
        -0.68477E+07
        -0.43159E+07
         0.46043E+06
        -0.67168E+07
        -0.37175E+07
        -0.75777E+08
        -0.10614E+09
        -0.11222E+09
         0.16828E+08
        -0.11500E+09
        -0.82597E+08
        -0.10721E+08
        -0.97978E+07
        -0.11273E+08
        -0.88218E+07
        -0.60574E+07
         0.30001E+07
         0.15873E+07
        -0.44043E+07
        -0.75734E+07
         0.22322E+08
         0.72451E+08
         0.60172E+07
         0.12335E+08
         0.46917E+07
        -0.10712E+08
        -0.97117E+08
        -0.23068E+08
         0.62525E+08
         0.68443E+09
         0.11266E+10
         0.86763E+09
         0.34051E+09
         0.25502E+09
         0.96078E+08
         0.82106E+08
         0.48903E+08
         0.31202E+08
         0.31635E+08
         0.12813E+08
         0.71682E+07
         0.30951E+08
         0.51475E+08
         0.59841E+08
         0.72316E+08
         0.79259E+08
         0.10936E+06
         0.10073E+07
         0.71087E+07
         0.86626E+07
        -0.59393E+07
        -0.79719E+06
        -0.81200E+07
        -0.77413E+07
         0.38850E+07
        -0.12403E+08
        -0.28738E+08
        -0.34356E+08
        -0.68765E+07
        -0.41139E+08
        -0.63933E+08
        -0.20751E+07
         0.95816E+06
         0.15227E+07
        -0.10568E+08
        -0.27091E+08
        -0.49135E+08
        -0.10516E+09
        -0.31357E+08
        -0.20247E+08
        -0.32124E+08
        -0.15063E+08
        -0.42312E+08
        -0.77622E+08
        -0.10388E+09
        -0.65486E+08
         0.78084E+07
        -0.10362E+08
         0.24600E+08
         0.23313E+07
        -0.97580E+07
        -0.47545E+07
         0.58868E+07
        -0.46005E+08
        -0.97914E+08
        -0.13238E+09
        -0.11699E+08
        -0.18563E+09
        -0.12074E+09
        -0.18733E+08
        -0.83406E+07
         0.11932E+08
         0.11064E+08
         0.24965E+08
         0.21554E+07
        -0.13293E+07
        -0.29252E+08
        -0.83454E+07
        -0.14611E+09
        -0.43943E+08
        -0.20249E+08
         0.40203E+07
        -0.17944E+07
        -0.20695E+08
        -0.72055E+08
        -0.13634E+09
         0.75801E+08
         0.76879E+09
         0.11216E+10
         0.99342E+09
         0.73161E+09
         0.39197E+09
         0.13521E+09
         0.48383E+08
         0.46411E+08
         0.31977E+08
         0.37760E+08
         0.39128E+08
         0.15731E+08
        -0.17749E+08
        -0.97379E+08
        -0.17904E+09
        -0.13147E+09
        -0.31397E+08
        -0.79660E+07
         0.29214E+07
         0.28377E+08
         0.34884E+08
        -0.96227E+07
         0.39220E+07
        -0.21797E+08
        -0.25817E+08
        -0.27770E+07
        -0.34304E+08
        -0.55147E+08
        -0.48651E+08
        -0.88967E+07
        -0.37303E+08
        -0.24425E+08
        -0.13639E+08
        -0.12936E+08
         0.11142E+08
        -0.31796E+08
        -0.23652E+08
        -0.97858E+08
        -0.13312E+09
        -0.59917E+08
        -0.52001E+08
        -0.18510E+08
        -0.32119E+08
        -0.16847E+08
        -0.97710E+07
        -0.34871E+08
        -0.39244E+08
         0.12806E+08
        -0.18986E+08
         0.53306E+08
         0.20485E+08
        -0.48763E+08
        -0.52375E+07
        -0.35176E+07
        -0.75188E+08
        -0.69772E+08
        -0.19720E+08
         0.68727E+07
        -0.85325E+08
        -0.14961E+09
        -0.44065E+08
        -0.15627E+08
         0.27375E+08
         0.11322E+08
         0.17106E+08
        -0.13743E+08
        -0.92174E+07
        -0.62535E+08
        -0.15522E+08
        -0.21950E+09
        -0.21870E+09
        -0.10505E+09
        -0.25736E+08
        -0.21578E+08
        -0.46346E+08
        -0.64459E+08
         0.76250E+08
         0.21971E+09
         0.30244E+09
         0.42244E+09
         0.40078E+09
         0.47812E+09
         0.36887E+09
         0.22539E+09
         0.98404E+08
         0.31963E+08
         0.12347E+09
         0.19617E+09
         0.14288E+09
        -0.34117E+08
        -0.21938E+09
        -0.39236E+09
        -0.37348E+09
        -0.39829E+09
        -0.28009E+09
        -0.18082E+08
        -0.62887E+07
         0.17836E+08
         0.26814E+08
        -0.12267E+07
         0.14319E+08
        -0.27692E+08
        -0.32719E+08
        -0.77603E+07
        -0.39258E+08
        -0.57205E+08
        -0.29124E+08
        -0.21382E+08
        -0.42492E+08
        -0.30617E+08
        -0.24865E+08
        -0.41455E+07
         0.23826E+07
        -0.74578E+08
        -0.31428E+08
        -0.30322E+09
        -0.37249E+09
        -0.17892E+09
        -0.13080E+09
        -0.46820E+07
        -0.71675E+08
        -0.29880E+08
        -0.71781E+07
        -0.44405E+07
        -0.31817E+08
         0.10489E+08
        -0.27024E+08
         0.38709E+08
         0.54679E+08
        -0.18009E+08
         0.21783E+07
        -0.46219E+07
        -0.85775E+07
         0.36142E+08
         0.25282E+08
        -0.61324E+08
        -0.18729E+09
        -0.31275E+09
        -0.10571E+09
        -0.27009E+08
         0.28933E+08
         0.22908E+08
         0.34567E+08
         0.37089E+08
         0.30081E+08
        -0.54445E+08
         0.14763E+08
        -0.12524E+09
        -0.28031E+09
        -0.38906E+08
        -0.11497E+08
        -0.19250E+08
        -0.17675E+06
         0.16187E+07
         0.76108E+08
         0.13257E+09
         0.22358E+08
        -0.84878E+08
         0.17419E+09
         0.59876E+09
         0.83883E+09
         0.74601E+09
         0.44323E+09
         0.19547E+09
         0.24531E+09
         0.32355E+09
         0.17766E+09
        -0.46704E+08
        -0.11505E+09
        -0.33220E+09
        -0.52385E+09
        -0.48109E+09
        -0.37168E+09
        -0.49584E+08
        -0.87935E+07
         0.10824E+09
         0.75539E+08
         0.18484E+09
         0.17759E+09
        -0.12575E+08
        -0.36022E+08
        -0.30802E+08
        -0.62161E+08
         0.36041E+08
         0.11602E+08
        -0.22652E+08
        -0.10771E+08
         0.30992E+07
        -0.10992E+09
        -0.37887E+08
        -0.20526E+08
        -0.27810E+09
        -0.21410E+09
        -0.77264E+09
        -0.10272E+10
        -0.34367E+09
        -0.37083E+09
        -0.31570E+08
        -0.20872E+09
        -0.42382E+08
        -0.48009E+08
        -0.13233E+09
        -0.23857E+09
        -0.16000E+08
        -0.66567E+08
         0.75051E+08
         0.17694E+09
         0.30582E+09
         0.10913E+09
        -0.71749E+07
        -0.15710E+08
         0.75701E+07
        -0.92093E+08
        -0.40835E+09
        -0.44477E+09
        -0.86427E+09
        -0.19461E+09
         0.22953E+08
         0.21184E+09
         0.49884E+08
         0.38114E+08
         0.75461E+08
         0.17826E+09
         0.24535E+09
         0.19909E+09
         0.47585E+09
         0.68467E+08
         0.41775E+09
         0.10508E+09
        -0.28251E+08
        -0.24738E+08
         0.18765E+08
        -0.79854E+07
        -0.23479E+09
        -0.83870E+09
        -0.93838E+09
         0.98522E+09
         0.28518E+10
         0.36174E+10
         0.30862E+10
         0.20016E+10
         0.10896E+10
         0.85378E+09
         0.83704E+09
         0.36553E+09
        -0.11327E+09
        -0.30637E+09
        -0.24714E+09
        -0.30624E+09
        -0.29864E+09
        -0.15612E+09
  
SCALARS                 acceleration_z  double 1
LOOKUP_TABLE default
         0.27775E+09
         0.62976E+09
         0.23868E+08
        -0.92839E+08
         0.00000E+00
         0.00000E+00
         0.00000E+00
         0.00000E+00
        -0.21574E+09
        -0.27282E+09
         0.00000E+00
         0.00000E+00
         0.96218E+09
         0.20914E+09
         0.00000E+00
         0.00000E+00
        -0.44144E+08
         0.78440E+08
         0.00000E+00
         0.00000E+00
         0.12851E+10
         0.26381E+10
         0.15097E+10
         0.00000E+00
         0.00000E+00
         0.00000E+00
         0.55206E+09
         0.87519E+09
         0.00000E+00
         0.00000E+00
        -0.70699E+08
        -0.86014E+08
        -0.64267E+08
         0.00000E+00
         0.00000E+00
         0.00000E+00
        -0.47801E+08
        -0.73091E+08
         0.00000E+00
         0.00000E+00
        -0.70037E+08
        -0.68724E+08
         0.00000E+00
         0.00000E+00
        -0.50943E+08
         0.13579E+08
         0.00000E+00
         0.00000E+00
        -0.14022E+09
         0.00000E+00
         0.95460E+08
         0.00000E+00
         0.69468E+09
         0.00000E+00
         0.15846E+10
         0.00000E+00
         0.19973E+10
        -0.42705E+09
         0.00000E+00
         0.00000E+00
        -0.40631E+09
        -0.10478E+09
         0.00000E+00
         0.00000E+00
        -0.43770E+09
         0.00000E+00
        -0.11889E+10
         0.00000E+00
        -0.17632E+09
         0.25043E+09
         0.00000E+00
         0.00000E+00
         0.66687E+09
         0.00000E+00
         0.67507E+10
         0.00000E+00
         0.11883E+11
         0.00000E+00
         0.13400E+11
         0.00000E+00
         0.11278E+11
         0.15583E+10
         0.00000E+00
         0.00000E+00
        -0.33160E+09
         0.00000E+00
         0.28033E+07
         0.00000E+00
        -0.26910E+09
         0.00000E+00
        -0.67359E+09
        -0.40533E+09
         0.00000E+00
         0.00000E+00
        -0.61979E+09
         0.00000E+00
        -0.13846E+10
         0.00000E+00
        -0.16651E+10
         0.00000E+00
        -0.20048E+10
        -0.14812E+10
         0.00000E+00
         0.00000E+00
        -0.77857E+08
        -0.11761E+10
         0.00000E+00
         0.00000E+00
         0.36051E+09
         0.00000E+00
         0.47781E+09
         0.00000E+00
        -0.94745E+09
         0.00000E+00
        -0.39646E+10
         0.00000E+00
        -0.82381E+10
         0.00000E+00
        -0.20839E+11
         0.00000E+00
        -0.35490E+11
         0.00000E+00
        -0.16545E+11
         0.00000E+00
         0.93120E+10
         0.00000E+00
         0.35237E+10
         0.00000E+00
         0.41333E+09
         0.00000E+00
        -0.79128E+08
         0.00000E+00
        -0.66275E+09
         0.00000E+00
        -0.87189E+09
         0.00000E+00
        -0.71028E+09
         0.00000E+00
        -0.74166E+09
         0.00000E+00
        -0.74363E+09
         0.00000E+00
         0.53871E+09
         0.00000E+00
         0.12992E+10
         0.00000E+00
         0.40715E+10
         0.00000E+00
         0.77393E+10
         0.00000E+00
         0.35730E+10
         0.00000E+00
        -0.14308E+10
         0.00000E+00
        -0.19778E+10
         0.00000E+00
        -0.83938E+08
         0.21605E+09
        -0.57205E+09
        -0.84678E+09
        -0.11071E+10
        -0.18017E+10
         0.45000E+09
         0.41675E+08
        -0.19018E+09
        -0.24046E+09
         0.10946E+10
         0.14768E+10
         0.87167E+09
         0.71381E+09
         0.23783E+10
        -0.16648E+08
        -0.24185E+09
        -0.95382E+08
        -0.40869E+06
        -0.31640E+09
        -0.15969E+09
        -0.29394E+09
        -0.25192E+09
         0.74742E+08
        -0.46806E+09
        -0.28668E+09
         0.87511E+09
         0.12687E+10
         0.11675E+10
        -0.61779E+09
        -0.20827E+10
        -0.11867E+10
        -0.27378E+10
        -0.34032E+10
        -0.11434E+10
        -0.20950E+09
         0.34289E+09
         0.48581E+10
         0.78797E+10
         0.85985E+10
         0.80313E+10
         0.11948E+10
        -0.32812E+09
        -0.44768E+09
        -0.70252E+09
        -0.85614E+09
        -0.10830E+10
        -0.19220E+10
        -0.21004E+10
        -0.16683E+10
        -0.52343E+09
        -0.17003E+10
        -0.19758E+10
        -0.15782E+10
        -0.95763E+09
        -0.22428E+09
        -0.37905E+09
        -0.13348E+10
        -0.23576E+10
        -0.79227E+10
        -0.13165E+11
        -0.19205E+10
         0.11679E+11
         0.35482E+10
         0.43369E+09
        -0.52970E+09
        -0.13324E+10
        -0.14043E+10
        -0.87345E+09
         0.22017E+09
         0.13324E+10
         0.37268E+10
         0.96647E+10
         0.17120E+11
         0.23933E+11
         0.11310E+11
        -0.11005E+10
        -0.15847E+10
        -0.10000E+09
        -0.47400E+08
        -0.50672E+09
        -0.10330E+10
        -0.12183E+10
        -0.20759E+10
        -0.15392E+08
        -0.20445E+09
        -0.20490E+09
        -0.29575E+09
        -0.15365E+09
        -0.15071E+08
        -0.11326E+09
        -0.34163E+09
         0.20909E+09
        -0.85801E+08
        -0.18253E+09
        -0.14678E+09
        -0.63915E+08
        -0.32098E+09
        -0.21948E+09
        -0.36402E+09
        -0.27645E+09
        -0.10149E+09
        -0.54435E+09
        -0.42307E+09
        -0.28539E+09
        -0.44066E+09
        -0.26622E+09
        -0.59482E+09
        -0.13694E+10
        -0.90244E+09
        -0.19275E+10
        -0.27166E+10
        -0.11670E+10
        -0.12884E+09
         0.18276E+08
         0.54509E+09
         0.14025E+10
         0.17048E+10
         0.25189E+10
         0.21060E+09
        -0.40165E+09
        -0.31962E+09
        -0.42410E+09
        -0.24474E+09
        -0.65831E+09
        -0.13535E+10
        -0.68462E+09
        -0.84363E+09
        -0.13796E+10
        -0.13555E+10
        -0.25696E+10
        -0.26865E+10
        -0.14038E+10
        -0.66267E+09
        -0.10038E+09
         0.21613E+09
         0.58220E+09
         0.11366E+10
         0.22281E+10
         0.43781E+10
         0.54710E+10
         0.16220E+10
         0.62203E+09
        -0.54487E+09
        -0.13884E+10
        -0.13679E+10
        -0.37059E+09
         0.10823E+10
         0.18355E+10
         0.29675E+10
         0.95452E+10
         0.92508E+10
         0.12807E+11
         0.13451E+10
         0.89987E+09
        -0.42079E+09
        -0.27406E+08
        -0.11199E+08
        -0.11202E+09
        -0.12430E+09
        -0.27113E+09
        -0.23414E+09
        -0.51393E+08
        -0.17387E+09
        -0.67038E+08
        -0.14322E+09
        -0.53863E+09
        -0.28703E+09
        -0.12917E+09
        -0.27681E+09
        -0.26265E+09
         0.38416E+04
        -0.77678E+08
        -0.53054E+08
        -0.65541E+08
        -0.26173E+09
        -0.20824E+09
        -0.39251E+09
        -0.68903E+08
         0.71693E+08
        -0.52218E+09
         0.55904E+08
        -0.56108E+09
        -0.29933E+09
        -0.28226E+09
        -0.64471E+09
        -0.12421E+09
         0.99493E+08
         0.38063E+08
        -0.69034E+09
        -0.37878E+09
        -0.33967E+09
        -0.80278E+08
         0.64582E+08
         0.28208E+09
         0.28556E+09
         0.30970E+09
        -0.50894E+09
        -0.56681E+09
        -0.23562E+08
        -0.44274E+07
        -0.44479E+08
        -0.47766E+08
        -0.21977E+09
        -0.53943E+09
        -0.34366E+09
        -0.66161E+09
        -0.89273E+09
        -0.10232E+10
        -0.96260E+09
        -0.10245E+10
        -0.42017E+09
        -0.30428E+08
         0.14594E+09
         0.15379E+10
         0.24962E+10
         0.30012E+10
         0.39363E+10
         0.29301E+10
         0.96320E+09
         0.78443E+09
        -0.50242E+09
        -0.10870E+10
        -0.98092E+09
        -0.57517E+09
        -0.30717E+09
        -0.46479E+09
        -0.52935E+09
        -0.21153E+09
         0.35119E+10
         0.47117E+10
         0.36716E+10
         0.74725E+09
        -0.68590E+09
        -0.26771E+08
        -0.44163E+07
         0.59746E+08
         0.65548E+08
         0.22695E+08
         0.38738E+08
        -0.61880E+08
        -0.43477E+08
        -0.10521E+08
        -0.74734E+08
        -0.30494E+09
        -0.26260E+09
        -0.97833E+08
        -0.27308E+09
        -0.39469E+09
         0.47357E+08
        -0.13870E+09
         0.73662E+08
        -0.23269E+08
        -0.23959E+09
        -0.13118E+09
        -0.33261E+09
         0.22186E+08
         0.14175E+09
        -0.42258E+09
         0.23045E+09
        -0.30263E+09
        -0.50908E+09
        -0.45395E+09
        -0.43290E+09
         0.40507E+09
         0.36272E+09
         0.31217E+09
         0.20781E+09
        -0.36091E+08
         0.45663E+08
        -0.65294E+07
        -0.55104E+09
        -0.56632E+09
        -0.44422E+09
         0.23221E+09
        -0.44157E+09
        -0.58001E+09
         0.11934E+09
         0.15998E+09
         0.49342E+08
         0.18331E+09
         0.30414E+09
         0.24154E+09
         0.23396E+09
         0.15695E+09
         0.17951E+09
        -0.52235E+08
         0.56431E+08
         0.14254E+09
         0.63098E+08
         0.17785E+08
         0.17956E+09
         0.76238E+09
         0.18472E+10
         0.32792E+10
         0.41760E+10
         0.37618E+10
         0.20847E+10
         0.47316E+09
        -0.58052E+09
        -0.79974E+09
        -0.55132E+09
        -0.41449E+09
        -0.61770E+09
        -0.94233E+09
        -0.11520E+10
        -0.12426E+10
        -0.74318E+09
        -0.85052E+09
        -0.80815E+09
        -0.12406E+09
         0.87665E+08
         0.42414E+07
         0.31999E+08
         0.65484E+08
         0.55419E+08
         0.69088E+08
         0.78869E+08
         0.38549E+07
        -0.30464E+08
        -0.37270E+07
        -0.75379E+08
        -0.10254E+09
        -0.96995E+08
        -0.37081E+08
        -0.12534E+09
        -0.31444E+09
         0.43677E+08
        -0.65717E+08
         0.93932E+08
        -0.64845E+07
        -0.13336E+09
        -0.92930E+08
        -0.23784E+09
        -0.29252E+06
         0.61097E+08
        -0.26931E+09
         0.10811E+09
        -0.31670E+09
        -0.49767E+09
        -0.53654E+09
        -0.34435E+09
         0.21471E+09
         0.16597E+09
         0.26661E+09
         0.24054E+09
         0.10137E+09
         0.40704E+08
        -0.23144E+07
        -0.47254E+09
        -0.47356E+09
        -0.41425E+09
        -0.31057E+09
        -0.41748E+09
        -0.52569E+09
         0.37087E+08
         0.73670E+08
         0.25887E+08
         0.82032E+08
         0.12888E+09
         0.23110E+08
         0.54371E+08
        -0.35981E+08
         0.11431E+09
         0.15753E+09
         0.14446E+09
         0.10121E+09
         0.88724E+07
        -0.52621E+08
        -0.50206E+08
         0.43958E+09
         0.12347E+10
         0.25934E+10
         0.35638E+10
         0.34149E+10
         0.16033E+10
        -0.81339E+08
        -0.59231E+09
        -0.38847E+09
        -0.16320E+09
        -0.55363E+08
        -0.11255E+09
        -0.22356E+09
        -0.41270E+09
        -0.64856E+09
        -0.97202E+09
        -0.11608E+10
        -0.10127E+10
        -0.37590E+09
         0.11761E+06
         0.20195E+08
         0.12236E+08
         0.48684E+08
         0.51992E+08
         0.53176E+08
         0.70289E+08
         0.15481E+08
        -0.26427E+08
        -0.17060E+07
        -0.49901E+08
        -0.28554E+08
        -0.33128E+08
        -0.16935E+07
        -0.60462E+08
        -0.20180E+09
         0.25553E+08
        -0.31802E+08
         0.50539E+08
         0.53539E+07
        -0.70071E+08
        -0.29811E+08
        -0.11336E+09
        -0.66660E+07
         0.27508E+08
        -0.11532E+09
         0.31153E+08
        -0.15627E+09
        -0.31813E+09
        -0.35900E+09
        -0.19933E+09
         0.51697E+08
         0.19865E+08
         0.76516E+08
         0.88816E+08
         0.84221E+08
         0.26839E+08
         0.79200E+07
        -0.24562E+09
        -0.36883E+09
        -0.38983E+09
        -0.19164E+09
        -0.27166E+09
        -0.21465E+09
         0.51138E+07
         0.10931E+08
        -0.15779E+07
         0.21378E+07
         0.12912E+08
        -0.70039E+07
        -0.11646E+08
        -0.68231E+08
         0.39243E+08
         0.65842E+08
         0.74685E+08
         0.10839E+08
        -0.24833E+08
        -0.35772E+08
        -0.20941E+08
         0.15077E+09
         0.81065E+09
         0.17564E+10
         0.25220E+10
         0.23439E+10
         0.46247E+09
        -0.15600E+09
        -0.20583E+09
        -0.21736E+09
        -0.10003E+09
        -0.33837E+08
        -0.29406E+07
         0.17790E+08
         0.63272E+08
        -0.17703E+08
        -0.17664E+09
        -0.25477E+09
        -0.29270E+09
        -0.20740E+09
        -0.38474E+08
         0.98700E+07
         0.21650E+08
         0.33098E+08
         0.26480E+08
         0.44818E+08
         0.26060E+08
         0.24711E+07
         0.38230E+07
         0.84232E+07
        -0.63628E+07
         0.23096E+08
        -0.14063E+08
         0.55866E+07
        -0.94290E+07
        -0.44438E+08
         0.15712E+08
        -0.89010E+07
         0.20272E+08
         0.18455E+07
        -0.24172E+08
        -0.89488E+07
        -0.26457E+08
         0.30236E+07
         0.23708E+08
        -0.43158E+08
         0.19504E+08
        -0.57263E+08
        -0.10652E+09
        -0.15542E+09
        -0.77845E+08
         0.16492E+08
         0.47305E+07
         0.26440E+08
         0.34480E+08
         0.61051E+08
         0.25889E+08
         0.19099E+08
        -0.11575E+09
        -0.10820E+09
        -0.76980E+08
        -0.15279E+09
        -0.10735E+09
        -0.13648E+09
         0.39055E+07
        -0.37448E+07
        -0.16272E+08
        -0.66023E+07
        -0.31277E+07
         0.96749E+06
         0.21454E+07
        -0.18730E+08
         0.20726E+08
         0.34572E+08
        -0.43717E+07
        -0.50342E+07
        -0.13512E+08
        -0.11037E+08
        -0.18935E+08
        -0.69844E+08
         0.47831E+08
         0.66972E+09
         0.87806E+09
         0.27218E+09
         0.16377E+08
        -0.16125E+09
        -0.11672E+09
        -0.55494E+08
        -0.17421E+08
        -0.99755E+07
        -0.18510E+08
         0.16921E+07
         0.38230E+08
         0.28936E+08
        -0.60346E+08
        -0.14253E+09
        -0.16975E+09
        -0.18382E+09
        -0.99524E+08
         0.24677E+08
         0.19659E+08
         0.32607E+08
         0.23651E+08
         0.36679E+08
         0.16434E+08
         0.18396E+08
         0.10424E+08
         0.98252E+07
         0.10569E+08
         0.23515E+08
         0.76014E+07
         0.10256E+08
         0.22278E+08
         0.39990E+06
         0.68720E+07
         0.11088E+08
         0.16526E+08
         0.12432E+08
         0.17695E+08
         0.28511E+08
         0.38177E+08
         0.16240E+08
         0.13168E+08
         0.49408E+07
         0.10135E+08
         0.99559E+07
         0.14221E+08
        -0.49286E+07
         0.60323E+07
         0.26847E+08
         0.18240E+08
         0.33336E+08
         0.38632E+08
         0.57462E+08
         0.25520E+08
         0.11765E+08
         0.61895E+07
        -0.66369E+08
        -0.83556E+08
        -0.96282E+08
        -0.46482E+08
         0.53879E+07
         0.49375E+07
         0.75055E+06
        -0.83077E+07
         0.27090E+07
         0.12395E+08
        -0.84211E+07
        -0.10377E+08
        -0.45935E+08
         0.26009E+07
         0.53244E+08
        -0.49258E+08
         0.11590E+08
         0.60379E+07
        -0.28264E+07
        -0.33083E+08
        -0.10586E+09
        -0.88822E+08
         0.13008E+09
         0.21503E+09
         0.36269E+08
        -0.18349E+09
        -0.10036E+09
        -0.11177E+08
         0.40297E+08
         0.27753E+08
        -0.91823E+07
        -0.22864E+08
        -0.29400E+08
        -0.36464E+08
        -0.58298E+08
        -0.85452E+08
        -0.19038E+09
        -0.17988E+09
        -0.10288E+09
        -0.86700E+08
         0.19864E+08
         0.17105E+08
         0.25713E+08
         0.22744E+08
         0.13187E+08
         0.16704E+08
         0.79313E+07
         0.11128E+08
         0.14084E+08
         0.17309E+08
         0.27220E+08
         0.19871E+08
         0.14966E+08
         0.20987E+08
         0.25207E+08
         0.81157E+07
         0.16900E+08
         0.10588E+08
         0.17060E+08
         0.29537E+08
         0.21346E+08
         0.30610E+08
         0.26806E+08
         0.25637E+08
         0.32115E+08
         0.20739E+08
         0.26310E+08
         0.46956E+08
         0.54578E+08
         0.44067E+08
         0.24078E+08
         0.13039E+08
         0.44115E+08
         0.35583E+08
         0.21722E+08
         0.21502E+08
         0.11779E+08
         0.12848E+08
         0.18937E+08
         0.37668E+08
        -0.40529E+07
        -0.45915E+07
         0.91979E+08
         0.13001E+08
         0.89102E+07
         0.36930E+07
         0.58407E+07
         0.20338E+08
        -0.30416E+07
         0.33813E+06
        -0.38969E+08
         0.26128E+07
         0.31256E+08
        -0.69144E+07
         0.18527E+08
        -0.11043E+07
        -0.10644E+07
        -0.25491E+08
        -0.90733E+08
        -0.10200E+09
        -0.16146E+09
        -0.23883E+09
        -0.44907E+09
        -0.35056E+09
        -0.14645E+09
         0.92523E+08
         0.10101E+09
         0.42371E+08
         0.40252E+07
        -0.46491E+07
        -0.22892E+07
        -0.20810E+08
        -0.41792E+08
        -0.21656E+09
        -0.20474E+09
        -0.15687E+09
        -0.75741E+08
        -0.31784E+08
         0.17397E+08
         0.13106E+08
         0.27024E+08
         0.30284E+08
         0.38526E+08
         0.39101E+08
         0.56221E+07
         0.53242E+07
         0.71350E+07
         0.15750E+08
         0.28883E+08
         0.10891E+08
         0.31502E+07
         0.19413E+08
         0.22656E+08
         0.88087E+07
         0.14116E+08
         0.10006E+08
         0.13768E+08
         0.33576E+08
         0.43522E+08
         0.74329E+08
         0.24813E+08
         0.13395E+08
         0.29664E+08
         0.10838E+08
         0.48361E+08
         0.68922E+08
         0.10239E+09
         0.58745E+08
         0.38179E+08
         0.16034E+08
         0.47864E+08
         0.33351E+08
         0.52917E+08
         0.19050E+08
         0.53634E+07
         0.56441E+08
         0.57809E+08
         0.66368E+08
         0.17824E+08
         0.51961E+08
         0.12275E+09
         0.13051E+08
         0.91097E+07
         0.56781E+07
         0.11443E+08
         0.20679E+08
         0.30436E+08
         0.11314E+08
        -0.36489E+08
         0.32513E+08
         0.78372E+08
         0.35768E+08
         0.14444E+08
         0.21732E+07
         0.48342E+07
        -0.12407E+08
        -0.83323E+08
        -0.28939E+09
        -0.41632E+09
        -0.51296E+09
        -0.55200E+09
        -0.23890E+09
        -0.13996E+09
         0.67375E+08
         0.11170E+09
         0.62310E+08
         0.22189E+08
         0.66913E+07
         0.33938E+07
        -0.33494E+08
        -0.12464E+09
        -0.16843E+09
        -0.30809E+09
        -0.37446E+09
        -0.19605E+09
        -0.62513E+08
         0.13131E+08
         0.14828E+08
         0.31881E+08
         0.24347E+08
         0.27977E+08
         0.20411E+08
         0.54920E+07
         0.15732E+08
         0.73773E+07
         0.22199E+08
         0.23735E+08
         0.16154E+08
         0.11250E+08
         0.27338E+08
         0.37197E+08
         0.43841E+07
         0.18409E+08
         0.14356E+08
         0.13378E+08
         0.36239E+08
         0.48389E+08
         0.84169E+08
         0.25977E+08
         0.12496E+08
         0.48874E+08
         0.72012E+07
         0.41774E+08
         0.76086E+08
         0.13251E+09
         0.57960E+08
         0.20934E+08
         0.11903E+08
         0.39197E+08
         0.44351E+08
         0.38833E+08
         0.16596E+08
         0.76095E+07
         0.23197E+08
         0.36284E+08
         0.41961E+08
         0.17948E+08
         0.87877E+08
         0.10687E+09
         0.11629E+08
         0.52096E+07
         0.24820E+07
         0.11846E+08
         0.24187E+08
         0.22637E+08
         0.17322E+08
        -0.27743E+08
         0.23976E+08
         0.23367E+08
         0.11025E+08
         0.31795E+08
         0.87127E+07
         0.10798E+08
        -0.12148E+08
        -0.12395E+09
        -0.23712E+09
        -0.39525E+09
        -0.50777E+09
        -0.59056E+09
        -0.32552E+09
        -0.14049E+09
         0.94032E+08
         0.10633E+09
         0.78237E+08
         0.32612E+08
         0.56173E+07
        -0.55738E+07
        -0.41742E+08
        -0.77646E+08
        -0.21065E+09
        -0.31139E+09
        -0.26532E+09
        -0.17187E+09
        -0.61541E+08
         0.23938E+08
         0.94332E+07
         0.36493E+08
         0.29036E+08
         0.39660E+08
         0.40641E+08
         0.86465E+07
         0.15616E+08
         0.17844E+08
         0.31556E+08
         0.30105E+08
         0.21246E+08
         0.83294E+07
         0.38519E+08
         0.33829E+08
         0.49609E+07
         0.18288E+08
         0.13661E+08
         0.12980E+08
         0.37918E+08
         0.50844E+08
         0.94177E+08
         0.28938E+08
         0.71211E+07
         0.46733E+08
         0.75225E+07
         0.48035E+08
         0.11731E+09
         0.19404E+09
         0.53219E+08
         0.36746E+08
         0.21729E+08
         0.41861E+08
         0.51628E+08
         0.43058E+08
         0.27598E+08
         0.15178E+08
         0.42149E+08
         0.84295E+08
         0.14310E+09
        -0.11028E+08
         0.19234E+09
         0.18079E+09
         0.14296E+08
         0.13865E+08
         0.97917E+07
         0.18205E+08
         0.21506E+08
         0.18561E+08
        -0.10878E+06
        -0.18995E+08
         0.31467E+08
         0.28587E+08
        -0.99080E+07
         0.40430E+08
         0.12355E+08
         0.15316E+08
        -0.15703E+08
        -0.99706E+08
        -0.33234E+09
        -0.66461E+09
        -0.10170E+10
        -0.97469E+09
        -0.58837E+09
        -0.93666E+08
         0.15153E+09
         0.17065E+09
         0.10110E+09
         0.38338E+08
        -0.11327E+08
        -0.59746E+08
        -0.54268E+08
        -0.10346E+09
        -0.24472E+09
        -0.26502E+09
        -0.24927E+09
        -0.18198E+09
        -0.13631E+09
         0.92361E+07
         0.17515E+08
         0.39499E+08
         0.32553E+08
         0.36987E+08
         0.35621E+08
         0.12379E+08
         0.10780E+08
         0.17768E+08
         0.25769E+08
         0.14110E+08
         0.31841E+08
         0.20795E+08
         0.44186E+08
         0.57717E+08
         0.82100E+07
         0.26391E+08
         0.17237E+08
         0.10399E+08
         0.50396E+08
         0.52813E+08
         0.10503E+09
         0.24087E+08
         0.15309E+08
         0.58471E+08
         0.20327E+08
         0.55006E+08
         0.11018E+09
         0.14940E+09
         0.96367E+08
         0.30218E+08
         0.27436E+08
         0.40605E+08
         0.41257E+08
         0.36731E+08
         0.17431E+08
         0.14828E+08
         0.10866E+09
         0.15590E+09
         0.15557E+09
         0.39295E+08
         0.14501E+09
         0.21608E+09
         0.14434E+08
         0.89368E+07
        -0.10459E+08
         0.88229E+06
         0.15648E+08
         0.94023E+07
        -0.78964E+07
        -0.66822E+08
         0.10838E+08
         0.40575E+08
        -0.17732E+08
         0.30957E+08
         0.20711E+08
         0.17638E+08
        -0.10373E+08
        -0.15937E+09
        -0.41249E+09
        -0.64386E+09
        -0.80625E+09
        -0.10932E+10
        -0.45556E+09
        -0.11431E+09
         0.12134E+09
         0.17700E+09
         0.90128E+08
         0.37623E+08
        -0.17224E+08
        -0.76293E+08
        -0.66577E+08
        -0.14836E+09
        -0.14856E+09
        -0.25749E+09
        -0.30401E+09
        -0.19363E+09
        -0.10051E+09
         0.14243E+08
         0.70355E+07
         0.25223E+08
         0.25421E+08
         0.39733E+08
         0.32838E+08
         0.69660E+07
         0.14001E+08
         0.94552E+07
         0.23380E+08
         0.33405E+08
         0.12055E+08
         0.56532E+07
         0.30080E+08
         0.64247E+08
         0.72587E+07
         0.21401E+08
         0.17434E+08
         0.38925E+07
         0.42606E+08
         0.43076E+08
         0.89505E+08
         0.20292E+08
         0.18925E+08
         0.66302E+08
         0.18807E+08
         0.80881E+08
         0.79388E+08
         0.10197E+09
         0.89845E+08
         0.35267E+08
         0.20798E+08
         0.45060E+08
         0.36242E+08
         0.54733E+08
         0.13143E+08
         0.43422E+07
         0.92126E+08
         0.12749E+09
         0.16319E+09
         0.30318E+08
         0.22041E+09
         0.18304E+09
         0.16106E+08
         0.17148E+08
        -0.68057E+07
         0.11644E+08
         0.18081E+08
         0.66291E+07
        -0.22872E+06
        -0.38814E+08
         0.11806E+08
         0.53452E+08
        -0.21583E+08
         0.12656E+08
         0.13769E+08
         0.18112E+08
        -0.30445E+08
        -0.17332E+09
        -0.35932E+09
        -0.73426E+09
        -0.60629E+09
        -0.78998E+09
        -0.30224E+09
        -0.84663E+08
         0.23510E+09
         0.16128E+09
         0.49010E+08
         0.84731E+07
        -0.16677E+08
        -0.56097E+08
        -0.71936E+08
        -0.15842E+09
        -0.12948E+09
        -0.26084E+09
        -0.32858E+09
        -0.24570E+09
        -0.95143E+08
         0.10930E+08
         0.13546E+08
         0.29526E+08
         0.24164E+08
         0.28382E+08
         0.24968E+08
         0.98048E+07
         0.13241E+08
         0.81116E+07
         0.16562E+08
         0.43305E+08
         0.96509E+07
         0.11911E+08
         0.41842E+08
         0.48346E+08
         0.79256E+07
         0.73744E+07
         0.12674E+08
         0.54436E+07
         0.18186E+08
         0.35986E+08
         0.81303E+08
         0.24205E+08
         0.21298E+08
         0.56919E+08
         0.18722E+08
         0.71550E+08
         0.95626E+08
         0.10959E+09
         0.89512E+08
         0.45120E+08
         0.31130E+08
         0.50310E+08
         0.43947E+08
         0.48489E+08
         0.23975E+08
         0.91605E+07
         0.93825E+08
         0.14584E+09
         0.16040E+09
         0.15232E+08
         0.16017E+09
         0.14410E+09
         0.24427E+08
         0.16107E+08
        -0.13014E+08
         0.67097E+07
         0.15868E+08
         0.25675E+08
         0.16372E+08
        -0.13332E+08
         0.15463E+08
         0.34483E+08
        -0.52516E+08
         0.34543E+08
         0.21020E+08
         0.19928E+08
        -0.20613E+08
        -0.19072E+09
        -0.34953E+09
        -0.38953E+09
        -0.10492E+10
        -0.96323E+09
        -0.46796E+09
        -0.83916E+08
         0.17920E+09
         0.14584E+09
         0.68616E+08
         0.33357E+08
        -0.34935E+08
        -0.10099E+09
        -0.11195E+09
        -0.15841E+09
        -0.18958E+09
        -0.21786E+09
        -0.16789E+09
        -0.17733E+09
        -0.11073E+09
         0.17922E+08
         0.17201E+08
         0.19634E+08
         0.25666E+08
         0.12708E+08
         0.13782E+08
         0.11084E+08
         0.10694E+08
         0.12234E+08
         0.29298E+08
         0.36437E+08
         0.31349E+08
         0.14961E+08
         0.25471E+08
         0.56044E+08
         0.78065E+07
         0.18999E+08
         0.13795E+08
         0.12402E+08
         0.39053E+08
         0.50672E+08
         0.10128E+09
         0.26176E+08
         0.22799E+08
         0.42466E+08
         0.18870E+08
         0.55397E+08
         0.71578E+08
         0.92693E+08
         0.80564E+08
         0.30450E+08
         0.28225E+08
         0.38370E+08
         0.36008E+08
         0.53552E+08
         0.20550E+08
         0.10121E+08
         0.59001E+08
         0.76302E+08
         0.10702E+09
         0.83290E+07
         0.15433E+09
         0.18277E+09
         0.18711E+08
         0.34919E+07
        -0.15888E+08
        -0.40407E+07
         0.11912E+08
         0.93168E+07
         0.96798E+07
        -0.24762E+08
        -0.79201E+07
         0.26437E+08
        -0.31073E+08
         0.25424E+08
         0.11177E+08
         0.14369E+08
        -0.73960E+07
        -0.10583E+09
        -0.30186E+09
        -0.53602E+09
        -0.70631E+09
        -0.10758E+10
        -0.61511E+09
         0.50026E+08
         0.70221E+08
         0.15123E+09
         0.58415E+08
         0.75048E+06
        -0.34330E+08
        -0.62848E+08
        -0.60799E+08
        -0.97791E+08
        -0.15618E+09
        -0.15698E+09
        -0.25399E+09
        -0.16052E+09
        -0.91818E+08
         0.14117E+08
         0.12352E+08
         0.12825E+08
         0.95972E+07
         0.21382E+07
         0.49955E+07
         0.72555E+07
         0.12424E+08
         0.16541E+08
         0.23782E+08
         0.31524E+08
         0.33754E+08
         0.12809E+08
         0.39541E+08
         0.30291E+08
         0.39008E+07
         0.17262E+08
         0.13762E+08
         0.21372E+08
         0.43901E+08
         0.44213E+08
         0.75297E+08
         0.26015E+08
         0.27224E+08
         0.55525E+08
         0.11527E+08
         0.60880E+08
         0.90935E+08
         0.16575E+09
         0.83929E+08
         0.20086E+08
         0.97281E+07
         0.27562E+08
         0.20586E+08
         0.16029E+08
         0.22393E+08
         0.61961E+07
         0.57580E+08
         0.75711E+08
         0.12662E+09
         0.94372E+08
         0.13686E+09
         0.16618E+09
         0.80337E+07
         0.49788E+07
        -0.10656E+08
         0.36750E+07
         0.74231E+07
         0.12681E+08
        -0.58552E+07
        -0.44693E+08
         0.89285E+07
         0.75327E+07
        -0.28692E+08
         0.18733E+08
         0.11297E+08
         0.15790E+08
        -0.49836E+07
        -0.15041E+09
        -0.34943E+09
        -0.73505E+09
        -0.11841E+10
        -0.11706E+10
        -0.32432E+09
        -0.19078E+09
         0.71813E+08
         0.10212E+09
         0.71358E+08
         0.94330E+07
        -0.22678E+08
        -0.62249E+08
        -0.63101E+08
        -0.10437E+09
        -0.14743E+09
        -0.21948E+09
        -0.19513E+09
        -0.12438E+09
        -0.10942E+09
         0.15132E+08
         0.11352E+08
         0.19569E+08
         0.16019E+08
         0.14100E+08
         0.13061E+08
         0.54726E+07
         0.17134E+08
         0.81891E+07
         0.31407E+08
         0.35215E+08
         0.14974E+08
         0.12457E+08
         0.18584E+08
         0.16452E+08
         0.69872E+07
         0.10992E+08
         0.33799E+07
         0.10584E+08
         0.24072E+08
         0.28451E+08
         0.44860E+08
         0.18055E+08
         0.17056E+08
         0.65366E+08
         0.16027E+08
         0.32922E+08
         0.71895E+08
         0.10396E+09
         0.95277E+08
         0.21836E+08
         0.12393E+08
         0.23446E+08
         0.22189E+08
         0.13165E+08
         0.88611E+07
         0.75236E+07
         0.11260E+09
         0.75173E+08
         0.81794E+08
        -0.59593E+08
         0.95217E+08
         0.92512E+08
         0.68260E+07
         0.50015E+07
        -0.20928E+07
         0.22978E+07
         0.47219E+06
        -0.21405E+07
        -0.12292E+08
        -0.42646E+08
        -0.35959E+07
         0.11584E+08
        -0.52307E+08
         0.11908E+08
         0.12447E+08
         0.18185E+08
        -0.13652E+08
        -0.85226E+08
        -0.18030E+09
        -0.39415E+09
        -0.69514E+09
        -0.94382E+09
        -0.32980E+09
         0.79489E+08
         0.97585E+08
         0.80900E+08
         0.38055E+08
         0.77653E+07
        -0.13413E+08
        -0.22559E+08
        -0.21334E+08
        -0.27784E+08
        -0.77774E+08
        -0.11499E+09
        -0.19177E+09
        -0.13894E+09
        -0.87828E+08
         0.10764E+08
         0.36740E+07
         0.62770E+07
         0.38940E+07
        -0.20484E+07
        -0.54133E+07
         0.38261E+07
         0.16719E+08
         0.50444E+07
         0.15763E+08
         0.32282E+08
         0.32676E+08
         0.87245E+07
         0.44248E+08
         0.37871E+08
         0.10383E+07
         0.17801E+08
        -0.34569E+06
         0.12121E+08
         0.32449E+08
         0.19172E+08
         0.49693E+08
         0.18891E+08
         0.12470E+08
         0.39005E+08
         0.37413E+07
         0.68113E+08
         0.11531E+09
         0.16122E+09
         0.57095E+08
         0.17487E+07
        -0.12914E+05
         0.78820E+07
         0.35685E+07
         0.77121E+07
         0.42179E+07
         0.17715E+07
         0.66143E+08
         0.98668E+08
         0.10781E+09
         0.11707E+09
         0.15257E+09
         0.93706E+08
         0.11009E+07
        -0.46594E+07
        -0.10369E+08
        -0.48405E+07
        -0.45328E+07
        -0.11398E+08
        -0.80953E+07
        -0.33317E+08
        -0.12536E+08
         0.12247E+08
        -0.41362E+08
         0.41322E+07
         0.11506E+07
         0.38919E+07
        -0.66794E+05
        -0.16161E+09
        -0.37516E+09
        -0.77302E+09
        -0.11674E+10
        -0.10537E+10
        -0.24667E+09
         0.16083E+08
         0.81308E+08
         0.29970E+08
         0.32592E+08
        -0.72774E+07
        -0.16997E+08
        -0.12915E+08
         0.65072E+07
         0.15061E+08
        -0.39148E+08
        -0.69573E+08
        -0.10697E+09
        -0.12523E+09
        -0.77891E+08
         0.75529E+07
         0.10716E+07
        -0.13916E+07
        -0.69858E+07
        -0.82295E+07
        -0.20827E+08
         0.85677E+07
         0.12318E+08
         0.46157E+07
         0.17647E+08
         0.29682E+08
         0.37803E+08
         0.12144E+08
         0.37411E+08
         0.61163E+08
         0.34665E+06
         0.15281E+08
        -0.12270E+07
         0.63985E+07
         0.28924E+08
         0.31950E+08
         0.79657E+08
         0.17402E+08
         0.13818E+08
         0.55558E+08
        -0.71583E+07
         0.77562E+08
         0.11722E+09
         0.13845E+09
         0.77961E+08
        -0.35978E+08
        -0.37063E+08
        -0.44744E+08
        -0.15871E+08
         0.10649E+08
         0.51620E+07
         0.17222E+07
         0.52050E+08
         0.83010E+08
         0.12121E+09
         0.11268E+05
         0.14579E+09
         0.12048E+09
        -0.21771E+07
        -0.25366E+08
        -0.29999E+08
        -0.35531E+08
        -0.44014E+08
        -0.14922E+08
        -0.16260E+08
        -0.16117E+08
        -0.17876E+08
         0.25155E+08
        -0.12452E+08
         0.19717E+07
        -0.16849E+08
        -0.83730E+07
        -0.35969E+08
        -0.17354E+09
        -0.47848E+09
        -0.79863E+09
        -0.11444E+10
        -0.95293E+09
        -0.60893E+09
        -0.87380E+08
         0.15487E+09
         0.18378E+09
         0.55560E+08
         0.11940E+08
        -0.13519E+08
         0.24467E+08
         0.88106E+08
         0.13772E+09
         0.16415E+09
         0.11402E+09
         0.10922E+09
        -0.30274E+08
        -0.44905E+08
         0.17048E+08
         0.14156E+08
        -0.95446E+07
        -0.29969E+08
        -0.11552E+08
        -0.42057E+08
         0.34763E+08
         0.27091E+08
         0.31844E+07
         0.36914E+08
         0.54843E+08
         0.52215E+08
         0.28190E+08
         0.37394E+08
         0.20824E+08
        -0.15441E+07
         0.18710E+08
        -0.12716E+08
         0.86975E+07
         0.18338E+08
         0.23305E+08
         0.43265E+08
         0.12730E+08
         0.14224E+08
         0.28521E+08
        -0.92681E+07
         0.26022E+08
         0.26304E+08
         0.69932E+08
         0.44271E+08
        -0.86056E+08
        -0.73442E+08
        -0.87683E+08
        -0.40422E+08
         0.22908E+08
         0.10105E+07
         0.11922E+08
         0.94767E+08
         0.76763E+08
         0.43632E+08
         0.52207E+08
         0.35534E+08
         0.76934E+08
        -0.35779E+07
        -0.31963E+08
        -0.30436E+08
        -0.58937E+08
        -0.86499E+08
        -0.63557E+08
        -0.29808E+08
         0.19546E+08
        -0.28645E+08
         0.88823E+07
         0.77590E+07
         0.42563E+07
         0.52326E+07
        -0.11879E+07
        -0.74520E+08
        -0.23235E+09
        -0.39498E+09
        -0.32170E+09
        -0.34444E+09
        -0.41710E+09
        -0.35487E+09
        -0.22686E+09
         0.64043E+08
         0.19117E+09
         0.16460E+09
         0.76106E+08
         0.63068E+08
         0.18682E+09
         0.37448E+09
         0.44088E+09
         0.40677E+09
         0.35458E+09
         0.27791E+09
         0.14575E+09
         0.31389E+08
         0.15070E+08
         0.15477E+08
        -0.85825E+07
        -0.24643E+08
        -0.15484E+08
        -0.41412E+08
         0.34789E+08
         0.27226E+08
         0.99451E+07
         0.32566E+08
         0.58548E+08
         0.25782E+08
         0.27443E+08
         0.41165E+08
         0.17045E+08
        -0.42098E+07
         0.23733E+08
        -0.53726E+07
        -0.29928E+07
         0.18319E+08
         0.27070E+08
         0.60239E+08
         0.66962E+07
        -0.32996E+08
         0.29187E+08
        -0.49615E+08
         0.32018E+08
         0.17663E+08
         0.71637E+07
         0.49656E+08
        -0.11345E+09
        -0.12009E+09
        -0.82855E+08
        -0.82305E+08
        -0.15164E+08
         0.53086E+07
         0.13154E+08
         0.32177E+07
        -0.15781E+08
        -0.21398E+08
        -0.52050E+08
         0.12925E+08
         0.85269E+08
        -0.19433E+08
        -0.51660E+08
        -0.30970E+08
        -0.65150E+08
        -0.95416E+08
        -0.73933E+08
        -0.60089E+08
         0.19207E+07
        -0.53548E+08
        -0.50757E+08
        -0.30655E+08
        -0.32306E+07
         0.23897E+08
         0.19364E+08
        -0.14144E+08
        -0.85372E+08
        -0.96760E+08
         0.15673E+08
         0.10768E+09
        -0.19493E+09
        -0.63211E+09
        -0.51461E+09
        -0.33528E+08
         0.36805E+09
         0.46215E+09
         0.30570E+09
         0.24480E+09
         0.41838E+09
         0.59252E+09
         0.56889E+09
         0.43915E+09
         0.53068E+09
         0.44577E+09
         0.21643E+09
         0.56991E+08
        -0.51593E+08
        -0.23643E+08
        -0.13890E+09
        -0.97171E+08
        -0.20587E+09
        -0.16064E+09
        -0.15302E+07
        -0.34473E+08
        -0.11385E+08
        -0.23774E+08
        -0.28923E+08
        -0.17151E+08
         0.10502E+08
        -0.32260E+08
        -0.35471E+08
        -0.32794E+08
         0.21239E+08
        -0.25022E+08
        -0.16147E+08
         0.77223E+08
         0.16435E+09
         0.14002E+09
         0.15816E+09
        -0.91787E+08
         0.15840E+08
        -0.15021E+09
        -0.56414E+08
        -0.12277E+09
        -0.33816E+09
         0.97589E+08
        -0.21991E+09
        -0.24325E+09
        -0.19675E+09
        -0.19374E+09
        -0.28488E+09
        -0.69539E+08
         0.16444E+08
        -0.10007E+09
        -0.22174E+09
        -0.39092E+09
        -0.88815E+09
        -0.60692E+09
        -0.16890E+08
         0.76374E+08
        -0.41492E+08
        -0.74420E+07
        -0.16082E+09
        -0.22606E+09
        -0.22633E+09
        -0.18752E+09
        -0.98811E+08
        -0.12500E+09
        -0.41361E+09
        -0.20910E+09
        -0.74332E+07
         0.15895E+09
         0.90768E+08
         0.23643E+08
         0.13526E+09
         0.35969E+09
         0.65819E+09
         0.50208E+09
        -0.11000E+10
        -0.29127E+10
        -0.23752E+10
        -0.35382E+09
         0.12890E+10
         0.16825E+10
         0.13342E+10
         0.10504E+10
         0.10758E+10
         0.11902E+10
         0.92303E+09
         0.69753E+09
         0.42913E+09
         0.39054E+09
         0.62552E+08
        -0.78534E+08
  
SCALARS                         fint_x  double 1
LOOKUP_TABLE default
         0.00000E+00
        -0.51759E+03
        -0.18727E+03
        -0.25108E+03
        -0.14226E+03
         0.24763E+04
         0.23499E+04
         0.22931E+04
         0.25932E+04
        -0.55776E+03
        -0.58265E+03
         0.17549E+04
         0.19555E+04
        -0.60107E+01
         0.20061E+03
         0.14398E+04
         0.21803E+04
        -0.84828E+02
         0.80322E+02
         0.11211E+04
         0.28745E+04
         0.24625E+03
        -0.46340E+02
        -0.14009E+03
         0.14331E+04
        -0.51706E+02
         0.41010E+03
         0.24749E+03
         0.28444E+03
         0.17251E+04
         0.96534E+03
        -0.41722E+02
        -0.13592E+03
         0.15104E+02
         0.21455E+03
         0.73896E+03
         0.42441E+03
        -0.99125E+01
        -0.57114E+02
         0.22153E+02
         0.14142E+03
         0.10487E+03
         0.18510E+03
         0.76323E+01
         0.72911E+02
        -0.28194E+02
         0.10885E+02
         0.30973E+02
         0.36041E+02
         0.50329E+02
         0.94870E+03
         0.89523E+02
         0.49369E+03
         0.25467E+03
         0.21057E+04
        -0.12234E+03
         0.25239E+04
        -0.53098E+03
         0.72785E+02
         0.26752E+04
         0.73235E+03
         0.64695E+03
         0.14666E+03
         0.76406E+03
         0.12679E+04
         0.51366E+03
         0.58283E+03
         0.61989E+03
         0.23150E+04
        -0.45551E+03
        -0.29838E+03
         0.12899E+04
         0.13845E+04
        -0.19840E+03
         0.90978E+03
        -0.23884E+04
         0.23492E+03
        -0.42401E+04
        -0.71394E+03
        -0.26030E+04
        -0.87126E+03
        -0.51388E+03
        -0.31947E+02
        -0.34507E+02
         0.14606E+04
         0.52525E+03
         0.12276E+04
        -0.20546E+03
         0.14078E+04
        -0.39965E+03
         0.16219E+04
        -0.56378E+03
        -0.20948E+03
         0.13220E+04
         0.87240E+03
        -0.12241E+03
         0.66099E+03
        -0.11510E+04
         0.14295E+04
        -0.34510E+04
         0.81244E+03
        -0.52230E+04
        -0.20532E+04
         0.11349E+02
         0.97790E+03
        -0.49744E+03
        -0.11995E+04
         0.14945E+04
         0.13345E+04
        -0.60411E+03
         0.49483E+03
        -0.10137E+03
        -0.87202E+03
         0.67352E+03
        -0.40299E+04
         0.15526E+04
        -0.77502E+04
         0.24666E+04
        -0.11116E+05
         0.62300E+04
        -0.20459E+05
         0.11607E+05
        -0.33382E+05
         0.93777E+04
        -0.18227E+05
         0.20814E+04
        -0.20595E+04
         0.49287E+02
         0.62782E+03
         0.22729E+03
         0.10845E+04
         0.45301E+03
         0.20017E+04
         0.66421E+02
         0.24087E+04
        -0.47793E+03
         0.18918E+04
        -0.80466E+03
         0.11174E+04
        -0.10812E+04
         0.15034E+04
        -0.12174E+04
         0.13993E+04
        -0.19499E+04
         0.12230E+04
        -0.33787E+04
         0.75989E+03
        -0.72162E+04
        -0.18215E+03
        -0.12604E+05
        -0.13091E+04
        -0.13318E+05
        -0.10044E+04
        -0.85077E+04
         0.45357E+03
        -0.39222E+04
         0.15866E+04
        -0.23242E+04
        -0.16494E+04
        -0.17075E+04
        -0.14012E+04
        -0.19081E+04
        -0.30507E+04
        -0.73182E+03
        -0.18134E+04
        -0.24533E+04
        -0.20584E+04
        -0.83010E+03
         0.65289E+03
        -0.19165E+03
        -0.14142E+04
         0.28782E+03
        -0.19086E+04
        -0.20136E+04
        -0.25383E+04
        -0.83480E+03
        -0.73981E+03
        -0.39201E+03
        -0.97523E+02
        -0.97822E+03
        -0.94926E+03
        -0.16828E+04
        -0.11527E+04
        -0.23642E+04
        -0.25486E+04
        -0.18271E+04
        -0.72301E+03
        -0.11071E+04
        -0.15015E+04
        -0.64683E+03
        -0.11519E+04
        -0.20193E+04
        -0.14832E+04
        -0.86894E+03
        -0.15188E+03
        -0.45241E+03
         0.84539E+02
         0.59896E+03
        -0.98758E+03
        -0.82391E+02
        -0.13170E+04
        -0.14962E+04
        -0.15431E+04
        -0.15757E+04
        -0.17964E+04
        -0.39755E+04
        -0.56994E+04
        -0.73831E+04
        -0.49249E+04
        -0.17312E+04
        -0.18173E+04
        -0.11531E+04
         0.61598E+02
         0.21619E+04
         0.48659E+04
         0.82517E+04
         0.16031E+05
         0.24297E+05
         0.17650E+05
         0.41847E+04
        -0.37972E+03
        -0.31345E+03
        -0.59816E+03
        -0.11864E+04
        -0.16434E+04
        -0.17195E+04
        -0.17499E+04
        -0.14342E+04
        -0.14891E+04
        -0.47115E+04
        -0.80569E+04
        -0.14402E+05
        -0.13992E+05
        -0.81048E+04
        -0.38458E+04
        -0.13643E+04
        -0.80063E+03
        -0.82154E+03
        -0.14249E+04
         0.59953E+03
         0.94833E+03
        -0.44681E+03
        -0.10446E+04
        -0.10260E+04
        -0.13724E+04
        -0.63950E+03
         0.14573E+03
        -0.14220E+03
        -0.81283E+03
        -0.17676E+03
        -0.90138E+03
        -0.85198E+03
        -0.11359E+04
        -0.45853E+03
        -0.66033E+03
        -0.47216E+03
        -0.66057E+03
        -0.35576E+03
        -0.42662E+03
        -0.10026E+04
        -0.73616E+03
        -0.11263E+04
        -0.11836E+04
        -0.85492E+03
        -0.75916E+03
        -0.12057E+04
        -0.80684E+03
        -0.15789E+04
        -0.26668E+03
         0.77732E+02
        -0.14830E+03
        -0.28176E+03
         0.28011E+03
         0.50902E+03
         0.11148E+03
         0.34439E+03
        -0.30034E+03
        -0.79384E+03
        -0.30132E+03
        -0.16106E+03
         0.28591E+03
         0.22057E+03
         0.42854E+03
        -0.10403E+04
        -0.45551E+00
         0.15932E+04
         0.10620E+04
         0.11898E+04
         0.21795E+04
         0.42073E+03
         0.26752E+03
         0.62129E+03
         0.15140E+04
         0.20779E+04
         0.45526E+04
         0.73123E+04
         0.64815E+04
         0.24916E+04
        -0.20010E+03
         0.10524E+03
        -0.47562E+03
        -0.65951E+03
        -0.32519E+03
         0.32197E+02
         0.79288E+03
         0.11484E+04
         0.13974E+04
         0.31049E+04
         0.66308E+04
         0.59294E+04
         0.88705E+03
         0.37655E+04
         0.25740E+04
        -0.26556E+03
        -0.13187E+03
         0.42194E+03
         0.22526E+03
         0.18900E+04
         0.22183E+04
        -0.14385E+03
        -0.20887E+03
         0.58757E+02
        -0.18407E+03
        -0.38995E+03
        -0.19953E+03
        -0.74532E+02
        -0.31432E+03
        -0.26829E+03
        -0.49783E+02
        -0.10474E+03
         0.11898E+03
        -0.93945E+02
        -0.19480E+03
        -0.22086E+03
        -0.36803E+03
        -0.36702E+02
        -0.37827E+02
        -0.18881E+03
        -0.44375E+02
        -0.36789E+03
        -0.34039E+03
        -0.14635E+03
        -0.31295E+03
         0.32962E+03
         0.92078E+02
        -0.42197E+02
         0.15421E+04
         0.81067E+03
         0.84469E+03
         0.10503E+03
        -0.37487E+03
         0.39512E+02
        -0.25666E+03
         0.11476E+03
        -0.44651E+03
        -0.45953E+03
         0.14005E+03
         0.37185E+03
         0.66051E+03
         0.81440E+03
         0.12632E+04
         0.23508E+04
         0.28582E+04
         0.72116E+04
         0.54398E+04
         0.24688E+04
         0.44984E+04
         0.14421E+04
         0.23428E+03
        -0.11922E+03
        -0.46641E+03
         0.52357E+03
         0.12752E+04
         0.17699E+04
         0.13895E+04
         0.10737E+04
         0.62438E+03
         0.45566E+03
        -0.23868E+03
        -0.44095E+03
        -0.99280E+02
         0.37469E+03
         0.83414E+03
         0.10461E+04
         0.15758E+04
         0.24886E+04
         0.69741E+04
         0.92663E+04
         0.10853E+05
         0.10120E+05
         0.66463E+04
        -0.41240E+02
         0.31165E+02
         0.70869E+02
        -0.64739E+02
         0.52101E+03
         0.46228E+03
        -0.44053E+02
        -0.30472E+02
         0.11762E+02
        -0.11345E+03
        -0.10927E+03
        -0.16741E+03
        -0.10872E+03
        -0.12987E+03
        -0.19407E+03
         0.86861E+02
        -0.29554E+02
         0.75257E+02
         0.11626E+01
        -0.14359E+03
        -0.20691E+03
        -0.41478E+03
        -0.11948E+03
        -0.10315E+02
        -0.18280E+03
        -0.68045E+02
        -0.86711E+02
        -0.59766E+03
        -0.68002E+03
        -0.33764E+03
        -0.80001E+02
        -0.65385E+02
         0.19017E+03
         0.27880E+03
         0.29668E+03
         0.30326E+02
        -0.27162E+02
        -0.62488E+03
        -0.73515E+03
        -0.58950E+03
        -0.15514E+03
        -0.49657E+03
        -0.63623E+03
        -0.11379E+03
        -0.11327E+03
        -0.15510E+03
        -0.12743E+03
        -0.53379E+02
        -0.19254E+02
         0.19101E+03
         0.49978E+03
         0.56388E+03
         0.63850E+03
         0.92447E+03
         0.61882E+02
        -0.87916E+02
        -0.28851E+03
        -0.35160E+03
        -0.21384E+03
         0.49364E+03
         0.87903E+03
         0.10660E+04
         0.97427E+03
         0.47854E+03
        -0.13685E+03
        -0.58422E+03
        -0.60552E+03
        -0.40540E+03
        -0.23584E+03
        -0.16954E+03
        -0.22375E+03
        -0.34093E+03
        -0.13762E+02
        -0.52688E+02
         0.71384E+03
         0.18567E+04
         0.18343E+04
         0.14624E+04
         0.41522E+02
         0.11060E+02
        -0.20856E+01
         0.33546E+02
        -0.16527E+02
        -0.41268E+01
        -0.10606E+02
         0.29667E+02
         0.21860E+02
        -0.20457E+02
        -0.27470E+02
        -0.58154E+02
        -0.35590E+02
        -0.84557E+02
        -0.14943E+03
         0.69058E+02
         0.31069E+02
         0.47415E+02
         0.46035E+02
        -0.55894E+02
        -0.13980E+03
        -0.27260E+03
        -0.78258E+02
         0.19792E+02
        -0.15550E+03
         0.52439E+02
        -0.17755E+03
        -0.22526E+03
        -0.21759E+03
        -0.12507E+03
        -0.56335E+02
        -0.46945E+02
        -0.14789E+03
        -0.24188E+03
        -0.14494E+02
        -0.35795E+02
        -0.38868E+02
        -0.43095E+03
        -0.50731E+03
        -0.44000E+03
        -0.11176E+03
        -0.27060E+03
        -0.39436E+03
        -0.10274E+03
        -0.16838E+03
        -0.30724E+03
        -0.36553E+03
        -0.51446E+03
        -0.28988E+03
        -0.54966E+03
        -0.62396E+03
        -0.42565E+03
        -0.43373E+02
        -0.89697E+02
        -0.46530E+02
        -0.75470E+02
        -0.12883E+03
        -0.18137E+03
         0.63786E+02
         0.14021E+03
         0.30114E+03
         0.59229E+03
         0.55384E+03
         0.32176E+03
        -0.55520E+03
        -0.64567E+03
        -0.33390E+03
        -0.13633E+03
        -0.11800E+03
        -0.29914E+03
        -0.42156E+03
        -0.71179E+03
        -0.10678E+04
        -0.11758E+04
        -0.84667E+03
        -0.74644E+03
        -0.44805E+03
        -0.17785E+03
         0.42883E+02
         0.16383E+02
         0.24526E+01
        -0.78574E+01
        -0.32392E+02
        -0.11003E+03
         0.61324E+02
         0.21667E+02
         0.92578E+02
        -0.23276E+02
         0.43494E+02
         0.70031E+01
         0.13702E+02
        -0.15596E+02
        -0.87340E+02
         0.73762E+02
         0.70542E+02
         0.58139E+02
         0.43442E+02
        -0.14783E+02
        -0.53327E+02
        -0.82425E+02
        -0.12816E+02
         0.16234E+02
        -0.57285E+02
         0.41486E+02
        -0.95708E+02
        -0.29797E+03
        -0.47654E+03
        -0.12374E+03
         0.70390E+01
         0.21053E+02
        -0.25583E+02
        -0.14977E+03
        -0.18232E+02
        -0.23812E+02
        -0.86270E+01
        -0.35596E+03
        -0.29896E+03
        -0.34797E+03
        -0.62600E+03
        -0.62424E+03
        -0.19047E+03
         0.36408E+00
        -0.19522E+02
        -0.35570E+02
        -0.58419E+02
        -0.11153E+03
        -0.16023E+03
        -0.24253E+03
        -0.33089E+03
        -0.30666E+03
         0.11517E+01
        -0.56560E+02
        -0.44391E+01
        -0.15801E+02
        -0.34926E+02
        -0.58917E+02
        -0.99038E+02
        -0.57170E+02
        -0.82436E+03
        -0.29348E+03
        -0.49384E+03
        -0.73974E+03
        -0.35059E+03
        -0.36278E+03
        -0.20200E+03
        -0.51701E+02
         0.99395E+01
        -0.15721E+02
        -0.67804E+02
        -0.79500E+02
        -0.20398E+03
        -0.34402E+03
        -0.29858E+03
        -0.20613E+03
        -0.20964E+03
        -0.12429E+03
         0.37975E+02
         0.73879E+01
         0.12373E+02
         0.31168E+02
         0.10672E+02
         0.53913E+01
         0.12983E+02
         0.35663E+02
         0.46345E+02
         0.20074E+02
         0.12342E+02
        -0.10227E+02
         0.14623E+02
         0.65637E+01
        -0.38218E+02
         0.16470E+02
         0.23059E+02
         0.37822E+02
         0.77737E+01
        -0.11230E+02
        -0.42245E+02
        -0.91501E+02
         0.80551E+00
         0.53723E+01
        -0.18287E+02
         0.12934E+02
        -0.52329E+02
        -0.10903E+03
        -0.18993E+03
        -0.93790E+02
         0.17159E+02
         0.17981E+02
         0.34157E+02
         0.15102E+02
         0.10187E+02
         0.13160E+02
         0.14648E+02
        -0.16786E+03
        -0.27589E+03
        -0.32912E+03
        -0.41045E+03
        -0.27848E+03
        -0.25246E+03
         0.18503E+02
         0.27638E+02
         0.42796E+02
         0.44698E+02
         0.49206E+02
         0.31501E+01
        -0.12573E+02
        -0.32018E+02
        -0.11502E+02
         0.33849E+02
        -0.36306E+01
         0.47879E+02
         0.27806E+02
        -0.22848E+01
        -0.56034E+02
        -0.45534E+02
        -0.22506E+03
        -0.29824E+03
        -0.52120E+03
        -0.47404E+03
        -0.59765E+03
        -0.67551E+03
        -0.36914E+03
        -0.13515E+03
         0.62367E+01
         0.52849E+02
         0.64572E+02
         0.68463E+02
         0.87872E+02
         0.95511E+02
         0.14358E+02
        -0.43326E+02
        -0.72004E+02
        -0.52942E+02
        -0.55192E+02
         0.22216E+02
         0.90935E+01
         0.95142E+01
         0.21023E+02
         0.31254E+02
         0.23932E+02
         0.15287E+02
         0.12496E+02
         0.25623E+02
         0.27643E+02
         0.13728E+01
         0.49246E+01
         0.89870E+01
         0.25704E+02
        -0.10108E+02
         0.76920E+01
         0.23214E+02
         0.19881E+02
        -0.31340E+01
         0.43980E+01
        -0.21951E+02
        -0.53433E+02
        -0.11140E+02
        -0.28035E+01
         0.18627E+02
        -0.48216E+01
         0.34313E+02
         0.28784E+02
         0.25470E+01
        -0.13532E+02
         0.13986E+02
        -0.55334E+01
         0.35190E+02
         0.28796E+02
         0.17378E+02
         0.91030E+01
         0.55983E+01
        -0.39746E+02
        -0.10964E+03
        -0.19749E+03
        -0.24290E+03
        -0.98089E+02
        -0.11555E+03
        -0.69628E+01
         0.16852E+01
         0.17222E+02
         0.20029E+02
         0.39101E+02
         0.82963E+01
        -0.46954E+00
        -0.18622E+02
        -0.11031E+02
         0.34306E+02
         0.59192E+01
         0.23636E+02
         0.30726E+02
         0.19332E+02
         0.36894E+01
        -0.85014E+02
        -0.21629E+03
        -0.51033E+03
        -0.49557E+03
        -0.39252E+03
        -0.23932E+03
        -0.15655E+03
        -0.16372E+03
         0.39949E+02
         0.32392E+02
         0.89045E+01
         0.18789E+02
         0.31564E+02
         0.39319E+02
         0.62412E+02
         0.37070E+02
         0.54284E+02
         0.56347E+02
        -0.40133E+02
        -0.36858E+02
         0.24536E+01
        -0.24083E+01
        -0.16129E+02
         0.41206E+01
         0.76511E+01
         0.15781E+02
        -0.96960E+00
        -0.30467E+01
         0.15073E+02
         0.18126E+02
         0.38114E-01
         0.41363E+01
        -0.21408E+01
         0.84128E+01
        -0.13178E+01
        -0.33045E+01
         0.14180E+02
         0.11335E+02
        -0.53351E+01
         0.10078E+02
        -0.65199E+01
         0.37311E+01
        -0.14768E+02
        -0.14911E+02
         0.25778E+02
        -0.16735E+02
         0.21177E+02
         0.35464E+02
         0.85933E+01
         0.27528E+02
        -0.40863E+01
        -0.14772E+02
         0.21452E+02
         0.26922E+02
         0.45804E+01
         0.26319E+01
        -0.81287E+01
        -0.18591E+02
        -0.25965E+02
        -0.64243E+02
        -0.91952E+02
        -0.73298E+01
        -0.15907E+02
        -0.16387E+02
        -0.11737E+02
        -0.84063E+01
        -0.82065E+01
         0.12054E+01
        -0.79940E+01
         0.63361E+01
        -0.39771E+02
        -0.57294E+01
         0.27405E+02
         0.26751E+02
         0.21085E+02
         0.20586E+02
         0.14760E+02
         0.13302E+02
        -0.37283E+02
        -0.15592E+03
        -0.22548E+03
        -0.23357E+03
        -0.19858E+03
        -0.75489E+02
        -0.14978E+03
        -0.44590E+02
        -0.13450E+02
         0.32241E+01
         0.10641E+02
         0.87061E+01
         0.72866E+01
         0.10149E+02
         0.43890E+02
        -0.22640E+02
         0.27168E+02
         0.46197E+02
         0.63159E+02
         0.64414E+02
         0.50051E+01
        -0.83866E+01
        -0.34772E+01
         0.24994E+02
         0.20455E+02
         0.24358E+02
        -0.82081E+01
         0.67530E+01
         0.12834E+02
         0.27477E+02
         0.57364E+01
         0.57921E+00
        -0.66331E+01
         0.66432E+01
        -0.97499E+00
         0.53429E+01
         0.23206E+02
         0.13259E+02
         0.73412E+01
         0.27136E+02
         0.80616E+01
         0.35949E+02
         0.24698E+01
        -0.32458E-01
         0.32372E+02
        -0.45996E+01
         0.37418E+02
         0.54119E+02
         0.47097E+02
         0.57072E+02
         0.10206E+02
        -0.45442E+01
         0.12974E+02
         0.14309E+01
        -0.47101E+01
         0.20309E+01
         0.28273E+00
         0.15400E+02
         0.32156E+02
         0.20949E+02
        -0.20890E+02
         0.47430E+01
         0.52177E+02
        -0.16972E+01
         0.81238E+00
        -0.12792E+01
        -0.80771E+01
         0.17013E+01
         0.14024E+02
         0.28054E+01
        -0.10658E+02
         0.14866E+02
         0.48571E+02
        -0.61153E+01
         0.37481E+02
         0.40178E+02
         0.34814E+02
         0.19191E+02
        -0.38548E+02
        -0.13134E+03
        -0.21031E+03
        -0.21486E+03
        -0.11563E+03
         0.20334E+02
        -0.99257E+02
        -0.43657E+02
        -0.94929E+00
         0.24589E+02
         0.36339E+02
         0.31185E+02
         0.14856E+02
        -0.10133E+02
        -0.62393E+02
        -0.55448E+02
        -0.86641E+02
        -0.11536E+03
        -0.61637E+02
         0.10509E+02
         0.12752E+02
         0.46438E+00
        -0.23465E+01
         0.15146E+02
         0.56930E+01
         0.13569E+02
        -0.70368E+01
         0.83791E+01
         0.18112E+02
         0.27313E+02
        -0.19062E+01
         0.74209E+00
        -0.34775E+01
         0.10582E+02
        -0.65494E+01
         0.86163E+01
         0.25997E+02
         0.14208E+02
         0.85612E+01
         0.31567E+02
         0.10247E+02
         0.28408E+02
         0.38945E+01
        -0.94086E-01
         0.40249E+02
        -0.14753E+01
         0.17248E+02
         0.20873E+02
        -0.11872E+02
         0.28016E+02
         0.83945E+01
         0.38392E+00
         0.18684E+02
         0.26557E+02
         0.97500E+01
         0.12572E+02
        -0.10455E+01
        -0.38403E+02
        -0.77880E+02
        -0.10879E+03
        -0.14627E+03
        -0.28161E+02
        -0.28795E+02
         0.29983E+01
         0.39669E+01
         0.95926E+01
         0.49689E+01
         0.76150E+01
         0.27630E+02
         0.27056E+02
         0.27293E+02
         0.27965E+02
         0.15904E+02
         0.97742E+01
         0.43183E+02
         0.35210E+02
         0.34312E+02
         0.93683E+01
        -0.48982E+02
        -0.14431E+03
        -0.22836E+03
        -0.23539E+03
        -0.26075E+03
        -0.20052E+03
        -0.14249E+03
        -0.74648E+02
         0.18581E+02
         0.39974E+02
         0.38355E+02
         0.31259E+02
         0.16043E+02
         0.27644E+01
        -0.10025E+02
        -0.26900E+02
        -0.10250E+03
        -0.34253E+02
        -0.59220E+02
         0.24738E+02
         0.83757E+01
        -0.61607E+01
         0.91534E+01
         0.30219E+02
         0.46547E+02
         0.52247E+02
         0.12037E+01
         0.68210E+01
         0.27787E+02
         0.23707E+02
        -0.76845E+00
        -0.40081E+01
        -0.12944E+02
         0.14150E+02
        -0.10309E+02
         0.80621E+01
         0.33687E+02
         0.17246E+02
         0.70967E+01
         0.39269E+02
         0.35711E+01
         0.17632E+02
        -0.12074E+01
        -0.24246E+01
         0.27746E+02
        -0.24609E+01
         0.17391E+02
         0.26707E+02
         0.17109E+02
         0.43727E+02
         0.19940E+02
         0.38474E+01
         0.16827E+02
         0.45764E+02
         0.12073E+01
         0.50450E+01
        -0.34268E+01
        -0.86411E+01
        -0.26811E+02
        -0.65430E+02
        -0.89298E+02
        -0.40109E+02
         0.53877E+02
        -0.66707E+00
         0.44502E+01
         0.70448E+01
         0.64944E+01
         0.21513E+02
         0.47301E+01
         0.24106E+00
         0.37761E+01
         0.37191E+02
         0.29618E+02
         0.35425E+02
         0.39890E+02
         0.28768E+02
         0.16428E+02
         0.48418E+01
        -0.66692E+02
        -0.19167E+03
        -0.30595E+03
        -0.29250E+03
        -0.88090E+02
        -0.28305E+03
        -0.94060E+02
        -0.20790E+02
         0.21156E+02
         0.33825E+02
         0.35901E+02
         0.31071E+02
         0.15878E+02
         0.68391E+01
        -0.21472E+02
        -0.12611E+03
        -0.13997E+03
        -0.85207E+02
        -0.47917E+02
        -0.37259E+02
         0.40901E+00
        -0.81166E+01
         0.63077E+01
         0.30439E+02
         0.28226E+02
         0.22342E+02
        -0.13785E+01
         0.29768E+01
         0.17791E+02
         0.19883E+02
        -0.84826E+01
         0.59096E+01
         0.14207E+01
         0.12732E+02
         0.10229E+02
         0.13771E+02
         0.32432E+02
         0.17305E+02
         0.33811E+01
         0.24645E+02
         0.36823E+01
         0.20789E+02
         0.17823E+01
         0.29307E+00
         0.57288E+02
        -0.12605E+01
         0.17407E+02
        -0.16307E+02
        -0.33283E+02
         0.55045E+02
         0.10302E+02
         0.56278E+01
         0.23700E+02
         0.30630E+02
        -0.85515E+01
         0.32044E+01
        -0.72351E+01
         0.17508E+02
         0.26108E+02
        -0.27895E+02
         0.15166E+02
        -0.55527E+01
         0.28092E+02
         0.41323E+01
         0.58869E+01
         0.49551E+01
        -0.35950E+00
         0.54784E+00
        -0.61251E+01
        -0.25456E+02
        -0.55399E+02
         0.36805E+01
         0.26073E+02
        -0.39546E+02
         0.29685E+02
         0.28129E+02
         0.19659E+02
         0.16464E+02
        -0.78366E+02
        -0.19331E+03
        -0.16243E+03
         0.54802E+02
         0.12573E+03
         0.22385E+03
        -0.10013E+03
         0.25568E+02
         0.73983E+02
         0.40709E+02
         0.38374E+02
         0.31644E+02
         0.17350E+02
         0.50741E+01
        -0.11078E+02
        -0.90408E+02
        -0.92820E+02
        -0.34700E+02
        -0.20824E+02
        -0.42728E+02
         0.70365E+01
        -0.93719E+00
        -0.50849E+01
         0.15820E+02
        -0.46820E+01
         0.60807E+01
         0.42575E+01
         0.94463E+01
         0.16751E+02
         0.24208E+02
        -0.34146E+01
         0.81600E+01
        -0.18931E+01
         0.18987E+02
         0.17569E+02
         0.66744E+01
         0.12768E+02
         0.20211E+02
        -0.23090E+01
         0.16366E+02
         0.21004E+02
         0.28678E+02
         0.10974E+02
        -0.14255E+01
         0.50006E+02
         0.36210E+01
         0.61436E+02
         0.79680E+02
         0.10420E+03
         0.29259E+02
         0.17562E+02
         0.23422E+01
         0.24726E+02
         0.25604E+02
         0.39285E+01
        -0.22677E+01
        -0.16863E+00
         0.28067E+02
         0.60233E+02
         0.62005E+02
         0.15529E+03
         0.83761E+02
         0.12093E+02
         0.49496E+01
         0.47484E+01
         0.87076E+00
        -0.19941E+01
         0.90881E+00
        -0.20466E+01
        -0.14725E+02
        -0.46645E+02
        -0.17183E+02
         0.16279E+02
        -0.50369E+02
         0.14960E+02
         0.19561E+02
         0.15960E+02
        -0.31309E+00
        -0.53224E+02
        -0.51228E+02
        -0.37861E+02
        -0.25579E+00
         0.24966E+03
         0.18406E+03
        -0.30925E+02
        -0.62043E+02
         0.10889E+02
         0.63755E+02
         0.34472E+02
         0.17275E+02
         0.32225E+01
        -0.52247E+01
        -0.32593E+02
        -0.13047E+02
        -0.43364E+02
        -0.63688E+02
        -0.80514E+02
         0.99230E+01
         0.11378E+02
         0.13549E+02
         0.88526E+01
         0.30102E+02
         0.31681E+01
        -0.49734E+00
         0.46486E+01
         0.82839E+01
         0.19879E+02
         0.60826E+01
         0.10189E+02
         0.87144E+00
         0.32599E+01
         0.17680E+02
         0.15993E+02
         0.72904E+01
         0.22511E+02
         0.20157E+02
         0.50571E+01
         0.29436E+02
        -0.53530E+01
        -0.40745E+01
        -0.37499E+01
        -0.16478E+01
         0.46974E+02
        -0.12163E+01
         0.43040E+02
         0.50107E+02
        -0.17707E+02
         0.40166E+02
         0.23170E+02
         0.56431E-01
         0.37613E+02
         0.25870E+02
        -0.92458E+01
         0.97100E+01
         0.70246E+01
        -0.11369E+02
        -0.37556E+02
        -0.57790E+02
        -0.93804E+02
        -0.15753E+02
         0.25018E+02
        -0.33007E+01
        -0.18447E+01
        -0.10062E+02
        -0.69980E+00
        -0.76229E+01
         0.29453E+00
        -0.93560E+01
        -0.15848E+02
        -0.72664E+01
         0.46343E+01
        -0.36869E+02
         0.38369E+02
         0.47356E+02
         0.37907E+02
         0.33676E+01
        -0.17065E+02
        -0.28027E+02
         0.17266E+03
        -0.53481E+02
        -0.15637E+03
         0.14714E+03
        -0.46404E+02
        -0.21680E+02
         0.15341E+02
        -0.25526E+01
         0.26280E+02
         0.89195E+01
        -0.61034E+01
        -0.22201E+02
        -0.48797E+02
        -0.71233E+02
        -0.10977E+03
        -0.90752E+02
        -0.95305E+02
        -0.82494E+02
         0.65092E+01
         0.44250E+01
        -0.14641E+02
         0.13608E+02
        -0.21070E+02
        -0.26356E+02
         0.14622E+01
         0.76516E+01
         0.99935E+01
         0.27162E+02
        -0.17669E+01
         0.93140E-01
         0.26909E+01
         0.49581E+01
         0.88378E+01
        -0.40995E+01
         0.83622E+01
         0.11918E+02
        -0.34512E+01
         0.14812E+02
         0.90603E+01
         0.39657E+02
        -0.99098E+00
        -0.94439E+01
         0.31141E+02
        -0.11076E+02
         0.24076E+02
         0.46234E+02
         0.33197E+01
         0.37516E+02
         0.30300E+01
        -0.99066E+01
         0.21830E+02
         0.39465E+01
        -0.26529E+01
         0.50044E+01
        -0.23155E+01
         0.21689E+02
         0.66431E+01
         0.37161E+02
         0.79201E+02
         0.90638E+02
         0.32501E+02
        -0.94286E+01
        -0.11852E+02
        -0.15032E+02
        -0.20083E+02
        -0.85191E+01
        -0.22978E+02
        -0.13743E+02
        -0.33953E+02
        -0.33601E+02
         0.20796E+01
        -0.24681E+02
         0.22627E+02
         0.23729E+02
         0.23765E+02
         0.18639E+02
         0.39542E+02
         0.60289E+02
        -0.30661E+02
        -0.75575E+02
        -0.15130E+03
        -0.71257E+02
         0.14195E+02
         0.61045E+01
        -0.13920E+02
        -0.10673E+02
         0.98960E+00
         0.16101E+01
        -0.73008E+01
        -0.17567E+02
        -0.20807E+02
        -0.85339E+02
        -0.79879E+02
        -0.57025E+02
        -0.43400E+02
        -0.49027E+02
         0.37699E+01
        -0.80556E+01
        -0.19703E+02
         0.28436E+01
        -0.31964E+02
        -0.35858E+02
        -0.11863E+02
         0.31937E+01
         0.13993E+02
         0.26614E+02
        -0.16080E+01
        -0.23551E+01
        -0.14143E+02
         0.16130E+02
         0.60064E+01
        -0.58559E+01
         0.20966E+02
         0.18085E+02
         0.67764E+00
         0.17021E+02
         0.15341E+02
         0.54846E+02
         0.69713E+01
        -0.36405E+01
         0.37723E+02
        -0.10974E+02
         0.36149E+02
         0.46353E+02
         0.45710E+02
        -0.43635E+01
        -0.27138E+01
        -0.12125E+02
         0.10232E+02
        -0.56733E+01
        -0.22616E+02
        -0.15085E+02
        -0.18955E+02
         0.43235E+02
         0.87585E+02
         0.11806E+03
         0.14615E+03
         0.10098E+03
         0.59083E+01
        -0.77612E+01
        -0.75597E+01
        -0.77546E+01
        -0.98409E+01
        -0.16534E+02
        -0.16283E+02
        -0.40870E+02
        -0.71451E+02
        -0.51867E+02
        -0.41534E+01
        -0.58792E+02
         0.17593E+02
         0.13904E+02
         0.11673E+02
         0.23543E+02
        -0.42934E+02
        -0.25965E+02
         0.15272E+02
        -0.39701E+02
         0.12805E+03
         0.18861E+03
         0.13397E+03
         0.13555E+03
         0.63462E+02
         0.57160E+02
         0.35593E+02
         0.17334E+02
         0.40198E+01
        -0.54759E+01
        -0.32742E+02
        -0.63765E+02
        -0.87295E+02
        -0.10157E+03
        -0.90166E+02
        -0.52817E+02
         0.43943E+00
        -0.70880E+01
        -0.10381E+02
        -0.90884E+00
        -0.30945E+02
        -0.18976E+02
        -0.10301E+02
         0.72928E+01
         0.10685E+02
         0.24906E+02
        -0.13165E+01
        -0.21778E+01
        -0.10545E+02
        -0.26104E+01
        -0.16606E+01
         0.74644E+01
         0.18484E+02
         0.53455E+01
         0.63792E+01
         0.25126E+02
         0.26063E+02
         0.52719E+02
         0.96962E+01
        -0.36146E+01
         0.34601E+02
        -0.57067E+01
         0.14074E+01
         0.36615E+02
         0.19044E+02
         0.45147E+02
         0.70230E+00
        -0.82187E+01
         0.21580E+01
        -0.60684E+01
        -0.14477E+02
        -0.18265E+02
        -0.17021E+02
         0.34229E+02
         0.42147E+02
         0.56329E+02
         0.11168E+03
         0.73596E+02
         0.88922E+02
        -0.56773E+00
        -0.56721E+01
        -0.78525E+01
        -0.16295E+02
        -0.20066E+02
        -0.27746E+02
        -0.44232E+02
        -0.59219E+02
        -0.43306E+02
         0.77561E+01
        -0.43332E+02
        -0.68594E+01
         0.33984E+01
         0.13593E+02
         0.28941E+02
        -0.13772E+02
         0.55354E+02
         0.98281E+02
         0.63505E+02
         0.22897E+02
         0.45700E+02
         0.30241E+02
         0.17563E+02
         0.36228E+02
         0.37201E+02
         0.27045E+02
         0.15262E+02
        -0.76009E+01
        -0.20366E+02
        -0.45279E+02
        -0.52676E+02
        -0.66270E+02
        -0.82444E+02
        -0.79129E+02
        -0.64644E+02
        -0.35580E+01
        -0.13521E+02
        -0.27246E+02
        -0.20489E+02
        -0.33510E+02
        -0.37591E+02
        -0.97303E+01
         0.50585E+01
         0.43451E+01
         0.10697E+02
        -0.82762E+00
        -0.32455E+01
        -0.12435E+02
         0.15443E+02
        -0.93069E+01
        -0.99078E+01
         0.14274E+02
        -0.21474E+01
        -0.70039E+00
         0.99161E+01
        -0.70784E+01
         0.74510E+01
        -0.65347E+01
        -0.41577E+01
         0.33876E+02
        -0.64869E+01
         0.40199E+02
         0.79285E+02
         0.54431E+02
         0.28270E+02
        -0.19968E+02
        -0.14883E+02
        -0.12034E+02
        -0.13787E+02
        -0.22778E+02
        -0.24730E+02
        -0.20689E+02
         0.52456E+02
         0.82146E+02
         0.12047E+03
         0.16308E+02
         0.49970E+02
         0.87668E+02
        -0.36274E+01
        -0.66998E+01
        -0.93109E+01
        -0.18226E+02
        -0.23624E+02
        -0.49592E+02
        -0.35476E+02
        -0.50172E+02
        -0.43341E+02
        -0.12875E+02
        -0.26626E+02
        -0.22211E+01
         0.91266E+00
        -0.69672E+00
        -0.45390E+01
        -0.89555E+02
         0.53218E+02
         0.12091E+03
        -0.14770E+02
         0.11160E+03
         0.67819E+02
         0.12886E+03
         0.43159E+02
         0.21993E+02
         0.21666E+02
         0.17792E+02
         0.10415E+02
        -0.11315E+01
        -0.57955E+02
        -0.76412E+02
        -0.60333E+01
        -0.26669E+02
        -0.61164E+02
        -0.64860E+02
        -0.35279E+02
         0.29839E+01
        -0.33982E+01
        -0.18721E+02
        -0.14278E+02
        -0.59047E+02
        -0.89945E+02
        -0.11036E+01
         0.23794E+01
         0.27940E+01
         0.20945E+02
        -0.40828E+01
        -0.59160E+01
        -0.12365E+02
        -0.34941E+01
        -0.21298E+02
        -0.14128E+02
         0.54794E+01
        -0.13043E+02
        -0.61807E+01
         0.89692E+01
         0.62019E+01
         0.11933E+02
        -0.11108E+01
        -0.49123E+01
         0.39038E+02
        -0.80067E+01
         0.44557E+02
         0.60770E+02
         0.71256E+02
         0.41771E+02
        -0.34416E+02
        -0.26778E+02
        -0.66320E+02
        -0.27334E+02
        -0.41745E+02
        -0.19909E+02
        -0.11511E+02
        -0.47291E+01
         0.31444E+02
         0.92186E+02
         0.16847E+03
         0.11905E+03
         0.44667E+02
        -0.94510E+01
        -0.27333E+02
        -0.51625E+02
        -0.75924E+02
        -0.10966E+03
        -0.53674E+02
        -0.61899E+02
        -0.68594E+02
        -0.67245E+02
        -0.18902E+02
        -0.60277E+02
        -0.32639E+01
        -0.43960E+01
        -0.86337E+00
         0.47525E+01
        -0.57137E+02
        -0.80884E+02
        -0.18601E+02
         0.16089E+02
         0.10439E+03
         0.19885E+03
         0.12221E+03
         0.59222E+02
         0.17890E+02
         0.71477E+01
        -0.91380E+01
        -0.20583E+02
        -0.74258E+02
        -0.14499E+03
        -0.20417E+03
         0.23159E+02
        -0.21801E+02
        -0.64089E+02
        -0.11331E+03
        -0.90890E+02
         0.39228E+02
         0.31279E+02
         0.12169E+02
        -0.25672E+01
        -0.14405E+02
        -0.58252E+02
         0.22913E+02
         0.19425E+02
         0.15065E+02
         0.27524E+02
         0.10973E+02
         0.42558E+02
         0.28583E+02
         0.25320E+02
         0.42267E+02
         0.19563E+02
         0.22071E+02
         0.83181E+01
         0.16883E+02
         0.32449E+02
        -0.47843E+02
        -0.23018E+02
        -0.35474E+02
         0.12778E+00
         0.29808E+02
        -0.27225E+00
         0.21745E+02
         0.62738E+02
         0.93558E+02
         0.36006E+02
        -0.40669E+02
        -0.34739E+02
        -0.46490E+02
        -0.27858E+02
         0.11379E+02
         0.21551E+02
         0.19190E+02
         0.12105E+03
         0.19029E+03
         0.26279E+03
         0.30683E+03
         0.13495E+03
         0.48255E+02
        -0.38811E+02
        -0.47778E+02
        -0.70936E+02
        -0.88219E+02
        -0.10496E+03
        -0.12577E+03
        -0.11854E+03
        -0.10558E+03
        -0.96381E+02
         0.13712E+02
        -0.68987E+02
         0.43923E+02
         0.55013E+02
         0.60093E+02
         0.79842E+02
         0.77268E+02
         0.20285E+03
         0.43273E+03
         0.49641E+03
         0.49667E+03
         0.26800E+03
        -0.70008E+02
        -0.34787E+03
        -0.36310E+03
        -0.21071E+03
        -0.67251E+02
        -0.57447E+02
        -0.98761E+02
        -0.14436E+03
        -0.14208E+03
        -0.12046E+03
        -0.11082E+03
        -0.11511E+03
        -0.13747E+03
        -0.13668E+03
         0.84586E+02
         0.11388E+03
         0.16719E+03
         0.12649E+03
         0.91306E+02
         0.51376E+02
         0.44896E+02
         0.30356E+02
        -0.47497E+01
        -0.35291E+02
         0.43734E+02
         0.64419E+02
         0.73390E+02
         0.49777E+02
         0.11397E+03
        -0.12614E+03
        -0.91629E+02
        -0.29430E+02
        -0.17309E+03
        -0.15772E+03
        -0.50393E+03
        -0.62257E+03
        -0.34546E+03
        -0.16333E+03
         0.36032E+01
        -0.15411E+03
         0.31769E+02
        -0.37077E+02
        -0.14733E+03
        -0.13094E+03
        -0.68900E+02
        -0.12168E+03
         0.32136E+02
         0.78005E+02
         0.12565E+03
         0.14474E+03
         0.11751E+03
         0.17500E+03
         0.18393E+03
         0.89660E+02
        -0.18076E+02
        -0.39147E+03
        -0.57730E+03
        -0.24130E+03
        -0.12255E+03
        -0.83219E+02
        -0.83146E+02
        -0.44855E+02
         0.66082E+01
         0.75347E+02
         0.88409E+02
         0.52739E+02
         0.76930E+02
        -0.23777E+02
         0.16509E+03
         0.14377E+03
         0.10666E+03
         0.95944E+02
         0.19063E+03
         0.29743E+03
         0.36744E+03
         0.34860E+03
         0.92493E+02
        -0.54526E+03
        -0.12279E+04
        -0.14625E+04
        -0.11000E+04
        -0.57491E+03
        -0.20570E+03
        -0.12024E+03
        -0.88278E+02
        -0.44132E+02
         0.43608E+02
         0.19741E+03
         0.16328E+03
         0.84523E+02
        -0.99778E+01
        -0.56893E+02
        -0.10967E+03
        -0.14374E+03
        -0.19648E+03
        -0.16257E+03
        -0.10055E+03
        -0.61911E+01
        -0.65027E+02
        -0.26302E+02
         0.13097E+02
         0.90262E+02
        -0.44437E+02
        -0.45644E+02
        -0.80412E+02
        -0.66632E+01
        -0.44322E+02
         0.68431E+02
         0.14086E+03
        -0.60961E+02
         0.23248E+03
         0.25940E+03
         0.81777E+03
         0.10279E+04
         0.53182E+03
         0.22074E+03
         0.14726E+03
         0.15786E+03
         0.64594E+02
         0.13662E+03
         0.20864E+03
         0.25736E+03
         0.18631E+02
         0.14514E+03
        -0.62309E+02
        -0.44262E+02
        -0.13262E+03
        -0.15623E+03
        -0.12731E+03
        -0.41701E+02
        -0.71344E+02
        -0.48253E+02
         0.86598E+01
         0.54997E+03
         0.91218E+03
         0.36971E+03
         0.27659E+03
         0.26344E+03
         0.30489E+03
         0.27440E+03
         0.21731E+03
         0.18818E+03
         0.21340E+03
         0.10424E+03
        -0.96137E+02
        -0.30966E+02
        -0.14239E+03
        -0.96555E+02
        -0.46518E+02
        -0.34969E+02
        -0.77683E+02
        -0.19094E+03
        -0.36628E+03
        -0.40628E+03
        -0.19723E+03
         0.48296E+03
         0.14384E+04
         0.19479E+04
         0.16824E+04
         0.11032E+04
         0.65045E+03
         0.45412E+03
         0.41602E+03
         0.58871E+03
         0.67429E+03
         0.55121E+03
         0.34294E+03
         0.29142E+03
         0.19283E+03
  
SCALARS                         fint_y  double 1
LOOKUP_TABLE default
         0.11843E+03
        -0.94572E+03
        -0.51068E+03
        -0.15145E+03
         0.30959E+03
        -0.45379E+03
        -0.55384E+02
         0.25123E+03
        -0.81784E+03
        -0.77688E+03
        -0.13858E+03
        -0.23579E+03
        -0.72778E+03
        -0.39826E+03
        -0.43249E+03
        -0.27686E+03
        -0.11646E+03
         0.79752E+02
        -0.15680E+03
         0.26077E+02
        -0.50736E+03
         0.47816E+03
        -0.19071E+02
        -0.32459E+03
        -0.11248E+03
        -0.24915E+03
        -0.16006E+03
        -0.64938E+03
        -0.22779E+02
        -0.45534E+03
         0.60494E+02
         0.15659E+03
        -0.10551E+03
         0.41834E+02
         0.18459E+03
        -0.12728E+03
         0.46205E+02
         0.13771E+03
         0.40265E+02
         0.12699E+03
        -0.31463E+03
        -0.49009E+03
        -0.13934E+03
        -0.27640E+03
        -0.17703E+01
         0.86211E+02
         0.24534E+02
         0.37537E+02
         0.95869E+02
        -0.76866E+02
         0.90461E+02
        -0.56658E+02
         0.57092E+03
         0.47528E+03
         0.28335E+04
         0.24110E+04
         0.44427E+04
        -0.41493E+03
         0.38113E+04
        -0.17759E+03
        -0.56143E+03
        -0.21219E+03
        -0.11184E+03
        -0.33414E+03
        -0.96307E+03
         0.28150E+03
        -0.21788E+04
        -0.13090E+03
        -0.46723E+03
        -0.53128E+03
        -0.34139E+03
        -0.21115E+03
        -0.25815E+03
        -0.15972E+03
         0.10837E+05
         0.90265E+04
         0.19620E+05
         0.21897E+05
         0.15222E+05
         0.18564E+05
         0.72566E+04
         0.30035E+04
         0.67090E+04
         0.21082E+04
        -0.31607E+03
        -0.11139E+03
         0.25772E+03
         0.20258E+03
         0.11329E+03
        -0.20460E+02
        -0.18466E+03
        -0.47661E+03
        -0.24705E+03
        -0.31487E+03
        -0.11822E+04
         0.12763E+02
        -0.29455E+04
        -0.12324E+03
        -0.27416E+04
        -0.28843E+03
        -0.80111E+03
        -0.15829E+04
        -0.29218E+03
        -0.30008E+03
        -0.62916E+03
        -0.33344E+03
        -0.83895E+03
        -0.99769E+03
         0.12896E+03
        -0.18523E+02
         0.14693E+04
         0.12990E+04
         0.30178E+04
         0.27935E+04
         0.35225E+04
         0.25102E+04
         0.44489E+04
         0.14454E+04
         0.17756E+04
        -0.55444E+04
        -0.28951E+05
        -0.55201E+05
        -0.33701E+05
        -0.61519E+05
        -0.61029E+04
        -0.68093E+04
         0.24673E+04
         0.16850E+04
         0.12815E+04
         0.10149E+04
         0.11270E+04
         0.72698E+03
         0.81612E+03
         0.48192E+03
         0.57864E+03
         0.44918E+03
         0.38866E+03
         0.60385E+03
         0.18978E+03
         0.59743E+03
        -0.26136E+03
         0.31004E+02
        -0.13885E+04
        -0.20125E+03
        -0.11934E+04
        -0.38688E+03
        -0.22087E+04
        -0.72113E+03
         0.99766E+03
        -0.45613E+03
         0.51622E+04
        -0.25980E+03
         0.46489E+04
        -0.57987E+03
         0.16159E+04
        -0.94595E+03
        -0.10033E+04
        -0.14294E+04
        -0.14280E+04
        -0.36516E+04
        -0.11499E+04
        -0.21191E+04
        -0.48039E+03
        -0.54471E+03
        -0.16593E+03
        -0.41680E+03
        -0.33254E+03
         0.28712E+03
        -0.15118E+03
        -0.21206E+03
         0.17610E+04
         0.18805E+03
         0.45675E+02
        -0.67773E+03
        -0.12086E+02
        -0.25167E+03
        -0.83473E+03
        -0.11761E+04
        -0.20480E+02
         0.31525E+03
         0.84071E+02
         0.54209E+03
         0.52927E+03
         0.18034E+04
         0.20873E+04
        -0.52813E+03
        -0.17435E+04
         0.15442E+03
        -0.48521E+04
        -0.81091E+04
        -0.28840E+03
        -0.84413E+03
        -0.54076E+03
         0.69292E+04
         0.12315E+05
         0.93041E+04
         0.62270E+04
         0.23107E+04
        -0.51738E+03
         0.21177E+03
         0.12122E+03
        -0.50635E+02
        -0.14020E+04
        -0.47638E+04
        -0.55585E+04
        -0.50495E+04
        -0.73719E+03
        -0.25924E+03
         0.80122E+03
         0.19009E+04
         0.70757E+03
         0.94138E+03
         0.17236E+04
         0.23983E+04
         0.41299E+04
         0.60172E+04
        -0.68033E+04
        -0.11623E+05
         0.36682E+03
         0.28898E+04
         0.23639E+04
         0.19909E+04
         0.12807E+04
         0.53522E+03
        -0.20281E+03
        -0.86712E+03
        -0.85529E+03
        -0.32066E+04
        -0.44566E+04
        -0.38500E+04
         0.93594E+04
         0.18683E+05
         0.18623E+05
         0.56741E+04
        -0.98395E+03
        -0.45740E+03
        -0.30715E+04
        -0.62966E+04
        -0.12504E+04
        -0.27647E+04
        -0.25164E+03
        -0.22573E+03
        -0.26078E+03
        -0.30194E+03
        -0.29133E+02
        -0.31865E+03
        -0.46731E+03
        -0.41281E+03
        -0.13228E+03
        -0.21535E+03
        -0.28141E+03
        -0.80401E+03
        -0.28567E+03
        -0.68864E+03
        -0.93465E+03
        -0.12697E+04
        -0.32158E+03
         0.45165E+02
        -0.44729E+03
         0.28731E+03
        -0.63318E+03
        -0.67084E+03
         0.23854E+03
        -0.75973E+03
        -0.18149E+04
        -0.12976E+03
        -0.34796E+04
        -0.59554E+04
         0.86007E+01
        -0.61329E+03
        -0.42766E+03
         0.63200E+03
         0.21397E+04
         0.26834E+04
         0.23109E+04
         0.96449E+03
        -0.72284E+03
        -0.15184E+03
        -0.16727E+03
        -0.20847E+03
        -0.13079E+04
        -0.39944E+04
        -0.17230E+04
        -0.19513E+04
         0.22958E+04
         0.13828E+03
         0.26230E+04
         0.64035E+04
         0.84473E+03
         0.97844E+02
        -0.28987E+02
         0.11299E+03
         0.50255E+03
         0.17876E+04
         0.28265E+04
         0.29397E+04
         0.31459E+04
         0.22985E+04
         0.16833E+04
         0.22386E+04
         0.13010E+04
         0.59021E+02
        -0.91369E+03
        -0.97630E+03
        -0.59106E+03
        -0.26613E+04
        -0.36254E+04
        -0.34711E+03
         0.44779E+04
         0.49783E+03
         0.73725E+04
         0.12305E+05
         0.42279E+02
         0.52568E+02
        -0.35643E+02
        -0.17788E+04
         0.11065E+03
        -0.12868E+04
         0.60697E+02
        -0.12898E+03
        -0.32430E+03
        -0.39264E+03
        -0.81498E+02
        -0.29672E+03
        -0.10043E+03
        -0.21773E+03
        -0.20920E+03
        -0.28972E+03
        -0.21044E+03
        -0.31789E+03
        -0.29836E+03
        -0.77479E+03
        -0.12413E+04
        -0.17089E+04
        -0.53212E+03
        -0.20785E+03
        -0.80599E+03
        -0.17808E+03
        -0.89086E+03
        -0.75782E+03
        -0.60871E+03
        -0.10792E+04
        -0.82937E+03
        -0.15872E+03
        -0.85102E+03
        -0.21577E+04
         0.12070E+03
        -0.24058E+03
        -0.76001E+02
        -0.65673E+03
        -0.56696E+03
         0.26287E+03
         0.87942E+03
        -0.14804E+03
        -0.14054E+04
        -0.22399E+03
        -0.62236E+02
        -0.87047E+01
        -0.41985E+03
        -0.10502E+04
        -0.17717E+04
        -0.19168E+04
        -0.88961E+03
        -0.71367E+03
         0.11605E+04
         0.29357E+04
         0.36362E+03
        -0.22632E+03
        -0.29891E+03
        -0.47835E+03
        -0.39672E+03
         0.73724E+03
         0.19133E+04
         0.31044E+04
         0.25838E+04
         0.20390E+04
         0.30192E+04
         0.23350E+04
         0.14147E+04
         0.60196E+03
         0.96969E+02
         0.11913E+03
         0.19208E+03
        -0.15418E+02
        -0.20586E+03
        -0.18470E+04
         0.12785E+04
         0.49425E+04
         0.66629E+04
         0.41737E+04
        -0.25113E+02
         0.58869E+02
         0.10578E+03
         0.10699E+03
        -0.74097E+02
        -0.75953E+02
         0.95156E+02
        -0.87640E+02
        -0.13440E+03
        -0.24954E+03
        -0.57305E+02
        -0.11385E+03
         0.48293E+02
        -0.42727E+03
        -0.57781E+03
        -0.11767E+03
        -0.31125E+03
         0.31662E+03
        -0.39144E+03
        -0.61093E+03
        -0.97372E+03
        -0.15545E+04
        -0.39371E+03
        -0.24019E+03
        -0.70089E+03
        -0.19589E+03
        -0.61631E+03
        -0.85754E+03
        -0.82103E+03
        -0.77678E+03
         0.29163E+03
         0.16951E+02
         0.57031E+03
         0.30128E+03
        -0.83920E+02
        -0.11083E+02
         0.54925E+02
        -0.12501E+04
        -0.11335E+04
        -0.67432E+03
         0.97245E+02
        -0.80303E+03
        -0.15102E+04
        -0.16323E+03
         0.47916E+02
         0.14921E+03
         0.24786E+03
         0.47961E+03
         0.34840E+03
         0.75156E+02
        -0.43641E+03
        -0.15056E+03
        -0.27029E+03
        -0.25693E+03
        -0.19608E+03
        -0.15469E+03
        -0.28103E+03
        -0.49481E+03
        -0.35337E+03
        -0.19233E+03
         0.91844E+03
         0.25586E+04
         0.30250E+04
         0.31864E+04
         0.27621E+04
         0.19983E+04
         0.11622E+04
         0.66580E+03
         0.48179E+03
         0.44030E+03
         0.37201E+03
         0.46665E+03
         0.18514E+03
        -0.30590E+03
        -0.62346E+03
        -0.88583E+03
        -0.64587E+03
        -0.31562E+03
         0.10702E+02
         0.12319E+03
         0.17161E+03
         0.21187E+03
         0.87312E+02
         0.16910E+03
         0.79256E+01
        -0.73244E+02
        -0.27621E+02
        -0.27129E+03
        -0.56388E+02
        -0.69170E+02
         0.44097E+02
        -0.16646E+03
        -0.39381E+03
        -0.82790E+01
        -0.19545E+03
         0.27470E+03
        -0.17010E+03
        -0.31081E+03
        -0.58550E+03
        -0.99711E+03
        -0.19534E+03
        -0.90698E+02
        -0.45273E+03
        -0.62937E+02
        -0.50635E+03
        -0.79951E+03
        -0.79056E+03
        -0.51939E+03
         0.30907E+03
         0.96838E+02
         0.54810E+03
         0.46870E+03
        -0.92776E+01
         0.98173E+02
         0.97094E+02
        -0.11092E+04
        -0.10980E+04
        -0.54249E+03
        -0.21899E+03
        -0.89865E+03
        -0.10767E+04
        -0.95074E+00
         0.48331E+02
         0.87713E+02
         0.21471E+03
         0.36691E+03
         0.30143E+03
         0.22510E+03
        -0.18547E+03
         0.23025E+01
        -0.25775E+03
        -0.54311E+03
        -0.10049E+03
        -0.27614E+02
        -0.87188E+01
        -0.22348E+03
        -0.44347E+03
        -0.18135E+03
         0.66842E+03
         0.20161E+04
         0.25690E+04
         0.29871E+04
         0.20292E+04
         0.12933E+04
         0.47946E+03
         0.15105E+03
         0.79641E+02
         0.14526E+03
         0.15711E+03
         0.28230E+03
         0.34937E+03
         0.38653E+02
        -0.76634E+03
        -0.96739E+03
        -0.73560E+03
        -0.10409E+04
         0.30330E+02
         0.49819E+02
         0.99567E+02
         0.15825E+03
         0.46227E+02
         0.85656E+02
         0.20896E+02
        -0.39179E+02
        -0.58324E+02
        -0.14306E+03
        -0.12760E+02
        -0.31236E+02
         0.20138E+02
        -0.10504E+03
        -0.21083E+03
         0.82657E+01
        -0.11693E+03
         0.10761E+03
        -0.67251E+02
        -0.14157E+03
        -0.14182E+03
        -0.29521E+03
        -0.32326E+02
        -0.96155E+01
        -0.23995E+03
         0.36433E+02
        -0.31436E+03
        -0.58594E+03
        -0.50557E+03
        -0.30376E+03
         0.14183E+03
         0.62684E+02
         0.21978E+03
         0.21613E+03
         0.36489E+02
         0.70151E+02
         0.40944E+02
        -0.53629E+03
        -0.63657E+03
        -0.53618E+03
        -0.33833E+02
        -0.17336E+03
        -0.19085E+03
         0.36425E+01
         0.20696E+02
         0.36066E+02
         0.67921E+02
         0.12325E+03
         0.12516E+03
         0.14577E+03
         0.49476E+02
         0.96098E+02
        -0.41215E+02
        -0.20335E+03
        -0.72182E+01
         0.24070E+01
        -0.12598E+02
        -0.16138E+03
        -0.38328E+03
        -0.42729E+03
         0.39937E+03
         0.14371E+04
         0.20537E+04
         0.19462E+04
         0.90980E+03
         0.55472E+03
         0.22479E+03
         0.16680E+02
        -0.43336E+02
        -0.69875E+02
        -0.42957E+02
         0.14027E+02
         0.11537E+03
        -0.49949E+02
        -0.77630E+02
        -0.10259E+03
        -0.20799E+03
        -0.24849E+03
         0.26201E+02
         0.47353E+02
         0.76248E+02
         0.92553E+02
         0.39260E+02
         0.70236E+02
         0.14111E+02
        -0.29926E+01
        -0.25456E+02
        -0.65743E+02
         0.25530E+01
        -0.32918E+02
         0.17775E+02
        -0.10217E+02
        -0.86850E+02
         0.14450E+02
        -0.59963E+02
         0.25652E+02
        -0.14141E+02
        -0.60019E+02
        -0.36268E+02
         0.50411E+01
         0.30601E+01
         0.54534E+01
        -0.10342E+03
         0.32610E+02
        -0.54078E+02
        -0.17748E+03
        -0.21158E+03
        -0.17225E+03
         0.60375E+02
         0.43825E+02
         0.72330E+02
         0.79357E+02
         0.25123E+02
         0.37754E+02
         0.31594E+02
        -0.21579E+03
        -0.27887E+03
        -0.10620E+03
         0.83776E+02
         0.62366E+02
        -0.18408E+03
         0.43191E+01
         0.33689E+01
         0.55713E+01
         0.28778E+02
         0.38841E+02
         0.40596E+02
         0.42610E+02
         0.41342E+01
         0.54169E+02
        -0.35979E+02
        -0.17408E+03
        -0.15772E+02
        -0.13601E+02
        -0.19850E+02
        -0.77779E+02
        -0.23620E+03
        -0.14320E+03
        -0.40266E+02
         0.57912E+03
         0.67219E+03
         0.39770E+03
         0.47481E+03
         0.14428E+03
         0.15813E+02
        -0.35886E+02
        -0.74501E+02
        -0.58736E+02
        -0.52808E+02
        -0.38503E+02
        -0.12974E+02
         0.76664E+01
        -0.42242E+02
        -0.78282E+02
        -0.11578E+03
        -0.24004E+03
         0.53601E+02
         0.30537E+02
         0.97889E+02
         0.11372E+03
         0.46549E+02
         0.84218E+02
         0.16704E+02
         0.74072E+01
        -0.25140E+01
        -0.18988E+02
         0.20417E+02
         0.13135E+02
         0.26483E+02
         0.14693E+02
         0.27734E+01
         0.14994E+02
        -0.58833E+01
         0.35852E+02
         0.24759E+02
         0.21493E+02
         0.74291E+02
         0.12599E+03
         0.20178E+02
         0.47652E+01
        -0.24659E+02
         0.16877E+02
         0.52232E+01
        -0.11782E-01
        -0.81974E+01
        -0.14532E+02
         0.68399E+02
         0.52515E+02
         0.83315E+02
         0.86112E+02
         0.95795E+01
         0.31282E+02
         0.23557E+02
        -0.23553E+02
        -0.10770E+03
        -0.87146E+02
        -0.14944E+02
        -0.78450E+01
         0.90919E+02
         0.15944E+02
         0.16510E+02
         0.23744E+02
         0.43884E+02
         0.59816E+02
         0.34638E+02
        -0.12990E+02
        -0.34743E+02
        -0.38779E+01
        -0.78934E+02
        -0.17462E+03
        -0.14878E+02
        -0.24368E+02
        -0.18433E+02
        -0.34147E+02
        -0.47849E+02
        -0.11802E+03
        -0.74602E+02
         0.21426E+03
         0.25907E+03
         0.12771E+03
        -0.12232E+03
        -0.14764E+03
        -0.11483E+03
        -0.77533E+02
        -0.62152E+02
        -0.24755E+02
        -0.13097E+02
         0.22669E+02
         0.17908E+02
        -0.21843E+00
        -0.66648E+02
        -0.12263E+03
        -0.21061E+03
        -0.18459E+03
         0.43315E+02
         0.50310E+02
         0.79748E+02
         0.89443E+02
         0.11177E+02
         0.22430E+02
         0.17306E+02
         0.10730E+02
         0.14497E+02
         0.11835E+02
         0.40603E+02
         0.27516E+02
         0.29172E+02
         0.29360E+02
         0.59644E+02
         0.33771E+02
         0.21963E+02
         0.47518E+02
         0.40045E+02
         0.60088E+02
         0.57576E+02
         0.11087E+03
         0.57496E+02
         0.28660E+02
         0.32890E+02
         0.50287E+02
         0.24522E+02
         0.44089E+02
         0.55828E+02
         0.64245E+02
         0.76000E+02
         0.45051E+02
         0.10127E+03
         0.65184E+02
         0.51034E+01
         0.26653E+02
         0.30984E+02
         0.46294E+02
         0.67232E+02
         0.57522E+02
         0.39541E+02
         0.68104E+02
         0.22964E+03
         0.25773E+02
         0.32724E+02
         0.31745E+02
         0.47755E+02
         0.85337E+02
         0.40810E+02
         0.28739E+01
        -0.38064E+02
        -0.66442E+01
        -0.49392E+02
        -0.99269E+02
        -0.33564E+02
        -0.28352E+02
        -0.52324E+01
        -0.93922E+01
        -0.83778E+01
        -0.21218E+02
        -0.29152E+02
        -0.50176E+02
        -0.97324E+02
        -0.32598E+03
        -0.54986E+03
        -0.34839E+03
        -0.21914E+03
        -0.10940E+03
        -0.27814E+02
        -0.22367E+02
         0.14932E+01
         0.16399E+02
         0.26375E+02
        -0.62657E+02
        -0.10840E+03
        -0.14255E+03
        -0.13107E+03
        -0.15585E+03
         0.42643E+02
         0.40140E+02
         0.69093E+02
         0.11363E+03
         0.36576E+02
         0.62071E+02
         0.16396E+02
         0.12624E+02
         0.12104E+02
         0.13499E+02
         0.26547E+02
         0.27709E+02
         0.27172E+02
         0.38850E+02
         0.65153E+02
         0.38816E+02
         0.17811E+02
         0.32908E+02
         0.43872E+02
         0.73631E+02
         0.15933E+03
         0.30613E+03
         0.62506E+02
         0.30316E+02
         0.32388E+02
         0.34244E+02
         0.44745E+02
         0.66432E+02
         0.11544E+03
         0.10218E+03
         0.80129E+02
         0.45781E+02
         0.10207E+03
         0.10310E+03
         0.20162E+02
         0.27615E+02
         0.25113E+02
         0.63756E+02
         0.73092E+02
         0.12520E+03
         0.60485E+02
         0.15126E+03
         0.37895E+03
         0.39197E+02
         0.26420E+02
         0.31350E+02
         0.64208E+02
         0.88485E+02
         0.87925E+02
         0.81036E+02
        -0.16176E+02
         0.55337E+02
        -0.88054E+02
        -0.19904E+03
        -0.52570E+02
        -0.39969E+02
        -0.13226E+02
         0.93844E+01
         0.16771E+02
         0.12440E+02
        -0.10671E+03
        -0.18961E+03
        -0.28758E+03
        -0.41736E+03
        -0.61967E+03
        -0.45787E+03
        -0.25857E+03
        -0.13763E+03
        -0.71153E+02
        -0.49518E+02
        -0.86871E+01
         0.25055E+02
         0.84610E+01
        -0.31531E+02
        -0.11575E+03
        -0.25225E+03
        -0.25922E+03
        -0.28416E+03
         0.29995E+02
         0.52624E+02
         0.50717E+02
         0.12451E+03
         0.29944E+02
         0.43054E+02
         0.14239E+02
         0.28160E+02
         0.63989E+01
         0.31295E+02
         0.31217E+02
         0.38362E+02
         0.28212E+02
         0.45371E+02
         0.81697E+02
         0.33165E+02
         0.23664E+02
         0.43023E+02
         0.43324E+02
         0.83493E+02
         0.18765E+03
         0.36452E+03
         0.63829E+02
         0.29364E+02
         0.58088E+02
         0.30231E+02
         0.48981E+02
         0.80434E+02
         0.16457E+03
         0.97374E+02
         0.42153E+02
         0.25922E+02
         0.75576E+02
         0.86991E+02
        -0.78374E+01
         0.22099E+02
         0.11504E+02
         0.88149E+02
         0.11534E+03
         0.89078E+02
        -0.86496E+01
         0.11483E+03
         0.25424E+03
         0.36802E+02
         0.21557E+02
         0.29033E+02
         0.64351E+02
         0.92438E+02
         0.76988E+02
         0.62477E+02
        -0.14134E+02
         0.50937E+02
        -0.66700E+02
        -0.12157E+03
        -0.57858E+02
        -0.45170E+02
        -0.37503E+02
        -0.42403E+01
         0.40381E+02
         0.46573E+02
        -0.78212E+01
        -0.17023E+03
        -0.31891E+03
        -0.48084E+03
        -0.72752E+03
        -0.50031E+03
        -0.27872E+03
        -0.13128E+03
        -0.53842E+02
        -0.23079E+02
         0.15675E+01
         0.19888E+02
         0.24930E+02
        -0.66786E+02
        -0.14768E+03
        -0.16609E+03
        -0.23813E+03
        -0.20654E+03
         0.51087E+02
         0.37950E+02
         0.95028E+02
         0.12990E+03
         0.29249E+02
         0.86469E+02
         0.24141E+02
         0.33374E+02
         0.32413E+02
         0.33020E+02
         0.31071E+02
         0.42491E+02
         0.40541E+02
         0.56804E+02
         0.75976E+02
         0.27630E+02
         0.31047E+02
         0.26264E+02
         0.49098E+02
         0.98259E+02
         0.17977E+03
         0.40940E+03
         0.80415E+02
         0.32219E+02
         0.58934E+02
         0.30256E+02
         0.79547E+02
         0.17605E+03
         0.25982E+03
         0.12187E+03
         0.65069E+02
         0.37030E+02
         0.88767E+02
         0.10620E+03
         0.80556E+01
         0.45306E+02
         0.41132E+02
         0.17112E+03
         0.30709E+03
         0.27450E+03
         0.50477E+02
         0.29325E+03
         0.55490E+03
         0.47640E+02
         0.29208E+02
         0.23298E+02
         0.43989E+02
         0.84427E+02
         0.71242E+02
         0.52632E+02
        -0.12265E+02
         0.44241E+02
        -0.10254E+03
        -0.19594E+03
        -0.57726E+02
        -0.33697E+02
        -0.20970E+01
         0.29498E+02
         0.95057E+02
         0.13706E+03
        -0.16608E+02
        -0.38655E+03
        -0.66725E+03
        -0.95012E+03
        -0.95710E+03
        -0.57631E+03
        -0.28038E+03
        -0.12355E+03
        -0.58004E+02
        -0.28375E+02
         0.14732E+01
         0.27172E+02
         0.30261E+02
        -0.94343E+02
        -0.14100E+03
        -0.17569E+03
        -0.19138E+03
        -0.29503E+03
         0.37617E+02
         0.34193E+02
         0.12687E+03
         0.14868E+03
         0.42188E+02
         0.61944E+02
         0.16284E+02
         0.23682E+02
         0.22123E+02
         0.43857E+02
         0.31738E+02
         0.54835E+02
         0.41538E+02
         0.63753E+02
         0.11408E+03
         0.46600E+02
         0.39334E+02
         0.43615E+02
         0.45760E+02
         0.10867E+03
         0.22027E+03
         0.40711E+03
         0.57473E+02
         0.22685E+02
         0.64563E+02
         0.27017E+02
         0.65626E+02
         0.15370E+03
         0.21109E+03
         0.13336E+03
         0.59207E+02
         0.36225E+02
         0.79584E+02
         0.90844E+02
         0.27628E+01
         0.29657E+02
         0.45955E+02
         0.19298E+03
         0.22594E+03
         0.22936E+03
         0.79848E+02
         0.40104E+03
         0.56155E+03
         0.28282E+02
         0.23075E+02
         0.20353E+02
         0.37744E+02
         0.51971E+02
         0.62708E+02
         0.32747E+02
        -0.23401E+02
         0.37439E+02
        -0.89038E+02
        -0.19116E+03
        -0.52636E+02
        -0.13109E+02
         0.14039E+02
         0.42155E+02
         0.10399E+03
         0.14863E+03
        -0.17992E+03
        -0.36645E+03
        -0.63697E+03
        -0.11413E+04
        -0.10463E+04
        -0.57803E+03
        -0.24864E+03
        -0.11336E+03
        -0.53196E+02
        -0.26278E+02
        -0.63094E+00
         0.13395E+02
         0.81764E+01
        -0.60069E+02
        -0.99095E+02
        -0.16431E+03
        -0.26080E+03
        -0.26891E+03
         0.32970E+02
         0.28192E+02
         0.78520E+02
         0.99120E+02
         0.39425E+02
         0.87595E+02
         0.11744E+02
         0.17877E+02
         0.14701E+02
         0.39810E+02
         0.37340E+02
         0.24792E+02
         0.15099E+02
         0.49266E+02
         0.97186E+02
         0.39685E+02
         0.42596E+02
         0.43249E+02
         0.40304E+02
         0.95269E+02
         0.12369E+03
         0.29296E+03
         0.34415E+02
         0.27741E+02
         0.65425E+02
         0.23254E+02
         0.92459E+02
         0.10739E+03
         0.96691E+02
         0.12555E+03
         0.58886E+02
         0.36973E+02
         0.84281E+02
         0.89675E+02
         0.14527E+02
         0.19937E+02
         0.12486E+02
         0.16003E+03
         0.15083E+03
         0.19502E+03
        -0.35879E+01
         0.34306E+03
         0.49775E+03
         0.27127E+02
         0.24519E+02
         0.25671E+02
         0.52245E+02
         0.70632E+02
         0.34010E+02
         0.38191E+02
         0.40476E+01
         0.50164E+02
        -0.66256E+02
        -0.18541E+03
        -0.42523E+02
        -0.30348E+02
         0.77162E+01
         0.29883E+02
         0.13749E+03
         0.16858E+03
        -0.47806E+02
        -0.38862E+03
        -0.60625E+03
        -0.50640E+03
        -0.97186E+03
        -0.41670E+03
        -0.14838E+03
        -0.58791E+02
        -0.30361E+02
        -0.15541E+02
        -0.59139E+01
         0.61187E+01
        -0.96551E+01
        -0.32859E+02
        -0.97492E+02
        -0.18732E+03
        -0.27432E+03
        -0.28197E+03
         0.43454E+02
         0.29139E+02
         0.70032E+02
         0.10907E+03
         0.48370E+02
         0.78971E+02
         0.18842E+02
         0.30749E+02
         0.12070E+02
         0.18946E+02
         0.47535E+02
         0.22306E+02
         0.19801E+02
         0.50710E+02
         0.82939E+02
         0.28805E+02
         0.19638E+02
         0.41565E+02
         0.30285E+02
         0.58806E+02
         0.11432E+03
         0.25300E+03
         0.59378E+02
         0.28242E+02
         0.78855E+02
         0.31325E+02
         0.56210E+02
         0.11209E+03
         0.19682E+03
         0.15948E+03
         0.76502E+02
         0.47422E+02
         0.10285E+03
         0.96756E+02
         0.23433E+02
         0.32155E+02
         0.12256E+02
         0.14188E+03
         0.12900E+03
         0.21960E+03
         0.15591E+03
         0.37298E+03
         0.44264E+03
         0.46652E+02
         0.30946E+02
         0.28794E+02
         0.45841E+02
         0.65132E+02
         0.54115E+02
         0.50494E+02
         0.16910E+02
         0.53974E+02
        -0.60701E+02
        -0.16477E+03
        -0.40736E+01
        -0.34838E+02
        -0.12329E+02
         0.37032E+02
         0.14413E+03
        -0.26546E+00
        -0.13224E+03
        -0.44573E+03
        -0.42068E+03
        -0.80370E+03
        -0.95464E+03
        -0.53849E+03
        -0.18892E+03
        -0.76039E+02
        -0.32709E+02
        -0.52366E+01
         0.13734E+01
         0.94885E+01
        -0.14672E+02
        -0.61428E+02
        -0.11943E+03
        -0.11572E+03
        -0.19260E+03
        -0.17074E+03
         0.41685E+02
         0.43696E+02
         0.57629E+02
         0.76887E+02
         0.30114E+01
         0.35828E+02
         0.19988E+02
         0.33945E+02
         0.22363E+02
         0.52440E+02
         0.38588E+02
         0.49560E+02
         0.20526E+02
         0.41270E+02
         0.78195E+02
         0.36715E+02
         0.26588E+02
         0.38247E+02
         0.42407E+02
         0.80568E+02
         0.18060E+03
         0.38143E+03
         0.65789E+02
         0.37416E+02
         0.78013E+02
         0.47017E+02
         0.89252E+02
         0.84582E+02
         0.13629E+03
         0.13494E+03
         0.59847E+02
         0.53132E+02
         0.77284E+02
         0.81626E+02
         0.13592E+02
         0.26158E+02
         0.16366E+02
         0.12230E+03
         0.12540E+03
         0.23228E+03
         0.90047E+02
         0.24944E+03
         0.43293E+03
         0.44971E+02
         0.33794E+02
         0.24903E+02
         0.34054E+02
         0.62398E+02
         0.33381E+02
         0.25178E+02
         0.20149E+01
         0.23090E+02
        -0.55332E+02
        -0.13321E+03
        -0.22232E+02
        -0.13166E+02
         0.51013E+01
         0.31883E+02
         0.80940E+02
         0.11985E+03
        -0.44775E+02
        -0.17847E+03
        -0.62437E+03
        -0.88977E+03
        -0.65842E+03
        -0.42376E+03
        -0.21952E+03
        -0.92196E+02
        -0.37591E+02
        -0.12264E+02
        -0.40226E+01
         0.64786E+01
        -0.56732E+01
        -0.84218E+02
        -0.95119E+02
        -0.14380E+03
        -0.21149E+03
        -0.20263E+03
         0.28535E+02
         0.26826E+02
         0.38759E+02
         0.43742E+02
        -0.86037E+01
         0.20651E+01
         0.17178E+02
         0.16182E+02
         0.25832E+02
         0.31163E+02
         0.37379E+02
         0.57789E+02
         0.32814E+02
         0.56651E+02
         0.10478E+03
         0.31644E+02
         0.31775E+02
         0.35617E+02
         0.51559E+02
         0.98186E+02
         0.12895E+03
         0.26400E+03
         0.51362E+02
         0.35576E+02
         0.63981E+02
         0.37316E+02
         0.92130E+02
         0.13254E+03
         0.15990E+03
         0.15799E+03
         0.57559E+02
         0.28815E+02
         0.63680E+02
         0.53128E+02
         0.81103E+00
         0.35350E+02
         0.27825E+02
         0.15195E+03
         0.23541E+03
         0.21881E+03
         0.63670E+02
         0.23966E+03
         0.43946E+03
         0.29597E+02
         0.31696E+02
         0.21547E+02
         0.38293E+02
         0.42408E+02
         0.46990E+02
         0.80089E+01
        -0.37754E+02
         0.25133E+02
        -0.65553E+02
        -0.14166E+03
        -0.17110E+02
        -0.20845E+02
         0.13072E+02
         0.54900E+02
         0.10303E+03
         0.43202E+02
        -0.60467E+02
        -0.48441E+03
        -0.78541E+03
        -0.93805E+03
        -0.64931E+03
        -0.46259E+03
        -0.26649E+03
        -0.11893E+03
        -0.60820E+02
        -0.31238E+02
        -0.17766E+02
        -0.28207E+01
        -0.26361E+02
        -0.78755E+02
        -0.11829E+03
        -0.12192E+03
        -0.13519E+03
        -0.18608E+03
         0.30054E+02
         0.26128E+02
         0.55098E+02
         0.65690E+02
         0.20235E+02
         0.36041E+02
         0.14337E+02
         0.31032E+02
         0.13001E+02
         0.48027E+02
         0.38480E+02
         0.46240E+02
         0.17413E+02
         0.35671E+02
         0.75974E+02
         0.21745E+02
         0.47767E+02
         0.55774E+01
         0.33506E+02
         0.63167E+02
         0.11962E+03
         0.18022E+03
         0.29752E+02
         0.28315E+02
         0.82842E+02
         0.29847E+02
         0.59405E+02
         0.95204E+02
         0.13742E+03
         0.15256E+03
         0.47013E+02
         0.32555E+02
         0.58337E+02
         0.54030E+02
         0.22934E+01
         0.18036E+02
         0.15654E+02
         0.19885E+03
         0.20489E+03
         0.97299E+02
        -0.85565E+02
         0.44587E+02
         0.29298E+03
         0.21217E+02
         0.11456E+02
        -0.10439E+01
         0.19271E+02
         0.11116E+02
         0.14801E+02
        -0.93675E-01
        -0.21072E+02
         0.12084E+02
        -0.55994E+02
        -0.12478E+03
        -0.54011E+01
        -0.33643E+01
         0.19276E+02
         0.49512E+02
         0.75563E+02
         0.56479E+02
         0.26152E+02
        -0.23680E+03
        -0.65505E+03
        -0.10428E+04
        -0.41645E+03
        -0.31767E+03
        -0.13107E+03
        -0.72068E+02
        -0.34751E+02
        -0.30820E+02
        -0.13244E+02
        -0.16262E+02
        -0.18062E+02
        -0.49942E+02
        -0.62327E+02
        -0.10361E+03
        -0.13200E+03
        -0.15058E+03
         0.16262E+02
         0.12057E+02
         0.11963E+02
         0.13420E+02
         0.57690E+01
         0.92134E+01
         0.77748E+01
         0.23232E+02
        -0.95721E+00
         0.18407E+02
         0.12448E+02
         0.48225E+02
         0.14672E+02
         0.58791E+02
         0.96723E+02
         0.91921E+01
         0.32498E+02
        -0.81342E+01
         0.20550E+02
         0.49531E+02
         0.61754E+02
         0.13690E+03
         0.39143E+02
         0.20425E+02
         0.35326E+02
         0.12390E+02
         0.85501E+02
         0.13159E+03
         0.22250E+03
         0.10665E+03
         0.20324E+02
         0.27703E+02
         0.18958E+02
         0.10447E+02
        -0.49814E+00
         0.11180E+02
         0.70294E+01
         0.15155E+03
         0.20527E+03
         0.17053E+03
        -0.16062E+02
         0.18102E+03
         0.17235E+03
         0.18033E+02
         0.14473E+02
         0.10907E+02
         0.14593E+02
         0.13622E+02
        -0.70913E+01
        -0.30306E+01
         0.51595E+01
         0.15361E+02
        -0.16573E+02
        -0.68727E+02
        -0.52991E+01
        -0.12919E+02
        -0.48091E+01
         0.10660E+02
         0.10341E+03
         0.26055E+02
        -0.66369E+02
        -0.56422E+03
        -0.75539E+03
        -0.74997E+03
        -0.39272E+03
        -0.32366E+03
        -0.11682E+03
        -0.89843E+02
        -0.48565E+02
        -0.25162E+02
        -0.21443E+02
        -0.11362E+02
        -0.84215E+01
        -0.37574E+02
        -0.50373E+02
        -0.47534E+02
        -0.70701E+02
        -0.91486E+02
        -0.26941E+00
        -0.19612E+01
        -0.14914E+02
        -0.31444E+02
         0.11509E+02
         0.19753E+01
         0.11107E+02
         0.12709E+02
        -0.10671E+02
         0.24635E+02
         0.23044E+02
         0.52700E+02
         0.11626E+02
         0.55442E+02
         0.11162E+03
         0.67776E+01
        -0.24516E+01
        -0.49565E+01
         0.20072E+02
         0.58862E+02
         0.10055E+03
         0.23873E+03
         0.54535E+02
         0.21867E+02
         0.65602E+02
         0.25721E+02
         0.73804E+02
         0.13974E+03
         0.16388E+03
         0.12627E+03
        -0.19211E+02
         0.17946E+02
        -0.68142E+02
        -0.56480E+01
         0.10557E+02
         0.79123E+01
        -0.11130E+02
         0.92000E+02
         0.18939E+03
         0.20117E+03
         0.11167E+02
         0.29216E+03
         0.25192E+03
         0.31507E+02
         0.12318E+02
        -0.11541E+02
        -0.18300E+02
        -0.56141E+02
        -0.50955E+01
         0.25385E+01
         0.34269E+02
         0.16935E+02
         0.10845E+03
         0.41684E+02
         0.17824E+02
        -0.42108E+01
         0.18398E+01
         0.20599E+02
         0.76757E+02
         0.15410E+03
        -0.80509E+02
        -0.63391E+03
        -0.75215E+03
        -0.85872E+03
        -0.84391E+03
        -0.49759E+03
        -0.16441E+03
        -0.52940E+02
        -0.46088E+02
        -0.25784E+02
        -0.25591E+02
        -0.34695E+02
        -0.18481E+02
         0.21547E+02
         0.95276E+02
         0.14219E+03
         0.12855E+03
         0.36239E+02
         0.19626E+02
        -0.56869E+01
        -0.59539E+02
        -0.12668E+03
         0.18648E+02
        -0.97211E+01
         0.29799E+02
         0.42359E+02
         0.76297E+01
         0.68089E+02
         0.44179E+02
         0.74612E+02
         0.15040E+02
         0.50200E+02
         0.42634E+02
         0.44558E+02
         0.33112E+02
        -0.36285E+02
         0.60395E+02
         0.51393E+02
         0.20025E+03
         0.30222E+03
         0.10419E+03
         0.56157E+02
         0.37782E+02
         0.54838E+02
         0.29341E+02
         0.17573E+02
         0.54991E+02
         0.75649E+02
        -0.31508E+02
         0.32878E+02
        -0.14773E+03
        -0.49672E+02
         0.52755E+02
         0.87142E+01
         0.66494E+01
         0.15035E+03
         0.13496E+03
         0.29967E+02
        -0.65601E+01
         0.13427E+03
         0.31215E+03
         0.74098E+02
         0.23073E+02
        -0.26472E+02
        -0.18725E+02
        -0.38468E+02
         0.32493E+02
         0.17605E+02
         0.73260E+02
         0.31514E+02
         0.16287E+03
         0.20745E+03
         0.92418E+02
         0.26956E+02
         0.22127E+02
         0.46139E+02
         0.68694E+02
        -0.86247E+02
        -0.23349E+03
        -0.24943E+03
        -0.28329E+03
        -0.34645E+03
        -0.55157E+03
        -0.46835E+03
        -0.27410E+03
        -0.10767E+03
        -0.31737E+02
        -0.99544E+02
        -0.13293E+03
        -0.12668E+03
         0.40080E+02
         0.26631E+03
         0.38380E+03
         0.29653E+03
         0.38949E+03
         0.32328E+03
         0.44551E+02
         0.12239E+02
        -0.37426E+02
        -0.97425E+02
         0.23776E+01
        -0.35502E+02
         0.37839E+02
         0.53651E+02
         0.21329E+02
         0.77872E+02
         0.45784E+02
         0.44657E+02
         0.36143E+02
         0.57103E+02
         0.53431E+02
         0.81259E+02
         0.10616E+02
        -0.77632E+01
         0.14166E+03
         0.68299E+02
         0.62048E+03
         0.84572E+03
         0.31111E+03
         0.14124E+03
         0.95529E+01
         0.12236E+03
         0.51959E+02
         0.12897E+02
         0.69996E+01
         0.61319E+02
        -0.25810E+02
         0.46792E+02
        -0.10734E+03
        -0.13271E+03
         0.19484E+02
        -0.36237E+01
         0.87358E+01
         0.17151E+02
        -0.69916E+02
        -0.38422E+02
         0.58536E+02
         0.29470E+03
         0.65250E+03
         0.17774E+03
         0.39869E+02
        -0.27971E+02
        -0.37884E+02
        -0.77737E+02
        -0.87707E+02
        -0.57467E+02
         0.63785E+02
        -0.29988E+02
         0.92900E+02
         0.26588E+03
         0.34212E+02
         0.12043E+02
         0.19746E+02
         0.17600E+00
        -0.17259E+01
        -0.86148E+02
        -0.14097E+03
        -0.18444E+02
         0.56926E+02
        -0.15058E+03
        -0.69086E+03
        -0.10653E+04
        -0.90737E+03
        -0.48496E+03
        -0.19409E+03
        -0.19777E+03
        -0.21921E+03
        -0.15751E+03
         0.54867E+02
         0.13966E+03
         0.32489E+03
         0.41583E+03
         0.47052E+03
         0.42898E+03
         0.61089E+02
         0.85566E+01
        -0.11357E+03
        -0.13727E+03
        -0.17916E+03
        -0.22020E+03
         0.85892E+01
         0.29526E+02
         0.42338E+02
         0.61634E+02
        -0.14416E+02
        -0.88948E+01
         0.19146E+02
         0.72322E+01
        -0.27041E+01
         0.17964E+03
         0.48526E+02
         0.33451E+02
         0.26414E+03
         0.23267E+03
         0.79053E+03
         0.11662E+04
         0.29878E+03
         0.20021E+03
         0.32201E+02
         0.17816E+03
         0.36823E+02
         0.43109E+02
         0.10428E+03
         0.22988E+03
         0.19687E+02
         0.57629E+02
        -0.10408E+03
        -0.21483E+03
        -0.16543E+03
        -0.90763E+02
         0.67805E+01
         0.15706E+02
        -0.73225E+01
         0.69983E+02
         0.19490E+03
         0.34990E+03
         0.90157E+03
         0.16360E+03
        -0.16940E+02
        -0.10239E+03
        -0.41248E+02
        -0.42858E+02
        -0.89233E+02
        -0.17030E+03
        -0.14373E+03
        -0.20226E+03
        -0.17647E+03
        -0.32473E+02
        -0.18364E+03
        -0.55036E+02
         0.14491E+02
         0.12318E+02
        -0.10006E+02
         0.45212E+01
         0.12487E+03
         0.34598E+03
         0.31470E+03
        -0.42586E+03
        -0.16454E+04
        -0.22974E+04
        -0.18770E+04
        -0.10950E+04
        -0.54092E+03
        -0.34416E+03
        -0.28355E+03
        -0.16204E+03
         0.66533E+02
         0.18597E+03
         0.12084E+03
         0.12154E+03
         0.14606E+03
         0.90095E+02
  
SCALARS                         fint_z  double 1
LOOKUP_TABLE default
        -0.68349E+03
        -0.12313E+04
        -0.49991E+02
         0.33378E+03
        -0.38823E+03
        -0.92256E+03
        -0.16234E+03
         0.74428E+02
         0.41670E+03
         0.67187E+03
         0.10911E+03
         0.25794E+03
        -0.13300E+04
        -0.34746E+03
        -0.80658E+03
        -0.28499E+03
         0.12040E+03
        -0.15786E+03
         0.10073E+03
        -0.24335E+03
        -0.10504E+04
        -0.40609E+04
        -0.25557E+04
        -0.75892E+03
        -0.36967E+04
        -0.22001E+04
        -0.76509E+03
        -0.15344E+04
        -0.57631E+03
        -0.12894E+04
         0.22956E+03
         0.21809E+03
         0.20710E+03
         0.18184E+03
         0.22788E+03
         0.21652E+03
         0.90726E+02
         0.15841E+03
         0.55450E+02
         0.12687E+03
         0.14345E+03
         0.15589E+03
         0.36828E+02
         0.99016E+02
         0.88776E+02
        -0.14697E+02
        -0.42146E+02
        -0.41865E+02
         0.28883E+03
         0.10689E+03
        -0.16327E+03
        -0.33205E+03
        -0.12489E+04
        -0.10102E+04
        -0.29098E+04
        -0.24656E+04
        -0.31779E+04
         0.82717E+03
        -0.20278E+04
         0.40623E+03
         0.99762E+03
         0.18191E+03
        -0.38876E+03
        -0.28323E+03
         0.11997E+04
        -0.49028E+01
         0.28286E+04
         0.10112E+03
         0.19079E+03
        -0.41835E+03
        -0.43458E+02
        -0.52669E+03
        -0.12641E+04
        -0.10583E+04
        -0.13519E+05
        -0.12402E+05
        -0.22952E+05
        -0.25188E+05
        -0.20342E+05
        -0.20278E+05
        -0.10764E+05
        -0.24593E+04
        -0.82677E+04
        -0.14644E+04
         0.69257E+03
         0.35921E+03
        -0.47282E+01
        -0.38718E+03
         0.39930E+03
         0.96645E+01
         0.65489E+03
         0.67157E+03
         0.19962E+03
         0.68538E+02
         0.13934E+04
        -0.28250E+02
         0.32633E+04
         0.30870E+03
         0.31668E+04
         0.30427E+03
         0.23473E+04
         0.29760E+04
         0.21777E+03
         0.22250E+03
         0.58145E+02
         0.11160E+04
        -0.33912E+03
         0.31158E+02
        -0.32044E+03
        -0.73331E+03
        -0.50010E+03
        -0.46619E+03
         0.96688E+03
         0.14950E+04
         0.39293E+04
         0.54560E+04
         0.86997E+04
         0.11165E+05
         0.23219E+05
         0.31230E+05
         0.37252E+05
         0.60724E+05
         0.13581E+05
         0.32922E+05
        -0.62344E+04
        -0.39927E+04
        -0.30444E+04
        -0.16853E+04
        -0.47550E+03
        -0.51155E+03
         0.99997E+02
        -0.28581E+03
         0.80404E+03
         0.19591E+03
         0.95459E+03
         0.44672E+03
         0.70623E+03
         0.42460E+03
         0.59895E+03
         0.50063E+03
         0.50553E+03
         0.55718E+03
        -0.47835E+03
         0.38908E+03
        -0.15270E+04
         0.28575E+03
        -0.49428E+04
         0.65986E+02
        -0.76029E+04
        -0.20018E+03
        -0.28500E+04
         0.21023E+03
         0.13956E+04
         0.42331E+03
         0.22840E+04
         0.16845E+03
         0.20656E+03
        -0.42231E+03
         0.11982E+04
         0.30458E+04
         0.21386E+04
         0.44382E+04
        -0.62169E+03
        -0.69196E+02
         0.51887E+03
         0.48360E+03
        -0.89386E+03
        -0.22728E+04
        -0.14755E+04
        -0.98788E+03
        -0.41687E+04
         0.54069E+02
         0.61348E+03
         0.30752E+03
         0.77570E+00
         0.68581E+03
         0.32706E+03
         0.66678E+03
         0.43896E+03
        -0.80885E+02
         0.96367E+03
         0.49026E+03
        -0.15708E+04
        -0.23273E+04
        -0.18569E+04
         0.11963E+04
         0.51142E+04
         0.20600E+04
         0.75080E+04
         0.81044E+04
         0.12372E+04
         0.34990E+03
        -0.64987E+03
        -0.97283E+04
        -0.15221E+05
        -0.13054E+05
        -0.76652E+04
        -0.18854E+04
         0.68525E+03
         0.75497E+03
         0.10422E+04
         0.83215E+03
         0.17942E+04
         0.43211E+04
         0.49509E+04
         0.31733E+04
         0.61287E+03
         0.34178E+04
         0.14751E+04
         0.14975E+04
         0.85076E+03
         0.23475E+03
         0.38691E+03
         0.13232E+04
         0.24907E+04
         0.88341E+04
         0.13827E+05
         0.15767E+04
        -0.78193E+04
        -0.30656E+04
        -0.49898E+03
         0.66955E+03
         0.16166E+04
         0.15374E+04
         0.86840E+03
        -0.17779E+03
        -0.90562E+03
        -0.33089E+04
        -0.11358E+05
        -0.20784E+05
        -0.23505E+05
        -0.90198E+04
         0.10736E+04
         0.18300E+04
         0.24611E+03
         0.92636E+02
         0.10615E+04
         0.37173E+04
         0.23540E+04
         0.51155E+04
         0.21253E+02
         0.33927E+03
         0.55924E+03
         0.59440E+03
         0.12535E+03
         0.23191E+02
         0.19170E+03
         0.47216E+03
        -0.36642E+03
         0.27876E+03
         0.46325E+03
         0.47349E+03
         0.12132E+03
         0.69583E+03
         0.44951E+03
         0.82579E+03
         0.48166E+03
         0.10983E+03
         0.11203E+04
         0.72347E+03
         0.51152E+03
         0.80758E+03
         0.42324E+03
         0.11516E+04
         0.33630E+04
         0.15664E+04
         0.52887E+04
         0.64753E+04
         0.12627E+04
         0.21515E+03
        -0.34634E+02
        -0.10915E+04
        -0.27093E+04
        -0.25883E+04
        -0.24041E+04
        -0.33228E+03
         0.83879E+03
         0.53895E+03
         0.62900E+03
         0.23782E+03
         0.10905E+04
         0.30430E+04
         0.16140E+04
         0.16051E+04
         0.16155E+04
         0.27261E+04
         0.19179E+04
         0.25491E+04
         0.12465E+04
         0.69362E+03
         0.10249E+03
        -0.21430E+03
        -0.61536E+03
        -0.12683E+04
        -0.23415E+04
        -0.35954E+04
        -0.36635E+04
        -0.14014E+04
        -0.71580E+03
         0.68889E+03
         0.16848E+04
         0.14976E+04
         0.36843E+03
        -0.87392E+03
        -0.12474E+04
        -0.26347E+04
        -0.11218E+05
        -0.11231E+05
        -0.12576E+05
        -0.10724E+04
        -0.87796E+03
         0.48591E+03
         0.67451E+02
         0.21881E+02
         0.23469E+03
         0.44753E+03
         0.52394E+03
         0.57713E+03
         0.70927E+02
         0.28835E+03
         0.18303E+03
         0.28765E+03
         0.43900E+03
         0.44159E+03
         0.21862E+03
         0.38203E+03
         0.46019E+03
        -0.12485E-01
         0.19723E+03
         0.17122E+03
         0.12441E+03
         0.56745E+03
         0.42647E+03
         0.89047E+03
         0.12004E+03
        -0.77571E+02
         0.10742E+04
        -0.95590E+02
         0.10042E+04
         0.54802E+03
         0.44854E+03
         0.12479E+04
         0.30507E+03
        -0.17267E+03
        -0.10449E+03
         0.16470E+04
         0.40986E+03
         0.56711E+03
         0.15211E+03
        -0.12931E+03
        -0.54497E+03
        -0.43357E+03
        -0.29559E+03
         0.80289E+03
         0.11836E+04
         0.39724E+02
         0.65649E+01
         0.43211E+02
         0.79122E+02
         0.49412E+03
         0.12719E+04
         0.65398E+03
         0.77471E+03
         0.17963E+04
         0.76343E+03
         0.91336E+03
         0.90931E+03
         0.43981E+03
         0.31074E+02
        -0.14474E+03
        -0.16262E+04
        -0.27874E+04
        -0.31558E+04
        -0.32333E+04
        -0.19622E+04
        -0.83224E+03
        -0.90279E+03
         0.63536E+03
         0.13192E+04
         0.10739E+04
         0.57178E+03
         0.24801E+03
         0.31583E+03
         0.46995E+03
         0.24860E+03
        -0.42635E+04
        -0.46258E+04
        -0.29267E+04
        -0.72914E+03
         0.79203E+03
         0.65892E+02
         0.86274E+01
        -0.12518E+03
        -0.23612E+03
        -0.43863E+02
        -0.95517E+02
         0.85355E+02
         0.72060E+02
         0.28736E+02
         0.15001E+03
         0.24831E+03
         0.40394E+03
         0.16558E+03
         0.37636E+03
         0.69139E+03
        -0.15395E+03
         0.35231E+03
        -0.23785E+03
         0.44171E+02
         0.51953E+03
         0.26863E+03
         0.75461E+03
        -0.38647E+02
        -0.15336E+03
         0.86893E+03
        -0.39401E+03
         0.54080E+03
         0.93113E+03
         0.72106E+03
         0.83774E+03
        -0.99499E+03
        -0.62943E+03
        -0.85745E+03
        -0.49624E+03
         0.39052E+02
        -0.76224E+02
         0.12370E+02
         0.11032E+04
         0.10942E+04
         0.67450E+03
        -0.22163E+03
         0.69651E+03
         0.12112E+04
        -0.20118E+03
        -0.23715E+03
        -0.47923E+02
        -0.30361E+03
        -0.68381E+03
        -0.56960E+03
        -0.44531E+03
        -0.18379E+03
        -0.36138E+03
         0.38962E+02
        -0.53544E+02
        -0.12645E+03
        -0.66050E+02
        -0.18167E+02
        -0.17811E+03
        -0.80651E+03
        -0.20642E+04
        -0.34502E+04
        -0.34309E+04
        -0.25194E+04
        -0.18013E+04
        -0.54462E+03
         0.73428E+03
         0.97069E+03
         0.60354E+03
         0.41203E+03
         0.49869E+03
         0.64022E+03
         0.10227E+04
         0.14603E+04
         0.90222E+03
         0.83484E+03
         0.64406E+03
         0.12106E+03
        -0.10123E+03
        -0.10440E+02
        -0.62497E+02
        -0.13721E+03
        -0.19972E+03
        -0.13355E+03
        -0.19453E+03
        -0.53146E+01
         0.50461E+02
         0.10183E+02
         0.15120E+03
         0.83418E+02
         0.14918E+03
         0.62753E+02
         0.17250E+03
         0.55070E+03
        -0.14203E+03
         0.16701E+03
        -0.30346E+03
         0.12310E+02
         0.28921E+03
         0.19030E+03
         0.53962E+03
         0.50950E+00
        -0.66092E+02
         0.55354E+03
        -0.18482E+03
         0.56510E+03
         0.90936E+03
         0.85191E+03
         0.66623E+03
        -0.52745E+03
        -0.28797E+03
        -0.73269E+03
        -0.57491E+03
        -0.10969E+03
        -0.67933E+02
         0.43842E+01
         0.94600E+03
         0.91502E+03
         0.62904E+03
         0.29643E+03
         0.65842E+03
         0.10977E+04
        -0.62509E+02
        -0.10918E+03
        -0.25136E+02
        -0.13586E+03
        -0.28978E+03
        -0.54507E+02
        -0.10351E+03
         0.42135E+02
        -0.23024E+03
        -0.11746E+03
        -0.13707E+03
        -0.89742E+02
        -0.92878E+01
         0.53763E+02
         0.49812E+02
        -0.46523E+03
        -0.13807E+04
        -0.27303E+04
        -0.29287E+04
        -0.22872E+04
        -0.13854E+04
         0.93637E+02
         0.74937E+03
         0.47156E+03
         0.17865E+03
         0.55030E+02
         0.90856E+02
         0.15186E+03
         0.36634E+03
         0.76217E+03
         0.11800E+04
         0.11392E+04
         0.80691E+03
         0.36688E+03
        -0.13580E+00
        -0.49712E+02
        -0.23893E+02
        -0.10202E+03
        -0.18746E+03
        -0.10281E+03
        -0.17342E+03
        -0.21331E+02
         0.43749E+02
         0.46627E+01
         0.10003E+03
         0.23206E+02
         0.50940E+02
         0.28658E+01
         0.83098E+02
         0.35335E+03
        -0.83118E+02
         0.80858E+02
        -0.16335E+03
        -0.10164E+02
         0.15198E+03
         0.61043E+02
         0.25720E+03
         0.11609E+02
        -0.29754E+02
         0.23692E+03
        -0.53256E+02
         0.27842E+03
         0.58073E+03
         0.56976E+03
         0.38555E+03
        -0.12701E+03
        -0.34463E+02
        -0.21039E+03
        -0.21247E+03
        -0.91129E+02
        -0.44784E+02
        -0.15001E+02
         0.49168E+03
         0.71270E+03
         0.59198E+03
         0.18291E+03
         0.42838E+03
         0.44817E+03
        -0.86179E+01
        -0.16197E+02
         0.15317E+01
        -0.35403E+01
        -0.29031E+02
         0.16522E+02
         0.22177E+02
         0.79902E+02
        -0.79081E+02
        -0.49082E+02
        -0.70861E+02
        -0.96066E+01
         0.25997E+02
         0.36557E+02
         0.20781E+02
        -0.15963E+03
        -0.90716E+03
        -0.18502E+04
        -0.20730E+04
        -0.15700E+04
        -0.39962E+03
         0.17961E+03
         0.26046E+03
         0.26389E+03
         0.10949E+03
         0.33631E+02
         0.23737E+01
        -0.12083E+02
        -0.56160E+02
         0.20804E+02
         0.21445E+03
         0.24997E+03
         0.23317E+03
         0.20245E+03
         0.44424E+02
        -0.24297E+02
        -0.42267E+02
        -0.69364E+02
        -0.95522E+02
        -0.86664E+02
        -0.64316E+02
        -0.34032E+01
        -0.63250E+01
        -0.23030E+02
         0.12746E+02
        -0.18753E+02
         0.21621E+02
        -0.94529E+01
         0.12941E+02
         0.77793E+02
        -0.51123E+02
         0.22641E+02
        -0.65557E+02
        -0.35036E+01
         0.52434E+02
         0.18324E+02
         0.60032E+02
        -0.52654E+01
        -0.25640E+02
         0.88630E+02
        -0.33338E+02
         0.10187E+03
         0.19426E+03
         0.24656E+03
         0.15054E+03
        -0.40521E+02
        -0.82059E+01
        -0.72739E+02
        -0.82559E+02
        -0.66058E+02
        -0.43192E+02
        -0.36170E+02
         0.23168E+03
         0.20910E+03
         0.11690E+03
         0.14583E+03
         0.16925E+03
         0.28495E+03
        -0.65807E+01
         0.55475E+01
         0.15792E+02
         0.10933E+02
         0.70324E+01
        -0.22826E+01
        -0.40861E+01
         0.21934E+02
        -0.41787E+02
        -0.25763E+02
         0.41478E+01
         0.44595E+01
         0.14146E+02
         0.11282E+02
         0.18795E+02
         0.73983E+02
        -0.53564E+02
        -0.70589E+03
        -0.72189E+03
        -0.18233E+03
        -0.14152E+02
         0.18568E+03
         0.14774E+03
         0.67380E+02
         0.19069E+02
         0.99141E+01
         0.14940E+02
        -0.11491E+01
        -0.33930E+02
        -0.34004E+02
         0.73260E+02
         0.13982E+03
         0.13519E+03
         0.17946E+03
         0.11491E+03
        -0.60754E+02
        -0.38373E+02
        -0.68343E+02
        -0.85358E+02
        -0.70938E+02
        -0.40573E+02
        -0.25322E+02
        -0.17236E+02
        -0.26873E+02
        -0.21160E+02
        -0.19075E+02
        -0.11685E+02
        -0.17354E+02
        -0.30533E+02
        -0.69993E+00
        -0.22366E+02
        -0.28217E+02
        -0.53470E+02
        -0.23603E+02
        -0.38390E+02
        -0.58376E+02
        -0.86628E+02
        -0.28279E+02
        -0.14240E+02
        -0.10142E+02
        -0.17323E+02
        -0.17685E+02
        -0.25909E+02
         0.78155E+01
        -0.11663E+02
        -0.65971E+02
        -0.31636E+02
        -0.91759E+02
        -0.92585E+02
        -0.62174E+02
        -0.42567E+02
        -0.22279E+02
        -0.12388E+02
         0.12827E+03
         0.12690E+03
         0.91899E+02
         0.73278E+02
        -0.11249E+02
        -0.83184E+01
        -0.11116E+01
         0.80606E+01
        -0.44854E+01
        -0.27870E+02
         0.19871E+02
         0.19768E+02
         0.53795E+02
        -0.52465E+01
        -0.39666E+02
         0.46735E+02
        -0.10262E+02
        -0.63213E+01
         0.28898E+01
         0.32844E+02
         0.11218E+03
         0.99540E+02
        -0.13719E+03
        -0.17682E+03
        -0.24298E+02
         0.15856E+03
         0.11558E+03
         0.14150E+02
        -0.48934E+02
        -0.30378E+02
         0.91253E+01
         0.18453E+02
         0.19962E+02
         0.32360E+02
         0.68507E+02
         0.10374E+03
         0.18672E+03
         0.14323E+03
         0.10045E+03
         0.10010E+03
        -0.48907E+02
        -0.33380E+02
        -0.53897E+02
        -0.82124E+02
        -0.25508E+02
        -0.41252E+02
        -0.10912E+02
        -0.18390E+02
        -0.38533E+02
        -0.34630E+02
        -0.22059E+02
        -0.30539E+02
        -0.25320E+02
        -0.28724E+02
        -0.44110E+02
        -0.26421E+02
        -0.43026E+02
        -0.34273E+02
        -0.32391E+02
        -0.64087E+02
        -0.43705E+02
        -0.69462E+02
        -0.46672E+02
        -0.27721E+02
        -0.65896E+02
        -0.35444E+02
        -0.46664E+02
        -0.85462E+02
        -0.86510E+02
        -0.85180E+02
        -0.59172E+02
        -0.22613E+02
        -0.12149E+03
        -0.85356E+02
        -0.23503E+02
        -0.35858E+02
        -0.22301E+02
        -0.25713E+02
        -0.36600E+02
        -0.57209E+02
         0.38684E+01
         0.72374E+01
        -0.19202E+03
        -0.21900E+02
        -0.13193E+02
        -0.35822E+01
        -0.96698E+01
        -0.45729E+02
         0.71782E+01
        -0.64426E+00
         0.45638E+02
        -0.52731E+01
        -0.23278E+02
         0.65600E+01
        -0.16396E+02
         0.11561E+01
         0.10885E+01
         0.25313E+02
         0.96193E+02
         0.11439E+03
         0.17038E+03
         0.19644E+03
         0.30087E+03
         0.30294E+03
         0.16869E+03
        -0.11716E+03
        -0.12267E+03
        -0.46377E+02
        -0.39999E+01
         0.37519E+01
         0.15541E+01
         0.18467E+02
         0.49109E+02
         0.26291E+03
         0.20076E+03
         0.12488E+03
         0.73960E+02
         0.36696E+02
        -0.42835E+02
        -0.25571E+02
        -0.56649E+02
        -0.10940E+03
        -0.74532E+02
        -0.96591E+02
        -0.77306E+01
        -0.87929E+01
        -0.19529E+02
        -0.31490E+02
        -0.23384E+02
        -0.16735E+02
        -0.53293E+01
        -0.26533E+02
        -0.39637E+02
        -0.28686E+02
        -0.35956E+02
        -0.32406E+02
        -0.26142E+02
        -0.72860E+02
        -0.89105E+02
        -0.16867E+03
        -0.43198E+02
        -0.14483E+02
        -0.60841E+02
        -0.18521E+02
        -0.85645E+02
        -0.12532E+03
        -0.16222E+03
        -0.11353E+03
        -0.93836E+02
        -0.27804E+02
        -0.13189E+03
        -0.80072E+02
        -0.57256E+02
        -0.31764E+02
        -0.10153E+02
        -0.11295E+03
        -0.11174E+03
        -0.10080E+03
        -0.17013E+02
        -0.81892E+02
        -0.25624E+03
        -0.21982E+02
        -0.13485E+02
        -0.55064E+01
        -0.18944E+02
        -0.46496E+02
        -0.71842E+02
        -0.21562E+02
         0.42735E+02
        -0.65650E+02
        -0.58350E+02
        -0.33934E+02
        -0.12776E+02
        -0.22754E+01
        -0.49448E+01
         0.12322E+02
         0.88376E+02
         0.32477E+03
         0.43958E+03
         0.42202E+03
         0.36986E+03
         0.20645E+03
         0.16122E+03
        -0.85336E+02
        -0.13567E+03
        -0.68199E+02
        -0.22048E+02
        -0.53996E+01
        -0.23036E+01
         0.29720E+02
         0.14645E+03
         0.20447E+03
         0.30204E+03
         0.29803E+03
         0.19146E+03
         0.72172E+02
        -0.32333E+02
        -0.28926E+02
        -0.66836E+02
        -0.87995E+02
        -0.54133E+02
        -0.50435E+02
        -0.75478E+01
        -0.25966E+02
        -0.20199E+02
        -0.44354E+02
        -0.19198E+02
        -0.24818E+02
        -0.19031E+02
        -0.37311E+02
        -0.65064E+02
        -0.14281E+02
        -0.46912E+02
        -0.46520E+02
        -0.25403E+02
        -0.78648E+02
        -0.99064E+02
        -0.19101E+03
        -0.45219E+02
        -0.13509E+02
        -0.10020E+03
        -0.12305E+02
        -0.73869E+02
        -0.13821E+03
        -0.20987E+03
        -0.11199E+03
        -0.51457E+02
        -0.20637E+02
        -0.10806E+03
        -0.10658E+03
        -0.42016E+02
        -0.27666E+02
        -0.14404E+02
        -0.46418E+02
        -0.70137E+02
        -0.63735E+02
        -0.17131E+02
        -0.13848E+03
        -0.22308E+03
        -0.19584E+02
        -0.77102E+01
        -0.24063E+01
        -0.19608E+02
        -0.54386E+02
        -0.53440E+02
        -0.33018E+02
         0.32492E+02
        -0.48437E+02
        -0.17392E+02
        -0.10460E+02
        -0.28111E+02
        -0.91226E+01
        -0.11047E+02
         0.12068E+02
         0.13152E+03
         0.26630E+03
         0.41758E+03
         0.41784E+03
         0.39573E+03
         0.28132E+03
         0.16186E+03
        -0.11913E+03
        -0.12916E+03
        -0.85630E+02
        -0.32404E+02
        -0.45325E+01
         0.37828E+01
         0.37036E+02
         0.91236E+02
         0.25573E+03
         0.30522E+03
         0.21112E+03
         0.16787E+03
         0.71049E+02
        -0.58946E+02
        -0.18398E+02
        -0.76512E+02
        -0.10499E+03
        -0.76750E+02
        -0.10046E+03
        -0.11877E+02
        -0.25760E+02
        -0.48873E+02
        -0.63008E+02
        -0.24327E+02
        -0.32636E+02
        -0.14089E+02
        -0.52498E+02
        -0.59161E+02
        -0.16165E+02
        -0.46624E+02
        -0.44288E+02
        -0.24647E+02
        -0.82304E+02
        -0.10409E+03
        -0.21373E+03
        -0.50368E+02
        -0.76976E+01
        -0.95765E+02
        -0.12853E+02
        -0.84812E+02
        -0.21288E+03
        -0.30718E+03
        -0.10280E+03
        -0.90333E+02
        -0.37669E+02
        -0.11547E+03
        -0.12418E+03
        -0.46587E+02
        -0.45999E+02
        -0.28726E+02
        -0.84338E+02
        -0.16295E+03
        -0.21737E+03
         0.10526E+02
        -0.30305E+03
        -0.37737E+03
        -0.24071E+02
        -0.20515E+02
        -0.94906E+01
        -0.30133E+02
        -0.48359E+02
        -0.43825E+02
         0.20740E+00
         0.22248E+02
        -0.63602E+02
        -0.21271E+02
         0.93998E+01
        -0.35728E+02
        -0.12937E+02
        -0.15674E+02
         0.15603E+02
         0.10584E+03
         0.37352E+03
         0.70258E+03
         0.83708E+03
         0.65318E+03
         0.50849E+03
         0.10793E+03
        -0.19201E+03
        -0.20732E+03
        -0.11065E+03
        -0.38091E+02
         0.91389E+01
         0.40541E+02
         0.48147E+02
         0.12157E+03
         0.29709E+03
         0.25972E+03
         0.19831E+03
         0.17777E+03
         0.15736E+03
        -0.22745E+02
        -0.34153E+02
        -0.82821E+02
        -0.11777E+03
        -0.71590E+02
        -0.88076E+02
        -0.16995E+02
        -0.17771E+02
        -0.48682E+02
        -0.51419E+02
        -0.11391E+02
        -0.48902E+02
        -0.35173E+02
        -0.60137E+02
        -0.10091E+03
        -0.26760E+02
        -0.67314E+02
        -0.55912E+02
        -0.19747E+02
        -0.10940E+03
        -0.10811E+03
        -0.23836E+03
        -0.41920E+02
        -0.16547E+02
        -0.11977E+03
        -0.34729E+02
        -0.96972E+02
        -0.19975E+03
        -0.23640E+03
        -0.18611E+03
        -0.74292E+02
        -0.47558E+02
        -0.11206E+03
        -0.99322E+02
        -0.39741E+02
        -0.29046E+02
        -0.28060E+02
        -0.21740E+03
        -0.30141E+03
        -0.23632E+03
        -0.37507E+02
        -0.22845E+03
        -0.45100E+03
        -0.24300E+02
        -0.13220E+02
         0.10135E+02
        -0.14602E+01
        -0.35187E+02
        -0.22204E+02
         0.15058E+02
         0.78267E+02
        -0.21917E+02
        -0.30181E+02
         0.16823E+02
        -0.27343E+02
        -0.21687E+02
        -0.18054E+02
         0.10309E+02
         0.16926E+03
         0.46392E+03
         0.68104E+03
         0.66375E+03
         0.73267E+03
         0.39372E+03
         0.13174E+03
        -0.15379E+03
        -0.21506E+03
        -0.98639E+02
        -0.37378E+02
         0.13896E+02
         0.51761E+02
         0.59063E+02
         0.17432E+03
         0.18035E+03
         0.25228E+03
         0.24180E+03
         0.18917E+03
         0.11603E+03
        -0.35077E+02
        -0.13716E+02
        -0.52892E+02
        -0.92011E+02
        -0.76917E+02
        -0.81219E+02
        -0.95586E+01
        -0.23068E+02
        -0.25915E+02
        -0.46622E+02
        -0.26942E+02
        -0.18511E+02
        -0.95612E+01
        -0.40882E+02
        -0.11231E+03
        -0.23666E+02
        -0.54610E+02
        -0.56578E+02
        -0.73918E+01
        -0.92501E+02
        -0.88176E+02
        -0.20315E+03
        -0.35313E+02
        -0.20452E+02
        -0.13575E+03
        -0.32129E+02
        -0.14237E+03
        -0.14378E+03
        -0.16129E+03
        -0.17347E+03
        -0.86713E+02
        -0.36047E+02
        -0.12442E+03
        -0.87329E+02
        -0.59219E+02
        -0.21898E+02
        -0.82159E+01
        -0.18431E+03
        -0.24650E+03
        -0.24792E+03
        -0.28938E+02
        -0.34719E+03
        -0.38203E+03
        -0.27111E+02
        -0.25360E+02
         0.65930E+01
        -0.19270E+02
        -0.40657E+02
        -0.15657E+02
         0.43623E+00
         0.45463E+02
        -0.23886E+02
        -0.39748E+02
         0.20476E+02
        -0.11173E+02
        -0.14419E+02
        -0.18544E+02
         0.30265E+02
         0.18415E+03
         0.40442E+03
         0.77712E+03
         0.49924E+03
         0.52948E+03
         0.26122E+03
         0.97582E+02
        -0.29805E+03
        -0.19599E+03
        -0.53637E+02
        -0.84174E+01
         0.13454E+02
         0.38054E+02
         0.63814E+02
         0.18613E+03
         0.15719E+03
         0.25552E+03
         0.26129E+03
         0.24007E+03
         0.10983E+03
        -0.26919E+02
        -0.26402E+02
        -0.61920E+02
        -0.87501E+02
        -0.54951E+02
        -0.61772E+02
        -0.13447E+02
        -0.21804E+02
        -0.22240E+02
        -0.33005E+02
        -0.34893E+02
        -0.14817E+02
        -0.20144E+02
        -0.56787E+02
        -0.84495E+02
        -0.25848E+02
        -0.18826E+02
        -0.41153E+02
        -0.10338E+02
        -0.39488E+02
        -0.73659E+02
        -0.18454E+03
        -0.42117E+02
        -0.23015E+02
        -0.11649E+03
        -0.31981E+02
        -0.12576E+03
        -0.17301E+03
        -0.17327E+03
        -0.17279E+03
        -0.11095E+03
        -0.53948E+02
        -0.13899E+03
        -0.10599E+03
        -0.52462E+02
        -0.39936E+02
        -0.17330E+02
        -0.18770E+03
        -0.28199E+03
        -0.24368E+03
        -0.14539E+02
        -0.25227E+03
        -0.30075E+03
        -0.41111E+02
        -0.23815E+02
         0.12605E+02
        -0.11103E+02
        -0.35683E+02
        -0.60651E+02
        -0.31233E+02
         0.15616E+02
        -0.31300E+02
        -0.25635E+02
         0.49820E+02
        -0.30481E+02
        -0.22012E+02
        -0.20407E+02
         0.20495E+02
         0.20273E+03
         0.39368E+03
         0.41250E+03
         0.86416E+03
         0.64566E+03
         0.40446E+03
         0.96732E+02
        -0.22723E+03
        -0.17724E+03
        -0.75091E+02
        -0.33135E+02
         0.28180E+02
         0.68497E+02
         0.99300E+02
         0.18612E+03
         0.23015E+03
         0.21337E+03
         0.13348E+03
         0.17329E+03
         0.12782E+03
        -0.44144E+02
        -0.33520E+02
        -0.41179E+02
        -0.92983E+02
        -0.24608E+02
        -0.34107E+02
        -0.15194E+02
        -0.17598E+02
        -0.33556E+02
        -0.58347E+02
        -0.29331E+02
        -0.48121E+02
        -0.25299E+02
        -0.34521E+02
        -0.97929E+02
        -0.25467E+02
        -0.48525E+02
        -0.44814E+02
        -0.23552E+02
        -0.84809E+02
        -0.10372E+03
        -0.22989E+03
        -0.45543E+02
        -0.24634E+02
        -0.86871E+02
        -0.32232E+02
        -0.97218E+02
        -0.12937E+03
        -0.14649E+03
        -0.15548E+03
        -0.74883E+02
        -0.48908E+02
        -0.10606E+03
        -0.86921E+02
        -0.57939E+02
        -0.34224E+02
        -0.19145E+02
        -0.11802E+03
        -0.14754E+03
        -0.16259E+03
        -0.79501E+01
        -0.24303E+03
        -0.38143E+03
        -0.31487E+02
        -0.51619E+01
         0.15384E+02
         0.66858E+01
        -0.26787E+02
        -0.22012E+02
        -0.18470E+02
         0.29006E+02
         0.16040E+02
        -0.19647E+02
         0.29477E+02
        -0.22423E+02
        -0.11705E+02
        -0.14719E+02
         0.73554E+01
         0.11254E+03
         0.34022E+03
         0.56798E+03
         0.58187E+03
         0.72114E+03
         0.53165E+03
        -0.57674E+02
        -0.89061E+02
        -0.18381E+03
        -0.63925E+02
        -0.74544E+00
         0.27690E+02
         0.42620E+02
         0.53926E+02
         0.11490E+03
         0.18960E+03
         0.15371E+03
         0.20188E+03
         0.15688E+03
         0.10599E+03
        -0.34774E+02
        -0.24064E+02
        -0.26900E+02
        -0.34787E+02
        -0.41413E+01
        -0.12367E+02
        -0.99402E+01
        -0.20433E+02
        -0.45383E+02
        -0.47330E+02
        -0.25352E+02
        -0.51803E+02
        -0.21660E+02
        -0.53514E+02
        -0.52918E+02
        -0.12729E+02
        -0.44108E+02
        -0.44730E+02
        -0.40589E+02
        -0.95349E+02
        -0.90493E+02
        -0.17092E+03
        -0.45259E+02
        -0.29412E+02
        -0.11354E+03
        -0.19688E+02
        -0.10668E+03
        -0.16420E+03
        -0.26184E+03
        -0.16194E+03
        -0.49402E+02
        -0.16855E+02
        -0.76225E+02
        -0.49740E+02
        -0.17343E+02
        -0.37287E+02
        -0.11719E+02
        -0.11517E+03
        -0.14641E+03
        -0.19238E+03
        -0.90079E+02
        -0.21549E+03
        -0.34679E+03
        -0.13517E+02
        -0.73581E+01
         0.10315E+02
        -0.60802E+01
        -0.16693E+02
        -0.29964E+02
         0.11174E+02
         0.52353E+02
        -0.18092E+02
        -0.55963E+01
         0.27218E+02
        -0.16513E+02
        -0.11831E+02
        -0.16177E+02
         0.49573E+01
         0.16001E+03
         0.39412E+03
         0.77933E+03
         0.97571E+03
         0.78480E+03
         0.28033E+03
         0.21998E+03
        -0.91100E+02
        -0.12414E+03
        -0.78087E+02
        -0.93691E+01
         0.18290E+02
         0.42207E+02
         0.55964E+02
         0.12263E+03
         0.17898E+03
         0.21487E+03
         0.15507E+03
         0.12157E+03
         0.12631E+03
        -0.37274E+02
        -0.22113E+02
        -0.41049E+02
        -0.58092E+02
        -0.27313E+02
        -0.32343E+02
        -0.74937E+01
        -0.28163E+02
        -0.22476E+02
        -0.62463E+02
        -0.28293E+02
        -0.22977E+02
        -0.21063E+02
        -0.25116E+02
        -0.28736E+02
        -0.22807E+02
        -0.28099E+02
        -0.10991E+02
        -0.20102E+02
        -0.52289E+02
        -0.58228E+02
        -0.10184E+03
        -0.31408E+02
        -0.18425E+02
        -0.13360E+03
        -0.27371E+02
        -0.57600E+02
        -0.12969E+03
        -0.16416E+03
        -0.18379E+03
        -0.53711E+02
        -0.21469E+02
        -0.64877E+02
        -0.53659E+02
        -0.14243E+02
        -0.14752E+02
        -0.14228E+02
        -0.22521E+03
        -0.14538E+03
        -0.12428E+03
         0.56883E+02
        -0.14990E+03
        -0.19305E+03
        -0.11484E+02
        -0.73899E+01
         0.20253E+01
        -0.38012E+01
        -0.10618E+01
         0.50586E+01
         0.23463E+02
         0.49957E+02
         0.72899E+01
        -0.86038E+01
         0.49619E+02
        -0.10492E+02
        -0.13036E+02
        -0.18636E+02
         0.13583E+02
         0.90709E+02
         0.20351E+03
         0.41814E+03
         0.57292E+03
         0.63279E+03
         0.28506E+03
        -0.91666E+02
        -0.12382E+03
        -0.98352E+02
        -0.41643E+02
        -0.77122E+01
         0.10817E+02
         0.15293E+02
         0.18919E+02
         0.32642E+02
         0.94415E+02
         0.11255E+03
         0.15236E+03
         0.13582E+03
         0.10138E+03
        -0.26516E+02
        -0.71550E+01
        -0.13168E+02
        -0.14128E+02
         0.39686E+01
         0.13409E+02
        -0.52364E+01
        -0.27465E+02
        -0.13850E+02
        -0.31330E+02
        -0.25911E+02
        -0.50131E+02
        -0.14751E+02
        -0.59716E+02
        -0.66133E+02
        -0.33900E+01
        -0.45526E+02
         0.11247E+01
        -0.23021E+02
        -0.70493E+02
        -0.39236E+02
        -0.11281E+03
        -0.32858E+02
        -0.13469E+02
        -0.79688E+02
        -0.63887E+01
        -0.11899E+03
        -0.20781E+03
        -0.25447E+03
        -0.11011E+03
        -0.43018E+01
         0.22368E-01
        -0.21821E+02
        -0.86376E+01
        -0.83437E+01
        -0.70206E+01
        -0.33496E+01
        -0.13228E+03
        -0.19083E+03
        -0.16382E+03
        -0.11175E+03
        -0.24015E+03
        -0.19553E+03
        -0.18517E+01
         0.68828E+01
         0.10032E+02
         0.80071E+01
         0.10193E+02
         0.26941E+02
         0.15456E+02
         0.39030E+02
         0.25427E+02
        -0.90933E+01
         0.39236E+02
        -0.36390E+01
        -0.12051E+01
        -0.39893E+01
         0.66469E-01
         0.17208E+03
         0.42375E+03
         0.82054E+03
         0.96233E+03
         0.70651E+03
         0.21322E+03
        -0.18550E+02
        -0.10319E+03
        -0.36440E+02
        -0.35663E+02
         0.72272E+01
         0.13706E+02
         0.87543E+01
        -0.57704E+01
        -0.17694E+02
         0.47524E+02
         0.68084E+02
         0.84966E+02
         0.12243E+03
         0.89907E+02
        -0.18608E+02
        -0.20864E+01
         0.29196E+01
         0.25357E+02
         0.15946E+02
         0.51607E+02
        -0.11720E+02
        -0.20223E+02
        -0.12677E+02
        -0.35050E+02
        -0.23801E+02
        -0.57987E+02
        -0.20531E+02
        -0.50417E+02
        -0.10678E+03
        -0.11322E+01
        -0.39099E+02
         0.39940E+01
        -0.12153E+02
        -0.62842E+02
        -0.65384E+02
        -0.18084E+03
        -0.30266E+02
        -0.14924E+02
        -0.11346E+03
         0.12223E+02
        -0.13529E+03
        -0.21103E+03
        -0.21844E+03
        -0.15032E+03
         0.88513E+02
         0.64190E+02
         0.12394E+03
         0.38449E+02
        -0.11521E+02
        -0.85904E+01
        -0.32559E+01
        -0.10409E+03
        -0.16056E+03
        -0.18419E+03
        -0.10755E-01
        -0.22946E+03
        -0.25139E+03
         0.36616E+01
         0.37462E+02
         0.29017E+02
         0.58770E+02
         0.98978E+02
         0.35277E+02
         0.31051E+02
         0.18882E+02
         0.36276E+02
        -0.18672E+02
         0.11811E+02
        -0.17355E+01
         0.17647E+02
         0.85844E+01
         0.35802E+02
         0.18486E+03
         0.54084E+03
         0.84824E+03
         0.94365E+03
         0.63901E+03
         0.52637E+03
         0.10079E+03
        -0.19659E+03
        -0.22348E+03
        -0.60794E+02
        -0.11857E+02
         0.10900E+02
        -0.16582E+02
        -0.78124E+02
        -0.16180E+03
        -0.19927E+03
        -0.11156E+03
        -0.86735E+02
         0.29602E+02
         0.51831E+02
        -0.42001E+02
        -0.27557E+02
         0.20026E+02
         0.10883E+03
         0.22388E+02
         0.10424E+03
        -0.47525E+02
        -0.44449E+02
        -0.87491E+01
        -0.73271E+02
        -0.43935E+02
        -0.80078E+02
        -0.47654E+02
        -0.50322E+02
        -0.36348E+02
         0.50444E+01
        -0.47894E+02
         0.41412E+02
        -0.16520E+02
        -0.39848E+02
        -0.47691E+02
        -0.98225E+02
        -0.22136E+02
        -0.15361E+02
        -0.58217E+02
         0.15824E+02
        -0.45320E+02
        -0.47307E+02
        -0.11028E+03
        -0.85338E+02
         0.21174E+03
         0.12718E+03
         0.24300E+03
         0.98015E+02
        -0.24784E+02
        -0.16813E+01
        -0.22537E+02
        -0.18950E+03
        -0.14848E+03
        -0.66306E+02
        -0.49833E+02
        -0.55919E+02
        -0.16051E+03
         0.60166E+01
         0.47192E+02
         0.29432E+02
         0.97475E+02
         0.19452E+03
         0.15027E+03
         0.56933E+02
        -0.22899E+02
         0.58158E+02
        -0.65907E+01
        -0.73598E+01
        -0.37446E+01
        -0.54806E+01
         0.12182E+01
         0.74188E+02
         0.24761E+03
         0.44677E+03
         0.34188E+03
         0.28407E+03
         0.27971E+03
         0.30676E+03
         0.26171E+03
        -0.81315E+02
        -0.23249E+03
        -0.18010E+03
        -0.75569E+02
        -0.50849E+02
        -0.12659E+03
        -0.33202E+03
        -0.51793E+03
        -0.49380E+03
        -0.34684E+03
        -0.22065E+03
        -0.14253E+03
        -0.36228E+02
        -0.37131E+02
        -0.30121E+02
         0.18009E+02
         0.89537E+02
         0.30014E+02
         0.10268E+03
        -0.47537E+02
        -0.44644E+02
        -0.27334E+02
        -0.64598E+02
        -0.46859E+02
        -0.39533E+02
        -0.46389E+02
        -0.55320E+02
        -0.29746E+02
         0.13757E+02
        -0.60779E+02
         0.17506E+02
         0.56848E+01
        -0.39811E+02
        -0.55392E+02
        -0.13677E+03
        -0.11644E+02
         0.35629E+02
        -0.59551E+02
         0.84702E+02
        -0.55677E+02
        -0.31736E+02
        -0.11292E+02
        -0.95699E+02
         0.27917E+03
         0.20793E+03
         0.22975E+03
         0.19976E+03
         0.16406E+02
        -0.88310E+01
        -0.24863E+02
        -0.64338E+01
         0.30527E+02
         0.32520E+02
         0.49684E+02
        -0.20336E+02
        -0.17790E+03
         0.32673E+02
         0.76257E+02
         0.29940E+02
         0.10774E+03
         0.21458E+03
         0.17483E+03
         0.11480E+03
        -0.22502E+01
         0.10877E+03
         0.37651E+02
         0.29077E+02
         0.28409E+01
        -0.25031E+02
        -0.19862E+02
         0.14084E+02
         0.91022E+02
         0.10953E+03
        -0.16666E+02
        -0.88824E+02
         0.13073E+03
         0.54643E+03
         0.59377E+03
         0.42581E+02
        -0.44765E+03
        -0.50565E+03
        -0.30354E+03
        -0.19736E+03
        -0.28346E+03
        -0.52532E+03
        -0.66831E+03
        -0.53311E+03
        -0.51900E+03
        -0.35385E+03
        -0.21168E+03
        -0.65777E+02
         0.63565E+02
         0.23006E+02
         0.14574E+03
         0.17657E+03
         0.19954E+03
         0.19918E+03
         0.10452E+01
         0.28256E+02
         0.15649E+02
         0.23572E+02
         0.11569E+02
         0.13149E+02
        -0.88762E+01
         0.21662E+02
         0.30950E+02
         0.53594E+02
        -0.27203E+02
         0.40777E+02
         0.15337E+02
        -0.83920E+02
        -0.16815E+03
        -0.15896E+03
        -0.13751E+03
         0.49555E+02
        -0.16157E+02
         0.12822E+03
         0.49014E+02
         0.11024E+03
         0.26648E+03
        -0.94031E+02
         0.27059E+03
         0.21059E+03
         0.27286E+03
         0.23522E+03
         0.15411E+03
         0.57835E+02
        -0.15540E+02
         0.10004E+03
         0.21449E+03
         0.29706E+03
         0.42390E+03
         0.47747E+03
         0.17619E+02
        -0.64204E+02
         0.30622E+02
         0.35970E+01
         0.13298E+03
         0.25420E+03
         0.26764E+03
         0.17915E+03
         0.57884E+02
         0.12699E+03
         0.15339E+03
         0.99175E+02
         0.32675E+01
        -0.83249E+02
        -0.46558E+02
        -0.11773E+02
        -0.72122E+02
        -0.20365E+03
        -0.35006E+03
        -0.20712E+03
         0.36891E+03
         0.12590E+04
         0.13704E+04
         0.22471E+03
        -0.78400E+03
        -0.92044E+03
        -0.66238E+03
        -0.42341E+03
        -0.36443E+03
        -0.52761E+03
        -0.54219E+03
        -0.42340E+03
        -0.20983E+03
        -0.15499E+03
        -0.30592E+02
         0.45322E+02
  
SCALARS        characteristic_distance  double 1
LOOKUP_TABLE default
         0.00000E+00
         0.00000E+00
         0.00000E+00
         0.00000E+00
         0.00000E+00
         0.00000E+00
         0.00000E+00
         0.00000E+00
         0.00000E+00
         0.00000E+00
         0.00000E+00
         0.00000E+00
         0.00000E+00
         0.00000E+00
         0.00000E+00
         0.00000E+00
         0.00000E+00
         0.00000E+00
         0.00000E+00
         0.00000E+00
         0.00000E+00
         0.00000E+00
         0.00000E+00
         0.00000E+00
         0.00000E+00
         0.00000E+00
         0.00000E+00
         0.00000E+00
         0.00000E+00
         0.00000E+00
         0.00000E+00
         0.00000E+00
         0.00000E+00
         0.00000E+00
         0.00000E+00
         0.00000E+00
         0.00000E+00
         0.00000E+00
         0.00000E+00
         0.00000E+00
         0.00000E+00
         0.00000E+00
         0.00000E+00
         0.00000E+00
         0.00000E+00
         0.00000E+00
         0.00000E+00
         0.00000E+00
         0.00000E+00
         0.00000E+00
         0.00000E+00
         0.00000E+00
         0.00000E+00
         0.00000E+00
         0.00000E+00
         0.00000E+00
         0.00000E+00
         0.00000E+00
         0.00000E+00
         0.00000E+00
         0.00000E+00
         0.00000E+00
         0.00000E+00
         0.00000E+00
         0.00000E+00
         0.00000E+00
         0.00000E+00
         0.00000E+00
         0.00000E+00
         0.00000E+00
         0.00000E+00
         0.00000E+00
         0.00000E+00
         0.00000E+00
         0.00000E+00
         0.00000E+00
         0.00000E+00
         0.00000E+00
         0.00000E+00
         0.00000E+00
         0.00000E+00
         0.00000E+00
         0.00000E+00
         0.00000E+00
         0.00000E+00
         0.00000E+00
         0.00000E+00
         0.00000E+00
         0.00000E+00
         0.00000E+00
         0.00000E+00
         0.00000E+00
         0.00000E+00
         0.00000E+00
         0.00000E+00
         0.00000E+00
         0.00000E+00
         0.00000E+00
         0.00000E+00
         0.00000E+00
         0.00000E+00
         0.00000E+00
         0.00000E+00
         0.00000E+00
         0.00000E+00
         0.00000E+00
         0.00000E+00
         0.00000E+00
         0.00000E+00
         0.00000E+00
         0.00000E+00
         0.00000E+00
         0.00000E+00
         0.00000E+00
         0.00000E+00
         0.00000E+00
         0.00000E+00
         0.00000E+00
         0.00000E+00
         0.00000E+00
         0.00000E+00
         0.00000E+00
         0.00000E+00
         0.00000E+00
         0.00000E+00
         0.00000E+00
         0.00000E+00
         0.00000E+00
         0.00000E+00
         0.00000E+00
         0.00000E+00
         0.00000E+00
         0.00000E+00
         0.00000E+00
         0.00000E+00
         0.00000E+00
         0.00000E+00
         0.00000E+00
         0.00000E+00
         0.00000E+00
         0.00000E+00
         0.00000E+00
         0.00000E+00
         0.00000E+00
         0.00000E+00
         0.00000E+00
         0.00000E+00
         0.00000E+00
         0.00000E+00
         0.00000E+00
         0.00000E+00
         0.00000E+00
         0.00000E+00
         0.00000E+00
         0.00000E+00
         0.00000E+00
         0.00000E+00
         0.00000E+00
         0.00000E+00
         0.00000E+00
         0.00000E+00
         0.00000E+00
         0.00000E+00
         0.00000E+00
         0.00000E+00
         0.00000E+00
         0.00000E+00
         0.00000E+00
         0.00000E+00
         0.00000E+00
         0.00000E+00
         0.00000E+00
         0.00000E+00
         0.00000E+00
         0.00000E+00
         0.00000E+00
         0.00000E+00
         0.00000E+00
         0.00000E+00
         0.00000E+00
         0.00000E+00
         0.00000E+00
         0.00000E+00
         0.00000E+00
         0.00000E+00
         0.00000E+00
         0.00000E+00
         0.00000E+00
         0.00000E+00
         0.00000E+00
         0.00000E+00
         0.00000E+00
         0.00000E+00
         0.00000E+00
         0.00000E+00
         0.00000E+00
         0.00000E+00
         0.00000E+00
         0.00000E+00
         0.00000E+00
         0.00000E+00
         0.00000E+00
         0.00000E+00
         0.00000E+00
         0.00000E+00
         0.00000E+00
         0.00000E+00
         0.00000E+00
         0.00000E+00
         0.00000E+00
         0.00000E+00
         0.00000E+00
         0.00000E+00
         0.00000E+00
         0.00000E+00
         0.00000E+00
         0.00000E+00
         0.00000E+00
         0.00000E+00
         0.00000E+00
         0.00000E+00
         0.00000E+00
         0.00000E+00
         0.00000E+00
         0.00000E+00
         0.00000E+00
         0.00000E+00
         0.00000E+00
         0.00000E+00
         0.00000E+00
         0.00000E+00
         0.00000E+00
         0.00000E+00
         0.00000E+00
         0.00000E+00
         0.00000E+00
         0.00000E+00
         0.00000E+00
         0.00000E+00
         0.00000E+00
         0.00000E+00
         0.00000E+00
         0.00000E+00
         0.00000E+00
         0.00000E+00
         0.00000E+00
         0.00000E+00
         0.00000E+00
         0.00000E+00
         0.00000E+00
         0.00000E+00
         0.00000E+00
         0.00000E+00
         0.00000E+00
         0.00000E+00
         0.00000E+00
         0.00000E+00
         0.00000E+00
         0.00000E+00
         0.00000E+00
         0.00000E+00
         0.00000E+00
         0.00000E+00
         0.00000E+00
         0.00000E+00
         0.00000E+00
         0.00000E+00
         0.00000E+00
         0.00000E+00
         0.00000E+00
         0.00000E+00
         0.00000E+00
         0.00000E+00
         0.00000E+00
         0.00000E+00
         0.00000E+00
         0.00000E+00
         0.00000E+00
         0.00000E+00
         0.00000E+00
         0.00000E+00
         0.00000E+00
         0.00000E+00
         0.00000E+00
         0.00000E+00
         0.00000E+00
         0.00000E+00
         0.00000E+00
         0.00000E+00
         0.00000E+00
         0.00000E+00
         0.00000E+00
         0.00000E+00
         0.00000E+00
         0.00000E+00
         0.00000E+00
         0.00000E+00
         0.00000E+00
         0.00000E+00
         0.00000E+00
         0.00000E+00
         0.00000E+00
         0.00000E+00
         0.00000E+00
         0.00000E+00
         0.00000E+00
         0.00000E+00
         0.00000E+00
         0.00000E+00
         0.00000E+00
         0.00000E+00
         0.00000E+00
         0.00000E+00
         0.00000E+00
         0.00000E+00
         0.00000E+00
         0.00000E+00
         0.00000E+00
         0.00000E+00
         0.00000E+00
         0.00000E+00
         0.00000E+00
         0.00000E+00
         0.00000E+00
         0.00000E+00
         0.00000E+00
         0.00000E+00
         0.00000E+00
         0.00000E+00
         0.00000E+00
         0.00000E+00
         0.00000E+00
         0.00000E+00
         0.00000E+00
         0.00000E+00
         0.00000E+00
         0.00000E+00
         0.00000E+00
         0.00000E+00
         0.00000E+00
         0.00000E+00
         0.00000E+00
         0.00000E+00
         0.00000E+00
         0.00000E+00
         0.00000E+00
         0.00000E+00
         0.00000E+00
         0.00000E+00
         0.00000E+00
         0.00000E+00
         0.00000E+00
         0.00000E+00
         0.00000E+00
         0.00000E+00
         0.00000E+00
         0.00000E+00
         0.00000E+00
         0.00000E+00
         0.00000E+00
         0.00000E+00
         0.00000E+00
         0.00000E+00
         0.00000E+00
         0.00000E+00
         0.00000E+00
         0.00000E+00
         0.00000E+00
         0.00000E+00
         0.00000E+00
         0.00000E+00
         0.00000E+00
         0.00000E+00
         0.00000E+00
         0.00000E+00
         0.00000E+00
         0.00000E+00
         0.00000E+00
         0.00000E+00
         0.00000E+00
         0.00000E+00
         0.00000E+00
         0.00000E+00
         0.00000E+00
         0.00000E+00
         0.00000E+00
         0.00000E+00
         0.00000E+00
         0.00000E+00
         0.00000E+00
         0.00000E+00
         0.00000E+00
         0.00000E+00
         0.00000E+00
         0.00000E+00
         0.00000E+00
         0.00000E+00
         0.00000E+00
         0.00000E+00
         0.00000E+00
         0.00000E+00
         0.00000E+00
         0.00000E+00
         0.00000E+00
         0.00000E+00
         0.00000E+00
         0.00000E+00
         0.00000E+00
         0.00000E+00
         0.00000E+00
         0.00000E+00
         0.00000E+00
         0.00000E+00
         0.00000E+00
         0.00000E+00
         0.00000E+00
         0.00000E+00
         0.00000E+00
         0.00000E+00
         0.00000E+00
         0.00000E+00
         0.00000E+00
         0.00000E+00
         0.00000E+00
         0.00000E+00
         0.00000E+00
         0.00000E+00
         0.00000E+00
         0.00000E+00
         0.00000E+00
         0.00000E+00
         0.00000E+00
         0.00000E+00
         0.00000E+00
         0.00000E+00
         0.00000E+00
         0.00000E+00
         0.00000E+00
         0.00000E+00
         0.00000E+00
         0.00000E+00
         0.00000E+00
         0.00000E+00
         0.00000E+00
         0.00000E+00
         0.00000E+00
         0.00000E+00
         0.00000E+00
         0.00000E+00
         0.00000E+00
         0.00000E+00
         0.00000E+00
         0.00000E+00
         0.00000E+00
         0.00000E+00
         0.00000E+00
         0.00000E+00
         0.00000E+00
         0.00000E+00
         0.00000E+00
         0.00000E+00
         0.00000E+00
         0.00000E+00
         0.00000E+00
         0.00000E+00
         0.00000E+00
         0.00000E+00
         0.00000E+00
         0.00000E+00
         0.00000E+00
         0.00000E+00
         0.00000E+00
         0.00000E+00
         0.00000E+00
         0.00000E+00
         0.00000E+00
         0.00000E+00
         0.00000E+00
         0.00000E+00
         0.00000E+00
         0.00000E+00
         0.00000E+00
         0.00000E+00
         0.00000E+00
         0.00000E+00
         0.00000E+00
         0.00000E+00
         0.00000E+00
         0.00000E+00
         0.00000E+00
         0.00000E+00
         0.00000E+00
         0.00000E+00
         0.00000E+00
         0.00000E+00
         0.00000E+00
         0.00000E+00
         0.00000E+00
         0.00000E+00
         0.00000E+00
         0.00000E+00
         0.00000E+00
         0.00000E+00
         0.00000E+00
         0.00000E+00
         0.00000E+00
         0.00000E+00
         0.00000E+00
         0.00000E+00
         0.00000E+00
         0.00000E+00
         0.00000E+00
         0.00000E+00
         0.00000E+00
         0.00000E+00
         0.00000E+00
         0.00000E+00
         0.00000E+00
         0.00000E+00
         0.00000E+00
         0.00000E+00
         0.00000E+00
         0.00000E+00
         0.00000E+00
         0.00000E+00
         0.00000E+00
         0.00000E+00
         0.00000E+00
         0.00000E+00
         0.00000E+00
         0.00000E+00
         0.00000E+00
         0.00000E+00
         0.00000E+00
         0.00000E+00
         0.00000E+00
         0.00000E+00
         0.00000E+00
         0.00000E+00
         0.00000E+00
         0.00000E+00
         0.00000E+00
         0.00000E+00
         0.00000E+00
         0.00000E+00
         0.00000E+00
         0.00000E+00
         0.00000E+00
         0.00000E+00
         0.00000E+00
         0.00000E+00
         0.00000E+00
         0.00000E+00
         0.00000E+00
         0.00000E+00
         0.00000E+00
         0.00000E+00
         0.00000E+00
         0.00000E+00
         0.00000E+00
         0.00000E+00
         0.00000E+00
         0.00000E+00
         0.00000E+00
         0.00000E+00
         0.00000E+00
         0.00000E+00
         0.00000E+00
         0.00000E+00
         0.00000E+00
         0.00000E+00
         0.00000E+00
         0.00000E+00
         0.00000E+00
         0.00000E+00
         0.00000E+00
         0.00000E+00
         0.00000E+00
         0.00000E+00
         0.00000E+00
         0.00000E+00
         0.00000E+00
         0.00000E+00
         0.00000E+00
         0.00000E+00
         0.00000E+00
         0.00000E+00
         0.00000E+00
         0.00000E+00
         0.00000E+00
         0.00000E+00
         0.00000E+00
         0.00000E+00
         0.00000E+00
         0.00000E+00
         0.00000E+00
         0.00000E+00
         0.00000E+00
         0.00000E+00
         0.00000E+00
         0.00000E+00
         0.00000E+00
         0.00000E+00
         0.00000E+00
         0.00000E+00
         0.00000E+00
         0.00000E+00
         0.00000E+00
         0.00000E+00
         0.00000E+00
         0.00000E+00
         0.00000E+00
         0.00000E+00
         0.00000E+00
         0.00000E+00
         0.00000E+00
         0.00000E+00
         0.00000E+00
         0.00000E+00
         0.00000E+00
         0.00000E+00
         0.00000E+00
         0.00000E+00
         0.00000E+00
         0.00000E+00
         0.00000E+00
         0.00000E+00
         0.00000E+00
         0.00000E+00
         0.00000E+00
         0.00000E+00
         0.00000E+00
         0.00000E+00
         0.00000E+00
         0.00000E+00
         0.00000E+00
         0.00000E+00
         0.00000E+00
         0.00000E+00
         0.00000E+00
         0.00000E+00
         0.00000E+00
         0.00000E+00
         0.00000E+00
         0.00000E+00
         0.00000E+00
         0.00000E+00
         0.00000E+00
         0.00000E+00
         0.00000E+00
         0.00000E+00
         0.00000E+00
         0.00000E+00
         0.00000E+00
         0.00000E+00
         0.00000E+00
         0.00000E+00
         0.00000E+00
         0.00000E+00
         0.00000E+00
         0.00000E+00
         0.00000E+00
         0.00000E+00
         0.00000E+00
         0.00000E+00
         0.00000E+00
         0.00000E+00
         0.00000E+00
         0.00000E+00
         0.00000E+00
         0.00000E+00
         0.00000E+00
         0.00000E+00
         0.00000E+00
         0.00000E+00
         0.00000E+00
         0.00000E+00
         0.00000E+00
         0.00000E+00
         0.00000E+00
         0.00000E+00
         0.00000E+00
         0.00000E+00
         0.00000E+00
         0.00000E+00
         0.00000E+00
         0.00000E+00
         0.00000E+00
         0.00000E+00
         0.00000E+00
         0.00000E+00
         0.00000E+00
         0.00000E+00
         0.00000E+00
         0.00000E+00
         0.00000E+00
         0.00000E+00
         0.00000E+00
         0.00000E+00
         0.00000E+00
         0.00000E+00
         0.00000E+00
         0.00000E+00
         0.00000E+00
         0.00000E+00
         0.00000E+00
         0.00000E+00
         0.00000E+00
         0.00000E+00
         0.00000E+00
         0.00000E+00
         0.00000E+00
         0.00000E+00
         0.00000E+00
         0.00000E+00
         0.00000E+00
         0.00000E+00
         0.00000E+00
         0.00000E+00
         0.00000E+00
         0.00000E+00
         0.00000E+00
         0.00000E+00
         0.00000E+00
         0.00000E+00
         0.00000E+00
         0.00000E+00
         0.00000E+00
         0.00000E+00
         0.00000E+00
         0.00000E+00
         0.00000E+00
         0.00000E+00
         0.00000E+00
         0.00000E+00
         0.00000E+00
         0.00000E+00
         0.00000E+00
         0.00000E+00
         0.00000E+00
         0.00000E+00
         0.00000E+00
         0.00000E+00
         0.00000E+00
         0.00000E+00
         0.00000E+00
         0.00000E+00
         0.00000E+00
         0.00000E+00
         0.00000E+00
         0.00000E+00
         0.00000E+00
         0.00000E+00
         0.00000E+00
         0.00000E+00
         0.00000E+00
         0.00000E+00
         0.00000E+00
         0.00000E+00
         0.00000E+00
         0.00000E+00
         0.00000E+00
         0.00000E+00
         0.00000E+00
         0.00000E+00
         0.00000E+00
         0.00000E+00
         0.00000E+00
         0.00000E+00
         0.00000E+00
         0.00000E+00
         0.00000E+00
         0.00000E+00
         0.00000E+00
         0.00000E+00
         0.00000E+00
         0.00000E+00
         0.00000E+00
         0.00000E+00
         0.00000E+00
         0.00000E+00
         0.00000E+00
         0.00000E+00
         0.00000E+00
         0.00000E+00
         0.00000E+00
         0.00000E+00
         0.00000E+00
         0.00000E+00
         0.00000E+00
         0.00000E+00
         0.00000E+00
         0.00000E+00
         0.00000E+00
         0.00000E+00
         0.00000E+00
         0.00000E+00
         0.00000E+00
         0.00000E+00
         0.00000E+00
         0.00000E+00
         0.00000E+00
         0.00000E+00
         0.00000E+00
         0.00000E+00
         0.00000E+00
         0.00000E+00
         0.00000E+00
         0.00000E+00
         0.00000E+00
         0.00000E+00
         0.00000E+00
         0.00000E+00
         0.00000E+00
         0.00000E+00
         0.00000E+00
         0.00000E+00
         0.00000E+00
         0.00000E+00
         0.00000E+00
         0.00000E+00
         0.00000E+00
         0.00000E+00
         0.00000E+00
         0.00000E+00
         0.00000E+00
         0.00000E+00
         0.00000E+00
         0.00000E+00
         0.00000E+00
         0.00000E+00
         0.00000E+00
         0.00000E+00
         0.00000E+00
         0.00000E+00
         0.00000E+00
         0.00000E+00
         0.00000E+00
         0.00000E+00
         0.00000E+00
         0.00000E+00
         0.00000E+00
         0.00000E+00
         0.00000E+00
         0.00000E+00
         0.00000E+00
         0.00000E+00
         0.00000E+00
         0.00000E+00
         0.00000E+00
         0.00000E+00
         0.00000E+00
         0.00000E+00
         0.00000E+00
         0.00000E+00
         0.00000E+00
         0.00000E+00
         0.00000E+00
         0.00000E+00
         0.00000E+00
         0.00000E+00
         0.00000E+00
         0.00000E+00
         0.00000E+00
         0.00000E+00
         0.00000E+00
         0.00000E+00
         0.00000E+00
         0.00000E+00
         0.00000E+00
         0.00000E+00
         0.00000E+00
         0.00000E+00
         0.00000E+00
         0.00000E+00
         0.00000E+00
         0.00000E+00
         0.00000E+00
         0.00000E+00
         0.00000E+00
         0.00000E+00
         0.00000E+00
         0.00000E+00
         0.00000E+00
         0.00000E+00
         0.00000E+00
         0.00000E+00
         0.00000E+00
         0.00000E+00
         0.00000E+00
         0.00000E+00
         0.00000E+00
         0.00000E+00
         0.00000E+00
         0.00000E+00
         0.00000E+00
         0.00000E+00
         0.00000E+00
         0.00000E+00
         0.00000E+00
         0.00000E+00
         0.00000E+00
         0.00000E+00
         0.00000E+00
         0.00000E+00
         0.00000E+00
         0.00000E+00
         0.00000E+00
         0.00000E+00
         0.00000E+00
         0.00000E+00
         0.00000E+00
         0.00000E+00
         0.00000E+00
         0.00000E+00
         0.00000E+00
         0.00000E+00
         0.00000E+00
         0.00000E+00
         0.00000E+00
         0.00000E+00
         0.00000E+00
         0.00000E+00
         0.00000E+00
         0.00000E+00
         0.00000E+00
         0.00000E+00
         0.00000E+00
         0.00000E+00
         0.00000E+00
         0.00000E+00
         0.00000E+00
         0.00000E+00
         0.00000E+00
         0.00000E+00
         0.00000E+00
         0.00000E+00
         0.00000E+00
         0.00000E+00
         0.00000E+00
         0.00000E+00
         0.00000E+00
         0.00000E+00
         0.00000E+00
         0.00000E+00
         0.00000E+00
         0.00000E+00
         0.00000E+00
         0.00000E+00
         0.00000E+00
         0.00000E+00
         0.00000E+00
         0.00000E+00
         0.00000E+00
         0.00000E+00
         0.00000E+00
         0.00000E+00
         0.00000E+00
         0.00000E+00
         0.00000E+00
         0.00000E+00
         0.00000E+00
         0.00000E+00
         0.00000E+00
         0.00000E+00
         0.00000E+00
         0.00000E+00
         0.00000E+00
         0.00000E+00
         0.00000E+00
         0.00000E+00
         0.00000E+00
         0.00000E+00
         0.00000E+00
         0.00000E+00
         0.00000E+00
         0.00000E+00
         0.00000E+00
         0.00000E+00
         0.00000E+00
         0.00000E+00
         0.00000E+00
         0.00000E+00
         0.00000E+00
         0.00000E+00
         0.00000E+00
         0.00000E+00
         0.00000E+00
         0.00000E+00
         0.00000E+00
         0.00000E+00
         0.00000E+00
         0.00000E+00
         0.00000E+00
         0.00000E+00
         0.00000E+00
         0.00000E+00
         0.00000E+00
         0.00000E+00
         0.00000E+00
         0.00000E+00
         0.00000E+00
         0.00000E+00
         0.00000E+00
         0.00000E+00
         0.00000E+00
         0.00000E+00
         0.00000E+00
         0.00000E+00
         0.00000E+00
         0.00000E+00
         0.00000E+00
         0.00000E+00
         0.00000E+00
         0.00000E+00
         0.00000E+00
         0.00000E+00
         0.00000E+00
         0.00000E+00
         0.00000E+00
         0.00000E+00
         0.00000E+00
         0.00000E+00
         0.00000E+00
         0.00000E+00
         0.00000E+00
         0.00000E+00
         0.00000E+00
         0.00000E+00
         0.00000E+00
         0.00000E+00
         0.00000E+00
         0.00000E+00
         0.00000E+00
         0.00000E+00
         0.00000E+00
         0.00000E+00
         0.00000E+00
         0.00000E+00
         0.00000E+00
         0.00000E+00
         0.00000E+00
         0.00000E+00
         0.00000E+00
         0.00000E+00
         0.00000E+00
         0.00000E+00
         0.00000E+00
         0.00000E+00
         0.00000E+00
         0.00000E+00
         0.00000E+00
         0.00000E+00
         0.00000E+00
         0.00000E+00
         0.00000E+00
         0.00000E+00
         0.00000E+00
         0.00000E+00
         0.00000E+00
         0.00000E+00
         0.00000E+00
         0.00000E+00
         0.00000E+00
         0.00000E+00
         0.00000E+00
         0.00000E+00
         0.00000E+00
         0.00000E+00
         0.00000E+00
         0.00000E+00
         0.00000E+00
         0.00000E+00
         0.00000E+00
         0.00000E+00
         0.00000E+00
         0.00000E+00
         0.00000E+00
         0.00000E+00
         0.00000E+00
         0.00000E+00
         0.00000E+00
         0.00000E+00
         0.00000E+00
         0.00000E+00
         0.00000E+00
         0.00000E+00
         0.00000E+00
         0.00000E+00
         0.00000E+00
         0.00000E+00
         0.00000E+00
         0.00000E+00
         0.00000E+00
         0.00000E+00
         0.00000E+00
         0.00000E+00
         0.00000E+00
         0.00000E+00
         0.00000E+00
         0.00000E+00
         0.00000E+00
         0.00000E+00
         0.00000E+00
         0.00000E+00
         0.00000E+00
         0.00000E+00
         0.00000E+00
         0.00000E+00
         0.00000E+00
         0.00000E+00
         0.00000E+00
         0.00000E+00
         0.00000E+00
         0.00000E+00
         0.00000E+00
         0.00000E+00
         0.00000E+00
         0.00000E+00
         0.00000E+00
         0.00000E+00
         0.00000E+00
         0.00000E+00
         0.00000E+00
         0.00000E+00
         0.00000E+00
         0.00000E+00
         0.00000E+00
         0.00000E+00
         0.00000E+00
         0.00000E+00
         0.00000E+00
         0.00000E+00
         0.00000E+00
         0.00000E+00
         0.00000E+00
         0.00000E+00
         0.00000E+00
         0.00000E+00
         0.00000E+00
         0.00000E+00
         0.00000E+00
         0.00000E+00
         0.00000E+00
         0.00000E+00
         0.00000E+00
         0.00000E+00
         0.00000E+00
         0.00000E+00
         0.00000E+00
         0.00000E+00
         0.00000E+00
         0.00000E+00
         0.00000E+00
         0.00000E+00
         0.00000E+00
         0.00000E+00
         0.00000E+00
         0.00000E+00
         0.00000E+00
         0.00000E+00
         0.00000E+00
         0.00000E+00
         0.00000E+00
         0.00000E+00
         0.00000E+00
         0.00000E+00
         0.00000E+00
         0.00000E+00
         0.00000E+00
         0.00000E+00
         0.00000E+00
         0.00000E+00
         0.00000E+00
         0.00000E+00
         0.00000E+00
         0.00000E+00
         0.00000E+00
         0.00000E+00
         0.00000E+00
         0.00000E+00
         0.00000E+00
         0.00000E+00
         0.00000E+00
         0.00000E+00
         0.00000E+00
         0.00000E+00
         0.00000E+00
         0.00000E+00
         0.00000E+00
         0.00000E+00
         0.00000E+00
         0.00000E+00
         0.00000E+00
         0.00000E+00
         0.00000E+00
         0.00000E+00
         0.00000E+00
         0.00000E+00
         0.00000E+00
         0.00000E+00
         0.00000E+00
         0.00000E+00
         0.00000E+00
         0.00000E+00
         0.00000E+00
         0.00000E+00
         0.00000E+00
         0.00000E+00
         0.00000E+00
         0.00000E+00
         0.00000E+00
         0.00000E+00
         0.00000E+00
         0.00000E+00
         0.00000E+00
         0.00000E+00
         0.00000E+00
         0.00000E+00
         0.00000E+00
         0.00000E+00
         0.00000E+00
         0.00000E+00
         0.00000E+00
         0.00000E+00
         0.00000E+00
         0.00000E+00
         0.00000E+00
         0.00000E+00
         0.00000E+00
         0.00000E+00
         0.00000E+00
         0.00000E+00
         0.00000E+00
         0.00000E+00
         0.00000E+00
         0.00000E+00
         0.00000E+00
         0.00000E+00
         0.00000E+00
         0.00000E+00
         0.00000E+00
         0.00000E+00
         0.00000E+00
         0.00000E+00
         0.00000E+00
         0.00000E+00
         0.00000E+00
         0.00000E+00
         0.00000E+00
         0.00000E+00
         0.00000E+00
         0.00000E+00
         0.00000E+00
         0.00000E+00
         0.00000E+00
         0.00000E+00
         0.00000E+00
         0.00000E+00
         0.00000E+00
         0.00000E+00
         0.00000E+00
         0.00000E+00
         0.00000E+00
         0.00000E+00
         0.00000E+00
         0.00000E+00
         0.00000E+00
         0.00000E+00
         0.00000E+00
         0.00000E+00
         0.00000E+00
         0.00000E+00
         0.00000E+00
         0.00000E+00
         0.00000E+00
         0.00000E+00
         0.00000E+00
         0.00000E+00
         0.00000E+00
         0.00000E+00
         0.00000E+00
         0.00000E+00
         0.00000E+00
         0.00000E+00
         0.00000E+00
         0.00000E+00
         0.00000E+00
         0.00000E+00
         0.00000E+00
         0.00000E+00
         0.00000E+00
         0.00000E+00
         0.00000E+00
         0.00000E+00
         0.00000E+00
         0.00000E+00
         0.00000E+00
         0.00000E+00
         0.00000E+00
         0.00000E+00
         0.00000E+00
         0.00000E+00
         0.00000E+00
         0.00000E+00
         0.00000E+00
         0.00000E+00
         0.00000E+00
         0.00000E+00
         0.00000E+00
         0.00000E+00
         0.00000E+00
         0.00000E+00
         0.00000E+00
         0.00000E+00
         0.00000E+00
         0.00000E+00
         0.00000E+00
         0.00000E+00
         0.00000E+00
         0.00000E+00
         0.00000E+00
         0.00000E+00
         0.00000E+00
         0.00000E+00
         0.00000E+00
         0.00000E+00
         0.00000E+00
         0.00000E+00
         0.00000E+00
         0.00000E+00
         0.00000E+00
         0.00000E+00
         0.00000E+00
         0.00000E+00
         0.00000E+00
         0.00000E+00
         0.00000E+00
         0.00000E+00
         0.00000E+00
         0.00000E+00
         0.00000E+00
         0.00000E+00
         0.00000E+00
         0.00000E+00
         0.00000E+00
         0.00000E+00
         0.00000E+00
         0.00000E+00
         0.00000E+00
         0.00000E+00
         0.00000E+00
         0.00000E+00
         0.00000E+00
         0.00000E+00
         0.00000E+00
         0.00000E+00
         0.00000E+00
         0.00000E+00
         0.00000E+00
         0.00000E+00
         0.00000E+00
         0.00000E+00
         0.00000E+00
         0.00000E+00
         0.00000E+00
         0.00000E+00
         0.00000E+00
         0.00000E+00
         0.00000E+00
         0.00000E+00
         0.00000E+00
         0.00000E+00
         0.00000E+00
         0.00000E+00
         0.00000E+00
         0.00000E+00
         0.00000E+00
         0.00000E+00
         0.00000E+00
         0.00000E+00
         0.00000E+00
         0.00000E+00
         0.00000E+00
         0.00000E+00
         0.00000E+00
         0.00000E+00
         0.00000E+00
         0.00000E+00
         0.00000E+00
         0.00000E+00
         0.00000E+00
         0.00000E+00
         0.00000E+00
         0.00000E+00
         0.00000E+00
         0.00000E+00
         0.00000E+00
         0.00000E+00
         0.00000E+00
         0.00000E+00
         0.00000E+00
         0.00000E+00
         0.00000E+00
         0.00000E+00
         0.00000E+00
         0.00000E+00
         0.00000E+00
         0.00000E+00
         0.00000E+00
         0.00000E+00
         0.00000E+00
         0.00000E+00
         0.00000E+00
         0.00000E+00
         0.00000E+00
         0.00000E+00
         0.00000E+00
         0.00000E+00
         0.00000E+00
         0.00000E+00
         0.00000E+00
         0.00000E+00
         0.00000E+00
         0.00000E+00
         0.00000E+00
         0.00000E+00
         0.00000E+00
         0.00000E+00
         0.00000E+00
         0.00000E+00
         0.00000E+00
         0.00000E+00
         0.00000E+00
         0.00000E+00
         0.00000E+00
         0.00000E+00
         0.00000E+00
         0.00000E+00
         0.00000E+00
         0.00000E+00
         0.00000E+00
         0.00000E+00
         0.00000E+00
         0.00000E+00
         0.00000E+00
         0.00000E+00
         0.00000E+00
         0.00000E+00
         0.00000E+00
         0.00000E+00
         0.00000E+00
         0.00000E+00
         0.00000E+00
         0.00000E+00
         0.00000E+00
         0.00000E+00
         0.00000E+00
         0.00000E+00
         0.00000E+00
         0.00000E+00
         0.00000E+00
         0.00000E+00
         0.00000E+00
         0.00000E+00
         0.00000E+00
         0.00000E+00
         0.00000E+00
         0.00000E+00
         0.00000E+00
         0.00000E+00
         0.00000E+00
         0.00000E+00
         0.00000E+00
         0.00000E+00
         0.00000E+00
         0.00000E+00
         0.00000E+00
         0.00000E+00
         0.00000E+00
         0.00000E+00
         0.00000E+00
         0.00000E+00
         0.00000E+00
         0.00000E+00
         0.00000E+00
         0.00000E+00
         0.00000E+00
         0.00000E+00
         0.00000E+00
         0.00000E+00
         0.00000E+00
         0.00000E+00
         0.00000E+00
         0.00000E+00
         0.00000E+00
         0.00000E+00
         0.00000E+00
         0.00000E+00
         0.00000E+00
         0.00000E+00
         0.00000E+00
         0.00000E+00
         0.00000E+00
         0.00000E+00
         0.00000E+00
         0.00000E+00
         0.00000E+00
         0.00000E+00
         0.00000E+00
         0.00000E+00
         0.00000E+00
         0.00000E+00
         0.00000E+00
         0.00000E+00
         0.00000E+00
         0.00000E+00
         0.00000E+00
         0.00000E+00
         0.00000E+00
         0.00000E+00
         0.00000E+00
         0.00000E+00
         0.00000E+00
         0.00000E+00
         0.00000E+00
         0.00000E+00
         0.00000E+00
         0.00000E+00
         0.00000E+00
         0.00000E+00
         0.00000E+00
         0.00000E+00
         0.00000E+00
         0.00000E+00
         0.00000E+00
         0.00000E+00
         0.00000E+00
         0.00000E+00
         0.00000E+00
         0.00000E+00
         0.00000E+00
         0.00000E+00
         0.00000E+00
         0.00000E+00
         0.00000E+00
         0.00000E+00
         0.00000E+00
         0.00000E+00
         0.00000E+00
         0.00000E+00
         0.00000E+00
         0.00000E+00
         0.00000E+00
         0.00000E+00
         0.00000E+00
         0.00000E+00
         0.00000E+00
         0.00000E+00
         0.00000E+00
         0.00000E+00
         0.00000E+00
         0.00000E+00
         0.00000E+00
         0.00000E+00
         0.00000E+00
         0.00000E+00
         0.00000E+00
         0.00000E+00
         0.00000E+00
         0.00000E+00
         0.00000E+00
         0.00000E+00
         0.00000E+00
         0.00000E+00
         0.00000E+00
         0.00000E+00
         0.00000E+00
         0.00000E+00
         0.00000E+00
         0.00000E+00
         0.00000E+00
         0.00000E+00
         0.00000E+00
         0.00000E+00
         0.00000E+00
         0.00000E+00
         0.00000E+00
         0.00000E+00
         0.00000E+00
         0.00000E+00
         0.00000E+00
         0.00000E+00
         0.00000E+00
         0.00000E+00
         0.00000E+00
         0.00000E+00
         0.00000E+00
         0.00000E+00
         0.00000E+00
         0.00000E+00
         0.00000E+00
         0.00000E+00
         0.00000E+00
         0.00000E+00
         0.00000E+00
         0.00000E+00
         0.00000E+00
         0.00000E+00
         0.00000E+00
         0.00000E+00
         0.00000E+00
         0.00000E+00
         0.00000E+00
         0.00000E+00
         0.00000E+00
         0.00000E+00
         0.00000E+00
         0.00000E+00
         0.00000E+00
         0.00000E+00
         0.00000E+00
         0.00000E+00
         0.00000E+00
         0.00000E+00
         0.00000E+00
         0.00000E+00
         0.00000E+00
         0.00000E+00
         0.00000E+00
         0.00000E+00
         0.00000E+00
         0.00000E+00
         0.00000E+00
         0.00000E+00
         0.00000E+00
         0.00000E+00
         0.00000E+00
         0.00000E+00
         0.00000E+00
         0.00000E+00
         0.00000E+00
         0.00000E+00
         0.00000E+00
         0.00000E+00
         0.00000E+00
         0.00000E+00
         0.00000E+00
         0.00000E+00
         0.00000E+00
         0.00000E+00
         0.00000E+00
         0.00000E+00
         0.00000E+00
         0.00000E+00
         0.00000E+00
         0.00000E+00
         0.00000E+00
         0.00000E+00
         0.00000E+00
         0.00000E+00
         0.00000E+00
         0.00000E+00
         0.00000E+00
         0.00000E+00
         0.00000E+00
         0.00000E+00
         0.00000E+00
         0.00000E+00
         0.00000E+00
         0.00000E+00
         0.00000E+00
         0.00000E+00
         0.00000E+00
         0.00000E+00
         0.00000E+00
         0.00000E+00
         0.00000E+00
         0.00000E+00
         0.00000E+00
         0.00000E+00
         0.00000E+00
         0.00000E+00
         0.00000E+00
         0.00000E+00
         0.00000E+00
         0.00000E+00
         0.00000E+00
         0.00000E+00
         0.00000E+00
         0.00000E+00
         0.00000E+00
         0.00000E+00
         0.00000E+00
         0.00000E+00
         0.00000E+00
         0.00000E+00
         0.00000E+00
         0.00000E+00
         0.00000E+00
         0.00000E+00
         0.00000E+00
         0.00000E+00
         0.00000E+00
         0.00000E+00
         0.00000E+00
         0.00000E+00
         0.00000E+00
         0.00000E+00
         0.00000E+00
         0.00000E+00
         0.00000E+00
         0.00000E+00
         0.00000E+00
         0.00000E+00
         0.00000E+00
         0.00000E+00
         0.00000E+00
         0.00000E+00
         0.00000E+00
         0.00000E+00
         0.00000E+00
         0.00000E+00
         0.00000E+00
         0.00000E+00
         0.00000E+00
         0.00000E+00
         0.00000E+00
         0.00000E+00
         0.00000E+00
         0.00000E+00
         0.00000E+00
         0.00000E+00
         0.00000E+00
         0.00000E+00
         0.00000E+00
         0.00000E+00
         0.00000E+00
         0.00000E+00
         0.00000E+00
         0.00000E+00
         0.00000E+00
         0.00000E+00
         0.00000E+00
         0.00000E+00
         0.00000E+00
         0.00000E+00
         0.00000E+00
         0.00000E+00
         0.00000E+00
         0.00000E+00
         0.00000E+00
         0.00000E+00
         0.00000E+00
         0.00000E+00
         0.00000E+00
         0.00000E+00
         0.00000E+00
         0.00000E+00
         0.00000E+00
         0.00000E+00
         0.00000E+00
         0.00000E+00
         0.00000E+00
         0.00000E+00
         0.00000E+00
         0.00000E+00
         0.00000E+00
         0.00000E+00
         0.00000E+00
         0.00000E+00
         0.00000E+00
         0.00000E+00
         0.00000E+00
         0.00000E+00
         0.00000E+00
         0.00000E+00
         0.00000E+00
         0.00000E+00
         0.00000E+00
         0.00000E+00
         0.00000E+00
         0.00000E+00
         0.00000E+00
         0.00000E+00
         0.00000E+00
         0.00000E+00
         0.00000E+00
         0.00000E+00
         0.00000E+00
         0.00000E+00
         0.00000E+00
         0.00000E+00
         0.00000E+00
         0.00000E+00
         0.00000E+00
         0.00000E+00
         0.00000E+00
         0.00000E+00
         0.00000E+00
         0.00000E+00
         0.00000E+00
         0.00000E+00
         0.00000E+00
         0.00000E+00
         0.00000E+00
         0.00000E+00
         0.00000E+00
         0.00000E+00
         0.00000E+00
         0.00000E+00
         0.00000E+00
         0.00000E+00
         0.00000E+00
         0.00000E+00
         0.00000E+00
         0.00000E+00
         0.00000E+00
         0.00000E+00
         0.00000E+00
         0.00000E+00
         0.00000E+00
         0.00000E+00
         0.00000E+00
         0.00000E+00
         0.00000E+00
         0.00000E+00
         0.00000E+00
         0.00000E+00
         0.00000E+00
         0.00000E+00
         0.00000E+00
         0.00000E+00
         0.00000E+00
         0.00000E+00
         0.00000E+00
         0.00000E+00
         0.00000E+00
         0.00000E+00
         0.00000E+00
         0.00000E+00
         0.00000E+00
         0.00000E+00
         0.00000E+00
         0.00000E+00
         0.00000E+00
         0.00000E+00
         0.00000E+00
         0.00000E+00
         0.00000E+00
         0.00000E+00
         0.00000E+00
         0.00000E+00
         0.00000E+00
         0.00000E+00
         0.00000E+00
         0.00000E+00
         0.00000E+00
         0.00000E+00
         0.00000E+00
         0.00000E+00
         0.00000E+00
         0.00000E+00
         0.00000E+00
         0.00000E+00
         0.00000E+00
         0.00000E+00
         0.00000E+00
         0.00000E+00
         0.00000E+00
         0.00000E+00
         0.00000E+00
         0.00000E+00
         0.00000E+00
         0.00000E+00
         0.00000E+00
         0.00000E+00
         0.00000E+00
         0.00000E+00
         0.00000E+00
         0.00000E+00
         0.00000E+00
         0.00000E+00
         0.00000E+00
         0.00000E+00
         0.00000E+00
         0.00000E+00
         0.00000E+00
         0.00000E+00
         0.00000E+00
         0.00000E+00
         0.00000E+00
         0.00000E+00
         0.00000E+00
         0.00000E+00
         0.00000E+00
         0.00000E+00
         0.00000E+00
         0.00000E+00
         0.00000E+00
         0.00000E+00
         0.00000E+00
         0.00000E+00
         0.00000E+00
         0.00000E+00
         0.00000E+00
         0.00000E+00
         0.00000E+00
         0.00000E+00
         0.00000E+00
         0.00000E+00
         0.00000E+00
         0.00000E+00
         0.00000E+00
         0.00000E+00
         0.00000E+00
         0.00000E+00
         0.00000E+00
         0.00000E+00
         0.00000E+00
         0.00000E+00
         0.00000E+00
         0.00000E+00
         0.00000E+00
         0.00000E+00
         0.00000E+00
         0.00000E+00
         0.00000E+00
         0.00000E+00
         0.00000E+00
         0.00000E+00
         0.00000E+00
         0.00000E+00
         0.00000E+00
         0.00000E+00
         0.00000E+00
         0.00000E+00
         0.00000E+00
         0.00000E+00
         0.00000E+00
         0.00000E+00
         0.00000E+00
         0.00000E+00
         0.00000E+00
         0.00000E+00
         0.00000E+00
         0.00000E+00
         0.00000E+00
         0.00000E+00
         0.00000E+00
  
SCALARS                   max_wave_vel  double 1
LOOKUP_TABLE default
         0.00000E+00
         0.00000E+00
         0.00000E+00
         0.00000E+00
         0.00000E+00
         0.00000E+00
         0.00000E+00
         0.00000E+00
         0.00000E+00
         0.00000E+00
         0.00000E+00
         0.00000E+00
         0.00000E+00
         0.00000E+00
         0.00000E+00
         0.00000E+00
         0.00000E+00
         0.00000E+00
         0.00000E+00
         0.00000E+00
         0.00000E+00
         0.00000E+00
         0.00000E+00
         0.00000E+00
         0.00000E+00
         0.00000E+00
         0.00000E+00
         0.00000E+00
         0.00000E+00
         0.00000E+00
         0.00000E+00
         0.00000E+00
         0.00000E+00
         0.00000E+00
         0.00000E+00
         0.00000E+00
         0.00000E+00
         0.00000E+00
         0.00000E+00
         0.00000E+00
         0.00000E+00
         0.00000E+00
         0.00000E+00
         0.00000E+00
         0.00000E+00
         0.00000E+00
         0.00000E+00
         0.00000E+00
         0.00000E+00
         0.00000E+00
         0.00000E+00
         0.00000E+00
         0.00000E+00
         0.00000E+00
         0.00000E+00
         0.00000E+00
         0.00000E+00
         0.00000E+00
         0.00000E+00
         0.00000E+00
         0.00000E+00
         0.00000E+00
         0.00000E+00
         0.00000E+00
         0.00000E+00
         0.00000E+00
         0.00000E+00
         0.00000E+00
         0.00000E+00
         0.00000E+00
         0.00000E+00
         0.00000E+00
         0.00000E+00
         0.00000E+00
         0.00000E+00
         0.00000E+00
         0.00000E+00
         0.00000E+00
         0.00000E+00
         0.00000E+00
         0.00000E+00
         0.00000E+00
         0.00000E+00
         0.00000E+00
         0.00000E+00
         0.00000E+00
         0.00000E+00
         0.00000E+00
         0.00000E+00
         0.00000E+00
         0.00000E+00
         0.00000E+00
         0.00000E+00
         0.00000E+00
         0.00000E+00
         0.00000E+00
         0.00000E+00
         0.00000E+00
         0.00000E+00
         0.00000E+00
         0.00000E+00
         0.00000E+00
         0.00000E+00
         0.00000E+00
         0.00000E+00
         0.00000E+00
         0.00000E+00
         0.00000E+00
         0.00000E+00
         0.00000E+00
         0.00000E+00
         0.00000E+00
         0.00000E+00
         0.00000E+00
         0.00000E+00
         0.00000E+00
         0.00000E+00
         0.00000E+00
         0.00000E+00
         0.00000E+00
         0.00000E+00
         0.00000E+00
         0.00000E+00
         0.00000E+00
         0.00000E+00
         0.00000E+00
         0.00000E+00
         0.00000E+00
         0.00000E+00
         0.00000E+00
         0.00000E+00
         0.00000E+00
         0.00000E+00
         0.00000E+00
         0.00000E+00
         0.00000E+00
         0.00000E+00
         0.00000E+00
         0.00000E+00
         0.00000E+00
         0.00000E+00
         0.00000E+00
         0.00000E+00
         0.00000E+00
         0.00000E+00
         0.00000E+00
         0.00000E+00
         0.00000E+00
         0.00000E+00
         0.00000E+00
         0.00000E+00
         0.00000E+00
         0.00000E+00
         0.00000E+00
         0.00000E+00
         0.00000E+00
         0.00000E+00
         0.00000E+00
         0.00000E+00
         0.00000E+00
         0.00000E+00
         0.00000E+00
         0.00000E+00
         0.00000E+00
         0.00000E+00
         0.00000E+00
         0.00000E+00
         0.00000E+00
         0.00000E+00
         0.00000E+00
         0.00000E+00
         0.00000E+00
         0.00000E+00
         0.00000E+00
         0.00000E+00
         0.00000E+00
         0.00000E+00
         0.00000E+00
         0.00000E+00
         0.00000E+00
         0.00000E+00
         0.00000E+00
         0.00000E+00
         0.00000E+00
         0.00000E+00
         0.00000E+00
         0.00000E+00
         0.00000E+00
         0.00000E+00
         0.00000E+00
         0.00000E+00
         0.00000E+00
         0.00000E+00
         0.00000E+00
         0.00000E+00
         0.00000E+00
         0.00000E+00
         0.00000E+00
         0.00000E+00
         0.00000E+00
         0.00000E+00
         0.00000E+00
         0.00000E+00
         0.00000E+00
         0.00000E+00
         0.00000E+00
         0.00000E+00
         0.00000E+00
         0.00000E+00
         0.00000E+00
         0.00000E+00
         0.00000E+00
         0.00000E+00
         0.00000E+00
         0.00000E+00
         0.00000E+00
         0.00000E+00
         0.00000E+00
         0.00000E+00
         0.00000E+00
         0.00000E+00
         0.00000E+00
         0.00000E+00
         0.00000E+00
         0.00000E+00
         0.00000E+00
         0.00000E+00
         0.00000E+00
         0.00000E+00
         0.00000E+00
         0.00000E+00
         0.00000E+00
         0.00000E+00
         0.00000E+00
         0.00000E+00
         0.00000E+00
         0.00000E+00
         0.00000E+00
         0.00000E+00
         0.00000E+00
         0.00000E+00
         0.00000E+00
         0.00000E+00
         0.00000E+00
         0.00000E+00
         0.00000E+00
         0.00000E+00
         0.00000E+00
         0.00000E+00
         0.00000E+00
         0.00000E+00
         0.00000E+00
         0.00000E+00
         0.00000E+00
         0.00000E+00
         0.00000E+00
         0.00000E+00
         0.00000E+00
         0.00000E+00
         0.00000E+00
         0.00000E+00
         0.00000E+00
         0.00000E+00
         0.00000E+00
         0.00000E+00
         0.00000E+00
         0.00000E+00
         0.00000E+00
         0.00000E+00
         0.00000E+00
         0.00000E+00
         0.00000E+00
         0.00000E+00
         0.00000E+00
         0.00000E+00
         0.00000E+00
         0.00000E+00
         0.00000E+00
         0.00000E+00
         0.00000E+00
         0.00000E+00
         0.00000E+00
         0.00000E+00
         0.00000E+00
         0.00000E+00
         0.00000E+00
         0.00000E+00
         0.00000E+00
         0.00000E+00
         0.00000E+00
         0.00000E+00
         0.00000E+00
         0.00000E+00
         0.00000E+00
         0.00000E+00
         0.00000E+00
         0.00000E+00
         0.00000E+00
         0.00000E+00
         0.00000E+00
         0.00000E+00
         0.00000E+00
         0.00000E+00
         0.00000E+00
         0.00000E+00
         0.00000E+00
         0.00000E+00
         0.00000E+00
         0.00000E+00
         0.00000E+00
         0.00000E+00
         0.00000E+00
         0.00000E+00
         0.00000E+00
         0.00000E+00
         0.00000E+00
         0.00000E+00
         0.00000E+00
         0.00000E+00
         0.00000E+00
         0.00000E+00
         0.00000E+00
         0.00000E+00
         0.00000E+00
         0.00000E+00
         0.00000E+00
         0.00000E+00
         0.00000E+00
         0.00000E+00
         0.00000E+00
         0.00000E+00
         0.00000E+00
         0.00000E+00
         0.00000E+00
         0.00000E+00
         0.00000E+00
         0.00000E+00
         0.00000E+00
         0.00000E+00
         0.00000E+00
         0.00000E+00
         0.00000E+00
         0.00000E+00
         0.00000E+00
         0.00000E+00
         0.00000E+00
         0.00000E+00
         0.00000E+00
         0.00000E+00
         0.00000E+00
         0.00000E+00
         0.00000E+00
         0.00000E+00
         0.00000E+00
         0.00000E+00
         0.00000E+00
         0.00000E+00
         0.00000E+00
         0.00000E+00
         0.00000E+00
         0.00000E+00
         0.00000E+00
         0.00000E+00
         0.00000E+00
         0.00000E+00
         0.00000E+00
         0.00000E+00
         0.00000E+00
         0.00000E+00
         0.00000E+00
         0.00000E+00
         0.00000E+00
         0.00000E+00
         0.00000E+00
         0.00000E+00
         0.00000E+00
         0.00000E+00
         0.00000E+00
         0.00000E+00
         0.00000E+00
         0.00000E+00
         0.00000E+00
         0.00000E+00
         0.00000E+00
         0.00000E+00
         0.00000E+00
         0.00000E+00
         0.00000E+00
         0.00000E+00
         0.00000E+00
         0.00000E+00
         0.00000E+00
         0.00000E+00
         0.00000E+00
         0.00000E+00
         0.00000E+00
         0.00000E+00
         0.00000E+00
         0.00000E+00
         0.00000E+00
         0.00000E+00
         0.00000E+00
         0.00000E+00
         0.00000E+00
         0.00000E+00
         0.00000E+00
         0.00000E+00
         0.00000E+00
         0.00000E+00
         0.00000E+00
         0.00000E+00
         0.00000E+00
         0.00000E+00
         0.00000E+00
         0.00000E+00
         0.00000E+00
         0.00000E+00
         0.00000E+00
         0.00000E+00
         0.00000E+00
         0.00000E+00
         0.00000E+00
         0.00000E+00
         0.00000E+00
         0.00000E+00
         0.00000E+00
         0.00000E+00
         0.00000E+00
         0.00000E+00
         0.00000E+00
         0.00000E+00
         0.00000E+00
         0.00000E+00
         0.00000E+00
         0.00000E+00
         0.00000E+00
         0.00000E+00
         0.00000E+00
         0.00000E+00
         0.00000E+00
         0.00000E+00
         0.00000E+00
         0.00000E+00
         0.00000E+00
         0.00000E+00
         0.00000E+00
         0.00000E+00
         0.00000E+00
         0.00000E+00
         0.00000E+00
         0.00000E+00
         0.00000E+00
         0.00000E+00
         0.00000E+00
         0.00000E+00
         0.00000E+00
         0.00000E+00
         0.00000E+00
         0.00000E+00
         0.00000E+00
         0.00000E+00
         0.00000E+00
         0.00000E+00
         0.00000E+00
         0.00000E+00
         0.00000E+00
         0.00000E+00
         0.00000E+00
         0.00000E+00
         0.00000E+00
         0.00000E+00
         0.00000E+00
         0.00000E+00
         0.00000E+00
         0.00000E+00
         0.00000E+00
         0.00000E+00
         0.00000E+00
         0.00000E+00
         0.00000E+00
         0.00000E+00
         0.00000E+00
         0.00000E+00
         0.00000E+00
         0.00000E+00
         0.00000E+00
         0.00000E+00
         0.00000E+00
         0.00000E+00
         0.00000E+00
         0.00000E+00
         0.00000E+00
         0.00000E+00
         0.00000E+00
         0.00000E+00
         0.00000E+00
         0.00000E+00
         0.00000E+00
         0.00000E+00
         0.00000E+00
         0.00000E+00
         0.00000E+00
         0.00000E+00
         0.00000E+00
         0.00000E+00
         0.00000E+00
         0.00000E+00
         0.00000E+00
         0.00000E+00
         0.00000E+00
         0.00000E+00
         0.00000E+00
         0.00000E+00
         0.00000E+00
         0.00000E+00
         0.00000E+00
         0.00000E+00
         0.00000E+00
         0.00000E+00
         0.00000E+00
         0.00000E+00
         0.00000E+00
         0.00000E+00
         0.00000E+00
         0.00000E+00
         0.00000E+00
         0.00000E+00
         0.00000E+00
         0.00000E+00
         0.00000E+00
         0.00000E+00
         0.00000E+00
         0.00000E+00
         0.00000E+00
         0.00000E+00
         0.00000E+00
         0.00000E+00
         0.00000E+00
         0.00000E+00
         0.00000E+00
         0.00000E+00
         0.00000E+00
         0.00000E+00
         0.00000E+00
         0.00000E+00
         0.00000E+00
         0.00000E+00
         0.00000E+00
         0.00000E+00
         0.00000E+00
         0.00000E+00
         0.00000E+00
         0.00000E+00
         0.00000E+00
         0.00000E+00
         0.00000E+00
         0.00000E+00
         0.00000E+00
         0.00000E+00
         0.00000E+00
         0.00000E+00
         0.00000E+00
         0.00000E+00
         0.00000E+00
         0.00000E+00
         0.00000E+00
         0.00000E+00
         0.00000E+00
         0.00000E+00
         0.00000E+00
         0.00000E+00
         0.00000E+00
         0.00000E+00
         0.00000E+00
         0.00000E+00
         0.00000E+00
         0.00000E+00
         0.00000E+00
         0.00000E+00
         0.00000E+00
         0.00000E+00
         0.00000E+00
         0.00000E+00
         0.00000E+00
         0.00000E+00
         0.00000E+00
         0.00000E+00
         0.00000E+00
         0.00000E+00
         0.00000E+00
         0.00000E+00
         0.00000E+00
         0.00000E+00
         0.00000E+00
         0.00000E+00
         0.00000E+00
         0.00000E+00
         0.00000E+00
         0.00000E+00
         0.00000E+00
         0.00000E+00
         0.00000E+00
         0.00000E+00
         0.00000E+00
         0.00000E+00
         0.00000E+00
         0.00000E+00
         0.00000E+00
         0.00000E+00
         0.00000E+00
         0.00000E+00
         0.00000E+00
         0.00000E+00
         0.00000E+00
         0.00000E+00
         0.00000E+00
         0.00000E+00
         0.00000E+00
         0.00000E+00
         0.00000E+00
         0.00000E+00
         0.00000E+00
         0.00000E+00
         0.00000E+00
         0.00000E+00
         0.00000E+00
         0.00000E+00
         0.00000E+00
         0.00000E+00
         0.00000E+00
         0.00000E+00
         0.00000E+00
         0.00000E+00
         0.00000E+00
         0.00000E+00
         0.00000E+00
         0.00000E+00
         0.00000E+00
         0.00000E+00
         0.00000E+00
         0.00000E+00
         0.00000E+00
         0.00000E+00
         0.00000E+00
         0.00000E+00
         0.00000E+00
         0.00000E+00
         0.00000E+00
         0.00000E+00
         0.00000E+00
         0.00000E+00
         0.00000E+00
         0.00000E+00
         0.00000E+00
         0.00000E+00
         0.00000E+00
         0.00000E+00
         0.00000E+00
         0.00000E+00
         0.00000E+00
         0.00000E+00
         0.00000E+00
         0.00000E+00
         0.00000E+00
         0.00000E+00
         0.00000E+00
         0.00000E+00
         0.00000E+00
         0.00000E+00
         0.00000E+00
         0.00000E+00
         0.00000E+00
         0.00000E+00
         0.00000E+00
         0.00000E+00
         0.00000E+00
         0.00000E+00
         0.00000E+00
         0.00000E+00
         0.00000E+00
         0.00000E+00
         0.00000E+00
         0.00000E+00
         0.00000E+00
         0.00000E+00
         0.00000E+00
         0.00000E+00
         0.00000E+00
         0.00000E+00
         0.00000E+00
         0.00000E+00
         0.00000E+00
         0.00000E+00
         0.00000E+00
         0.00000E+00
         0.00000E+00
         0.00000E+00
         0.00000E+00
         0.00000E+00
         0.00000E+00
         0.00000E+00
         0.00000E+00
         0.00000E+00
         0.00000E+00
         0.00000E+00
         0.00000E+00
         0.00000E+00
         0.00000E+00
         0.00000E+00
         0.00000E+00
         0.00000E+00
         0.00000E+00
         0.00000E+00
         0.00000E+00
         0.00000E+00
         0.00000E+00
         0.00000E+00
         0.00000E+00
         0.00000E+00
         0.00000E+00
         0.00000E+00
         0.00000E+00
         0.00000E+00
         0.00000E+00
         0.00000E+00
         0.00000E+00
         0.00000E+00
         0.00000E+00
         0.00000E+00
         0.00000E+00
         0.00000E+00
         0.00000E+00
         0.00000E+00
         0.00000E+00
         0.00000E+00
         0.00000E+00
         0.00000E+00
         0.00000E+00
         0.00000E+00
         0.00000E+00
         0.00000E+00
         0.00000E+00
         0.00000E+00
         0.00000E+00
         0.00000E+00
         0.00000E+00
         0.00000E+00
         0.00000E+00
         0.00000E+00
         0.00000E+00
         0.00000E+00
         0.00000E+00
         0.00000E+00
         0.00000E+00
         0.00000E+00
         0.00000E+00
         0.00000E+00
         0.00000E+00
         0.00000E+00
         0.00000E+00
         0.00000E+00
         0.00000E+00
         0.00000E+00
         0.00000E+00
         0.00000E+00
         0.00000E+00
         0.00000E+00
         0.00000E+00
         0.00000E+00
         0.00000E+00
         0.00000E+00
         0.00000E+00
         0.00000E+00
         0.00000E+00
         0.00000E+00
         0.00000E+00
         0.00000E+00
         0.00000E+00
         0.00000E+00
         0.00000E+00
         0.00000E+00
         0.00000E+00
         0.00000E+00
         0.00000E+00
         0.00000E+00
         0.00000E+00
         0.00000E+00
         0.00000E+00
         0.00000E+00
         0.00000E+00
         0.00000E+00
         0.00000E+00
         0.00000E+00
         0.00000E+00
         0.00000E+00
         0.00000E+00
         0.00000E+00
         0.00000E+00
         0.00000E+00
         0.00000E+00
         0.00000E+00
         0.00000E+00
         0.00000E+00
         0.00000E+00
         0.00000E+00
         0.00000E+00
         0.00000E+00
         0.00000E+00
         0.00000E+00
         0.00000E+00
         0.00000E+00
         0.00000E+00
         0.00000E+00
         0.00000E+00
         0.00000E+00
         0.00000E+00
         0.00000E+00
         0.00000E+00
         0.00000E+00
         0.00000E+00
         0.00000E+00
         0.00000E+00
         0.00000E+00
         0.00000E+00
         0.00000E+00
         0.00000E+00
         0.00000E+00
         0.00000E+00
         0.00000E+00
         0.00000E+00
         0.00000E+00
         0.00000E+00
         0.00000E+00
         0.00000E+00
         0.00000E+00
         0.00000E+00
         0.00000E+00
         0.00000E+00
         0.00000E+00
         0.00000E+00
         0.00000E+00
         0.00000E+00
         0.00000E+00
         0.00000E+00
         0.00000E+00
         0.00000E+00
         0.00000E+00
         0.00000E+00
         0.00000E+00
         0.00000E+00
         0.00000E+00
         0.00000E+00
         0.00000E+00
         0.00000E+00
         0.00000E+00
         0.00000E+00
         0.00000E+00
         0.00000E+00
         0.00000E+00
         0.00000E+00
         0.00000E+00
         0.00000E+00
         0.00000E+00
         0.00000E+00
         0.00000E+00
         0.00000E+00
         0.00000E+00
         0.00000E+00
         0.00000E+00
         0.00000E+00
         0.00000E+00
         0.00000E+00
         0.00000E+00
         0.00000E+00
         0.00000E+00
         0.00000E+00
         0.00000E+00
         0.00000E+00
         0.00000E+00
         0.00000E+00
         0.00000E+00
         0.00000E+00
         0.00000E+00
         0.00000E+00
         0.00000E+00
         0.00000E+00
         0.00000E+00
         0.00000E+00
         0.00000E+00
         0.00000E+00
         0.00000E+00
         0.00000E+00
         0.00000E+00
         0.00000E+00
         0.00000E+00
         0.00000E+00
         0.00000E+00
         0.00000E+00
         0.00000E+00
         0.00000E+00
         0.00000E+00
         0.00000E+00
         0.00000E+00
         0.00000E+00
         0.00000E+00
         0.00000E+00
         0.00000E+00
         0.00000E+00
         0.00000E+00
         0.00000E+00
         0.00000E+00
         0.00000E+00
         0.00000E+00
         0.00000E+00
         0.00000E+00
         0.00000E+00
         0.00000E+00
         0.00000E+00
         0.00000E+00
         0.00000E+00
         0.00000E+00
         0.00000E+00
         0.00000E+00
         0.00000E+00
         0.00000E+00
         0.00000E+00
         0.00000E+00
         0.00000E+00
         0.00000E+00
         0.00000E+00
         0.00000E+00
         0.00000E+00
         0.00000E+00
         0.00000E+00
         0.00000E+00
         0.00000E+00
         0.00000E+00
         0.00000E+00
         0.00000E+00
         0.00000E+00
         0.00000E+00
         0.00000E+00
         0.00000E+00
         0.00000E+00
         0.00000E+00
         0.00000E+00
         0.00000E+00
         0.00000E+00
         0.00000E+00
         0.00000E+00
         0.00000E+00
         0.00000E+00
         0.00000E+00
         0.00000E+00
         0.00000E+00
         0.00000E+00
         0.00000E+00
         0.00000E+00
         0.00000E+00
         0.00000E+00
         0.00000E+00
         0.00000E+00
         0.00000E+00
         0.00000E+00
         0.00000E+00
         0.00000E+00
         0.00000E+00
         0.00000E+00
         0.00000E+00
         0.00000E+00
         0.00000E+00
         0.00000E+00
         0.00000E+00
         0.00000E+00
         0.00000E+00
         0.00000E+00
         0.00000E+00
         0.00000E+00
         0.00000E+00
         0.00000E+00
         0.00000E+00
         0.00000E+00
         0.00000E+00
         0.00000E+00
         0.00000E+00
         0.00000E+00
         0.00000E+00
         0.00000E+00
         0.00000E+00
         0.00000E+00
         0.00000E+00
         0.00000E+00
         0.00000E+00
         0.00000E+00
         0.00000E+00
         0.00000E+00
         0.00000E+00
         0.00000E+00
         0.00000E+00
         0.00000E+00
         0.00000E+00
         0.00000E+00
         0.00000E+00
         0.00000E+00
         0.00000E+00
         0.00000E+00
         0.00000E+00
         0.00000E+00
         0.00000E+00
         0.00000E+00
         0.00000E+00
         0.00000E+00
         0.00000E+00
         0.00000E+00
         0.00000E+00
         0.00000E+00
         0.00000E+00
         0.00000E+00
         0.00000E+00
         0.00000E+00
         0.00000E+00
         0.00000E+00
         0.00000E+00
         0.00000E+00
         0.00000E+00
         0.00000E+00
         0.00000E+00
         0.00000E+00
         0.00000E+00
         0.00000E+00
         0.00000E+00
         0.00000E+00
         0.00000E+00
         0.00000E+00
         0.00000E+00
         0.00000E+00
         0.00000E+00
         0.00000E+00
         0.00000E+00
         0.00000E+00
         0.00000E+00
         0.00000E+00
         0.00000E+00
         0.00000E+00
         0.00000E+00
         0.00000E+00
         0.00000E+00
         0.00000E+00
         0.00000E+00
         0.00000E+00
         0.00000E+00
         0.00000E+00
         0.00000E+00
         0.00000E+00
         0.00000E+00
         0.00000E+00
         0.00000E+00
         0.00000E+00
         0.00000E+00
         0.00000E+00
         0.00000E+00
         0.00000E+00
         0.00000E+00
         0.00000E+00
         0.00000E+00
         0.00000E+00
         0.00000E+00
         0.00000E+00
         0.00000E+00
         0.00000E+00
         0.00000E+00
         0.00000E+00
         0.00000E+00
         0.00000E+00
         0.00000E+00
         0.00000E+00
         0.00000E+00
         0.00000E+00
         0.00000E+00
         0.00000E+00
         0.00000E+00
         0.00000E+00
         0.00000E+00
         0.00000E+00
         0.00000E+00
         0.00000E+00
         0.00000E+00
         0.00000E+00
         0.00000E+00
         0.00000E+00
         0.00000E+00
         0.00000E+00
         0.00000E+00
         0.00000E+00
         0.00000E+00
         0.00000E+00
         0.00000E+00
         0.00000E+00
         0.00000E+00
         0.00000E+00
         0.00000E+00
         0.00000E+00
         0.00000E+00
         0.00000E+00
         0.00000E+00
         0.00000E+00
         0.00000E+00
         0.00000E+00
         0.00000E+00
         0.00000E+00
         0.00000E+00
         0.00000E+00
         0.00000E+00
         0.00000E+00
         0.00000E+00
         0.00000E+00
         0.00000E+00
         0.00000E+00
         0.00000E+00
         0.00000E+00
         0.00000E+00
         0.00000E+00
         0.00000E+00
         0.00000E+00
         0.00000E+00
         0.00000E+00
         0.00000E+00
         0.00000E+00
         0.00000E+00
         0.00000E+00
         0.00000E+00
         0.00000E+00
         0.00000E+00
         0.00000E+00
         0.00000E+00
         0.00000E+00
         0.00000E+00
         0.00000E+00
         0.00000E+00
         0.00000E+00
         0.00000E+00
         0.00000E+00
         0.00000E+00
         0.00000E+00
         0.00000E+00
         0.00000E+00
         0.00000E+00
         0.00000E+00
         0.00000E+00
         0.00000E+00
         0.00000E+00
         0.00000E+00
         0.00000E+00
         0.00000E+00
         0.00000E+00
         0.00000E+00
         0.00000E+00
         0.00000E+00
         0.00000E+00
         0.00000E+00
         0.00000E+00
         0.00000E+00
         0.00000E+00
         0.00000E+00
         0.00000E+00
         0.00000E+00
         0.00000E+00
         0.00000E+00
         0.00000E+00
         0.00000E+00
         0.00000E+00
         0.00000E+00
         0.00000E+00
         0.00000E+00
         0.00000E+00
         0.00000E+00
         0.00000E+00
         0.00000E+00
         0.00000E+00
         0.00000E+00
         0.00000E+00
         0.00000E+00
         0.00000E+00
         0.00000E+00
         0.00000E+00
         0.00000E+00
         0.00000E+00
         0.00000E+00
         0.00000E+00
         0.00000E+00
         0.00000E+00
         0.00000E+00
         0.00000E+00
         0.00000E+00
         0.00000E+00
         0.00000E+00
         0.00000E+00
         0.00000E+00
         0.00000E+00
         0.00000E+00
         0.00000E+00
         0.00000E+00
         0.00000E+00
         0.00000E+00
         0.00000E+00
         0.00000E+00
         0.00000E+00
         0.00000E+00
         0.00000E+00
         0.00000E+00
         0.00000E+00
         0.00000E+00
         0.00000E+00
         0.00000E+00
         0.00000E+00
         0.00000E+00
         0.00000E+00
         0.00000E+00
         0.00000E+00
         0.00000E+00
         0.00000E+00
         0.00000E+00
         0.00000E+00
         0.00000E+00
         0.00000E+00
         0.00000E+00
         0.00000E+00
         0.00000E+00
         0.00000E+00
         0.00000E+00
         0.00000E+00
         0.00000E+00
         0.00000E+00
         0.00000E+00
         0.00000E+00
         0.00000E+00
         0.00000E+00
         0.00000E+00
         0.00000E+00
         0.00000E+00
         0.00000E+00
         0.00000E+00
         0.00000E+00
         0.00000E+00
         0.00000E+00
         0.00000E+00
         0.00000E+00
         0.00000E+00
         0.00000E+00
         0.00000E+00
         0.00000E+00
         0.00000E+00
         0.00000E+00
         0.00000E+00
         0.00000E+00
         0.00000E+00
         0.00000E+00
         0.00000E+00
         0.00000E+00
         0.00000E+00
         0.00000E+00
         0.00000E+00
         0.00000E+00
         0.00000E+00
         0.00000E+00
         0.00000E+00
         0.00000E+00
         0.00000E+00
         0.00000E+00
         0.00000E+00
         0.00000E+00
         0.00000E+00
         0.00000E+00
         0.00000E+00
         0.00000E+00
         0.00000E+00
         0.00000E+00
         0.00000E+00
         0.00000E+00
         0.00000E+00
         0.00000E+00
         0.00000E+00
         0.00000E+00
         0.00000E+00
         0.00000E+00
         0.00000E+00
         0.00000E+00
         0.00000E+00
         0.00000E+00
         0.00000E+00
         0.00000E+00
         0.00000E+00
         0.00000E+00
         0.00000E+00
         0.00000E+00
         0.00000E+00
         0.00000E+00
         0.00000E+00
         0.00000E+00
         0.00000E+00
         0.00000E+00
         0.00000E+00
         0.00000E+00
         0.00000E+00
         0.00000E+00
         0.00000E+00
         0.00000E+00
         0.00000E+00
         0.00000E+00
         0.00000E+00
         0.00000E+00
         0.00000E+00
         0.00000E+00
         0.00000E+00
         0.00000E+00
         0.00000E+00
         0.00000E+00
         0.00000E+00
         0.00000E+00
         0.00000E+00
         0.00000E+00
         0.00000E+00
         0.00000E+00
         0.00000E+00
         0.00000E+00
         0.00000E+00
         0.00000E+00
         0.00000E+00
         0.00000E+00
         0.00000E+00
         0.00000E+00
         0.00000E+00
         0.00000E+00
         0.00000E+00
         0.00000E+00
         0.00000E+00
         0.00000E+00
         0.00000E+00
         0.00000E+00
         0.00000E+00
         0.00000E+00
         0.00000E+00
         0.00000E+00
         0.00000E+00
         0.00000E+00
         0.00000E+00
         0.00000E+00
         0.00000E+00
         0.00000E+00
         0.00000E+00
         0.00000E+00
         0.00000E+00
         0.00000E+00
         0.00000E+00
         0.00000E+00
         0.00000E+00
         0.00000E+00
         0.00000E+00
         0.00000E+00
         0.00000E+00
         0.00000E+00
         0.00000E+00
         0.00000E+00
         0.00000E+00
         0.00000E+00
         0.00000E+00
         0.00000E+00
         0.00000E+00
         0.00000E+00
         0.00000E+00
         0.00000E+00
         0.00000E+00
         0.00000E+00
         0.00000E+00
         0.00000E+00
         0.00000E+00
         0.00000E+00
         0.00000E+00
         0.00000E+00
         0.00000E+00
         0.00000E+00
         0.00000E+00
         0.00000E+00
         0.00000E+00
         0.00000E+00
         0.00000E+00
         0.00000E+00
         0.00000E+00
         0.00000E+00
         0.00000E+00
         0.00000E+00
         0.00000E+00
         0.00000E+00
         0.00000E+00
         0.00000E+00
         0.00000E+00
         0.00000E+00
         0.00000E+00
         0.00000E+00
         0.00000E+00
         0.00000E+00
         0.00000E+00
         0.00000E+00
         0.00000E+00
         0.00000E+00
         0.00000E+00
         0.00000E+00
         0.00000E+00
         0.00000E+00
         0.00000E+00
         0.00000E+00
         0.00000E+00
         0.00000E+00
         0.00000E+00
         0.00000E+00
         0.00000E+00
         0.00000E+00
         0.00000E+00
         0.00000E+00
         0.00000E+00
         0.00000E+00
         0.00000E+00
         0.00000E+00
         0.00000E+00
         0.00000E+00
         0.00000E+00
         0.00000E+00
         0.00000E+00
         0.00000E+00
         0.00000E+00
         0.00000E+00
         0.00000E+00
         0.00000E+00
         0.00000E+00
         0.00000E+00
         0.00000E+00
         0.00000E+00
         0.00000E+00
         0.00000E+00
         0.00000E+00
         0.00000E+00
         0.00000E+00
         0.00000E+00
         0.00000E+00
         0.00000E+00
         0.00000E+00
         0.00000E+00
         0.00000E+00
         0.00000E+00
         0.00000E+00
         0.00000E+00
         0.00000E+00
         0.00000E+00
         0.00000E+00
         0.00000E+00
         0.00000E+00
         0.00000E+00
         0.00000E+00
         0.00000E+00
         0.00000E+00
         0.00000E+00
         0.00000E+00
         0.00000E+00
         0.00000E+00
         0.00000E+00
         0.00000E+00
         0.00000E+00
         0.00000E+00
         0.00000E+00
         0.00000E+00
         0.00000E+00
         0.00000E+00
         0.00000E+00
         0.00000E+00
         0.00000E+00
         0.00000E+00
         0.00000E+00
         0.00000E+00
         0.00000E+00
         0.00000E+00
         0.00000E+00
         0.00000E+00
         0.00000E+00
         0.00000E+00
         0.00000E+00
         0.00000E+00
         0.00000E+00
         0.00000E+00
         0.00000E+00
         0.00000E+00
         0.00000E+00
         0.00000E+00
         0.00000E+00
         0.00000E+00
         0.00000E+00
         0.00000E+00
         0.00000E+00
         0.00000E+00
         0.00000E+00
         0.00000E+00
         0.00000E+00
         0.00000E+00
         0.00000E+00
         0.00000E+00
         0.00000E+00
         0.00000E+00
         0.00000E+00
         0.00000E+00
         0.00000E+00
         0.00000E+00
         0.00000E+00
         0.00000E+00
         0.00000E+00
         0.00000E+00
         0.00000E+00
         0.00000E+00
         0.00000E+00
         0.00000E+00
         0.00000E+00
         0.00000E+00
         0.00000E+00
         0.00000E+00
         0.00000E+00
         0.00000E+00
         0.00000E+00
         0.00000E+00
         0.00000E+00
         0.00000E+00
         0.00000E+00
         0.00000E+00
         0.00000E+00
         0.00000E+00
         0.00000E+00
         0.00000E+00
         0.00000E+00
         0.00000E+00
         0.00000E+00
         0.00000E+00
         0.00000E+00
         0.00000E+00
         0.00000E+00
         0.00000E+00
         0.00000E+00
         0.00000E+00
         0.00000E+00
         0.00000E+00
         0.00000E+00
         0.00000E+00
         0.00000E+00
         0.00000E+00
         0.00000E+00
         0.00000E+00
         0.00000E+00
         0.00000E+00
         0.00000E+00
         0.00000E+00
         0.00000E+00
         0.00000E+00
         0.00000E+00
         0.00000E+00
         0.00000E+00
         0.00000E+00
         0.00000E+00
         0.00000E+00
         0.00000E+00
         0.00000E+00
         0.00000E+00
         0.00000E+00
         0.00000E+00
         0.00000E+00
         0.00000E+00
         0.00000E+00
         0.00000E+00
         0.00000E+00
         0.00000E+00
         0.00000E+00
         0.00000E+00
         0.00000E+00
         0.00000E+00
         0.00000E+00
         0.00000E+00
         0.00000E+00
         0.00000E+00
         0.00000E+00
         0.00000E+00
         0.00000E+00
         0.00000E+00
         0.00000E+00
         0.00000E+00
         0.00000E+00
         0.00000E+00
         0.00000E+00
         0.00000E+00
         0.00000E+00
         0.00000E+00
         0.00000E+00
         0.00000E+00
         0.00000E+00
         0.00000E+00
         0.00000E+00
         0.00000E+00
         0.00000E+00
         0.00000E+00
         0.00000E+00
         0.00000E+00
         0.00000E+00
         0.00000E+00
         0.00000E+00
         0.00000E+00
         0.00000E+00
         0.00000E+00
         0.00000E+00
         0.00000E+00
         0.00000E+00
         0.00000E+00
         0.00000E+00
         0.00000E+00
         0.00000E+00
         0.00000E+00
         0.00000E+00
         0.00000E+00
         0.00000E+00
         0.00000E+00
         0.00000E+00
         0.00000E+00
         0.00000E+00
         0.00000E+00
         0.00000E+00
         0.00000E+00
         0.00000E+00
         0.00000E+00
         0.00000E+00
         0.00000E+00
         0.00000E+00
         0.00000E+00
         0.00000E+00
         0.00000E+00
         0.00000E+00
         0.00000E+00
         0.00000E+00
         0.00000E+00
         0.00000E+00
         0.00000E+00
         0.00000E+00
         0.00000E+00
         0.00000E+00
         0.00000E+00
         0.00000E+00
         0.00000E+00
         0.00000E+00
         0.00000E+00
         0.00000E+00
         0.00000E+00
         0.00000E+00
         0.00000E+00
         0.00000E+00
         0.00000E+00
         0.00000E+00
         0.00000E+00
         0.00000E+00
         0.00000E+00
         0.00000E+00
         0.00000E+00
         0.00000E+00
         0.00000E+00
         0.00000E+00
         0.00000E+00
         0.00000E+00
         0.00000E+00
         0.00000E+00
         0.00000E+00
         0.00000E+00
         0.00000E+00
         0.00000E+00
         0.00000E+00
         0.00000E+00
         0.00000E+00
         0.00000E+00
         0.00000E+00
         0.00000E+00
         0.00000E+00
         0.00000E+00
         0.00000E+00
         0.00000E+00
         0.00000E+00
         0.00000E+00
         0.00000E+00
         0.00000E+00
         0.00000E+00
         0.00000E+00
         0.00000E+00
         0.00000E+00
         0.00000E+00
         0.00000E+00
         0.00000E+00
         0.00000E+00
         0.00000E+00
         0.00000E+00
         0.00000E+00
         0.00000E+00
         0.00000E+00
         0.00000E+00
         0.00000E+00
         0.00000E+00
         0.00000E+00
         0.00000E+00
         0.00000E+00
         0.00000E+00
         0.00000E+00
         0.00000E+00
         0.00000E+00
         0.00000E+00
         0.00000E+00
         0.00000E+00
         0.00000E+00
         0.00000E+00
         0.00000E+00
         0.00000E+00
         0.00000E+00
         0.00000E+00
         0.00000E+00
         0.00000E+00
         0.00000E+00
         0.00000E+00
         0.00000E+00
         0.00000E+00
         0.00000E+00
         0.00000E+00
         0.00000E+00
         0.00000E+00
         0.00000E+00
         0.00000E+00
         0.00000E+00
         0.00000E+00
         0.00000E+00
         0.00000E+00
         0.00000E+00
         0.00000E+00
         0.00000E+00
         0.00000E+00
         0.00000E+00
         0.00000E+00
         0.00000E+00
         0.00000E+00
         0.00000E+00
         0.00000E+00
         0.00000E+00
         0.00000E+00
         0.00000E+00
         0.00000E+00
         0.00000E+00
         0.00000E+00
         0.00000E+00
         0.00000E+00
         0.00000E+00
         0.00000E+00
         0.00000E+00
         0.00000E+00
         0.00000E+00
         0.00000E+00
         0.00000E+00
         0.00000E+00
         0.00000E+00
         0.00000E+00
         0.00000E+00
         0.00000E+00
         0.00000E+00
         0.00000E+00
         0.00000E+00
         0.00000E+00
         0.00000E+00
         0.00000E+00
         0.00000E+00
         0.00000E+00
         0.00000E+00
         0.00000E+00
         0.00000E+00
         0.00000E+00
         0.00000E+00
         0.00000E+00
         0.00000E+00
         0.00000E+00
         0.00000E+00
         0.00000E+00
         0.00000E+00
         0.00000E+00
         0.00000E+00
         0.00000E+00
         0.00000E+00
         0.00000E+00
         0.00000E+00
         0.00000E+00
         0.00000E+00
         0.00000E+00
         0.00000E+00
         0.00000E+00
         0.00000E+00
         0.00000E+00
         0.00000E+00
         0.00000E+00
         0.00000E+00
         0.00000E+00
         0.00000E+00
         0.00000E+00
         0.00000E+00
         0.00000E+00
         0.00000E+00
         0.00000E+00
         0.00000E+00
         0.00000E+00
         0.00000E+00
         0.00000E+00
         0.00000E+00
         0.00000E+00
         0.00000E+00
         0.00000E+00
         0.00000E+00
         0.00000E+00
         0.00000E+00
         0.00000E+00
         0.00000E+00
         0.00000E+00
         0.00000E+00
         0.00000E+00
         0.00000E+00
         0.00000E+00
         0.00000E+00
         0.00000E+00
         0.00000E+00
         0.00000E+00
         0.00000E+00
         0.00000E+00
         0.00000E+00
         0.00000E+00
         0.00000E+00
         0.00000E+00
         0.00000E+00
         0.00000E+00
         0.00000E+00
         0.00000E+00
         0.00000E+00
         0.00000E+00
         0.00000E+00
         0.00000E+00
         0.00000E+00
         0.00000E+00
         0.00000E+00
         0.00000E+00
         0.00000E+00
         0.00000E+00
         0.00000E+00
         0.00000E+00
         0.00000E+00
         0.00000E+00
         0.00000E+00
         0.00000E+00
         0.00000E+00
         0.00000E+00
         0.00000E+00
         0.00000E+00
         0.00000E+00
         0.00000E+00
         0.00000E+00
         0.00000E+00
         0.00000E+00
         0.00000E+00
         0.00000E+00
         0.00000E+00
         0.00000E+00
         0.00000E+00
         0.00000E+00
         0.00000E+00
         0.00000E+00
         0.00000E+00
         0.00000E+00
         0.00000E+00
         0.00000E+00
         0.00000E+00
         0.00000E+00
         0.00000E+00
         0.00000E+00
         0.00000E+00
         0.00000E+00
         0.00000E+00
         0.00000E+00
         0.00000E+00
         0.00000E+00
         0.00000E+00
         0.00000E+00
         0.00000E+00
         0.00000E+00
         0.00000E+00
         0.00000E+00
         0.00000E+00
         0.00000E+00
         0.00000E+00
         0.00000E+00
         0.00000E+00
         0.00000E+00
         0.00000E+00
         0.00000E+00
         0.00000E+00
         0.00000E+00
         0.00000E+00
         0.00000E+00
         0.00000E+00
         0.00000E+00
         0.00000E+00
         0.00000E+00
         0.00000E+00
         0.00000E+00
         0.00000E+00
         0.00000E+00
         0.00000E+00
         0.00000E+00
         0.00000E+00
         0.00000E+00
         0.00000E+00
         0.00000E+00
         0.00000E+00
         0.00000E+00
         0.00000E+00
         0.00000E+00
         0.00000E+00
         0.00000E+00
         0.00000E+00
         0.00000E+00
         0.00000E+00
         0.00000E+00
         0.00000E+00
         0.00000E+00
         0.00000E+00
         0.00000E+00
         0.00000E+00
         0.00000E+00
         0.00000E+00
         0.00000E+00
         0.00000E+00
         0.00000E+00
         0.00000E+00
         0.00000E+00
         0.00000E+00
         0.00000E+00
         0.00000E+00
         0.00000E+00
         0.00000E+00
         0.00000E+00
         0.00000E+00
         0.00000E+00
         0.00000E+00
  
SCALARS                      eps_shear  double 1
LOOKUP_TABLE default
         0.00000E+00
         0.00000E+00
         0.00000E+00
         0.00000E+00
         0.00000E+00
         0.00000E+00
         0.00000E+00
         0.00000E+00
         0.00000E+00
         0.00000E+00
         0.00000E+00
         0.00000E+00
         0.00000E+00
         0.00000E+00
         0.00000E+00
         0.00000E+00
         0.00000E+00
         0.00000E+00
         0.00000E+00
         0.00000E+00
         0.00000E+00
         0.00000E+00
         0.00000E+00
         0.00000E+00
         0.00000E+00
         0.00000E+00
         0.00000E+00
         0.00000E+00
         0.00000E+00
         0.00000E+00
         0.00000E+00
         0.00000E+00
         0.00000E+00
         0.00000E+00
         0.00000E+00
         0.00000E+00
         0.00000E+00
         0.00000E+00
         0.00000E+00
         0.00000E+00
         0.00000E+00
         0.00000E+00
         0.00000E+00
         0.00000E+00
         0.00000E+00
         0.00000E+00
         0.00000E+00
         0.00000E+00
         0.00000E+00
         0.00000E+00
         0.00000E+00
         0.00000E+00
         0.00000E+00
         0.00000E+00
         0.00000E+00
         0.00000E+00
         0.00000E+00
         0.00000E+00
         0.00000E+00
         0.00000E+00
         0.00000E+00
         0.00000E+00
         0.00000E+00
         0.00000E+00
         0.00000E+00
         0.00000E+00
         0.00000E+00
         0.00000E+00
         0.00000E+00
         0.00000E+00
         0.00000E+00
         0.00000E+00
         0.00000E+00
         0.00000E+00
         0.00000E+00
         0.00000E+00
         0.00000E+00
         0.00000E+00
         0.00000E+00
         0.00000E+00
         0.00000E+00
         0.00000E+00
         0.00000E+00
         0.00000E+00
         0.00000E+00
         0.00000E+00
         0.00000E+00
         0.00000E+00
         0.00000E+00
         0.00000E+00
         0.00000E+00
         0.00000E+00
         0.00000E+00
         0.00000E+00
         0.00000E+00
         0.00000E+00
         0.00000E+00
         0.00000E+00
         0.00000E+00
         0.00000E+00
         0.00000E+00
         0.00000E+00
         0.00000E+00
         0.00000E+00
         0.00000E+00
         0.00000E+00
         0.00000E+00
         0.00000E+00
         0.00000E+00
         0.00000E+00
         0.00000E+00
         0.00000E+00
         0.00000E+00
         0.00000E+00
         0.00000E+00
         0.00000E+00
         0.00000E+00
         0.00000E+00
         0.00000E+00
         0.00000E+00
         0.00000E+00
         0.00000E+00
         0.00000E+00
         0.00000E+00
         0.00000E+00
         0.00000E+00
         0.00000E+00
         0.00000E+00
         0.00000E+00
         0.00000E+00
         0.00000E+00
         0.00000E+00
         0.00000E+00
         0.00000E+00
         0.00000E+00
         0.00000E+00
         0.00000E+00
         0.00000E+00
         0.00000E+00
         0.00000E+00
         0.00000E+00
         0.00000E+00
         0.00000E+00
         0.00000E+00
         0.00000E+00
         0.00000E+00
         0.00000E+00
         0.00000E+00
         0.00000E+00
         0.00000E+00
         0.00000E+00
         0.00000E+00
         0.00000E+00
         0.00000E+00
         0.00000E+00
         0.00000E+00
         0.00000E+00
         0.00000E+00
         0.00000E+00
         0.00000E+00
         0.00000E+00
         0.00000E+00
         0.00000E+00
         0.00000E+00
         0.00000E+00
         0.00000E+00
         0.00000E+00
         0.00000E+00
         0.00000E+00
         0.00000E+00
         0.00000E+00
         0.00000E+00
         0.00000E+00
         0.00000E+00
         0.00000E+00
         0.00000E+00
         0.00000E+00
         0.00000E+00
         0.00000E+00
         0.00000E+00
         0.00000E+00
         0.00000E+00
         0.00000E+00
         0.00000E+00
         0.00000E+00
         0.00000E+00
         0.00000E+00
         0.00000E+00
         0.00000E+00
         0.00000E+00
         0.00000E+00
         0.00000E+00
         0.00000E+00
         0.00000E+00
         0.00000E+00
         0.00000E+00
         0.00000E+00
         0.00000E+00
         0.00000E+00
         0.00000E+00
         0.00000E+00
         0.00000E+00
         0.00000E+00
         0.00000E+00
         0.00000E+00
         0.00000E+00
         0.00000E+00
         0.00000E+00
         0.00000E+00
         0.00000E+00
         0.00000E+00
         0.00000E+00
         0.00000E+00
         0.00000E+00
         0.00000E+00
         0.00000E+00
         0.00000E+00
         0.00000E+00
         0.00000E+00
         0.00000E+00
         0.00000E+00
         0.00000E+00
         0.00000E+00
         0.00000E+00
         0.00000E+00
         0.00000E+00
         0.00000E+00
         0.00000E+00
         0.00000E+00
         0.00000E+00
         0.00000E+00
         0.00000E+00
         0.00000E+00
         0.00000E+00
         0.00000E+00
         0.00000E+00
         0.00000E+00
         0.00000E+00
         0.00000E+00
         0.00000E+00
         0.00000E+00
         0.00000E+00
         0.00000E+00
         0.00000E+00
         0.00000E+00
         0.00000E+00
         0.00000E+00
         0.00000E+00
         0.00000E+00
         0.00000E+00
         0.00000E+00
         0.00000E+00
         0.00000E+00
         0.00000E+00
         0.00000E+00
         0.00000E+00
         0.00000E+00
         0.00000E+00
         0.00000E+00
         0.00000E+00
         0.00000E+00
         0.00000E+00
         0.00000E+00
         0.00000E+00
         0.00000E+00
         0.00000E+00
         0.00000E+00
         0.00000E+00
         0.00000E+00
         0.00000E+00
         0.00000E+00
         0.00000E+00
         0.00000E+00
         0.00000E+00
         0.00000E+00
         0.00000E+00
         0.00000E+00
         0.00000E+00
         0.00000E+00
         0.00000E+00
         0.00000E+00
         0.00000E+00
         0.00000E+00
         0.00000E+00
         0.00000E+00
         0.00000E+00
         0.00000E+00
         0.00000E+00
         0.00000E+00
         0.00000E+00
         0.00000E+00
         0.00000E+00
         0.00000E+00
         0.00000E+00
         0.00000E+00
         0.00000E+00
         0.00000E+00
         0.00000E+00
         0.00000E+00
         0.00000E+00
         0.00000E+00
         0.00000E+00
         0.00000E+00
         0.00000E+00
         0.00000E+00
         0.00000E+00
         0.00000E+00
         0.00000E+00
         0.00000E+00
         0.00000E+00
         0.00000E+00
         0.00000E+00
         0.00000E+00
         0.00000E+00
         0.00000E+00
         0.00000E+00
         0.00000E+00
         0.00000E+00
         0.00000E+00
         0.00000E+00
         0.00000E+00
         0.00000E+00
         0.00000E+00
         0.00000E+00
         0.00000E+00
         0.00000E+00
         0.00000E+00
         0.00000E+00
         0.00000E+00
         0.00000E+00
         0.00000E+00
         0.00000E+00
         0.00000E+00
         0.00000E+00
         0.00000E+00
         0.00000E+00
         0.00000E+00
         0.00000E+00
         0.00000E+00
         0.00000E+00
         0.00000E+00
         0.00000E+00
         0.00000E+00
         0.00000E+00
         0.00000E+00
         0.00000E+00
         0.00000E+00
         0.00000E+00
         0.00000E+00
         0.00000E+00
         0.00000E+00
         0.00000E+00
         0.00000E+00
         0.00000E+00
         0.00000E+00
         0.00000E+00
         0.00000E+00
         0.00000E+00
         0.00000E+00
         0.00000E+00
         0.00000E+00
         0.00000E+00
         0.00000E+00
         0.00000E+00
         0.00000E+00
         0.00000E+00
         0.00000E+00
         0.00000E+00
         0.00000E+00
         0.00000E+00
         0.00000E+00
         0.00000E+00
         0.00000E+00
         0.00000E+00
         0.00000E+00
         0.00000E+00
         0.00000E+00
         0.00000E+00
         0.00000E+00
         0.00000E+00
         0.00000E+00
         0.00000E+00
         0.00000E+00
         0.00000E+00
         0.00000E+00
         0.00000E+00
         0.00000E+00
         0.00000E+00
         0.00000E+00
         0.00000E+00
         0.00000E+00
         0.00000E+00
         0.00000E+00
         0.00000E+00
         0.00000E+00
         0.00000E+00
         0.00000E+00
         0.00000E+00
         0.00000E+00
         0.00000E+00
         0.00000E+00
         0.00000E+00
         0.00000E+00
         0.00000E+00
         0.00000E+00
         0.00000E+00
         0.00000E+00
         0.00000E+00
         0.00000E+00
         0.00000E+00
         0.00000E+00
         0.00000E+00
         0.00000E+00
         0.00000E+00
         0.00000E+00
         0.00000E+00
         0.00000E+00
         0.00000E+00
         0.00000E+00
         0.00000E+00
         0.00000E+00
         0.00000E+00
         0.00000E+00
         0.00000E+00
         0.00000E+00
         0.00000E+00
         0.00000E+00
         0.00000E+00
         0.00000E+00
         0.00000E+00
         0.00000E+00
         0.00000E+00
         0.00000E+00
         0.00000E+00
         0.00000E+00
         0.00000E+00
         0.00000E+00
         0.00000E+00
         0.00000E+00
         0.00000E+00
         0.00000E+00
         0.00000E+00
         0.00000E+00
         0.00000E+00
         0.00000E+00
         0.00000E+00
         0.00000E+00
         0.00000E+00
         0.00000E+00
         0.00000E+00
         0.00000E+00
         0.00000E+00
         0.00000E+00
         0.00000E+00
         0.00000E+00
         0.00000E+00
         0.00000E+00
         0.00000E+00
         0.00000E+00
         0.00000E+00
         0.00000E+00
         0.00000E+00
         0.00000E+00
         0.00000E+00
         0.00000E+00
         0.00000E+00
         0.00000E+00
         0.00000E+00
         0.00000E+00
         0.00000E+00
         0.00000E+00
         0.00000E+00
         0.00000E+00
         0.00000E+00
         0.00000E+00
         0.00000E+00
         0.00000E+00
         0.00000E+00
         0.00000E+00
         0.00000E+00
         0.00000E+00
         0.00000E+00
         0.00000E+00
         0.00000E+00
         0.00000E+00
         0.00000E+00
         0.00000E+00
         0.00000E+00
         0.00000E+00
         0.00000E+00
         0.00000E+00
         0.00000E+00
         0.00000E+00
         0.00000E+00
         0.00000E+00
         0.00000E+00
         0.00000E+00
         0.00000E+00
         0.00000E+00
         0.00000E+00
         0.00000E+00
         0.00000E+00
         0.00000E+00
         0.00000E+00
         0.00000E+00
         0.00000E+00
         0.00000E+00
         0.00000E+00
         0.00000E+00
         0.00000E+00
         0.00000E+00
         0.00000E+00
         0.00000E+00
         0.00000E+00
         0.00000E+00
         0.00000E+00
         0.00000E+00
         0.00000E+00
         0.00000E+00
         0.00000E+00
         0.00000E+00
         0.00000E+00
         0.00000E+00
         0.00000E+00
         0.00000E+00
         0.00000E+00
         0.00000E+00
         0.00000E+00
         0.00000E+00
         0.00000E+00
         0.00000E+00
         0.00000E+00
         0.00000E+00
         0.00000E+00
         0.00000E+00
         0.00000E+00
         0.00000E+00
         0.00000E+00
         0.00000E+00
         0.00000E+00
         0.00000E+00
         0.00000E+00
         0.00000E+00
         0.00000E+00
         0.00000E+00
         0.00000E+00
         0.00000E+00
         0.00000E+00
         0.00000E+00
         0.00000E+00
         0.00000E+00
         0.00000E+00
         0.00000E+00
         0.00000E+00
         0.00000E+00
         0.00000E+00
         0.00000E+00
         0.00000E+00
         0.00000E+00
         0.00000E+00
         0.00000E+00
         0.00000E+00
         0.00000E+00
         0.00000E+00
         0.00000E+00
         0.00000E+00
         0.00000E+00
         0.00000E+00
         0.00000E+00
         0.00000E+00
         0.00000E+00
         0.00000E+00
         0.00000E+00
         0.00000E+00
         0.00000E+00
         0.00000E+00
         0.00000E+00
         0.00000E+00
         0.00000E+00
         0.00000E+00
         0.00000E+00
         0.00000E+00
         0.00000E+00
         0.00000E+00
         0.00000E+00
         0.00000E+00
         0.00000E+00
         0.00000E+00
         0.00000E+00
         0.00000E+00
         0.00000E+00
         0.00000E+00
         0.00000E+00
         0.00000E+00
         0.00000E+00
         0.00000E+00
         0.00000E+00
         0.00000E+00
         0.00000E+00
         0.00000E+00
         0.00000E+00
         0.00000E+00
         0.00000E+00
         0.00000E+00
         0.00000E+00
         0.00000E+00
         0.00000E+00
         0.00000E+00
         0.00000E+00
         0.00000E+00
         0.00000E+00
         0.00000E+00
         0.00000E+00
         0.00000E+00
         0.00000E+00
         0.00000E+00
         0.00000E+00
         0.00000E+00
         0.00000E+00
         0.00000E+00
         0.00000E+00
         0.00000E+00
         0.00000E+00
         0.00000E+00
         0.00000E+00
         0.00000E+00
         0.00000E+00
         0.00000E+00
         0.00000E+00
         0.00000E+00
         0.00000E+00
         0.00000E+00
         0.00000E+00
         0.00000E+00
         0.00000E+00
         0.00000E+00
         0.00000E+00
         0.00000E+00
         0.00000E+00
         0.00000E+00
         0.00000E+00
         0.00000E+00
         0.00000E+00
         0.00000E+00
         0.00000E+00
         0.00000E+00
         0.00000E+00
         0.00000E+00
         0.00000E+00
         0.00000E+00
         0.00000E+00
         0.00000E+00
         0.00000E+00
         0.00000E+00
         0.00000E+00
         0.00000E+00
         0.00000E+00
         0.00000E+00
         0.00000E+00
         0.00000E+00
         0.00000E+00
         0.00000E+00
         0.00000E+00
         0.00000E+00
         0.00000E+00
         0.00000E+00
         0.00000E+00
         0.00000E+00
         0.00000E+00
         0.00000E+00
         0.00000E+00
         0.00000E+00
         0.00000E+00
         0.00000E+00
         0.00000E+00
         0.00000E+00
         0.00000E+00
         0.00000E+00
         0.00000E+00
         0.00000E+00
         0.00000E+00
         0.00000E+00
         0.00000E+00
         0.00000E+00
         0.00000E+00
         0.00000E+00
         0.00000E+00
         0.00000E+00
         0.00000E+00
         0.00000E+00
         0.00000E+00
         0.00000E+00
         0.00000E+00
         0.00000E+00
         0.00000E+00
         0.00000E+00
         0.00000E+00
         0.00000E+00
         0.00000E+00
         0.00000E+00
         0.00000E+00
         0.00000E+00
         0.00000E+00
         0.00000E+00
         0.00000E+00
         0.00000E+00
         0.00000E+00
         0.00000E+00
         0.00000E+00
         0.00000E+00
         0.00000E+00
         0.00000E+00
         0.00000E+00
         0.00000E+00
         0.00000E+00
         0.00000E+00
         0.00000E+00
         0.00000E+00
         0.00000E+00
         0.00000E+00
         0.00000E+00
         0.00000E+00
         0.00000E+00
         0.00000E+00
         0.00000E+00
         0.00000E+00
         0.00000E+00
         0.00000E+00
         0.00000E+00
         0.00000E+00
         0.00000E+00
         0.00000E+00
         0.00000E+00
         0.00000E+00
         0.00000E+00
         0.00000E+00
         0.00000E+00
         0.00000E+00
         0.00000E+00
         0.00000E+00
         0.00000E+00
         0.00000E+00
         0.00000E+00
         0.00000E+00
         0.00000E+00
         0.00000E+00
         0.00000E+00
         0.00000E+00
         0.00000E+00
         0.00000E+00
         0.00000E+00
         0.00000E+00
         0.00000E+00
         0.00000E+00
         0.00000E+00
         0.00000E+00
         0.00000E+00
         0.00000E+00
         0.00000E+00
         0.00000E+00
         0.00000E+00
         0.00000E+00
         0.00000E+00
         0.00000E+00
         0.00000E+00
         0.00000E+00
         0.00000E+00
         0.00000E+00
         0.00000E+00
         0.00000E+00
         0.00000E+00
         0.00000E+00
         0.00000E+00
         0.00000E+00
         0.00000E+00
         0.00000E+00
         0.00000E+00
         0.00000E+00
         0.00000E+00
         0.00000E+00
         0.00000E+00
         0.00000E+00
         0.00000E+00
         0.00000E+00
         0.00000E+00
         0.00000E+00
         0.00000E+00
         0.00000E+00
         0.00000E+00
         0.00000E+00
         0.00000E+00
         0.00000E+00
         0.00000E+00
         0.00000E+00
         0.00000E+00
         0.00000E+00
         0.00000E+00
         0.00000E+00
         0.00000E+00
         0.00000E+00
         0.00000E+00
         0.00000E+00
         0.00000E+00
         0.00000E+00
         0.00000E+00
         0.00000E+00
         0.00000E+00
         0.00000E+00
         0.00000E+00
         0.00000E+00
         0.00000E+00
         0.00000E+00
         0.00000E+00
         0.00000E+00
         0.00000E+00
         0.00000E+00
         0.00000E+00
         0.00000E+00
         0.00000E+00
         0.00000E+00
         0.00000E+00
         0.00000E+00
         0.00000E+00
         0.00000E+00
         0.00000E+00
         0.00000E+00
         0.00000E+00
         0.00000E+00
         0.00000E+00
         0.00000E+00
         0.00000E+00
         0.00000E+00
         0.00000E+00
         0.00000E+00
         0.00000E+00
         0.00000E+00
         0.00000E+00
         0.00000E+00
         0.00000E+00
         0.00000E+00
         0.00000E+00
         0.00000E+00
         0.00000E+00
         0.00000E+00
         0.00000E+00
         0.00000E+00
         0.00000E+00
         0.00000E+00
         0.00000E+00
         0.00000E+00
         0.00000E+00
         0.00000E+00
         0.00000E+00
         0.00000E+00
         0.00000E+00
         0.00000E+00
         0.00000E+00
         0.00000E+00
         0.00000E+00
         0.00000E+00
         0.00000E+00
         0.00000E+00
         0.00000E+00
         0.00000E+00
         0.00000E+00
         0.00000E+00
         0.00000E+00
         0.00000E+00
         0.00000E+00
         0.00000E+00
         0.00000E+00
         0.00000E+00
         0.00000E+00
         0.00000E+00
         0.00000E+00
         0.00000E+00
         0.00000E+00
         0.00000E+00
         0.00000E+00
         0.00000E+00
         0.00000E+00
         0.00000E+00
         0.00000E+00
         0.00000E+00
         0.00000E+00
         0.00000E+00
         0.00000E+00
         0.00000E+00
         0.00000E+00
         0.00000E+00
         0.00000E+00
         0.00000E+00
         0.00000E+00
         0.00000E+00
         0.00000E+00
         0.00000E+00
         0.00000E+00
         0.00000E+00
         0.00000E+00
         0.00000E+00
         0.00000E+00
         0.00000E+00
         0.00000E+00
         0.00000E+00
         0.00000E+00
         0.00000E+00
         0.00000E+00
         0.00000E+00
         0.00000E+00
         0.00000E+00
         0.00000E+00
         0.00000E+00
         0.00000E+00
         0.00000E+00
         0.00000E+00
         0.00000E+00
         0.00000E+00
         0.00000E+00
         0.00000E+00
         0.00000E+00
         0.00000E+00
         0.00000E+00
         0.00000E+00
         0.00000E+00
         0.00000E+00
         0.00000E+00
         0.00000E+00
         0.00000E+00
         0.00000E+00
         0.00000E+00
         0.00000E+00
         0.00000E+00
         0.00000E+00
         0.00000E+00
         0.00000E+00
         0.00000E+00
         0.00000E+00
         0.00000E+00
         0.00000E+00
         0.00000E+00
         0.00000E+00
         0.00000E+00
         0.00000E+00
         0.00000E+00
         0.00000E+00
         0.00000E+00
         0.00000E+00
         0.00000E+00
         0.00000E+00
         0.00000E+00
         0.00000E+00
         0.00000E+00
         0.00000E+00
         0.00000E+00
         0.00000E+00
         0.00000E+00
         0.00000E+00
         0.00000E+00
         0.00000E+00
         0.00000E+00
         0.00000E+00
         0.00000E+00
         0.00000E+00
         0.00000E+00
         0.00000E+00
         0.00000E+00
         0.00000E+00
         0.00000E+00
         0.00000E+00
         0.00000E+00
         0.00000E+00
         0.00000E+00
         0.00000E+00
         0.00000E+00
         0.00000E+00
         0.00000E+00
         0.00000E+00
         0.00000E+00
         0.00000E+00
         0.00000E+00
         0.00000E+00
         0.00000E+00
         0.00000E+00
         0.00000E+00
         0.00000E+00
         0.00000E+00
         0.00000E+00
         0.00000E+00
         0.00000E+00
         0.00000E+00
         0.00000E+00
         0.00000E+00
         0.00000E+00
         0.00000E+00
         0.00000E+00
         0.00000E+00
         0.00000E+00
         0.00000E+00
         0.00000E+00
         0.00000E+00
         0.00000E+00
         0.00000E+00
         0.00000E+00
         0.00000E+00
         0.00000E+00
         0.00000E+00
         0.00000E+00
         0.00000E+00
         0.00000E+00
         0.00000E+00
         0.00000E+00
         0.00000E+00
         0.00000E+00
         0.00000E+00
         0.00000E+00
         0.00000E+00
         0.00000E+00
         0.00000E+00
         0.00000E+00
         0.00000E+00
         0.00000E+00
         0.00000E+00
         0.00000E+00
         0.00000E+00
         0.00000E+00
         0.00000E+00
         0.00000E+00
         0.00000E+00
         0.00000E+00
         0.00000E+00
         0.00000E+00
         0.00000E+00
         0.00000E+00
         0.00000E+00
         0.00000E+00
         0.00000E+00
         0.00000E+00
         0.00000E+00
         0.00000E+00
         0.00000E+00
         0.00000E+00
         0.00000E+00
         0.00000E+00
         0.00000E+00
         0.00000E+00
         0.00000E+00
         0.00000E+00
         0.00000E+00
         0.00000E+00
         0.00000E+00
         0.00000E+00
         0.00000E+00
         0.00000E+00
         0.00000E+00
         0.00000E+00
         0.00000E+00
         0.00000E+00
         0.00000E+00
         0.00000E+00
         0.00000E+00
         0.00000E+00
         0.00000E+00
         0.00000E+00
         0.00000E+00
         0.00000E+00
         0.00000E+00
         0.00000E+00
         0.00000E+00
         0.00000E+00
         0.00000E+00
         0.00000E+00
         0.00000E+00
         0.00000E+00
         0.00000E+00
         0.00000E+00
         0.00000E+00
         0.00000E+00
         0.00000E+00
         0.00000E+00
         0.00000E+00
         0.00000E+00
         0.00000E+00
         0.00000E+00
         0.00000E+00
         0.00000E+00
         0.00000E+00
         0.00000E+00
         0.00000E+00
         0.00000E+00
         0.00000E+00
         0.00000E+00
         0.00000E+00
         0.00000E+00
         0.00000E+00
         0.00000E+00
         0.00000E+00
         0.00000E+00
         0.00000E+00
         0.00000E+00
         0.00000E+00
         0.00000E+00
         0.00000E+00
         0.00000E+00
         0.00000E+00
         0.00000E+00
         0.00000E+00
         0.00000E+00
         0.00000E+00
         0.00000E+00
         0.00000E+00
         0.00000E+00
         0.00000E+00
         0.00000E+00
         0.00000E+00
         0.00000E+00
         0.00000E+00
         0.00000E+00
         0.00000E+00
         0.00000E+00
         0.00000E+00
         0.00000E+00
         0.00000E+00
         0.00000E+00
         0.00000E+00
         0.00000E+00
         0.00000E+00
         0.00000E+00
         0.00000E+00
         0.00000E+00
         0.00000E+00
         0.00000E+00
         0.00000E+00
         0.00000E+00
         0.00000E+00
         0.00000E+00
         0.00000E+00
         0.00000E+00
         0.00000E+00
         0.00000E+00
         0.00000E+00
         0.00000E+00
         0.00000E+00
         0.00000E+00
         0.00000E+00
         0.00000E+00
         0.00000E+00
         0.00000E+00
         0.00000E+00
         0.00000E+00
         0.00000E+00
         0.00000E+00
         0.00000E+00
         0.00000E+00
         0.00000E+00
         0.00000E+00
         0.00000E+00
         0.00000E+00
         0.00000E+00
         0.00000E+00
         0.00000E+00
         0.00000E+00
         0.00000E+00
         0.00000E+00
         0.00000E+00
         0.00000E+00
         0.00000E+00
         0.00000E+00
         0.00000E+00
         0.00000E+00
         0.00000E+00
         0.00000E+00
         0.00000E+00
         0.00000E+00
         0.00000E+00
         0.00000E+00
         0.00000E+00
         0.00000E+00
         0.00000E+00
         0.00000E+00
         0.00000E+00
         0.00000E+00
         0.00000E+00
         0.00000E+00
         0.00000E+00
         0.00000E+00
         0.00000E+00
         0.00000E+00
         0.00000E+00
         0.00000E+00
         0.00000E+00
         0.00000E+00
         0.00000E+00
         0.00000E+00
         0.00000E+00
         0.00000E+00
         0.00000E+00
         0.00000E+00
         0.00000E+00
         0.00000E+00
         0.00000E+00
         0.00000E+00
         0.00000E+00
         0.00000E+00
         0.00000E+00
         0.00000E+00
         0.00000E+00
         0.00000E+00
         0.00000E+00
         0.00000E+00
         0.00000E+00
         0.00000E+00
         0.00000E+00
         0.00000E+00
         0.00000E+00
         0.00000E+00
         0.00000E+00
         0.00000E+00
         0.00000E+00
         0.00000E+00
         0.00000E+00
         0.00000E+00
         0.00000E+00
         0.00000E+00
         0.00000E+00
         0.00000E+00
         0.00000E+00
         0.00000E+00
         0.00000E+00
         0.00000E+00
         0.00000E+00
         0.00000E+00
         0.00000E+00
         0.00000E+00
         0.00000E+00
         0.00000E+00
         0.00000E+00
         0.00000E+00
         0.00000E+00
         0.00000E+00
         0.00000E+00
         0.00000E+00
         0.00000E+00
         0.00000E+00
         0.00000E+00
         0.00000E+00
         0.00000E+00
         0.00000E+00
         0.00000E+00
         0.00000E+00
         0.00000E+00
         0.00000E+00
         0.00000E+00
         0.00000E+00
         0.00000E+00
         0.00000E+00
         0.00000E+00
         0.00000E+00
         0.00000E+00
         0.00000E+00
         0.00000E+00
         0.00000E+00
         0.00000E+00
         0.00000E+00
         0.00000E+00
         0.00000E+00
         0.00000E+00
         0.00000E+00
         0.00000E+00
         0.00000E+00
         0.00000E+00
         0.00000E+00
         0.00000E+00
         0.00000E+00
         0.00000E+00
         0.00000E+00
         0.00000E+00
         0.00000E+00
         0.00000E+00
         0.00000E+00
         0.00000E+00
         0.00000E+00
         0.00000E+00
         0.00000E+00
         0.00000E+00
         0.00000E+00
         0.00000E+00
         0.00000E+00
         0.00000E+00
         0.00000E+00
         0.00000E+00
         0.00000E+00
         0.00000E+00
         0.00000E+00
         0.00000E+00
         0.00000E+00
         0.00000E+00
         0.00000E+00
         0.00000E+00
         0.00000E+00
         0.00000E+00
         0.00000E+00
         0.00000E+00
         0.00000E+00
         0.00000E+00
         0.00000E+00
         0.00000E+00
         0.00000E+00
         0.00000E+00
         0.00000E+00
         0.00000E+00
         0.00000E+00
         0.00000E+00
         0.00000E+00
         0.00000E+00
         0.00000E+00
         0.00000E+00
         0.00000E+00
         0.00000E+00
         0.00000E+00
         0.00000E+00
         0.00000E+00
         0.00000E+00
         0.00000E+00
         0.00000E+00
         0.00000E+00
         0.00000E+00
         0.00000E+00
         0.00000E+00
         0.00000E+00
         0.00000E+00
         0.00000E+00
         0.00000E+00
         0.00000E+00
         0.00000E+00
         0.00000E+00
         0.00000E+00
         0.00000E+00
         0.00000E+00
         0.00000E+00
         0.00000E+00
         0.00000E+00
         0.00000E+00
         0.00000E+00
         0.00000E+00
         0.00000E+00
         0.00000E+00
         0.00000E+00
         0.00000E+00
         0.00000E+00
         0.00000E+00
         0.00000E+00
         0.00000E+00
         0.00000E+00
         0.00000E+00
         0.00000E+00
         0.00000E+00
         0.00000E+00
         0.00000E+00
         0.00000E+00
         0.00000E+00
         0.00000E+00
         0.00000E+00
         0.00000E+00
         0.00000E+00
         0.00000E+00
         0.00000E+00
         0.00000E+00
         0.00000E+00
         0.00000E+00
         0.00000E+00
         0.00000E+00
         0.00000E+00
         0.00000E+00
         0.00000E+00
         0.00000E+00
         0.00000E+00
         0.00000E+00
         0.00000E+00
         0.00000E+00
         0.00000E+00
         0.00000E+00
         0.00000E+00
         0.00000E+00
         0.00000E+00
         0.00000E+00
         0.00000E+00
         0.00000E+00
         0.00000E+00
         0.00000E+00
         0.00000E+00
         0.00000E+00
         0.00000E+00
         0.00000E+00
         0.00000E+00
         0.00000E+00
         0.00000E+00
         0.00000E+00
         0.00000E+00
         0.00000E+00
         0.00000E+00
         0.00000E+00
         0.00000E+00
         0.00000E+00
         0.00000E+00
         0.00000E+00
         0.00000E+00
         0.00000E+00
         0.00000E+00
         0.00000E+00
         0.00000E+00
         0.00000E+00
         0.00000E+00
         0.00000E+00
         0.00000E+00
         0.00000E+00
         0.00000E+00
         0.00000E+00
         0.00000E+00
         0.00000E+00
         0.00000E+00
         0.00000E+00
         0.00000E+00
         0.00000E+00
         0.00000E+00
         0.00000E+00
         0.00000E+00
         0.00000E+00
         0.00000E+00
         0.00000E+00
         0.00000E+00
         0.00000E+00
         0.00000E+00
         0.00000E+00
         0.00000E+00
         0.00000E+00
         0.00000E+00
         0.00000E+00
         0.00000E+00
         0.00000E+00
         0.00000E+00
         0.00000E+00
         0.00000E+00
         0.00000E+00
         0.00000E+00
         0.00000E+00
         0.00000E+00
         0.00000E+00
         0.00000E+00
         0.00000E+00
         0.00000E+00
         0.00000E+00
         0.00000E+00
         0.00000E+00
         0.00000E+00
         0.00000E+00
         0.00000E+00
         0.00000E+00
         0.00000E+00
         0.00000E+00
         0.00000E+00
         0.00000E+00
         0.00000E+00
         0.00000E+00
         0.00000E+00
         0.00000E+00
         0.00000E+00
         0.00000E+00
         0.00000E+00
         0.00000E+00
         0.00000E+00
         0.00000E+00
         0.00000E+00
         0.00000E+00
         0.00000E+00
         0.00000E+00
         0.00000E+00
         0.00000E+00
         0.00000E+00
         0.00000E+00
         0.00000E+00
         0.00000E+00
         0.00000E+00
         0.00000E+00
         0.00000E+00
         0.00000E+00
         0.00000E+00
         0.00000E+00
         0.00000E+00
         0.00000E+00
         0.00000E+00
         0.00000E+00
         0.00000E+00
         0.00000E+00
         0.00000E+00
         0.00000E+00
         0.00000E+00
         0.00000E+00
         0.00000E+00
         0.00000E+00
         0.00000E+00
         0.00000E+00
         0.00000E+00
         0.00000E+00
         0.00000E+00
         0.00000E+00
         0.00000E+00
         0.00000E+00
         0.00000E+00
         0.00000E+00
         0.00000E+00
         0.00000E+00
         0.00000E+00
         0.00000E+00
         0.00000E+00
         0.00000E+00
         0.00000E+00
         0.00000E+00
         0.00000E+00
         0.00000E+00
         0.00000E+00
         0.00000E+00
         0.00000E+00
         0.00000E+00
         0.00000E+00
         0.00000E+00
         0.00000E+00
         0.00000E+00
         0.00000E+00
         0.00000E+00
         0.00000E+00
         0.00000E+00
         0.00000E+00
         0.00000E+00
         0.00000E+00
         0.00000E+00
         0.00000E+00
         0.00000E+00
         0.00000E+00
         0.00000E+00
         0.00000E+00
         0.00000E+00
         0.00000E+00
         0.00000E+00
         0.00000E+00
         0.00000E+00
         0.00000E+00
         0.00000E+00
         0.00000E+00
         0.00000E+00
         0.00000E+00
         0.00000E+00
         0.00000E+00
         0.00000E+00
         0.00000E+00
         0.00000E+00
         0.00000E+00
         0.00000E+00
         0.00000E+00
         0.00000E+00
         0.00000E+00
         0.00000E+00
         0.00000E+00
         0.00000E+00
         0.00000E+00
         0.00000E+00
         0.00000E+00
         0.00000E+00
         0.00000E+00
         0.00000E+00
         0.00000E+00
         0.00000E+00
         0.00000E+00
         0.00000E+00
         0.00000E+00
         0.00000E+00
         0.00000E+00
         0.00000E+00
         0.00000E+00
         0.00000E+00
         0.00000E+00
         0.00000E+00
         0.00000E+00
         0.00000E+00
         0.00000E+00
         0.00000E+00
         0.00000E+00
         0.00000E+00
         0.00000E+00
         0.00000E+00
         0.00000E+00
         0.00000E+00
         0.00000E+00
         0.00000E+00
         0.00000E+00
         0.00000E+00
         0.00000E+00
         0.00000E+00
         0.00000E+00
         0.00000E+00
         0.00000E+00
         0.00000E+00
         0.00000E+00
         0.00000E+00
         0.00000E+00
         0.00000E+00
         0.00000E+00
         0.00000E+00
         0.00000E+00
         0.00000E+00
         0.00000E+00
         0.00000E+00
         0.00000E+00
         0.00000E+00
         0.00000E+00
         0.00000E+00
         0.00000E+00
         0.00000E+00
         0.00000E+00
         0.00000E+00
         0.00000E+00
         0.00000E+00
         0.00000E+00
         0.00000E+00
         0.00000E+00
         0.00000E+00
         0.00000E+00
         0.00000E+00
         0.00000E+00
         0.00000E+00
         0.00000E+00
         0.00000E+00
         0.00000E+00
         0.00000E+00
         0.00000E+00
         0.00000E+00
         0.00000E+00
         0.00000E+00
         0.00000E+00
         0.00000E+00
         0.00000E+00
         0.00000E+00
         0.00000E+00
         0.00000E+00
         0.00000E+00
         0.00000E+00
         0.00000E+00
         0.00000E+00
         0.00000E+00
         0.00000E+00
         0.00000E+00
         0.00000E+00
         0.00000E+00
         0.00000E+00
         0.00000E+00
         0.00000E+00
         0.00000E+00
         0.00000E+00
         0.00000E+00
         0.00000E+00
         0.00000E+00
         0.00000E+00
         0.00000E+00
         0.00000E+00
         0.00000E+00
         0.00000E+00
         0.00000E+00
         0.00000E+00
         0.00000E+00
         0.00000E+00
         0.00000E+00
         0.00000E+00
         0.00000E+00
         0.00000E+00
         0.00000E+00
         0.00000E+00
         0.00000E+00
         0.00000E+00
         0.00000E+00
         0.00000E+00
         0.00000E+00
         0.00000E+00
         0.00000E+00
         0.00000E+00
         0.00000E+00
         0.00000E+00
         0.00000E+00
         0.00000E+00
         0.00000E+00
         0.00000E+00
         0.00000E+00
         0.00000E+00
         0.00000E+00
         0.00000E+00
         0.00000E+00
         0.00000E+00
         0.00000E+00
         0.00000E+00
         0.00000E+00
         0.00000E+00
         0.00000E+00
         0.00000E+00
         0.00000E+00
         0.00000E+00
         0.00000E+00
         0.00000E+00
         0.00000E+00
         0.00000E+00
         0.00000E+00
         0.00000E+00
         0.00000E+00
         0.00000E+00
         0.00000E+00
         0.00000E+00
         0.00000E+00
         0.00000E+00
         0.00000E+00
         0.00000E+00
         0.00000E+00
         0.00000E+00
         0.00000E+00
         0.00000E+00
         0.00000E+00
         0.00000E+00
         0.00000E+00
         0.00000E+00
         0.00000E+00
         0.00000E+00
         0.00000E+00
         0.00000E+00
         0.00000E+00
         0.00000E+00
         0.00000E+00
         0.00000E+00
         0.00000E+00
         0.00000E+00
         0.00000E+00
         0.00000E+00
         0.00000E+00
         0.00000E+00
         0.00000E+00
         0.00000E+00
         0.00000E+00
         0.00000E+00
         0.00000E+00
         0.00000E+00
         0.00000E+00
         0.00000E+00
         0.00000E+00
         0.00000E+00
         0.00000E+00
         0.00000E+00
         0.00000E+00
         0.00000E+00
         0.00000E+00
         0.00000E+00
         0.00000E+00
         0.00000E+00
         0.00000E+00
         0.00000E+00
         0.00000E+00
         0.00000E+00
         0.00000E+00
         0.00000E+00
         0.00000E+00
         0.00000E+00
         0.00000E+00
         0.00000E+00
         0.00000E+00
         0.00000E+00
         0.00000E+00
         0.00000E+00
         0.00000E+00
         0.00000E+00
         0.00000E+00
         0.00000E+00
         0.00000E+00
         0.00000E+00
         0.00000E+00
         0.00000E+00
         0.00000E+00
         0.00000E+00
         0.00000E+00
         0.00000E+00
         0.00000E+00
         0.00000E+00
         0.00000E+00
         0.00000E+00
         0.00000E+00
         0.00000E+00
         0.00000E+00
         0.00000E+00
         0.00000E+00
         0.00000E+00
         0.00000E+00
         0.00000E+00
         0.00000E+00
         0.00000E+00
         0.00000E+00
         0.00000E+00
         0.00000E+00
         0.00000E+00
         0.00000E+00
         0.00000E+00
         0.00000E+00
         0.00000E+00
         0.00000E+00
         0.00000E+00
         0.00000E+00
         0.00000E+00
         0.00000E+00
         0.00000E+00
         0.00000E+00
         0.00000E+00
         0.00000E+00
         0.00000E+00
         0.00000E+00
         0.00000E+00
         0.00000E+00
         0.00000E+00
         0.00000E+00
         0.00000E+00
         0.00000E+00
         0.00000E+00
         0.00000E+00
         0.00000E+00
         0.00000E+00
         0.00000E+00
         0.00000E+00
         0.00000E+00
         0.00000E+00
         0.00000E+00
         0.00000E+00
         0.00000E+00
         0.00000E+00
         0.00000E+00
         0.00000E+00
         0.00000E+00
         0.00000E+00
         0.00000E+00
         0.00000E+00
         0.00000E+00
         0.00000E+00
         0.00000E+00
         0.00000E+00
         0.00000E+00
         0.00000E+00
         0.00000E+00
         0.00000E+00
         0.00000E+00
         0.00000E+00
         0.00000E+00
         0.00000E+00
         0.00000E+00
         0.00000E+00
         0.00000E+00
         0.00000E+00
         0.00000E+00
         0.00000E+00
         0.00000E+00
         0.00000E+00
         0.00000E+00
         0.00000E+00
         0.00000E+00
         0.00000E+00
         0.00000E+00
         0.00000E+00
         0.00000E+00
         0.00000E+00
         0.00000E+00
         0.00000E+00
         0.00000E+00
         0.00000E+00
         0.00000E+00
         0.00000E+00
         0.00000E+00
         0.00000E+00
         0.00000E+00
         0.00000E+00
         0.00000E+00
         0.00000E+00
         0.00000E+00
         0.00000E+00
         0.00000E+00
         0.00000E+00
         0.00000E+00
         0.00000E+00
         0.00000E+00
         0.00000E+00
         0.00000E+00
         0.00000E+00
         0.00000E+00
         0.00000E+00
         0.00000E+00
         0.00000E+00
         0.00000E+00
         0.00000E+00
         0.00000E+00
         0.00000E+00
         0.00000E+00
         0.00000E+00
         0.00000E+00
         0.00000E+00
         0.00000E+00
         0.00000E+00
         0.00000E+00
         0.00000E+00
         0.00000E+00
         0.00000E+00
         0.00000E+00
         0.00000E+00
         0.00000E+00
         0.00000E+00
         0.00000E+00
         0.00000E+00
         0.00000E+00
         0.00000E+00
         0.00000E+00
         0.00000E+00
         0.00000E+00
         0.00000E+00
         0.00000E+00
         0.00000E+00
         0.00000E+00
         0.00000E+00
         0.00000E+00
         0.00000E+00
         0.00000E+00
         0.00000E+00
         0.00000E+00
         0.00000E+00
         0.00000E+00
         0.00000E+00
         0.00000E+00
         0.00000E+00
         0.00000E+00
         0.00000E+00
         0.00000E+00
         0.00000E+00
         0.00000E+00
         0.00000E+00
         0.00000E+00
         0.00000E+00
         0.00000E+00
         0.00000E+00
         0.00000E+00
         0.00000E+00
         0.00000E+00
         0.00000E+00
         0.00000E+00
         0.00000E+00
  
SCALARS                        eps_vol  double 1
LOOKUP_TABLE default
         0.00000E+00
         0.00000E+00
         0.00000E+00
         0.00000E+00
         0.00000E+00
         0.00000E+00
         0.00000E+00
         0.00000E+00
         0.00000E+00
         0.00000E+00
         0.00000E+00
         0.00000E+00
         0.00000E+00
         0.00000E+00
         0.00000E+00
         0.00000E+00
         0.00000E+00
         0.00000E+00
         0.00000E+00
         0.00000E+00
         0.00000E+00
         0.00000E+00
         0.00000E+00
         0.00000E+00
         0.00000E+00
         0.00000E+00
         0.00000E+00
         0.00000E+00
         0.00000E+00
         0.00000E+00
         0.00000E+00
         0.00000E+00
         0.00000E+00
         0.00000E+00
         0.00000E+00
         0.00000E+00
         0.00000E+00
         0.00000E+00
         0.00000E+00
         0.00000E+00
         0.00000E+00
         0.00000E+00
         0.00000E+00
         0.00000E+00
         0.00000E+00
         0.00000E+00
         0.00000E+00
         0.00000E+00
         0.00000E+00
         0.00000E+00
         0.00000E+00
         0.00000E+00
         0.00000E+00
         0.00000E+00
         0.00000E+00
         0.00000E+00
         0.00000E+00
         0.00000E+00
         0.00000E+00
         0.00000E+00
         0.00000E+00
         0.00000E+00
         0.00000E+00
         0.00000E+00
         0.00000E+00
         0.00000E+00
         0.00000E+00
         0.00000E+00
         0.00000E+00
         0.00000E+00
         0.00000E+00
         0.00000E+00
         0.00000E+00
         0.00000E+00
         0.00000E+00
         0.00000E+00
         0.00000E+00
         0.00000E+00
         0.00000E+00
         0.00000E+00
         0.00000E+00
         0.00000E+00
         0.00000E+00
         0.00000E+00
         0.00000E+00
         0.00000E+00
         0.00000E+00
         0.00000E+00
         0.00000E+00
         0.00000E+00
         0.00000E+00
         0.00000E+00
         0.00000E+00
         0.00000E+00
         0.00000E+00
         0.00000E+00
         0.00000E+00
         0.00000E+00
         0.00000E+00
         0.00000E+00
         0.00000E+00
         0.00000E+00
         0.00000E+00
         0.00000E+00
         0.00000E+00
         0.00000E+00
         0.00000E+00
         0.00000E+00
         0.00000E+00
         0.00000E+00
         0.00000E+00
         0.00000E+00
         0.00000E+00
         0.00000E+00
         0.00000E+00
         0.00000E+00
         0.00000E+00
         0.00000E+00
         0.00000E+00
         0.00000E+00
         0.00000E+00
         0.00000E+00
         0.00000E+00
         0.00000E+00
         0.00000E+00
         0.00000E+00
         0.00000E+00
         0.00000E+00
         0.00000E+00
         0.00000E+00
         0.00000E+00
         0.00000E+00
         0.00000E+00
         0.00000E+00
         0.00000E+00
         0.00000E+00
         0.00000E+00
         0.00000E+00
         0.00000E+00
         0.00000E+00
         0.00000E+00
         0.00000E+00
         0.00000E+00
         0.00000E+00
         0.00000E+00
         0.00000E+00
         0.00000E+00
         0.00000E+00
         0.00000E+00
         0.00000E+00
         0.00000E+00
         0.00000E+00
         0.00000E+00
         0.00000E+00
         0.00000E+00
         0.00000E+00
         0.00000E+00
         0.00000E+00
         0.00000E+00
         0.00000E+00
         0.00000E+00
         0.00000E+00
         0.00000E+00
         0.00000E+00
         0.00000E+00
         0.00000E+00
         0.00000E+00
         0.00000E+00
         0.00000E+00
         0.00000E+00
         0.00000E+00
         0.00000E+00
         0.00000E+00
         0.00000E+00
         0.00000E+00
         0.00000E+00
         0.00000E+00
         0.00000E+00
         0.00000E+00
         0.00000E+00
         0.00000E+00
         0.00000E+00
         0.00000E+00
         0.00000E+00
         0.00000E+00
         0.00000E+00
         0.00000E+00
         0.00000E+00
         0.00000E+00
         0.00000E+00
         0.00000E+00
         0.00000E+00
         0.00000E+00
         0.00000E+00
         0.00000E+00
         0.00000E+00
         0.00000E+00
         0.00000E+00
         0.00000E+00
         0.00000E+00
         0.00000E+00
         0.00000E+00
         0.00000E+00
         0.00000E+00
         0.00000E+00
         0.00000E+00
         0.00000E+00
         0.00000E+00
         0.00000E+00
         0.00000E+00
         0.00000E+00
         0.00000E+00
         0.00000E+00
         0.00000E+00
         0.00000E+00
         0.00000E+00
         0.00000E+00
         0.00000E+00
         0.00000E+00
         0.00000E+00
         0.00000E+00
         0.00000E+00
         0.00000E+00
         0.00000E+00
         0.00000E+00
         0.00000E+00
         0.00000E+00
         0.00000E+00
         0.00000E+00
         0.00000E+00
         0.00000E+00
         0.00000E+00
         0.00000E+00
         0.00000E+00
         0.00000E+00
         0.00000E+00
         0.00000E+00
         0.00000E+00
         0.00000E+00
         0.00000E+00
         0.00000E+00
         0.00000E+00
         0.00000E+00
         0.00000E+00
         0.00000E+00
         0.00000E+00
         0.00000E+00
         0.00000E+00
         0.00000E+00
         0.00000E+00
         0.00000E+00
         0.00000E+00
         0.00000E+00
         0.00000E+00
         0.00000E+00
         0.00000E+00
         0.00000E+00
         0.00000E+00
         0.00000E+00
         0.00000E+00
         0.00000E+00
         0.00000E+00
         0.00000E+00
         0.00000E+00
         0.00000E+00
         0.00000E+00
         0.00000E+00
         0.00000E+00
         0.00000E+00
         0.00000E+00
         0.00000E+00
         0.00000E+00
         0.00000E+00
         0.00000E+00
         0.00000E+00
         0.00000E+00
         0.00000E+00
         0.00000E+00
         0.00000E+00
         0.00000E+00
         0.00000E+00
         0.00000E+00
         0.00000E+00
         0.00000E+00
         0.00000E+00
         0.00000E+00
         0.00000E+00
         0.00000E+00
         0.00000E+00
         0.00000E+00
         0.00000E+00
         0.00000E+00
         0.00000E+00
         0.00000E+00
         0.00000E+00
         0.00000E+00
         0.00000E+00
         0.00000E+00
         0.00000E+00
         0.00000E+00
         0.00000E+00
         0.00000E+00
         0.00000E+00
         0.00000E+00
         0.00000E+00
         0.00000E+00
         0.00000E+00
         0.00000E+00
         0.00000E+00
         0.00000E+00
         0.00000E+00
         0.00000E+00
         0.00000E+00
         0.00000E+00
         0.00000E+00
         0.00000E+00
         0.00000E+00
         0.00000E+00
         0.00000E+00
         0.00000E+00
         0.00000E+00
         0.00000E+00
         0.00000E+00
         0.00000E+00
         0.00000E+00
         0.00000E+00
         0.00000E+00
         0.00000E+00
         0.00000E+00
         0.00000E+00
         0.00000E+00
         0.00000E+00
         0.00000E+00
         0.00000E+00
         0.00000E+00
         0.00000E+00
         0.00000E+00
         0.00000E+00
         0.00000E+00
         0.00000E+00
         0.00000E+00
         0.00000E+00
         0.00000E+00
         0.00000E+00
         0.00000E+00
         0.00000E+00
         0.00000E+00
         0.00000E+00
         0.00000E+00
         0.00000E+00
         0.00000E+00
         0.00000E+00
         0.00000E+00
         0.00000E+00
         0.00000E+00
         0.00000E+00
         0.00000E+00
         0.00000E+00
         0.00000E+00
         0.00000E+00
         0.00000E+00
         0.00000E+00
         0.00000E+00
         0.00000E+00
         0.00000E+00
         0.00000E+00
         0.00000E+00
         0.00000E+00
         0.00000E+00
         0.00000E+00
         0.00000E+00
         0.00000E+00
         0.00000E+00
         0.00000E+00
         0.00000E+00
         0.00000E+00
         0.00000E+00
         0.00000E+00
         0.00000E+00
         0.00000E+00
         0.00000E+00
         0.00000E+00
         0.00000E+00
         0.00000E+00
         0.00000E+00
         0.00000E+00
         0.00000E+00
         0.00000E+00
         0.00000E+00
         0.00000E+00
         0.00000E+00
         0.00000E+00
         0.00000E+00
         0.00000E+00
         0.00000E+00
         0.00000E+00
         0.00000E+00
         0.00000E+00
         0.00000E+00
         0.00000E+00
         0.00000E+00
         0.00000E+00
         0.00000E+00
         0.00000E+00
         0.00000E+00
         0.00000E+00
         0.00000E+00
         0.00000E+00
         0.00000E+00
         0.00000E+00
         0.00000E+00
         0.00000E+00
         0.00000E+00
         0.00000E+00
         0.00000E+00
         0.00000E+00
         0.00000E+00
         0.00000E+00
         0.00000E+00
         0.00000E+00
         0.00000E+00
         0.00000E+00
         0.00000E+00
         0.00000E+00
         0.00000E+00
         0.00000E+00
         0.00000E+00
         0.00000E+00
         0.00000E+00
         0.00000E+00
         0.00000E+00
         0.00000E+00
         0.00000E+00
         0.00000E+00
         0.00000E+00
         0.00000E+00
         0.00000E+00
         0.00000E+00
         0.00000E+00
         0.00000E+00
         0.00000E+00
         0.00000E+00
         0.00000E+00
         0.00000E+00
         0.00000E+00
         0.00000E+00
         0.00000E+00
         0.00000E+00
         0.00000E+00
         0.00000E+00
         0.00000E+00
         0.00000E+00
         0.00000E+00
         0.00000E+00
         0.00000E+00
         0.00000E+00
         0.00000E+00
         0.00000E+00
         0.00000E+00
         0.00000E+00
         0.00000E+00
         0.00000E+00
         0.00000E+00
         0.00000E+00
         0.00000E+00
         0.00000E+00
         0.00000E+00
         0.00000E+00
         0.00000E+00
         0.00000E+00
         0.00000E+00
         0.00000E+00
         0.00000E+00
         0.00000E+00
         0.00000E+00
         0.00000E+00
         0.00000E+00
         0.00000E+00
         0.00000E+00
         0.00000E+00
         0.00000E+00
         0.00000E+00
         0.00000E+00
         0.00000E+00
         0.00000E+00
         0.00000E+00
         0.00000E+00
         0.00000E+00
         0.00000E+00
         0.00000E+00
         0.00000E+00
         0.00000E+00
         0.00000E+00
         0.00000E+00
         0.00000E+00
         0.00000E+00
         0.00000E+00
         0.00000E+00
         0.00000E+00
         0.00000E+00
         0.00000E+00
         0.00000E+00
         0.00000E+00
         0.00000E+00
         0.00000E+00
         0.00000E+00
         0.00000E+00
         0.00000E+00
         0.00000E+00
         0.00000E+00
         0.00000E+00
         0.00000E+00
         0.00000E+00
         0.00000E+00
         0.00000E+00
         0.00000E+00
         0.00000E+00
         0.00000E+00
         0.00000E+00
         0.00000E+00
         0.00000E+00
         0.00000E+00
         0.00000E+00
         0.00000E+00
         0.00000E+00
         0.00000E+00
         0.00000E+00
         0.00000E+00
         0.00000E+00
         0.00000E+00
         0.00000E+00
         0.00000E+00
         0.00000E+00
         0.00000E+00
         0.00000E+00
         0.00000E+00
         0.00000E+00
         0.00000E+00
         0.00000E+00
         0.00000E+00
         0.00000E+00
         0.00000E+00
         0.00000E+00
         0.00000E+00
         0.00000E+00
         0.00000E+00
         0.00000E+00
         0.00000E+00
         0.00000E+00
         0.00000E+00
         0.00000E+00
         0.00000E+00
         0.00000E+00
         0.00000E+00
         0.00000E+00
         0.00000E+00
         0.00000E+00
         0.00000E+00
         0.00000E+00
         0.00000E+00
         0.00000E+00
         0.00000E+00
         0.00000E+00
         0.00000E+00
         0.00000E+00
         0.00000E+00
         0.00000E+00
         0.00000E+00
         0.00000E+00
         0.00000E+00
         0.00000E+00
         0.00000E+00
         0.00000E+00
         0.00000E+00
         0.00000E+00
         0.00000E+00
         0.00000E+00
         0.00000E+00
         0.00000E+00
         0.00000E+00
         0.00000E+00
         0.00000E+00
         0.00000E+00
         0.00000E+00
         0.00000E+00
         0.00000E+00
         0.00000E+00
         0.00000E+00
         0.00000E+00
         0.00000E+00
         0.00000E+00
         0.00000E+00
         0.00000E+00
         0.00000E+00
         0.00000E+00
         0.00000E+00
         0.00000E+00
         0.00000E+00
         0.00000E+00
         0.00000E+00
         0.00000E+00
         0.00000E+00
         0.00000E+00
         0.00000E+00
         0.00000E+00
         0.00000E+00
         0.00000E+00
         0.00000E+00
         0.00000E+00
         0.00000E+00
         0.00000E+00
         0.00000E+00
         0.00000E+00
         0.00000E+00
         0.00000E+00
         0.00000E+00
         0.00000E+00
         0.00000E+00
         0.00000E+00
         0.00000E+00
         0.00000E+00
         0.00000E+00
         0.00000E+00
         0.00000E+00
         0.00000E+00
         0.00000E+00
         0.00000E+00
         0.00000E+00
         0.00000E+00
         0.00000E+00
         0.00000E+00
         0.00000E+00
         0.00000E+00
         0.00000E+00
         0.00000E+00
         0.00000E+00
         0.00000E+00
         0.00000E+00
         0.00000E+00
         0.00000E+00
         0.00000E+00
         0.00000E+00
         0.00000E+00
         0.00000E+00
         0.00000E+00
         0.00000E+00
         0.00000E+00
         0.00000E+00
         0.00000E+00
         0.00000E+00
         0.00000E+00
         0.00000E+00
         0.00000E+00
         0.00000E+00
         0.00000E+00
         0.00000E+00
         0.00000E+00
         0.00000E+00
         0.00000E+00
         0.00000E+00
         0.00000E+00
         0.00000E+00
         0.00000E+00
         0.00000E+00
         0.00000E+00
         0.00000E+00
         0.00000E+00
         0.00000E+00
         0.00000E+00
         0.00000E+00
         0.00000E+00
         0.00000E+00
         0.00000E+00
         0.00000E+00
         0.00000E+00
         0.00000E+00
         0.00000E+00
         0.00000E+00
         0.00000E+00
         0.00000E+00
         0.00000E+00
         0.00000E+00
         0.00000E+00
         0.00000E+00
         0.00000E+00
         0.00000E+00
         0.00000E+00
         0.00000E+00
         0.00000E+00
         0.00000E+00
         0.00000E+00
         0.00000E+00
         0.00000E+00
         0.00000E+00
         0.00000E+00
         0.00000E+00
         0.00000E+00
         0.00000E+00
         0.00000E+00
         0.00000E+00
         0.00000E+00
         0.00000E+00
         0.00000E+00
         0.00000E+00
         0.00000E+00
         0.00000E+00
         0.00000E+00
         0.00000E+00
         0.00000E+00
         0.00000E+00
         0.00000E+00
         0.00000E+00
         0.00000E+00
         0.00000E+00
         0.00000E+00
         0.00000E+00
         0.00000E+00
         0.00000E+00
         0.00000E+00
         0.00000E+00
         0.00000E+00
         0.00000E+00
         0.00000E+00
         0.00000E+00
         0.00000E+00
         0.00000E+00
         0.00000E+00
         0.00000E+00
         0.00000E+00
         0.00000E+00
         0.00000E+00
         0.00000E+00
         0.00000E+00
         0.00000E+00
         0.00000E+00
         0.00000E+00
         0.00000E+00
         0.00000E+00
         0.00000E+00
         0.00000E+00
         0.00000E+00
         0.00000E+00
         0.00000E+00
         0.00000E+00
         0.00000E+00
         0.00000E+00
         0.00000E+00
         0.00000E+00
         0.00000E+00
         0.00000E+00
         0.00000E+00
         0.00000E+00
         0.00000E+00
         0.00000E+00
         0.00000E+00
         0.00000E+00
         0.00000E+00
         0.00000E+00
         0.00000E+00
         0.00000E+00
         0.00000E+00
         0.00000E+00
         0.00000E+00
         0.00000E+00
         0.00000E+00
         0.00000E+00
         0.00000E+00
         0.00000E+00
         0.00000E+00
         0.00000E+00
         0.00000E+00
         0.00000E+00
         0.00000E+00
         0.00000E+00
         0.00000E+00
         0.00000E+00
         0.00000E+00
         0.00000E+00
         0.00000E+00
         0.00000E+00
         0.00000E+00
         0.00000E+00
         0.00000E+00
         0.00000E+00
         0.00000E+00
         0.00000E+00
         0.00000E+00
         0.00000E+00
         0.00000E+00
         0.00000E+00
         0.00000E+00
         0.00000E+00
         0.00000E+00
         0.00000E+00
         0.00000E+00
         0.00000E+00
         0.00000E+00
         0.00000E+00
         0.00000E+00
         0.00000E+00
         0.00000E+00
         0.00000E+00
         0.00000E+00
         0.00000E+00
         0.00000E+00
         0.00000E+00
         0.00000E+00
         0.00000E+00
         0.00000E+00
         0.00000E+00
         0.00000E+00
         0.00000E+00
         0.00000E+00
         0.00000E+00
         0.00000E+00
         0.00000E+00
         0.00000E+00
         0.00000E+00
         0.00000E+00
         0.00000E+00
         0.00000E+00
         0.00000E+00
         0.00000E+00
         0.00000E+00
         0.00000E+00
         0.00000E+00
         0.00000E+00
         0.00000E+00
         0.00000E+00
         0.00000E+00
         0.00000E+00
         0.00000E+00
         0.00000E+00
         0.00000E+00
         0.00000E+00
         0.00000E+00
         0.00000E+00
         0.00000E+00
         0.00000E+00
         0.00000E+00
         0.00000E+00
         0.00000E+00
         0.00000E+00
         0.00000E+00
         0.00000E+00
         0.00000E+00
         0.00000E+00
         0.00000E+00
         0.00000E+00
         0.00000E+00
         0.00000E+00
         0.00000E+00
         0.00000E+00
         0.00000E+00
         0.00000E+00
         0.00000E+00
         0.00000E+00
         0.00000E+00
         0.00000E+00
         0.00000E+00
         0.00000E+00
         0.00000E+00
         0.00000E+00
         0.00000E+00
         0.00000E+00
         0.00000E+00
         0.00000E+00
         0.00000E+00
         0.00000E+00
         0.00000E+00
         0.00000E+00
         0.00000E+00
         0.00000E+00
         0.00000E+00
         0.00000E+00
         0.00000E+00
         0.00000E+00
         0.00000E+00
         0.00000E+00
         0.00000E+00
         0.00000E+00
         0.00000E+00
         0.00000E+00
         0.00000E+00
         0.00000E+00
         0.00000E+00
         0.00000E+00
         0.00000E+00
         0.00000E+00
         0.00000E+00
         0.00000E+00
         0.00000E+00
         0.00000E+00
         0.00000E+00
         0.00000E+00
         0.00000E+00
         0.00000E+00
         0.00000E+00
         0.00000E+00
         0.00000E+00
         0.00000E+00
         0.00000E+00
         0.00000E+00
         0.00000E+00
         0.00000E+00
         0.00000E+00
         0.00000E+00
         0.00000E+00
         0.00000E+00
         0.00000E+00
         0.00000E+00
         0.00000E+00
         0.00000E+00
         0.00000E+00
         0.00000E+00
         0.00000E+00
         0.00000E+00
         0.00000E+00
         0.00000E+00
         0.00000E+00
         0.00000E+00
         0.00000E+00
         0.00000E+00
         0.00000E+00
         0.00000E+00
         0.00000E+00
         0.00000E+00
         0.00000E+00
         0.00000E+00
         0.00000E+00
         0.00000E+00
         0.00000E+00
         0.00000E+00
         0.00000E+00
         0.00000E+00
         0.00000E+00
         0.00000E+00
         0.00000E+00
         0.00000E+00
         0.00000E+00
         0.00000E+00
         0.00000E+00
         0.00000E+00
         0.00000E+00
         0.00000E+00
         0.00000E+00
         0.00000E+00
         0.00000E+00
         0.00000E+00
         0.00000E+00
         0.00000E+00
         0.00000E+00
         0.00000E+00
         0.00000E+00
         0.00000E+00
         0.00000E+00
         0.00000E+00
         0.00000E+00
         0.00000E+00
         0.00000E+00
         0.00000E+00
         0.00000E+00
         0.00000E+00
         0.00000E+00
         0.00000E+00
         0.00000E+00
         0.00000E+00
         0.00000E+00
         0.00000E+00
         0.00000E+00
         0.00000E+00
         0.00000E+00
         0.00000E+00
         0.00000E+00
         0.00000E+00
         0.00000E+00
         0.00000E+00
         0.00000E+00
         0.00000E+00
         0.00000E+00
         0.00000E+00
         0.00000E+00
         0.00000E+00
         0.00000E+00
         0.00000E+00
         0.00000E+00
         0.00000E+00
         0.00000E+00
         0.00000E+00
         0.00000E+00
         0.00000E+00
         0.00000E+00
         0.00000E+00
         0.00000E+00
         0.00000E+00
         0.00000E+00
         0.00000E+00
         0.00000E+00
         0.00000E+00
         0.00000E+00
         0.00000E+00
         0.00000E+00
         0.00000E+00
         0.00000E+00
         0.00000E+00
         0.00000E+00
         0.00000E+00
         0.00000E+00
         0.00000E+00
         0.00000E+00
         0.00000E+00
         0.00000E+00
         0.00000E+00
         0.00000E+00
         0.00000E+00
         0.00000E+00
         0.00000E+00
         0.00000E+00
         0.00000E+00
         0.00000E+00
         0.00000E+00
         0.00000E+00
         0.00000E+00
         0.00000E+00
         0.00000E+00
         0.00000E+00
         0.00000E+00
         0.00000E+00
         0.00000E+00
         0.00000E+00
         0.00000E+00
         0.00000E+00
         0.00000E+00
         0.00000E+00
         0.00000E+00
         0.00000E+00
         0.00000E+00
         0.00000E+00
         0.00000E+00
         0.00000E+00
         0.00000E+00
         0.00000E+00
         0.00000E+00
         0.00000E+00
         0.00000E+00
         0.00000E+00
         0.00000E+00
         0.00000E+00
         0.00000E+00
         0.00000E+00
         0.00000E+00
         0.00000E+00
         0.00000E+00
         0.00000E+00
         0.00000E+00
         0.00000E+00
         0.00000E+00
         0.00000E+00
         0.00000E+00
         0.00000E+00
         0.00000E+00
         0.00000E+00
         0.00000E+00
         0.00000E+00
         0.00000E+00
         0.00000E+00
         0.00000E+00
         0.00000E+00
         0.00000E+00
         0.00000E+00
         0.00000E+00
         0.00000E+00
         0.00000E+00
         0.00000E+00
         0.00000E+00
         0.00000E+00
         0.00000E+00
         0.00000E+00
         0.00000E+00
         0.00000E+00
         0.00000E+00
         0.00000E+00
         0.00000E+00
         0.00000E+00
         0.00000E+00
         0.00000E+00
         0.00000E+00
         0.00000E+00
         0.00000E+00
         0.00000E+00
         0.00000E+00
         0.00000E+00
         0.00000E+00
         0.00000E+00
         0.00000E+00
         0.00000E+00
         0.00000E+00
         0.00000E+00
         0.00000E+00
         0.00000E+00
         0.00000E+00
         0.00000E+00
         0.00000E+00
         0.00000E+00
         0.00000E+00
         0.00000E+00
         0.00000E+00
         0.00000E+00
         0.00000E+00
         0.00000E+00
         0.00000E+00
         0.00000E+00
         0.00000E+00
         0.00000E+00
         0.00000E+00
         0.00000E+00
         0.00000E+00
         0.00000E+00
         0.00000E+00
         0.00000E+00
         0.00000E+00
         0.00000E+00
         0.00000E+00
         0.00000E+00
         0.00000E+00
         0.00000E+00
         0.00000E+00
         0.00000E+00
         0.00000E+00
         0.00000E+00
         0.00000E+00
         0.00000E+00
         0.00000E+00
         0.00000E+00
         0.00000E+00
         0.00000E+00
         0.00000E+00
         0.00000E+00
         0.00000E+00
         0.00000E+00
         0.00000E+00
         0.00000E+00
         0.00000E+00
         0.00000E+00
         0.00000E+00
         0.00000E+00
         0.00000E+00
         0.00000E+00
         0.00000E+00
         0.00000E+00
         0.00000E+00
         0.00000E+00
         0.00000E+00
         0.00000E+00
         0.00000E+00
         0.00000E+00
         0.00000E+00
         0.00000E+00
         0.00000E+00
         0.00000E+00
         0.00000E+00
         0.00000E+00
         0.00000E+00
         0.00000E+00
         0.00000E+00
         0.00000E+00
         0.00000E+00
         0.00000E+00
         0.00000E+00
         0.00000E+00
         0.00000E+00
         0.00000E+00
         0.00000E+00
         0.00000E+00
         0.00000E+00
         0.00000E+00
         0.00000E+00
         0.00000E+00
         0.00000E+00
         0.00000E+00
         0.00000E+00
         0.00000E+00
         0.00000E+00
         0.00000E+00
         0.00000E+00
         0.00000E+00
         0.00000E+00
         0.00000E+00
         0.00000E+00
         0.00000E+00
         0.00000E+00
         0.00000E+00
         0.00000E+00
         0.00000E+00
         0.00000E+00
         0.00000E+00
         0.00000E+00
         0.00000E+00
         0.00000E+00
         0.00000E+00
         0.00000E+00
         0.00000E+00
         0.00000E+00
         0.00000E+00
         0.00000E+00
         0.00000E+00
         0.00000E+00
         0.00000E+00
         0.00000E+00
         0.00000E+00
         0.00000E+00
         0.00000E+00
         0.00000E+00
         0.00000E+00
         0.00000E+00
         0.00000E+00
         0.00000E+00
         0.00000E+00
         0.00000E+00
         0.00000E+00
         0.00000E+00
         0.00000E+00
         0.00000E+00
         0.00000E+00
         0.00000E+00
         0.00000E+00
         0.00000E+00
         0.00000E+00
         0.00000E+00
         0.00000E+00
         0.00000E+00
         0.00000E+00
         0.00000E+00
         0.00000E+00
         0.00000E+00
         0.00000E+00
         0.00000E+00
         0.00000E+00
         0.00000E+00
         0.00000E+00
         0.00000E+00
         0.00000E+00
         0.00000E+00
         0.00000E+00
         0.00000E+00
         0.00000E+00
         0.00000E+00
         0.00000E+00
         0.00000E+00
         0.00000E+00
         0.00000E+00
         0.00000E+00
         0.00000E+00
         0.00000E+00
         0.00000E+00
         0.00000E+00
         0.00000E+00
         0.00000E+00
         0.00000E+00
         0.00000E+00
         0.00000E+00
         0.00000E+00
         0.00000E+00
         0.00000E+00
         0.00000E+00
         0.00000E+00
         0.00000E+00
         0.00000E+00
         0.00000E+00
         0.00000E+00
         0.00000E+00
         0.00000E+00
         0.00000E+00
         0.00000E+00
         0.00000E+00
         0.00000E+00
         0.00000E+00
         0.00000E+00
         0.00000E+00
         0.00000E+00
         0.00000E+00
         0.00000E+00
         0.00000E+00
         0.00000E+00
         0.00000E+00
         0.00000E+00
         0.00000E+00
         0.00000E+00
         0.00000E+00
         0.00000E+00
         0.00000E+00
         0.00000E+00
         0.00000E+00
         0.00000E+00
         0.00000E+00
         0.00000E+00
         0.00000E+00
         0.00000E+00
         0.00000E+00
         0.00000E+00
         0.00000E+00
         0.00000E+00
         0.00000E+00
         0.00000E+00
         0.00000E+00
         0.00000E+00
         0.00000E+00
         0.00000E+00
         0.00000E+00
         0.00000E+00
         0.00000E+00
         0.00000E+00
         0.00000E+00
         0.00000E+00
         0.00000E+00
         0.00000E+00
         0.00000E+00
         0.00000E+00
         0.00000E+00
         0.00000E+00
         0.00000E+00
         0.00000E+00
         0.00000E+00
         0.00000E+00
         0.00000E+00
         0.00000E+00
         0.00000E+00
         0.00000E+00
         0.00000E+00
         0.00000E+00
         0.00000E+00
         0.00000E+00
         0.00000E+00
         0.00000E+00
         0.00000E+00
         0.00000E+00
         0.00000E+00
         0.00000E+00
         0.00000E+00
         0.00000E+00
         0.00000E+00
         0.00000E+00
         0.00000E+00
         0.00000E+00
         0.00000E+00
         0.00000E+00
         0.00000E+00
         0.00000E+00
         0.00000E+00
         0.00000E+00
         0.00000E+00
         0.00000E+00
         0.00000E+00
         0.00000E+00
         0.00000E+00
         0.00000E+00
         0.00000E+00
         0.00000E+00
         0.00000E+00
         0.00000E+00
         0.00000E+00
         0.00000E+00
         0.00000E+00
         0.00000E+00
         0.00000E+00
         0.00000E+00
         0.00000E+00
         0.00000E+00
         0.00000E+00
         0.00000E+00
         0.00000E+00
         0.00000E+00
         0.00000E+00
         0.00000E+00
         0.00000E+00
         0.00000E+00
         0.00000E+00
         0.00000E+00
         0.00000E+00
         0.00000E+00
         0.00000E+00
         0.00000E+00
         0.00000E+00
         0.00000E+00
         0.00000E+00
         0.00000E+00
         0.00000E+00
         0.00000E+00
         0.00000E+00
         0.00000E+00
         0.00000E+00
         0.00000E+00
         0.00000E+00
         0.00000E+00
         0.00000E+00
         0.00000E+00
         0.00000E+00
         0.00000E+00
         0.00000E+00
         0.00000E+00
         0.00000E+00
         0.00000E+00
         0.00000E+00
         0.00000E+00
         0.00000E+00
         0.00000E+00
         0.00000E+00
         0.00000E+00
         0.00000E+00
         0.00000E+00
         0.00000E+00
         0.00000E+00
         0.00000E+00
         0.00000E+00
         0.00000E+00
         0.00000E+00
         0.00000E+00
         0.00000E+00
         0.00000E+00
         0.00000E+00
         0.00000E+00
         0.00000E+00
         0.00000E+00
         0.00000E+00
         0.00000E+00
         0.00000E+00
         0.00000E+00
         0.00000E+00
         0.00000E+00
         0.00000E+00
         0.00000E+00
         0.00000E+00
         0.00000E+00
         0.00000E+00
         0.00000E+00
         0.00000E+00
         0.00000E+00
         0.00000E+00
         0.00000E+00
         0.00000E+00
         0.00000E+00
         0.00000E+00
         0.00000E+00
         0.00000E+00
         0.00000E+00
         0.00000E+00
         0.00000E+00
         0.00000E+00
         0.00000E+00
         0.00000E+00
         0.00000E+00
         0.00000E+00
         0.00000E+00
         0.00000E+00
         0.00000E+00
         0.00000E+00
         0.00000E+00
         0.00000E+00
         0.00000E+00
         0.00000E+00
         0.00000E+00
         0.00000E+00
         0.00000E+00
         0.00000E+00
         0.00000E+00
         0.00000E+00
         0.00000E+00
         0.00000E+00
         0.00000E+00
         0.00000E+00
         0.00000E+00
         0.00000E+00
         0.00000E+00
         0.00000E+00
         0.00000E+00
         0.00000E+00
         0.00000E+00
         0.00000E+00
         0.00000E+00
         0.00000E+00
         0.00000E+00
         0.00000E+00
         0.00000E+00
         0.00000E+00
         0.00000E+00
         0.00000E+00
         0.00000E+00
         0.00000E+00
         0.00000E+00
         0.00000E+00
         0.00000E+00
         0.00000E+00
         0.00000E+00
         0.00000E+00
         0.00000E+00
         0.00000E+00
         0.00000E+00
         0.00000E+00
         0.00000E+00
         0.00000E+00
         0.00000E+00
         0.00000E+00
         0.00000E+00
         0.00000E+00
         0.00000E+00
         0.00000E+00
         0.00000E+00
         0.00000E+00
         0.00000E+00
         0.00000E+00
         0.00000E+00
         0.00000E+00
         0.00000E+00
         0.00000E+00
         0.00000E+00
         0.00000E+00
         0.00000E+00
         0.00000E+00
         0.00000E+00
         0.00000E+00
         0.00000E+00
         0.00000E+00
         0.00000E+00
         0.00000E+00
         0.00000E+00
         0.00000E+00
         0.00000E+00
         0.00000E+00
         0.00000E+00
         0.00000E+00
         0.00000E+00
         0.00000E+00
         0.00000E+00
         0.00000E+00
         0.00000E+00
         0.00000E+00
         0.00000E+00
         0.00000E+00
         0.00000E+00
         0.00000E+00
         0.00000E+00
         0.00000E+00
         0.00000E+00
         0.00000E+00
         0.00000E+00
         0.00000E+00
         0.00000E+00
         0.00000E+00
         0.00000E+00
         0.00000E+00
         0.00000E+00
         0.00000E+00
         0.00000E+00
         0.00000E+00
         0.00000E+00
         0.00000E+00
         0.00000E+00
         0.00000E+00
         0.00000E+00
         0.00000E+00
         0.00000E+00
         0.00000E+00
         0.00000E+00
         0.00000E+00
         0.00000E+00
         0.00000E+00
         0.00000E+00
         0.00000E+00
         0.00000E+00
         0.00000E+00
         0.00000E+00
         0.00000E+00
         0.00000E+00
         0.00000E+00
         0.00000E+00
         0.00000E+00
         0.00000E+00
         0.00000E+00
         0.00000E+00
         0.00000E+00
         0.00000E+00
         0.00000E+00
         0.00000E+00
         0.00000E+00
         0.00000E+00
         0.00000E+00
         0.00000E+00
         0.00000E+00
         0.00000E+00
         0.00000E+00
         0.00000E+00
         0.00000E+00
         0.00000E+00
         0.00000E+00
         0.00000E+00
         0.00000E+00
         0.00000E+00
         0.00000E+00
         0.00000E+00
         0.00000E+00
         0.00000E+00
         0.00000E+00
         0.00000E+00
         0.00000E+00
         0.00000E+00
         0.00000E+00
         0.00000E+00
         0.00000E+00
         0.00000E+00
         0.00000E+00
         0.00000E+00
         0.00000E+00
         0.00000E+00
         0.00000E+00
         0.00000E+00
         0.00000E+00
         0.00000E+00
         0.00000E+00
         0.00000E+00
         0.00000E+00
         0.00000E+00
         0.00000E+00
         0.00000E+00
         0.00000E+00
         0.00000E+00
         0.00000E+00
         0.00000E+00
         0.00000E+00
         0.00000E+00
         0.00000E+00
         0.00000E+00
         0.00000E+00
         0.00000E+00
         0.00000E+00
         0.00000E+00
         0.00000E+00
         0.00000E+00
         0.00000E+00
         0.00000E+00
         0.00000E+00
         0.00000E+00
         0.00000E+00
         0.00000E+00
         0.00000E+00
         0.00000E+00
         0.00000E+00
         0.00000E+00
         0.00000E+00
         0.00000E+00
         0.00000E+00
         0.00000E+00
         0.00000E+00
         0.00000E+00
         0.00000E+00
         0.00000E+00
         0.00000E+00
         0.00000E+00
         0.00000E+00
         0.00000E+00
         0.00000E+00
         0.00000E+00
         0.00000E+00
         0.00000E+00
         0.00000E+00
         0.00000E+00
         0.00000E+00
         0.00000E+00
         0.00000E+00
         0.00000E+00
         0.00000E+00
         0.00000E+00
         0.00000E+00
         0.00000E+00
         0.00000E+00
         0.00000E+00
         0.00000E+00
         0.00000E+00
         0.00000E+00
         0.00000E+00
         0.00000E+00
         0.00000E+00
         0.00000E+00
         0.00000E+00
         0.00000E+00
         0.00000E+00
         0.00000E+00
         0.00000E+00
         0.00000E+00
         0.00000E+00
         0.00000E+00
         0.00000E+00
         0.00000E+00
         0.00000E+00
         0.00000E+00
         0.00000E+00
         0.00000E+00
         0.00000E+00
         0.00000E+00
         0.00000E+00
         0.00000E+00
         0.00000E+00
         0.00000E+00
         0.00000E+00
         0.00000E+00
         0.00000E+00
         0.00000E+00
         0.00000E+00
         0.00000E+00
         0.00000E+00
         0.00000E+00
         0.00000E+00
         0.00000E+00
         0.00000E+00
         0.00000E+00
         0.00000E+00
         0.00000E+00
         0.00000E+00
         0.00000E+00
         0.00000E+00
         0.00000E+00
         0.00000E+00
         0.00000E+00
         0.00000E+00
         0.00000E+00
         0.00000E+00
         0.00000E+00
         0.00000E+00
         0.00000E+00
         0.00000E+00
         0.00000E+00
         0.00000E+00
         0.00000E+00
         0.00000E+00
         0.00000E+00
         0.00000E+00
         0.00000E+00
         0.00000E+00
         0.00000E+00
         0.00000E+00
         0.00000E+00
         0.00000E+00
         0.00000E+00
         0.00000E+00
         0.00000E+00
         0.00000E+00
         0.00000E+00
         0.00000E+00
         0.00000E+00
         0.00000E+00
         0.00000E+00
         0.00000E+00
         0.00000E+00
         0.00000E+00
         0.00000E+00
         0.00000E+00
         0.00000E+00
         0.00000E+00
         0.00000E+00
         0.00000E+00
         0.00000E+00
         0.00000E+00
         0.00000E+00
         0.00000E+00
         0.00000E+00
         0.00000E+00
         0.00000E+00
         0.00000E+00
         0.00000E+00
         0.00000E+00
         0.00000E+00
         0.00000E+00
         0.00000E+00
         0.00000E+00
         0.00000E+00
         0.00000E+00
         0.00000E+00
         0.00000E+00
         0.00000E+00
         0.00000E+00
         0.00000E+00
         0.00000E+00
         0.00000E+00
         0.00000E+00
         0.00000E+00
         0.00000E+00
         0.00000E+00
         0.00000E+00
         0.00000E+00
         0.00000E+00
         0.00000E+00
         0.00000E+00
         0.00000E+00
         0.00000E+00
         0.00000E+00
         0.00000E+00
         0.00000E+00
         0.00000E+00
         0.00000E+00
         0.00000E+00
         0.00000E+00
         0.00000E+00
         0.00000E+00
         0.00000E+00
         0.00000E+00
         0.00000E+00
         0.00000E+00
         0.00000E+00
         0.00000E+00
         0.00000E+00
         0.00000E+00
         0.00000E+00
         0.00000E+00
         0.00000E+00
         0.00000E+00
         0.00000E+00
         0.00000E+00
         0.00000E+00
         0.00000E+00
         0.00000E+00
         0.00000E+00
         0.00000E+00
         0.00000E+00
         0.00000E+00
         0.00000E+00
         0.00000E+00
         0.00000E+00
         0.00000E+00
         0.00000E+00
         0.00000E+00
         0.00000E+00
         0.00000E+00
         0.00000E+00
         0.00000E+00
         0.00000E+00
         0.00000E+00
         0.00000E+00
         0.00000E+00
         0.00000E+00
         0.00000E+00
         0.00000E+00
         0.00000E+00
         0.00000E+00
         0.00000E+00
         0.00000E+00
         0.00000E+00
         0.00000E+00
         0.00000E+00
         0.00000E+00
         0.00000E+00
         0.00000E+00
         0.00000E+00
         0.00000E+00
         0.00000E+00
         0.00000E+00
         0.00000E+00
         0.00000E+00
         0.00000E+00
         0.00000E+00
         0.00000E+00
         0.00000E+00
         0.00000E+00
         0.00000E+00
         0.00000E+00
         0.00000E+00
         0.00000E+00
         0.00000E+00
         0.00000E+00
         0.00000E+00
         0.00000E+00
         0.00000E+00
         0.00000E+00
         0.00000E+00
         0.00000E+00
         0.00000E+00
         0.00000E+00
         0.00000E+00
         0.00000E+00
         0.00000E+00
         0.00000E+00
         0.00000E+00
         0.00000E+00
         0.00000E+00
         0.00000E+00
         0.00000E+00
         0.00000E+00
         0.00000E+00
         0.00000E+00
         0.00000E+00
         0.00000E+00
         0.00000E+00
         0.00000E+00
         0.00000E+00
         0.00000E+00
         0.00000E+00
         0.00000E+00
         0.00000E+00
         0.00000E+00
         0.00000E+00
         0.00000E+00
         0.00000E+00
         0.00000E+00
         0.00000E+00
         0.00000E+00
         0.00000E+00
         0.00000E+00
         0.00000E+00
         0.00000E+00
         0.00000E+00
         0.00000E+00
         0.00000E+00
         0.00000E+00
         0.00000E+00
         0.00000E+00
         0.00000E+00
         0.00000E+00
         0.00000E+00
         0.00000E+00
         0.00000E+00
         0.00000E+00
         0.00000E+00
         0.00000E+00
         0.00000E+00
         0.00000E+00
         0.00000E+00
         0.00000E+00
         0.00000E+00
         0.00000E+00
         0.00000E+00
         0.00000E+00
         0.00000E+00
         0.00000E+00
         0.00000E+00
         0.00000E+00
         0.00000E+00
         0.00000E+00
         0.00000E+00
         0.00000E+00
         0.00000E+00
         0.00000E+00
         0.00000E+00
         0.00000E+00
         0.00000E+00
         0.00000E+00
         0.00000E+00
         0.00000E+00
         0.00000E+00
         0.00000E+00
         0.00000E+00
         0.00000E+00
         0.00000E+00
  
SCALARS                            eps  double 1
LOOKUP_TABLE default
         0.20390E+00
         0.25765E+00
         0.24137E+00
         0.18692E+00
         0.00000E+00
         0.00000E+00
         0.00000E+00
         0.00000E+00
         0.26913E+00
         0.23060E+00
         0.00000E+00
         0.00000E+00
         0.25325E+00
         0.21361E+00
         0.00000E+00
         0.00000E+00
         0.17163E+00
         0.19072E+00
         0.00000E+00
         0.00000E+00
         0.24130E+00
         0.27575E+00
         0.29317E+00
         0.00000E+00
         0.00000E+00
         0.00000E+00
         0.20044E+00
         0.22385E+00
         0.00000E+00
         0.00000E+00
         0.15257E+00
         0.17570E+00
         0.15689E+00
         0.00000E+00
         0.00000E+00
         0.00000E+00
         0.18215E+00
         0.19164E+00
         0.00000E+00
         0.00000E+00
         0.24297E+00
         0.21322E+00
         0.00000E+00
         0.00000E+00
         0.26072E+00
         0.19931E+00
         0.00000E+00
         0.00000E+00
         0.19681E+00
         0.00000E+00
         0.18567E+00
         0.00000E+00
         0.17441E+00
         0.00000E+00
         0.18166E+00
         0.00000E+00
         0.21056E+00
         0.19351E+00
         0.00000E+00
         0.00000E+00
         0.16959E+00
         0.19910E+00
         0.00000E+00
         0.00000E+00
         0.15339E+00
         0.00000E+00
         0.15301E+00
         0.00000E+00
         0.31913E+00
         0.28843E+00
         0.00000E+00
         0.00000E+00
         0.28074E+00
         0.00000E+00
         0.16946E+00
         0.00000E+00
         0.22035E+00
         0.00000E+00
         0.36244E+00
         0.00000E+00
         0.55492E+00
         0.35921E+00
         0.00000E+00
         0.00000E+00
         0.22385E+00
         0.00000E+00
         0.26729E+00
         0.00000E+00
         0.26436E+00
         0.00000E+00
         0.26419E+00
         0.22893E+00
         0.00000E+00
         0.00000E+00
         0.19102E+00
         0.00000E+00
         0.15901E+00
         0.00000E+00
         0.16735E+00
         0.00000E+00
         0.20936E+00
         0.20953E+00
         0.00000E+00
         0.00000E+00
         0.43422E+00
         0.42740E+00
         0.00000E+00
         0.00000E+00
         0.32340E+00
         0.00000E+00
         0.24517E+00
         0.00000E+00
         0.23520E+00
         0.00000E+00
         0.23255E+00
         0.00000E+00
         0.25165E+00
         0.00000E+00
         0.35871E+00
         0.00000E+00
         0.71688E+00
         0.00000E+00
         0.10293E+01
         0.00000E+00
         0.11077E+01
         0.00000E+00
         0.66110E+00
         0.00000E+00
         0.43539E+00
         0.00000E+00
         0.32909E+00
         0.00000E+00
         0.32981E+00
         0.00000E+00
         0.36897E+00
         0.00000E+00
         0.42608E+00
         0.00000E+00
         0.41507E+00
         0.00000E+00
         0.34322E+00
         0.00000E+00
         0.28197E+00
         0.00000E+00
         0.24360E+00
         0.00000E+00
         0.22636E+00
         0.00000E+00
         0.25205E+00
         0.00000E+00
         0.29870E+00
         0.00000E+00
         0.31903E+00
         0.00000E+00
         0.31702E+00
         0.00000E+00
         0.10668E+00
         0.15071E+00
         0.15240E+00
         0.90546E-01
         0.20461E+00
         0.15121E+00
         0.17287E+00
         0.13747E+00
         0.79925E-01
         0.10642E+00
         0.17873E+00
         0.18735E+00
         0.18553E+00
         0.15683E+00
         0.19286E+00
         0.65922E-01
         0.76421E-01
         0.63844E-01
         0.95289E-01
         0.86021E-01
         0.17251E+00
         0.16933E+00
         0.18806E+00
         0.12025E+00
         0.98348E-01
         0.10670E+00
         0.14450E+00
         0.15451E+00
         0.20335E+00
         0.11430E+00
         0.76418E-01
         0.11900E+00
         0.74075E-01
         0.98782E-01
         0.26022E+00
         0.21902E+00
         0.18701E+00
         0.21526E+00
         0.25923E+00
         0.35165E+00
         0.47115E+00
         0.34910E+00
         0.23675E+00
         0.18639E+00
         0.19729E+00
         0.22800E+00
         0.17713E+00
         0.13883E+00
         0.14886E+00
         0.19872E+00
         0.25257E+00
         0.17510E+00
         0.36946E+00
         0.35111E+00
         0.30122E+00
         0.22306E+00
         0.18549E+00
         0.19292E+00
         0.23634E+00
         0.31503E+00
         0.49038E+00
         0.77448E+00
         0.89148E+00
         0.62712E+00
         0.42339E+00
         0.31381E+00
         0.30593E+00
         0.30964E+00
         0.31651E+00
         0.33117E+00
         0.34649E+00
         0.33499E+00
         0.33904E+00
         0.42709E+00
         0.53346E+00
         0.50795E+00
         0.38100E+00
         0.31639E+00
         0.33367E-01
         0.53224E-01
         0.85613E-01
         0.54186E-01
         0.15536E+00
         0.15486E+00
         0.57664E-01
         0.43537E-01
         0.25155E-01
         0.30312E-01
         0.77381E-01
         0.11061E+00
         0.82905E-01
         0.81509E-01
         0.15181E+00
         0.44665E-01
         0.29823E-01
         0.38723E-01
         0.33829E-01
         0.33724E-01
         0.69375E-01
         0.12216E+00
         0.64389E-01
         0.46255E-01
         0.35864E-01
         0.61705E-01
         0.86333E-01
         0.11656E+00
         0.19127E+00
         0.93201E-01
         0.61811E-01
         0.86322E-01
         0.71035E-01
         0.12469E+00
         0.18912E+00
         0.14306E+00
         0.91655E-01
         0.18793E+00
         0.23450E+00
         0.30551E+00
         0.36581E+00
         0.30865E+00
         0.21487E+00
         0.87358E-01
         0.12997E+00
         0.17239E+00
         0.14702E+00
         0.14392E+00
         0.19267E+00
         0.28349E+00
         0.36459E+00
         0.24310E+00
         0.28621E+00
         0.27887E+00
         0.24215E+00
         0.16065E+00
         0.13063E+00
         0.15916E+00
         0.22135E+00
         0.29729E+00
         0.37851E+00
         0.41605E+00
         0.38757E+00
         0.39494E+00
         0.35853E+00
         0.25750E+00
         0.18035E+00
         0.14470E+00
         0.16390E+00
         0.22675E+00
         0.26064E+00
         0.26360E+00
         0.31381E+00
         0.46185E+00
         0.64783E+00
         0.67480E+00
         0.49942E+00
         0.32920E+00
         0.38284E-01
         0.45952E-01
         0.57807E-01
         0.45868E-01
         0.86094E-01
         0.85334E-01
         0.44350E-01
         0.38418E-01
         0.31917E-01
         0.31197E-01
         0.48329E-01
         0.63347E-01
         0.52331E-01
         0.48192E-01
         0.89865E-01
         0.37181E-01
         0.29730E-01
         0.38129E-01
         0.32830E-01
         0.35211E-01
         0.56831E-01
         0.89037E-01
         0.47488E-01
         0.38721E-01
         0.31876E-01
         0.46087E-01
         0.53358E-01
         0.78084E-01
         0.12954E+00
         0.63708E-01
         0.48295E-01
         0.58982E-01
         0.50715E-01
         0.71870E-01
         0.10365E+00
         0.82590E-01
         0.59523E-01
         0.12486E+00
         0.17104E+00
         0.22981E+00
         0.27960E+00
         0.21747E+00
         0.14637E+00
         0.55629E-01
         0.75939E-01
         0.96000E-01
         0.85007E-01
         0.78664E-01
         0.86817E-01
         0.11653E+00
         0.14807E+00
         0.11640E+00
         0.14845E+00
         0.13027E+00
         0.12444E+00
         0.83739E-01
         0.69970E-01
         0.92568E-01
         0.15087E+00
         0.22879E+00
         0.31035E+00
         0.35549E+00
         0.36300E+00
         0.35452E+00
         0.28559E+00
         0.19589E+00
         0.13081E+00
         0.90779E-01
         0.85725E-01
         0.11273E+00
         0.13333E+00
         0.13592E+00
         0.13587E+00
         0.14549E+00
         0.18559E+00
         0.22148E+00
         0.19250E+00
         0.14111E+00
         0.87292E-02
         0.88280E-02
         0.11014E-01
         0.10950E-01
         0.23828E-01
         0.31207E-01
         0.92512E-02
         0.96492E-02
         0.10450E-01
         0.13894E-01
         0.10545E-01
         0.21315E-01
         0.14476E-01
         0.11294E-01
         0.39041E-01
         0.94513E-02
         0.14915E-01
         0.10465E-01
         0.14238E-01
         0.23167E-01
         0.31539E-01
         0.50785E-01
         0.21197E-01
         0.12829E-01
         0.19596E-01
         0.10744E-01
         0.19802E-01
         0.39396E-01
         0.75052E-01
         0.37273E-01
         0.13455E-01
         0.14423E-01
         0.16660E-01
         0.26248E-01
         0.28801E-01
         0.20531E-01
         0.14783E-01
         0.66760E-01
         0.10378E+00
         0.14972E+00
         0.18971E+00
         0.13700E+00
         0.86533E-01
         0.16698E-01
         0.20846E-01
         0.30671E-01
         0.28067E-01
         0.28937E-01
         0.36473E-01
         0.51543E-01
         0.68558E-01
         0.51740E-01
         0.49031E-01
         0.47664E-01
         0.40509E-01
         0.27503E-01
         0.25494E-01
         0.43799E-01
         0.88016E-01
         0.15038E+00
         0.22513E+00
         0.28271E+00
         0.29630E+00
         0.25855E+00
         0.18357E+00
         0.11537E+00
         0.74359E-01
         0.46290E-01
         0.34864E-01
         0.39047E-01
         0.50449E-01
         0.60120E-01
         0.68623E-01
         0.83545E-01
         0.10010E+00
         0.11152E+00
         0.99718E-01
         0.68394E-01
         0.37559E-02
         0.29909E-02
         0.32014E-02
         0.24700E-02
         0.87349E-02
         0.12298E-01
         0.39290E-02
         0.64265E-02
         0.62932E-02
         0.10756E-01
         0.35795E-02
         0.64227E-02
         0.43811E-02
         0.47403E-02
         0.14649E-01
         0.37753E-02
         0.96143E-02
         0.27619E-02
         0.71923E-02
         0.14179E-01
         0.13336E-01
         0.24396E-01
         0.72783E-02
         0.47420E-02
         0.15143E-01
         0.19703E-02
         0.97405E-02
         0.21176E-01
         0.42641E-01
         0.23119E-01
         0.99804E-03
         0.16993E-02
         0.27182E-02
         0.83633E-02
         0.94045E-02
         0.61539E-02
         0.45386E-02
         0.31384E-01
         0.56202E-01
         0.88111E-01
         0.11719E+00
         0.80818E-01
         0.46671E-01
         0.37794E-02
         0.53256E-02
         0.96120E-02
         0.79787E-02
         0.80006E-02
         0.11996E-01
         0.19643E-01
         0.27503E-01
         0.20294E-01
         0.18072E-01
         0.20169E-01
         0.14001E-01
         0.88484E-02
         0.88231E-02
         0.19144E-01
         0.45277E-01
         0.87024E-01
         0.14170E+00
         0.18881E+00
         0.20337E+00
         0.16772E+00
         0.10341E+00
         0.55847E-01
         0.33430E-01
         0.19185E-01
         0.12898E-01
         0.13032E-01
         0.16653E-01
         0.17794E-01
         0.19966E-01
         0.28699E-01
         0.40826E-01
         0.47469E-01
         0.42112E-01
         0.29388E-01
         0.71729E-04
         0.00000E+00
         0.00000E+00
         0.00000E+00
         0.20444E-02
         0.17761E-02
         0.55566E-03
         0.17538E-02
         0.11092E-02
         0.40194E-02
         0.13238E-02
         0.23829E-02
         0.11072E-02
         0.21592E-02
         0.48349E-02
         0.00000E+00
         0.26023E-02
         0.00000E+00
         0.11044E-02
         0.49876E-02
         0.32659E-02
         0.78242E-02
         0.15390E-02
         0.31611E-03
         0.68212E-02
         0.00000E+00
         0.43368E-02
         0.87689E-02
         0.16793E-01
         0.98255E-02
         0.00000E+00
         0.00000E+00
         0.00000E+00
         0.10033E-03
         0.19255E-02
         0.11362E-03
         0.35367E-03
         0.10698E-01
         0.21620E-01
         0.36487E-01
         0.50302E-01
         0.32019E-01
         0.16697E-01
         0.58181E-03
         0.35402E-03
         0.14488E-02
         0.83847E-03
         0.15065E-02
         0.30006E-02
         0.50807E-02
         0.66338E-02
         0.36748E-02
         0.44240E-02
         0.67786E-02
         0.11471E-02
         0.25621E-02
         0.31826E-02
         0.65614E-02
         0.18014E-01
         0.39431E-01
         0.69232E-01
         0.95077E-01
         0.10052E+00
         0.76079E-01
         0.40753E-01
         0.19923E-01
         0.11975E-01
         0.73114E-02
         0.58474E-02
         0.51712E-02
         0.48901E-02
         0.53402E-02
         0.72983E-02
         0.10639E-01
         0.13024E-01
         0.12491E-01
         0.88161E-02
         0.60123E-02
         0.00000E+00
         0.00000E+00
         0.00000E+00
         0.00000E+00
         0.74616E-03
         0.12040E-02
         0.00000E+00
         0.00000E+00
         0.00000E+00
         0.00000E+00
         0.00000E+00
         0.27712E-03
         0.00000E+00
         0.00000E+00
         0.15501E-02
         0.00000E+00
         0.00000E+00
         0.00000E+00
         0.00000E+00
         0.00000E+00
         0.24685E-03
         0.68596E-03
         0.70555E-03
         0.00000E+00
         0.11494E-02
         0.00000E+00
         0.86758E-03
         0.23104E-02
         0.32507E-02
         0.21041E-02
         0.00000E+00
         0.00000E+00
         0.00000E+00
         0.22361E-03
         0.00000E+00
         0.00000E+00
         0.00000E+00
         0.30488E-02
         0.48718E-02
         0.77742E-02
         0.10569E-01
         0.39912E-02
         0.14699E-02
         0.52565E-03
         0.27686E-03
         0.48947E-03
         0.00000E+00
         0.94540E-04
         0.16696E-02
         0.36022E-02
         0.49255E-02
         0.29277E-02
         0.12582E-02
         0.43481E-02
         0.00000E+00
         0.21687E-02
         0.21026E-02
         0.21662E-02
         0.58371E-02
         0.13739E-01
         0.24079E-01
         0.32241E-01
         0.30947E-01
         0.18468E-01
         0.70523E-02
         0.50613E-02
         0.45110E-02
         0.44896E-02
         0.45116E-02
         0.39970E-02
         0.28642E-02
         0.17921E-02
         0.28081E-02
         0.57567E-02
         0.82665E-02
         0.83478E-02
         0.58263E-02
         0.40509E-02
         0.00000E+00
         0.00000E+00
         0.00000E+00
         0.00000E+00
         0.46650E-03
         0.10686E-02
         0.00000E+00
         0.00000E+00
         0.00000E+00
         0.00000E+00
         0.00000E+00
         0.00000E+00
         0.00000E+00
         0.00000E+00
         0.65025E-03
         0.00000E+00
         0.00000E+00
         0.00000E+00
         0.00000E+00
         0.00000E+00
         0.26530E-03
         0.34878E-03
         0.49887E-03
         0.00000E+00
         0.00000E+00
         0.00000E+00
         0.00000E+00
         0.48246E-03
         0.26012E-02
         0.00000E+00
         0.00000E+00
         0.00000E+00
         0.00000E+00
         0.00000E+00
         0.00000E+00
         0.00000E+00
         0.00000E+00
         0.31865E-02
         0.61680E-02
         0.97649E-02
         0.13157E-01
         0.72357E-02
         0.27745E-02
         0.51158E-04
         0.00000E+00
         0.00000E+00
         0.00000E+00
         0.00000E+00
         0.64818E-03
         0.23043E-02
         0.35281E-02
         0.22637E-02
         0.12764E-02
         0.38212E-02
         0.10303E-02
         0.21622E-02
         0.17281E-02
         0.13694E-02
         0.41702E-02
         0.10978E-01
         0.19250E-01
         0.26280E-01
         0.27917E-01
         0.20817E-01
         0.12327E-01
         0.61470E-02
         0.36110E-02
         0.34359E-02
         0.31289E-02
         0.26710E-02
         0.19077E-02
         0.88594E-03
         0.95061E-03
         0.29818E-02
         0.49870E-02
         0.57563E-02
         0.48347E-02
         0.39421E-02
         0.00000E+00
         0.00000E+00
         0.00000E+00
         0.00000E+00
         0.96565E-03
         0.16909E-02
         0.00000E+00
         0.00000E+00
         0.00000E+00
         0.00000E+00
         0.00000E+00
         0.00000E+00
         0.00000E+00
         0.00000E+00
         0.70747E-03
         0.00000E+00
         0.00000E+00
         0.00000E+00
         0.00000E+00
         0.00000E+00
         0.14658E-02
         0.19685E-02
         0.13049E-02
         0.00000E+00
         0.00000E+00
         0.00000E+00
         0.00000E+00
         0.85530E-03
         0.45531E-02
         0.00000E+00
         0.00000E+00
         0.00000E+00
         0.00000E+00
         0.16345E-04
         0.21887E-03
         0.00000E+00
         0.00000E+00
         0.42927E-02
         0.89046E-02
         0.14641E-01
         0.20206E-01
         0.12145E-01
         0.55422E-02
         0.51255E-03
         0.00000E+00
         0.00000E+00
         0.00000E+00
         0.00000E+00
         0.11494E-02
         0.32726E-02
         0.49020E-02
         0.32129E-02
         0.22995E-02
         0.48809E-02
         0.14728E-02
         0.23663E-02
         0.19790E-02
         0.14421E-02
         0.46592E-02
         0.13657E-01
         0.25370E-01
         0.36324E-01
         0.40584E-01
         0.31451E-01
         0.18649E-01
         0.97783E-02
         0.64229E-02
         0.51062E-02
         0.39149E-02
         0.31122E-02
         0.21645E-02
         0.10550E-02
         0.15022E-02
         0.42849E-02
         0.70223E-02
         0.81848E-02
         0.68774E-02
         0.53306E-02
         0.00000E+00
         0.00000E+00
         0.00000E+00
         0.00000E+00
         0.18367E-02
         0.26584E-02
         0.00000E+00
         0.00000E+00
         0.00000E+00
         0.00000E+00
         0.00000E+00
         0.00000E+00
         0.00000E+00
         0.00000E+00
         0.12980E-02
         0.00000E+00
         0.00000E+00
         0.00000E+00
         0.00000E+00
         0.00000E+00
         0.27748E-02
         0.36897E-02
         0.25628E-02
         0.00000E+00
         0.00000E+00
         0.00000E+00
         0.00000E+00
         0.15029E-02
         0.59778E-02
         0.00000E+00
         0.00000E+00
         0.00000E+00
         0.00000E+00
         0.64395E-03
         0.95927E-03
         0.00000E+00
         0.00000E+00
         0.58630E-02
         0.11694E-01
         0.18600E-01
         0.24895E-01
         0.14914E-01
         0.75467E-02
         0.17470E-02
         0.10754E-02
         0.11591E-02
         0.00000E+00
         0.37240E-03
         0.23381E-02
         0.48369E-02
         0.67544E-02
         0.45598E-02
         0.32763E-02
         0.64594E-02
         0.19863E-02
         0.31270E-02
         0.27041E-02
         0.21641E-02
         0.63234E-02
         0.17650E-01
         0.32888E-01
         0.46492E-01
         0.49706E-01
         0.37003E-01
         0.23427E-01
         0.13445E-01
         0.87262E-02
         0.70087E-02
         0.58415E-02
         0.49431E-02
         0.38622E-02
         0.26616E-02
         0.34521E-02
         0.67236E-02
         0.97865E-02
         0.10883E-01
         0.90001E-02
         0.70406E-02
         0.00000E+00
         0.00000E+00
         0.00000E+00
         0.00000E+00
         0.21305E-02
         0.29870E-02
         0.00000E+00
         0.00000E+00
         0.00000E+00
         0.00000E+00
         0.00000E+00
         0.00000E+00
         0.00000E+00
         0.00000E+00
         0.18892E-02
         0.00000E+00
         0.00000E+00
         0.00000E+00
         0.00000E+00
         0.00000E+00
         0.30526E-02
         0.42959E-02
         0.28645E-02
         0.00000E+00
         0.00000E+00
         0.00000E+00
         0.00000E+00
         0.22632E-02
         0.75829E-02
         0.00000E+00
         0.00000E+00
         0.00000E+00
         0.00000E+00
         0.10544E-02
         0.12716E-02
         0.00000E+00
         0.00000E+00
         0.71975E-02
         0.14245E-01
         0.22694E-01
         0.30156E-01
         0.17931E-01
         0.89908E-02
         0.21470E-02
         0.15714E-02
         0.17940E-02
         0.63345E-03
         0.12107E-02
         0.32814E-02
         0.57500E-02
         0.75757E-02
         0.50946E-02
         0.36258E-02
         0.68093E-02
         0.20866E-02
         0.31632E-02
         0.27319E-02
         0.27287E-02
         0.79289E-02
         0.20787E-01
         0.39050E-01
         0.56018E-01
         0.59986E-01
         0.43856E-01
         0.27128E-01
         0.14946E-01
         0.89943E-02
         0.72586E-02
         0.62420E-02
         0.54065E-02
         0.45375E-02
         0.36080E-02
         0.48559E-02
         0.83848E-02
         0.11282E-01
         0.11920E-01
         0.95463E-02
         0.73230E-02
         0.00000E+00
         0.00000E+00
         0.00000E+00
         0.00000E+00
         0.22456E-02
         0.31064E-02
         0.00000E+00
         0.00000E+00
         0.00000E+00
         0.00000E+00
         0.00000E+00
         0.00000E+00
         0.00000E+00
         0.00000E+00
         0.19257E-02
         0.00000E+00
         0.00000E+00
         0.00000E+00
         0.00000E+00
         0.00000E+00
         0.29393E-02
         0.44905E-02
         0.26847E-02
         0.00000E+00
         0.00000E+00
         0.00000E+00
         0.00000E+00
         0.24595E-02
         0.82029E-02
         0.00000E+00
         0.00000E+00
         0.00000E+00
         0.00000E+00
         0.12445E-02
         0.14192E-02
         0.00000E+00
         0.00000E+00
         0.76630E-02
         0.15290E-01
         0.24541E-01
         0.32915E-01
         0.19622E-01
         0.97914E-02
         0.20066E-02
         0.15505E-02
         0.18828E-02
         0.81255E-03
         0.14274E-02
         0.35189E-02
         0.59677E-02
         0.77153E-02
         0.52311E-02
         0.38670E-02
         0.70309E-02
         0.17060E-02
         0.27220E-02
         0.23613E-02
         0.23216E-02
         0.81981E-02
         0.22018E-01
         0.41541E-01
         0.60267E-01
         0.65852E-01
         0.48571E-01
         0.29335E-01
         0.15318E-01
         0.87437E-02
         0.69740E-02
         0.59523E-02
         0.52144E-02
         0.45192E-02
         0.36081E-02
         0.48772E-02
         0.85837E-02
         0.11458E-01
         0.11920E-01
         0.95739E-02
         0.74785E-02
         0.00000E+00
         0.00000E+00
         0.00000E+00
         0.00000E+00
         0.24036E-02
         0.33519E-02
         0.00000E+00
         0.00000E+00
         0.00000E+00
         0.00000E+00
         0.00000E+00
         0.00000E+00
         0.00000E+00
         0.00000E+00
         0.18686E-02
         0.00000E+00
         0.00000E+00
         0.00000E+00
         0.00000E+00
         0.00000E+00
         0.27837E-02
         0.46718E-02
         0.23481E-02
         0.00000E+00
         0.00000E+00
         0.00000E+00
         0.00000E+00
         0.19998E-02
         0.76158E-02
         0.00000E+00
         0.00000E+00
         0.00000E+00
         0.00000E+00
         0.13109E-02
         0.13663E-02
         0.00000E+00
         0.00000E+00
         0.76464E-02
         0.14889E-01
         0.23493E-01
         0.31757E-01
         0.19382E-01
         0.10126E-01
         0.16701E-02
         0.12548E-02
         0.15900E-02
         0.63445E-03
         0.12105E-02
         0.32756E-02
         0.58546E-02
         0.77475E-02
         0.54117E-02
         0.38038E-02
         0.74441E-02
         0.11882E-02
         0.23618E-02
         0.20287E-02
         0.19114E-02
         0.83478E-02
         0.22439E-01
         0.41368E-01
         0.58691E-01
         0.64061E-01
         0.49205E-01
         0.30554E-01
         0.15620E-01
         0.85783E-02
         0.65187E-02
         0.54435E-02
         0.46909E-02
         0.39995E-02
         0.31555E-02
         0.42490E-02
         0.79102E-02
         0.11113E-01
         0.11901E-01
         0.98667E-02
         0.80073E-02
         0.00000E+00
         0.00000E+00
         0.00000E+00
         0.00000E+00
         0.21445E-02
         0.30160E-02
         0.00000E+00
         0.00000E+00
         0.00000E+00
         0.00000E+00
         0.00000E+00
         0.00000E+00
         0.00000E+00
         0.00000E+00
         0.18788E-02
         0.00000E+00
         0.00000E+00
         0.00000E+00
         0.00000E+00
         0.00000E+00
         0.24432E-02
         0.45582E-02
         0.19455E-02
         0.00000E+00
         0.00000E+00
         0.00000E+00
         0.00000E+00
         0.18866E-02
         0.75203E-02
         0.21232E-03
         0.00000E+00
         0.00000E+00
         0.00000E+00
         0.99346E-03
         0.10540E-02
         0.00000E+00
         0.00000E+00
         0.74502E-02
         0.14241E-01
         0.22392E-01
         0.30577E-01
         0.19299E-01
         0.10348E-01
         0.13240E-02
         0.96930E-03
         0.13737E-02
         0.56197E-03
         0.11387E-02
         0.29986E-02
         0.53440E-02
         0.71315E-02
         0.49118E-02
         0.34156E-02
         0.70975E-02
         0.88548E-03
         0.21208E-02
         0.18901E-02
         0.18548E-02
         0.81928E-02
         0.21850E-01
         0.39711E-01
         0.55951E-01
         0.61171E-01
         0.48673E-01
         0.30600E-01
         0.15219E-01
         0.78688E-02
         0.58304E-02
         0.48733E-02
         0.42840E-02
         0.37330E-02
         0.30678E-02
         0.41510E-02
         0.74173E-02
         0.10365E-01
         0.11160E-01
         0.92272E-02
         0.75361E-02
         0.00000E+00
         0.00000E+00
         0.00000E+00
         0.00000E+00
         0.16404E-02
         0.22778E-02
         0.00000E+00
         0.00000E+00
         0.00000E+00
         0.00000E+00
         0.00000E+00
         0.00000E+00
         0.00000E+00
         0.00000E+00
         0.17966E-02
         0.00000E+00
         0.00000E+00
         0.00000E+00
         0.00000E+00
         0.00000E+00
         0.22517E-02
         0.43062E-02
         0.17362E-02
         0.00000E+00
         0.00000E+00
         0.00000E+00
         0.00000E+00
         0.20929E-02
         0.80130E-02
         0.31397E-03
         0.00000E+00
         0.00000E+00
         0.00000E+00
         0.65841E-03
         0.79928E-03
         0.00000E+00
         0.00000E+00
         0.70895E-02
         0.14028E-01
         0.22867E-01
         0.31632E-01
         0.19921E-01
         0.10281E-01
         0.11907E-02
         0.93914E-03
         0.14100E-02
         0.61506E-03
         0.11248E-02
         0.27668E-02
         0.47455E-02
         0.61883E-02
         0.40192E-02
         0.30215E-02
         0.60177E-02
         0.81104E-03
         0.19255E-02
         0.18178E-02
         0.20693E-02
         0.78392E-02
         0.20655E-01
         0.38397E-01
         0.56252E-01
         0.62931E-01
         0.49627E-01
         0.30097E-01
         0.14931E-01
         0.74858E-02
         0.53184E-02
         0.45980E-02
         0.42906E-02
         0.38317E-02
         0.31544E-02
         0.41523E-02
         0.70428E-02
         0.94897E-02
         0.98580E-02
         0.77359E-02
         0.60611E-02
         0.00000E+00
         0.00000E+00
         0.00000E+00
         0.00000E+00
         0.12585E-02
         0.17889E-02
         0.00000E+00
         0.00000E+00
         0.00000E+00
         0.00000E+00
         0.00000E+00
         0.00000E+00
         0.00000E+00
         0.00000E+00
         0.15658E-02
         0.00000E+00
         0.00000E+00
         0.00000E+00
         0.00000E+00
         0.00000E+00
         0.27035E-02
         0.44673E-02
         0.20934E-02
         0.00000E+00
         0.00000E+00
         0.00000E+00
         0.00000E+00
         0.20486E-02
         0.77940E-02
         0.13528E-03
         0.00000E+00
         0.00000E+00
         0.00000E+00
         0.41870E-03
         0.56579E-03
         0.00000E+00
         0.00000E+00
         0.67930E-02
         0.13890E-01
         0.22742E-01
         0.31248E-01
         0.19295E-01
         0.97846E-02
         0.14501E-02
         0.11465E-02
         0.14823E-02
         0.52544E-03
         0.81169E-03
         0.22413E-02
         0.40257E-02
         0.52985E-02
         0.33530E-02
         0.26536E-02
         0.51812E-02
         0.64577E-03
         0.16921E-02
         0.16998E-02
         0.21806E-02
         0.75395E-02
         0.20032E-01
         0.38328E-01
         0.56318E-01
         0.62528E-01
         0.48451E-01
         0.28862E-01
         0.15132E-01
         0.83210E-02
         0.58871E-02
         0.49918E-02
         0.45970E-02
         0.38952E-02
         0.29660E-02
         0.36475E-02
         0.62082E-02
         0.83837E-02
         0.85432E-02
         0.65336E-02
         0.50530E-02
         0.00000E+00
         0.00000E+00
         0.00000E+00
         0.00000E+00
         0.98740E-03
         0.14212E-02
         0.00000E+00
         0.00000E+00
         0.00000E+00
         0.00000E+00
         0.00000E+00
         0.00000E+00
         0.00000E+00
         0.00000E+00
         0.75647E-03
         0.00000E+00
         0.00000E+00
         0.00000E+00
         0.00000E+00
         0.00000E+00
         0.30191E-02
         0.46696E-02
         0.24640E-02
         0.00000E+00
         0.00000E+00
         0.00000E+00
         0.00000E+00
         0.16258E-02
         0.72322E-02
         0.25203E-04
         0.00000E+00
         0.00000E+00
         0.00000E+00
         0.00000E+00
         0.30959E-03
         0.00000E+00
         0.00000E+00
         0.59034E-02
         0.13073E-01
         0.21944E-01
         0.30312E-01
         0.18451E-01
         0.94780E-02
         0.17473E-02
         0.12619E-02
         0.13873E-02
         0.23164E-03
         0.22542E-03
         0.13742E-02
         0.29725E-02
         0.41940E-02
         0.26404E-02
         0.23204E-02
         0.47640E-02
         0.39194E-03
         0.14617E-02
         0.14457E-02
         0.15093E-02
         0.61403E-02
         0.18506E-01
         0.37206E-01
         0.55615E-01
         0.61599E-01
         0.46734E-01
         0.27806E-01
         0.15090E-01
         0.86658E-02
         0.64221E-02
         0.53716E-02
         0.46750E-02
         0.37921E-02
         0.26100E-02
         0.27675E-02
         0.48687E-02
         0.68410E-02
         0.70684E-02
         0.54932E-02
         0.45442E-02
         0.00000E+00
         0.00000E+00
         0.00000E+00
         0.00000E+00
         0.64065E-03
         0.81924E-03
         0.00000E+00
         0.00000E+00
         0.00000E+00
         0.00000E+00
         0.00000E+00
         0.00000E+00
         0.00000E+00
         0.00000E+00
         0.00000E+00
         0.00000E+00
         0.00000E+00
         0.00000E+00
         0.00000E+00
         0.00000E+00
         0.24814E-02
         0.40844E-02
         0.21678E-02
         0.00000E+00
         0.00000E+00
         0.00000E+00
         0.00000E+00
         0.83764E-03
         0.63441E-02
         0.96699E-04
         0.00000E+00
         0.00000E+00
         0.00000E+00
         0.00000E+00
         0.00000E+00
         0.00000E+00
         0.00000E+00
         0.42472E-02
         0.10722E-01
         0.19338E-01
         0.27866E-01
         0.17302E-01
         0.89915E-02
         0.15908E-02
         0.10794E-02
         0.11125E-02
         0.00000E+00
         0.00000E+00
         0.23846E-03
         0.14841E-02
         0.25466E-02
         0.15080E-02
         0.19636E-02
         0.43817E-02
         0.21886E-04
         0.98868E-03
         0.76476E-03
         0.33789E-03
         0.36956E-02
         0.14494E-01
         0.31627E-01
         0.49740E-01
         0.57352E-01
         0.44253E-01
         0.26206E-01
         0.13607E-01
         0.75770E-02
         0.58395E-02
         0.50128E-02
         0.43200E-02
         0.35375E-02
         0.23143E-02
         0.18505E-02
         0.31602E-02
         0.47391E-02
         0.49766E-02
         0.40126E-02
         0.38215E-02
         0.00000E+00
         0.00000E+00
         0.00000E+00
         0.00000E+00
         0.00000E+00
         0.00000E+00
         0.00000E+00
         0.00000E+00
         0.00000E+00
         0.00000E+00
         0.00000E+00
         0.00000E+00
         0.00000E+00
         0.00000E+00
         0.00000E+00
         0.00000E+00
         0.00000E+00
         0.00000E+00
         0.00000E+00
         0.00000E+00
         0.16120E-02
         0.33330E-02
         0.14323E-02
         0.00000E+00
         0.00000E+00
         0.00000E+00
         0.00000E+00
         0.87550E-03
         0.66295E-02
         0.40399E-03
         0.00000E+00
         0.00000E+00
         0.00000E+00
         0.00000E+00
         0.00000E+00
         0.00000E+00
         0.00000E+00
         0.36430E-02
         0.97276E-02
         0.18551E-01
         0.27689E-01
         0.17878E-01
         0.91507E-02
         0.10962E-02
         0.76684E-03
         0.88083E-03
         0.00000E+00
         0.00000E+00
         0.00000E+00
         0.00000E+00
         0.31629E-03
         0.00000E+00
         0.16501E-02
         0.36741E-02
         0.65943E-03
         0.10323E-02
         0.57401E-03
         0.23066E-03
         0.29234E-02
         0.12011E-01
         0.27978E-01
         0.46475E-01
         0.56275E-01
         0.45440E-01
         0.26140E-01
         0.11752E-01
         0.59543E-02
         0.46053E-02
         0.41381E-02
         0.37943E-02
         0.34258E-02
         0.27400E-02
         0.21470E-02
         0.26289E-02
         0.34765E-02
         0.32125E-02
         0.24758E-02
         0.27651E-02
         0.00000E+00
         0.00000E+00
         0.00000E+00
         0.00000E+00
         0.23059E-03
         0.00000E+00
         0.00000E+00
         0.00000E+00
         0.00000E+00
         0.00000E+00
         0.00000E+00
         0.00000E+00
         0.00000E+00
         0.00000E+00
         0.15501E-02
         0.00000E+00
         0.00000E+00
         0.00000E+00
         0.00000E+00
         0.00000E+00
         0.13077E-02
         0.37920E-02
         0.77213E-03
         0.00000E+00
         0.00000E+00
         0.00000E+00
         0.00000E+00
         0.19507E-02
         0.80649E-02
         0.12546E-02
         0.00000E+00
         0.00000E+00
         0.00000E+00
         0.00000E+00
         0.12651E-02
         0.26953E-03
         0.00000E+00
         0.49404E-02
         0.10771E-01
         0.19905E-01
         0.29912E-01
         0.20354E-01
         0.10861E-01
         0.71739E-03
         0.10560E-02
         0.19422E-02
         0.11064E-02
         0.68238E-03
         0.90229E-03
         0.17091E-02
         0.27125E-02
         0.83284E-03
         0.46421E-02
         0.47487E-02
         0.44748E-02
         0.17818E-02
         0.72152E-03
         0.15392E-02
         0.52131E-02
         0.13238E-01
         0.28081E-01
         0.47112E-01
         0.59037E-01
         0.50919E-01
         0.29987E-01
         0.12786E-01
         0.57104E-02
         0.32992E-02
         0.32300E-02
         0.40933E-02
         0.51141E-02
         0.60150E-02
         0.62781E-02
         0.70709E-02
         0.82892E-02
         0.79231E-02
         0.61501E-02
         0.46175E-02
         0.00000E+00
         0.00000E+00
         0.00000E+00
         0.00000E+00
         0.10711E-02
         0.11664E-02
         0.00000E+00
         0.00000E+00
         0.00000E+00
         0.00000E+00
         0.00000E+00
         0.92155E-03
         0.00000E+00
         0.00000E+00
         0.34789E-02
         0.00000E+00
         0.00000E+00
         0.00000E+00
         0.00000E+00
         0.00000E+00
         0.42564E-02
         0.63607E-02
         0.34343E-02
         0.00000E+00
         0.00000E+00
         0.00000E+00
         0.46977E-03
         0.35892E-02
         0.10463E-01
         0.26351E-02
         0.00000E+00
         0.00000E+00
         0.00000E+00
         0.45697E-03
         0.26747E-02
         0.19331E-02
         0.00000E+00
         0.70476E-02
         0.13227E-01
         0.22928E-01
         0.33765E-01
         0.24249E-01
         0.14019E-01
         0.26982E-02
         0.34633E-02
         0.54276E-02
         0.38011E-02
         0.27839E-02
         0.25383E-02
         0.32833E-02
         0.46575E-02
         0.27474E-02
         0.56566E-02
         0.47606E-02
         0.72688E-02
         0.37547E-02
         0.22105E-02
         0.40734E-02
         0.87948E-02
         0.17134E-01
         0.31530E-01
         0.50422E-01
         0.63186E-01
         0.58054E-01
         0.38057E-01
         0.20892E-01
         0.14267E-01
         0.10286E-01
         0.84864E-02
         0.95548E-02
         0.11239E-01
         0.12896E-01
         0.12924E-01
         0.11687E-01
         0.11235E-01
         0.10416E-01
         0.87971E-02
         0.68172E-02
         0.33808E-02
         0.39605E-02
         0.57103E-02
         0.46728E-02
         0.75336E-02
         0.63901E-02
         0.33113E-02
         0.33491E-02
         0.31221E-02
         0.29924E-02
         0.20470E-02
         0.86177E-03
         0.20001E-02
         0.13464E-02
         0.22149E-02
         0.57440E-02
         0.43125E-02
         0.39282E-02
         0.10688E-01
         0.66231E-02
         0.26747E-01
         0.23189E-01
         0.29243E-01
         0.16324E-01
         0.26101E-02
         0.13563E-01
         0.83448E-03
         0.43733E-02
         0.14411E-01
         0.52289E-02
         0.70506E-02
         0.14361E-01
         0.62682E-02
         0.80409E-02
         0.98973E-02
         0.77037E-02
         0.41415E-02
         0.82573E-02
         0.18562E-01
         0.33323E-01
         0.49815E-01
         0.36571E-01
         0.25355E-01
         0.27562E-01
         0.27138E-01
         0.29334E-01
         0.21637E-01
         0.16600E-01
         0.15837E-01
         0.16332E-01
         0.16454E-01
         0.10287E-01
         0.12713E-01
         0.75141E-02
         0.10738E-01
         0.56838E-02
         0.37452E-02
         0.58485E-02
         0.12451E-01
         0.25489E-01
         0.47692E-01
         0.74955E-01
         0.93468E-01
         0.90749E-01
         0.72226E-01
         0.63753E-01
         0.62269E-01
         0.56538E-01
         0.49404E-01
         0.45526E-01
         0.43561E-01
         0.40867E-01
         0.38941E-01
         0.36522E-01
         0.32606E-01
         0.24996E-01
         0.14773E-01
         0.69195E-02
         0.12889E-01
         0.14729E-01
         0.18222E-01
         0.15612E-01
         0.21780E-01
         0.18863E-01
         0.13985E-01
         0.13508E-01
         0.12597E-01
         0.12788E-01
         0.12261E-01
         0.95870E-02
         0.12894E-01
         0.11274E-01
         0.75773E-02
         0.20739E-01
         0.16458E-01
         0.14207E-01
         0.33754E-01
         0.24804E-01
         0.67882E-01
         0.63449E-01
         0.70619E-01
         0.45515E-01
         0.12686E-01
         0.38775E-01
         0.89775E-02
         0.10915E-01
         0.30147E-01
         0.20712E-01
         0.21969E-01
         0.38037E-01
         0.21021E-01
         0.24836E-01
         0.26301E-01
         0.23148E-01
         0.16483E-01
         0.13332E-01
         0.30520E-01
         0.55147E-01
         0.82066E-01
         0.69518E-01
         0.62162E-01
         0.65264E-01
         0.61195E-01
         0.62065E-01
         0.47513E-01
         0.37414E-01
         0.38844E-01
         0.40551E-01
         0.39142E-01
         0.27497E-01
         0.31043E-01
         0.24680E-01
         0.29435E-01
         0.17117E-01
         0.92958E-02
         0.63802E-02
         0.13139E-01
         0.34966E-01
         0.69734E-01
         0.10902E+00
         0.13926E+00
         0.14958E+00
         0.14147E+00
         0.13889E+00
         0.13235E+00
         0.11648E+00
         0.99429E-01
         0.87478E-01
         0.81366E-01
         0.73257E-01
         0.68954E-01
         0.68678E-01
         0.63461E-01
         0.50488E-01
         0.33573E-01
         0.20053E-01
  
SCALARS                            dam  double 1
LOOKUP_TABLE default
         0.00000E+00
         0.00000E+00
         0.00000E+00
         0.00000E+00
         0.00000E+00
         0.00000E+00
         0.00000E+00
         0.00000E+00
         0.00000E+00
         0.00000E+00
         0.00000E+00
         0.00000E+00
         0.00000E+00
         0.00000E+00
         0.00000E+00
         0.00000E+00
         0.00000E+00
         0.00000E+00
         0.00000E+00
         0.00000E+00
         0.00000E+00
         0.00000E+00
         0.00000E+00
         0.00000E+00
         0.00000E+00
         0.00000E+00
         0.00000E+00
         0.00000E+00
         0.00000E+00
         0.00000E+00
         0.00000E+00
         0.00000E+00
         0.00000E+00
         0.00000E+00
         0.00000E+00
         0.00000E+00
         0.00000E+00
         0.00000E+00
         0.00000E+00
         0.00000E+00
         0.00000E+00
         0.00000E+00
         0.00000E+00
         0.00000E+00
         0.00000E+00
         0.00000E+00
         0.00000E+00
         0.00000E+00
         0.00000E+00
         0.00000E+00
         0.00000E+00
         0.00000E+00
         0.00000E+00
         0.00000E+00
         0.00000E+00
         0.00000E+00
         0.00000E+00
         0.00000E+00
         0.00000E+00
         0.00000E+00
         0.00000E+00
         0.00000E+00
         0.00000E+00
         0.00000E+00
         0.00000E+00
         0.00000E+00
         0.00000E+00
         0.00000E+00
         0.00000E+00
         0.00000E+00
         0.00000E+00
         0.00000E+00
         0.00000E+00
         0.00000E+00
         0.00000E+00
         0.00000E+00
         0.00000E+00
         0.00000E+00
         0.00000E+00
         0.00000E+00
         0.00000E+00
         0.00000E+00
         0.00000E+00
         0.00000E+00
         0.00000E+00
         0.00000E+00
         0.00000E+00
         0.00000E+00
         0.00000E+00
         0.00000E+00
         0.00000E+00
         0.00000E+00
         0.00000E+00
         0.00000E+00
         0.00000E+00
         0.00000E+00
         0.00000E+00
         0.00000E+00
         0.00000E+00
         0.00000E+00
         0.00000E+00
         0.00000E+00
         0.00000E+00
         0.00000E+00
         0.00000E+00
         0.00000E+00
         0.00000E+00
         0.00000E+00
         0.00000E+00
         0.00000E+00
         0.00000E+00
         0.00000E+00
         0.00000E+00
         0.00000E+00
         0.00000E+00
         0.00000E+00
         0.00000E+00
         0.00000E+00
         0.00000E+00
         0.00000E+00
         0.00000E+00
         0.00000E+00
         0.00000E+00
         0.00000E+00
         0.00000E+00
         0.00000E+00
         0.00000E+00
         0.00000E+00
         0.00000E+00
         0.00000E+00
         0.00000E+00
         0.00000E+00
         0.00000E+00
         0.00000E+00
         0.00000E+00
         0.00000E+00
         0.00000E+00
         0.00000E+00
         0.00000E+00
         0.00000E+00
         0.00000E+00
         0.00000E+00
         0.00000E+00
         0.00000E+00
         0.00000E+00
         0.00000E+00
         0.00000E+00
         0.00000E+00
         0.00000E+00
         0.00000E+00
         0.00000E+00
         0.00000E+00
         0.00000E+00
         0.00000E+00
         0.00000E+00
         0.00000E+00
         0.00000E+00
         0.00000E+00
         0.00000E+00
         0.00000E+00
         0.00000E+00
         0.00000E+00
         0.00000E+00
         0.00000E+00
         0.00000E+00
         0.00000E+00
         0.00000E+00
         0.00000E+00
         0.00000E+00
         0.00000E+00
         0.00000E+00
         0.00000E+00
         0.00000E+00
         0.00000E+00
         0.00000E+00
         0.00000E+00
         0.00000E+00
         0.00000E+00
         0.00000E+00
         0.00000E+00
         0.00000E+00
         0.00000E+00
         0.00000E+00
         0.00000E+00
         0.00000E+00
         0.00000E+00
         0.00000E+00
         0.00000E+00
         0.00000E+00
         0.00000E+00
         0.00000E+00
         0.00000E+00
         0.00000E+00
         0.00000E+00
         0.00000E+00
         0.00000E+00
         0.00000E+00
         0.00000E+00
         0.00000E+00
         0.00000E+00
         0.00000E+00
         0.00000E+00
         0.00000E+00
         0.00000E+00
         0.00000E+00
         0.00000E+00
         0.00000E+00
         0.00000E+00
         0.00000E+00
         0.00000E+00
         0.00000E+00
         0.00000E+00
         0.00000E+00
         0.00000E+00
         0.00000E+00
         0.00000E+00
         0.00000E+00
         0.00000E+00
         0.00000E+00
         0.00000E+00
         0.00000E+00
         0.00000E+00
         0.00000E+00
         0.00000E+00
         0.00000E+00
         0.00000E+00
         0.00000E+00
         0.00000E+00
         0.00000E+00
         0.00000E+00
         0.00000E+00
         0.00000E+00
         0.00000E+00
         0.00000E+00
         0.00000E+00
         0.00000E+00
         0.00000E+00
         0.00000E+00
         0.00000E+00
         0.00000E+00
         0.00000E+00
         0.00000E+00
         0.00000E+00
         0.00000E+00
         0.00000E+00
         0.00000E+00
         0.00000E+00
         0.00000E+00
         0.00000E+00
         0.00000E+00
         0.00000E+00
         0.00000E+00
         0.00000E+00
         0.00000E+00
         0.00000E+00
         0.00000E+00
         0.00000E+00
         0.00000E+00
         0.00000E+00
         0.00000E+00
         0.00000E+00
         0.00000E+00
         0.00000E+00
         0.00000E+00
         0.00000E+00
         0.00000E+00
         0.00000E+00
         0.00000E+00
         0.00000E+00
         0.00000E+00
         0.00000E+00
         0.00000E+00
         0.00000E+00
         0.00000E+00
         0.00000E+00
         0.00000E+00
         0.00000E+00
         0.00000E+00
         0.00000E+00
         0.00000E+00
         0.00000E+00
         0.00000E+00
         0.00000E+00
         0.00000E+00
         0.00000E+00
         0.00000E+00
         0.00000E+00
         0.00000E+00
         0.00000E+00
         0.00000E+00
         0.00000E+00
         0.00000E+00
         0.00000E+00
         0.00000E+00
         0.00000E+00
         0.00000E+00
         0.00000E+00
         0.00000E+00
         0.00000E+00
         0.00000E+00
         0.00000E+00
         0.00000E+00
         0.00000E+00
         0.00000E+00
         0.00000E+00
         0.00000E+00
         0.00000E+00
         0.00000E+00
         0.00000E+00
         0.00000E+00
         0.00000E+00
         0.00000E+00
         0.00000E+00
         0.00000E+00
         0.00000E+00
         0.00000E+00
         0.00000E+00
         0.00000E+00
         0.00000E+00
         0.00000E+00
         0.00000E+00
         0.00000E+00
         0.00000E+00
         0.00000E+00
         0.00000E+00
         0.00000E+00
         0.00000E+00
         0.00000E+00
         0.00000E+00
         0.00000E+00
         0.00000E+00
         0.00000E+00
         0.00000E+00
         0.00000E+00
         0.00000E+00
         0.00000E+00
         0.00000E+00
         0.00000E+00
         0.00000E+00
         0.00000E+00
         0.00000E+00
         0.00000E+00
         0.00000E+00
         0.00000E+00
         0.00000E+00
         0.00000E+00
         0.00000E+00
         0.00000E+00
         0.00000E+00
         0.00000E+00
         0.00000E+00
         0.00000E+00
         0.00000E+00
         0.00000E+00
         0.00000E+00
         0.00000E+00
         0.00000E+00
         0.00000E+00
         0.00000E+00
         0.00000E+00
         0.00000E+00
         0.00000E+00
         0.00000E+00
         0.00000E+00
         0.00000E+00
         0.00000E+00
         0.00000E+00
         0.00000E+00
         0.00000E+00
         0.00000E+00
         0.00000E+00
         0.00000E+00
         0.00000E+00
         0.00000E+00
         0.00000E+00
         0.00000E+00
         0.00000E+00
         0.00000E+00
         0.00000E+00
         0.00000E+00
         0.00000E+00
         0.00000E+00
         0.00000E+00
         0.00000E+00
         0.00000E+00
         0.00000E+00
         0.00000E+00
         0.00000E+00
         0.00000E+00
         0.00000E+00
         0.00000E+00
         0.00000E+00
         0.00000E+00
         0.00000E+00
         0.00000E+00
         0.00000E+00
         0.00000E+00
         0.00000E+00
         0.00000E+00
         0.00000E+00
         0.00000E+00
         0.00000E+00
         0.00000E+00
         0.00000E+00
         0.00000E+00
         0.00000E+00
         0.00000E+00
         0.00000E+00
         0.00000E+00
         0.00000E+00
         0.00000E+00
         0.00000E+00
         0.00000E+00
         0.00000E+00
         0.00000E+00
         0.00000E+00
         0.00000E+00
         0.00000E+00
         0.00000E+00
         0.00000E+00
         0.00000E+00
         0.00000E+00
         0.00000E+00
         0.00000E+00
         0.00000E+00
         0.00000E+00
         0.00000E+00
         0.00000E+00
         0.00000E+00
         0.00000E+00
         0.00000E+00
         0.00000E+00
         0.00000E+00
         0.00000E+00
         0.00000E+00
         0.00000E+00
         0.00000E+00
         0.00000E+00
         0.00000E+00
         0.00000E+00
         0.00000E+00
         0.00000E+00
         0.00000E+00
         0.00000E+00
         0.00000E+00
         0.00000E+00
         0.00000E+00
         0.00000E+00
         0.00000E+00
         0.00000E+00
         0.00000E+00
         0.00000E+00
         0.00000E+00
         0.00000E+00
         0.00000E+00
         0.00000E+00
         0.00000E+00
         0.00000E+00
         0.00000E+00
         0.00000E+00
         0.00000E+00
         0.00000E+00
         0.00000E+00
         0.00000E+00
         0.00000E+00
         0.00000E+00
         0.00000E+00
         0.00000E+00
         0.00000E+00
         0.00000E+00
         0.00000E+00
         0.00000E+00
         0.00000E+00
         0.00000E+00
         0.00000E+00
         0.00000E+00
         0.00000E+00
         0.00000E+00
         0.00000E+00
         0.00000E+00
         0.00000E+00
         0.00000E+00
         0.00000E+00
         0.00000E+00
         0.00000E+00
         0.00000E+00
         0.00000E+00
         0.00000E+00
         0.00000E+00
         0.00000E+00
         0.00000E+00
         0.00000E+00
         0.00000E+00
         0.00000E+00
         0.00000E+00
         0.00000E+00
         0.00000E+00
         0.00000E+00
         0.00000E+00
         0.00000E+00
         0.00000E+00
         0.00000E+00
         0.00000E+00
         0.00000E+00
         0.00000E+00
         0.00000E+00
         0.00000E+00
         0.00000E+00
         0.00000E+00
         0.00000E+00
         0.00000E+00
         0.00000E+00
         0.00000E+00
         0.00000E+00
         0.00000E+00
         0.00000E+00
         0.00000E+00
         0.00000E+00
         0.00000E+00
         0.00000E+00
         0.00000E+00
         0.00000E+00
         0.00000E+00
         0.00000E+00
         0.00000E+00
         0.00000E+00
         0.00000E+00
         0.00000E+00
         0.00000E+00
         0.00000E+00
         0.00000E+00
         0.00000E+00
         0.00000E+00
         0.00000E+00
         0.00000E+00
         0.00000E+00
         0.00000E+00
         0.00000E+00
         0.00000E+00
         0.00000E+00
         0.00000E+00
         0.00000E+00
         0.00000E+00
         0.00000E+00
         0.00000E+00
         0.00000E+00
         0.00000E+00
         0.00000E+00
         0.00000E+00
         0.00000E+00
         0.00000E+00
         0.00000E+00
         0.00000E+00
         0.00000E+00
         0.00000E+00
         0.00000E+00
         0.00000E+00
         0.00000E+00
         0.00000E+00
         0.00000E+00
         0.00000E+00
         0.00000E+00
         0.00000E+00
         0.00000E+00
         0.00000E+00
         0.00000E+00
         0.00000E+00
         0.00000E+00
         0.00000E+00
         0.00000E+00
         0.00000E+00
         0.00000E+00
         0.00000E+00
         0.00000E+00
         0.00000E+00
         0.00000E+00
         0.00000E+00
         0.00000E+00
         0.00000E+00
         0.00000E+00
         0.00000E+00
         0.00000E+00
         0.00000E+00
         0.00000E+00
         0.00000E+00
         0.00000E+00
         0.00000E+00
         0.00000E+00
         0.00000E+00
         0.00000E+00
         0.00000E+00
         0.00000E+00
         0.00000E+00
         0.00000E+00
         0.00000E+00
         0.00000E+00
         0.00000E+00
         0.00000E+00
         0.00000E+00
         0.00000E+00
         0.00000E+00
         0.00000E+00
         0.00000E+00
         0.00000E+00
         0.00000E+00
         0.00000E+00
         0.00000E+00
         0.00000E+00
         0.00000E+00
         0.00000E+00
         0.00000E+00
         0.00000E+00
         0.00000E+00
         0.00000E+00
         0.00000E+00
         0.00000E+00
         0.00000E+00
         0.00000E+00
         0.00000E+00
         0.00000E+00
         0.00000E+00
         0.00000E+00
         0.00000E+00
         0.00000E+00
         0.00000E+00
         0.00000E+00
         0.00000E+00
         0.00000E+00
         0.00000E+00
         0.00000E+00
         0.00000E+00
         0.00000E+00
         0.00000E+00
         0.00000E+00
         0.00000E+00
         0.00000E+00
         0.00000E+00
         0.00000E+00
         0.00000E+00
         0.00000E+00
         0.00000E+00
         0.00000E+00
         0.00000E+00
         0.00000E+00
         0.00000E+00
         0.00000E+00
         0.00000E+00
         0.00000E+00
         0.00000E+00
         0.00000E+00
         0.00000E+00
         0.00000E+00
         0.00000E+00
         0.00000E+00
         0.00000E+00
         0.00000E+00
         0.00000E+00
         0.00000E+00
         0.00000E+00
         0.00000E+00
         0.00000E+00
         0.00000E+00
         0.00000E+00
         0.00000E+00
         0.00000E+00
         0.00000E+00
         0.00000E+00
         0.00000E+00
         0.00000E+00
         0.00000E+00
         0.00000E+00
         0.00000E+00
         0.00000E+00
         0.00000E+00
         0.00000E+00
         0.00000E+00
         0.00000E+00
         0.00000E+00
         0.00000E+00
         0.00000E+00
         0.00000E+00
         0.00000E+00
         0.00000E+00
         0.00000E+00
         0.00000E+00
         0.00000E+00
         0.00000E+00
         0.00000E+00
         0.00000E+00
         0.00000E+00
         0.00000E+00
         0.00000E+00
         0.00000E+00
         0.00000E+00
         0.00000E+00
         0.00000E+00
         0.00000E+00
         0.00000E+00
         0.00000E+00
         0.00000E+00
         0.00000E+00
         0.00000E+00
         0.00000E+00
         0.00000E+00
         0.00000E+00
         0.00000E+00
         0.00000E+00
         0.00000E+00
         0.00000E+00
         0.00000E+00
         0.00000E+00
         0.00000E+00
         0.00000E+00
         0.00000E+00
         0.00000E+00
         0.00000E+00
         0.00000E+00
         0.00000E+00
         0.00000E+00
         0.00000E+00
         0.00000E+00
         0.00000E+00
         0.00000E+00
         0.00000E+00
         0.00000E+00
         0.00000E+00
         0.00000E+00
         0.00000E+00
         0.00000E+00
         0.00000E+00
         0.00000E+00
         0.00000E+00
         0.00000E+00
         0.00000E+00
         0.00000E+00
         0.00000E+00
         0.00000E+00
         0.00000E+00
         0.00000E+00
         0.00000E+00
         0.00000E+00
         0.00000E+00
         0.00000E+00
         0.00000E+00
         0.00000E+00
         0.00000E+00
         0.00000E+00
         0.00000E+00
         0.00000E+00
         0.00000E+00
         0.00000E+00
         0.00000E+00
         0.00000E+00
         0.00000E+00
         0.00000E+00
         0.00000E+00
         0.00000E+00
         0.00000E+00
         0.00000E+00
         0.00000E+00
         0.00000E+00
         0.00000E+00
         0.00000E+00
         0.00000E+00
         0.00000E+00
         0.00000E+00
         0.00000E+00
         0.00000E+00
         0.00000E+00
         0.00000E+00
         0.00000E+00
         0.00000E+00
         0.00000E+00
         0.00000E+00
         0.00000E+00
         0.00000E+00
         0.00000E+00
         0.00000E+00
         0.00000E+00
         0.00000E+00
         0.00000E+00
         0.00000E+00
         0.00000E+00
         0.00000E+00
         0.00000E+00
         0.00000E+00
         0.00000E+00
         0.00000E+00
         0.00000E+00
         0.00000E+00
         0.00000E+00
         0.00000E+00
         0.00000E+00
         0.00000E+00
         0.00000E+00
         0.00000E+00
         0.00000E+00
         0.00000E+00
         0.00000E+00
         0.00000E+00
         0.00000E+00
         0.00000E+00
         0.00000E+00
         0.00000E+00
         0.00000E+00
         0.00000E+00
         0.00000E+00
         0.00000E+00
         0.00000E+00
         0.00000E+00
         0.00000E+00
         0.00000E+00
         0.00000E+00
         0.00000E+00
         0.00000E+00
         0.00000E+00
         0.00000E+00
         0.00000E+00
         0.00000E+00
         0.00000E+00
         0.00000E+00
         0.00000E+00
         0.00000E+00
         0.00000E+00
         0.00000E+00
         0.00000E+00
         0.00000E+00
         0.00000E+00
         0.00000E+00
         0.00000E+00
         0.00000E+00
         0.00000E+00
         0.00000E+00
         0.00000E+00
         0.00000E+00
         0.00000E+00
         0.00000E+00
         0.00000E+00
         0.00000E+00
         0.00000E+00
         0.00000E+00
         0.00000E+00
         0.00000E+00
         0.00000E+00
         0.00000E+00
         0.00000E+00
         0.00000E+00
         0.00000E+00
         0.00000E+00
         0.00000E+00
         0.00000E+00
         0.00000E+00
         0.00000E+00
         0.00000E+00
         0.00000E+00
         0.00000E+00
         0.00000E+00
         0.00000E+00
         0.00000E+00
         0.00000E+00
         0.00000E+00
         0.00000E+00
         0.00000E+00
         0.00000E+00
         0.00000E+00
         0.00000E+00
         0.00000E+00
         0.00000E+00
         0.00000E+00
         0.00000E+00
         0.00000E+00
         0.00000E+00
         0.00000E+00
         0.00000E+00
         0.00000E+00
         0.00000E+00
         0.00000E+00
         0.00000E+00
         0.00000E+00
         0.00000E+00
         0.00000E+00
         0.00000E+00
         0.00000E+00
         0.00000E+00
         0.00000E+00
         0.00000E+00
         0.00000E+00
         0.00000E+00
         0.00000E+00
         0.00000E+00
         0.00000E+00
         0.00000E+00
         0.00000E+00
         0.00000E+00
         0.00000E+00
         0.00000E+00
         0.00000E+00
         0.00000E+00
         0.00000E+00
         0.00000E+00
         0.00000E+00
         0.00000E+00
         0.00000E+00
         0.00000E+00
         0.00000E+00
         0.00000E+00
         0.00000E+00
         0.00000E+00
         0.00000E+00
         0.00000E+00
         0.00000E+00
         0.00000E+00
         0.00000E+00
         0.00000E+00
         0.00000E+00
         0.00000E+00
         0.00000E+00
         0.00000E+00
         0.00000E+00
         0.00000E+00
         0.00000E+00
         0.00000E+00
         0.00000E+00
         0.00000E+00
         0.00000E+00
         0.00000E+00
         0.00000E+00
         0.00000E+00
         0.00000E+00
         0.00000E+00
         0.00000E+00
         0.00000E+00
         0.00000E+00
         0.00000E+00
         0.00000E+00
         0.00000E+00
         0.00000E+00
         0.00000E+00
         0.00000E+00
         0.00000E+00
         0.00000E+00
         0.00000E+00
         0.00000E+00
         0.00000E+00
         0.00000E+00
         0.00000E+00
         0.00000E+00
         0.00000E+00
         0.00000E+00
         0.00000E+00
         0.00000E+00
         0.00000E+00
         0.00000E+00
         0.00000E+00
         0.00000E+00
         0.00000E+00
         0.00000E+00
         0.00000E+00
         0.00000E+00
         0.00000E+00
         0.00000E+00
         0.00000E+00
         0.00000E+00
         0.00000E+00
         0.00000E+00
         0.00000E+00
         0.00000E+00
         0.00000E+00
         0.00000E+00
         0.00000E+00
         0.00000E+00
         0.00000E+00
         0.00000E+00
         0.00000E+00
         0.00000E+00
         0.00000E+00
         0.00000E+00
         0.00000E+00
         0.00000E+00
         0.00000E+00
         0.00000E+00
         0.00000E+00
         0.00000E+00
         0.00000E+00
         0.00000E+00
         0.00000E+00
         0.00000E+00
         0.00000E+00
         0.00000E+00
         0.00000E+00
         0.00000E+00
         0.00000E+00
         0.00000E+00
         0.00000E+00
         0.00000E+00
         0.00000E+00
         0.00000E+00
         0.00000E+00
         0.00000E+00
         0.00000E+00
         0.00000E+00
         0.00000E+00
         0.00000E+00
         0.00000E+00
         0.00000E+00
         0.00000E+00
         0.00000E+00
         0.00000E+00
         0.00000E+00
         0.00000E+00
         0.00000E+00
         0.00000E+00
         0.00000E+00
         0.00000E+00
         0.00000E+00
         0.00000E+00
         0.00000E+00
         0.00000E+00
         0.00000E+00
         0.00000E+00
         0.00000E+00
         0.00000E+00
         0.00000E+00
         0.00000E+00
         0.00000E+00
         0.00000E+00
         0.00000E+00
         0.00000E+00
         0.00000E+00
         0.00000E+00
         0.00000E+00
         0.00000E+00
         0.00000E+00
         0.00000E+00
         0.00000E+00
         0.00000E+00
         0.00000E+00
         0.00000E+00
         0.00000E+00
         0.00000E+00
         0.00000E+00
         0.00000E+00
         0.00000E+00
         0.00000E+00
         0.00000E+00
         0.00000E+00
         0.00000E+00
         0.00000E+00
         0.00000E+00
         0.00000E+00
         0.00000E+00
         0.00000E+00
         0.00000E+00
         0.00000E+00
         0.00000E+00
         0.00000E+00
         0.00000E+00
         0.00000E+00
         0.00000E+00
         0.00000E+00
         0.00000E+00
         0.00000E+00
         0.00000E+00
         0.00000E+00
         0.00000E+00
         0.00000E+00
         0.00000E+00
         0.00000E+00
         0.00000E+00
         0.00000E+00
         0.00000E+00
         0.00000E+00
         0.00000E+00
         0.00000E+00
         0.00000E+00
         0.00000E+00
         0.00000E+00
         0.00000E+00
         0.00000E+00
         0.00000E+00
         0.00000E+00
         0.00000E+00
         0.00000E+00
         0.00000E+00
         0.00000E+00
         0.00000E+00
         0.00000E+00
         0.00000E+00
         0.00000E+00
         0.00000E+00
         0.00000E+00
         0.00000E+00
         0.00000E+00
         0.00000E+00
         0.00000E+00
         0.00000E+00
         0.00000E+00
         0.00000E+00
         0.00000E+00
         0.00000E+00
         0.00000E+00
         0.00000E+00
         0.00000E+00
         0.00000E+00
         0.00000E+00
         0.00000E+00
         0.00000E+00
         0.00000E+00
         0.00000E+00
         0.00000E+00
         0.00000E+00
         0.00000E+00
         0.00000E+00
         0.00000E+00
         0.00000E+00
         0.00000E+00
         0.00000E+00
         0.00000E+00
         0.00000E+00
         0.00000E+00
         0.00000E+00
         0.00000E+00
         0.00000E+00
         0.00000E+00
         0.00000E+00
         0.00000E+00
         0.00000E+00
         0.00000E+00
         0.00000E+00
         0.00000E+00
         0.00000E+00
         0.00000E+00
         0.00000E+00
         0.00000E+00
         0.00000E+00
         0.00000E+00
         0.00000E+00
         0.00000E+00
         0.00000E+00
         0.00000E+00
         0.00000E+00
         0.00000E+00
         0.00000E+00
         0.00000E+00
         0.00000E+00
         0.00000E+00
         0.00000E+00
         0.00000E+00
         0.00000E+00
         0.00000E+00
         0.00000E+00
         0.00000E+00
         0.00000E+00
         0.00000E+00
         0.00000E+00
         0.00000E+00
         0.00000E+00
         0.00000E+00
         0.00000E+00
         0.00000E+00
         0.00000E+00
         0.00000E+00
         0.00000E+00
         0.00000E+00
         0.00000E+00
         0.00000E+00
         0.00000E+00
         0.00000E+00
         0.00000E+00
         0.00000E+00
         0.00000E+00
         0.00000E+00
         0.00000E+00
         0.00000E+00
         0.00000E+00
         0.00000E+00
         0.00000E+00
         0.00000E+00
         0.00000E+00
         0.00000E+00
         0.00000E+00
         0.00000E+00
         0.00000E+00
         0.00000E+00
         0.00000E+00
         0.00000E+00
         0.00000E+00
         0.00000E+00
         0.00000E+00
         0.00000E+00
         0.00000E+00
         0.00000E+00
         0.00000E+00
         0.00000E+00
         0.00000E+00
         0.00000E+00
         0.00000E+00
         0.00000E+00
         0.00000E+00
         0.00000E+00
         0.00000E+00
         0.00000E+00
         0.00000E+00
         0.00000E+00
         0.00000E+00
         0.00000E+00
         0.00000E+00
         0.00000E+00
         0.00000E+00
         0.00000E+00
         0.00000E+00
         0.00000E+00
         0.00000E+00
         0.00000E+00
         0.00000E+00
         0.00000E+00
         0.00000E+00
         0.00000E+00
         0.00000E+00
         0.00000E+00
         0.00000E+00
         0.00000E+00
         0.00000E+00
         0.00000E+00
         0.00000E+00
         0.00000E+00
         0.00000E+00
         0.00000E+00
         0.00000E+00
         0.00000E+00
         0.00000E+00
         0.00000E+00
         0.00000E+00
         0.00000E+00
         0.00000E+00
         0.00000E+00
         0.00000E+00
         0.00000E+00
         0.00000E+00
         0.00000E+00
         0.00000E+00
         0.00000E+00
         0.00000E+00
         0.00000E+00
         0.00000E+00
         0.00000E+00
         0.00000E+00
         0.00000E+00
         0.00000E+00
         0.00000E+00
         0.00000E+00
         0.00000E+00
         0.00000E+00
         0.00000E+00
         0.00000E+00
         0.00000E+00
         0.00000E+00
         0.00000E+00
         0.00000E+00
         0.00000E+00
         0.00000E+00
         0.00000E+00
         0.00000E+00
         0.00000E+00
         0.00000E+00
         0.00000E+00
         0.00000E+00
         0.00000E+00
         0.00000E+00
         0.00000E+00
         0.00000E+00
         0.00000E+00
         0.00000E+00
         0.00000E+00
         0.00000E+00
         0.00000E+00
         0.00000E+00
         0.00000E+00
         0.00000E+00
         0.00000E+00
         0.00000E+00
         0.00000E+00
         0.00000E+00
         0.00000E+00
         0.00000E+00
         0.00000E+00
         0.00000E+00
         0.00000E+00
         0.00000E+00
         0.00000E+00
         0.00000E+00
         0.00000E+00
         0.00000E+00
         0.00000E+00
         0.00000E+00
         0.00000E+00
         0.00000E+00
         0.00000E+00
         0.00000E+00
         0.00000E+00
         0.00000E+00
         0.00000E+00
         0.00000E+00
         0.00000E+00
         0.00000E+00
         0.00000E+00
         0.00000E+00
         0.00000E+00
         0.00000E+00
         0.00000E+00
         0.00000E+00
         0.00000E+00
         0.00000E+00
         0.00000E+00
         0.00000E+00
         0.00000E+00
         0.00000E+00
         0.00000E+00
         0.00000E+00
         0.00000E+00
         0.00000E+00
         0.00000E+00
         0.00000E+00
         0.00000E+00
         0.00000E+00
         0.00000E+00
         0.00000E+00
         0.00000E+00
         0.00000E+00
         0.00000E+00
         0.00000E+00
         0.00000E+00
         0.00000E+00
         0.00000E+00
         0.00000E+00
         0.00000E+00
         0.00000E+00
         0.00000E+00
         0.00000E+00
         0.00000E+00
         0.00000E+00
         0.00000E+00
         0.00000E+00
         0.00000E+00
         0.00000E+00
         0.00000E+00
         0.00000E+00
         0.00000E+00
         0.00000E+00
         0.00000E+00
         0.00000E+00
         0.00000E+00
         0.00000E+00
         0.00000E+00
         0.00000E+00
         0.00000E+00
         0.00000E+00
         0.00000E+00
         0.00000E+00
         0.00000E+00
         0.00000E+00
         0.00000E+00
         0.00000E+00
         0.00000E+00
         0.00000E+00
         0.00000E+00
         0.00000E+00
         0.00000E+00
         0.00000E+00
         0.00000E+00
         0.00000E+00
         0.00000E+00
         0.00000E+00
         0.00000E+00
         0.00000E+00
         0.00000E+00
         0.00000E+00
         0.00000E+00
         0.00000E+00
         0.00000E+00
         0.00000E+00
         0.00000E+00
         0.00000E+00
         0.00000E+00
         0.00000E+00
         0.00000E+00
         0.00000E+00
         0.00000E+00
         0.00000E+00
         0.00000E+00
         0.00000E+00
         0.00000E+00
         0.00000E+00
         0.00000E+00
         0.00000E+00
         0.00000E+00
         0.00000E+00
         0.00000E+00
         0.00000E+00
         0.00000E+00
         0.00000E+00
         0.00000E+00
         0.00000E+00
         0.00000E+00
         0.00000E+00
         0.00000E+00
         0.00000E+00
         0.00000E+00
         0.00000E+00
         0.00000E+00
         0.00000E+00
         0.00000E+00
         0.00000E+00
         0.00000E+00
         0.00000E+00
         0.00000E+00
         0.00000E+00
         0.00000E+00
         0.00000E+00
         0.00000E+00
         0.00000E+00
         0.00000E+00
         0.00000E+00
         0.00000E+00
         0.00000E+00
         0.00000E+00
         0.00000E+00
         0.00000E+00
         0.00000E+00
         0.00000E+00
         0.00000E+00
         0.00000E+00
         0.00000E+00
         0.00000E+00
         0.00000E+00
         0.00000E+00
         0.00000E+00
         0.00000E+00
         0.00000E+00
         0.00000E+00
         0.00000E+00
         0.00000E+00
         0.00000E+00
         0.00000E+00
         0.00000E+00
         0.00000E+00
         0.00000E+00
         0.00000E+00
         0.00000E+00
         0.00000E+00
         0.00000E+00
         0.00000E+00
         0.00000E+00
         0.00000E+00
         0.00000E+00
         0.00000E+00
         0.00000E+00
         0.00000E+00
         0.00000E+00
         0.00000E+00
         0.00000E+00
         0.00000E+00
         0.00000E+00
         0.00000E+00
         0.00000E+00
         0.00000E+00
         0.00000E+00
         0.00000E+00
         0.00000E+00
         0.00000E+00
         0.00000E+00
         0.00000E+00
         0.00000E+00
         0.00000E+00
         0.00000E+00
         0.00000E+00
         0.00000E+00
         0.00000E+00
         0.00000E+00
         0.00000E+00
         0.00000E+00
         0.00000E+00
         0.00000E+00
         0.00000E+00
         0.00000E+00
         0.00000E+00
         0.00000E+00
         0.00000E+00
         0.00000E+00
         0.00000E+00
         0.00000E+00
         0.00000E+00
         0.00000E+00
         0.00000E+00
         0.00000E+00
         0.00000E+00
         0.00000E+00
         0.00000E+00
         0.00000E+00
         0.00000E+00
         0.00000E+00
         0.00000E+00
         0.00000E+00
         0.00000E+00
         0.00000E+00
         0.00000E+00
         0.00000E+00
         0.00000E+00
         0.00000E+00
         0.00000E+00
         0.00000E+00
         0.00000E+00
         0.00000E+00
         0.00000E+00
         0.00000E+00
         0.00000E+00
         0.00000E+00
         0.00000E+00
         0.00000E+00
         0.00000E+00
         0.00000E+00
         0.00000E+00
         0.00000E+00
         0.00000E+00
         0.00000E+00
         0.00000E+00
         0.00000E+00
         0.00000E+00
         0.00000E+00
         0.00000E+00
         0.00000E+00
         0.00000E+00
         0.00000E+00
         0.00000E+00
         0.00000E+00
         0.00000E+00
         0.00000E+00
         0.00000E+00
         0.00000E+00
         0.00000E+00
         0.00000E+00
         0.00000E+00
         0.00000E+00
         0.00000E+00
         0.00000E+00
         0.00000E+00
         0.00000E+00
         0.00000E+00
         0.00000E+00
         0.00000E+00
         0.00000E+00
         0.00000E+00
         0.00000E+00
         0.00000E+00
         0.00000E+00
         0.00000E+00
         0.00000E+00
         0.00000E+00
         0.00000E+00
         0.00000E+00
         0.00000E+00
         0.00000E+00
         0.00000E+00
         0.00000E+00
         0.00000E+00
         0.00000E+00
         0.00000E+00
         0.00000E+00
         0.00000E+00
         0.00000E+00
         0.00000E+00
         0.00000E+00
         0.00000E+00
         0.00000E+00
         0.00000E+00
         0.00000E+00
         0.00000E+00
         0.00000E+00
         0.00000E+00
         0.00000E+00
         0.00000E+00
         0.00000E+00
         0.00000E+00
         0.00000E+00
         0.00000E+00
         0.00000E+00
         0.00000E+00
         0.00000E+00
         0.00000E+00
         0.00000E+00
         0.00000E+00
         0.00000E+00
         0.00000E+00
         0.00000E+00
         0.00000E+00
         0.00000E+00
         0.00000E+00
         0.00000E+00
         0.00000E+00
         0.00000E+00
         0.00000E+00
         0.00000E+00
         0.00000E+00
         0.00000E+00
         0.00000E+00
         0.00000E+00
         0.00000E+00
         0.00000E+00
         0.00000E+00
         0.00000E+00
         0.00000E+00
         0.00000E+00
         0.00000E+00
         0.00000E+00
         0.00000E+00
         0.00000E+00
         0.00000E+00
         0.00000E+00
         0.00000E+00
         0.00000E+00
         0.00000E+00
         0.00000E+00
         0.00000E+00
         0.00000E+00
         0.00000E+00
         0.00000E+00
         0.00000E+00
         0.00000E+00
         0.00000E+00
         0.00000E+00
         0.00000E+00
         0.00000E+00
         0.00000E+00
         0.00000E+00
         0.00000E+00
         0.00000E+00
         0.00000E+00
         0.00000E+00
         0.00000E+00
         0.00000E+00
         0.00000E+00
         0.00000E+00
         0.00000E+00
         0.00000E+00
         0.00000E+00
         0.00000E+00
         0.00000E+00
         0.00000E+00
         0.00000E+00
         0.00000E+00
         0.00000E+00
         0.00000E+00
         0.00000E+00
         0.00000E+00
         0.00000E+00
         0.00000E+00
         0.00000E+00
         0.00000E+00
         0.00000E+00
         0.00000E+00
         0.00000E+00
         0.00000E+00
         0.00000E+00
         0.00000E+00
         0.00000E+00
         0.00000E+00
         0.00000E+00
         0.00000E+00
         0.00000E+00
         0.00000E+00
         0.00000E+00
         0.00000E+00
         0.00000E+00
         0.00000E+00
         0.00000E+00
         0.00000E+00
         0.00000E+00
         0.00000E+00
         0.00000E+00
         0.00000E+00
         0.00000E+00
         0.00000E+00
         0.00000E+00
         0.00000E+00
         0.00000E+00
         0.00000E+00
         0.00000E+00
         0.00000E+00
         0.00000E+00
         0.00000E+00
         0.00000E+00
         0.00000E+00
         0.00000E+00
         0.00000E+00
         0.00000E+00
         0.00000E+00
         0.00000E+00
         0.00000E+00
         0.00000E+00
         0.00000E+00
         0.00000E+00
         0.00000E+00
         0.00000E+00
         0.00000E+00
         0.00000E+00
         0.00000E+00
         0.00000E+00
         0.00000E+00
         0.00000E+00
         0.00000E+00
         0.00000E+00
         0.00000E+00
         0.00000E+00
         0.00000E+00
         0.00000E+00
         0.00000E+00
         0.00000E+00
         0.00000E+00
         0.00000E+00
         0.00000E+00
         0.00000E+00
         0.00000E+00
         0.00000E+00
         0.00000E+00
         0.00000E+00
         0.00000E+00
         0.00000E+00
         0.00000E+00
         0.00000E+00
         0.00000E+00
         0.00000E+00
         0.00000E+00
         0.00000E+00
         0.00000E+00
         0.00000E+00
         0.00000E+00
         0.00000E+00
         0.00000E+00
         0.00000E+00
         0.00000E+00
         0.00000E+00
         0.00000E+00
         0.00000E+00
         0.00000E+00
         0.00000E+00
         0.00000E+00
         0.00000E+00
         0.00000E+00
         0.00000E+00
         0.00000E+00
         0.00000E+00
         0.00000E+00
         0.00000E+00
         0.00000E+00
         0.00000E+00
         0.00000E+00
         0.00000E+00
         0.00000E+00
         0.00000E+00
         0.00000E+00
         0.00000E+00
         0.00000E+00
         0.00000E+00
         0.00000E+00
         0.00000E+00
         0.00000E+00
         0.00000E+00
         0.00000E+00
         0.00000E+00
         0.00000E+00
         0.00000E+00
         0.00000E+00
         0.00000E+00
         0.00000E+00
         0.00000E+00
         0.00000E+00
         0.00000E+00
         0.00000E+00
         0.00000E+00
         0.00000E+00
         0.00000E+00
         0.00000E+00
         0.00000E+00
         0.00000E+00
         0.00000E+00
         0.00000E+00
         0.00000E+00
         0.00000E+00
         0.00000E+00
         0.00000E+00
         0.00000E+00
         0.00000E+00
         0.00000E+00
         0.00000E+00
         0.00000E+00
         0.00000E+00
         0.00000E+00
         0.00000E+00
         0.00000E+00
         0.00000E+00
         0.00000E+00
         0.00000E+00
         0.00000E+00
         0.00000E+00
         0.00000E+00
         0.00000E+00
         0.00000E+00
         0.00000E+00
         0.00000E+00
         0.00000E+00
         0.00000E+00
         0.00000E+00
         0.00000E+00
         0.00000E+00
         0.00000E+00
         0.00000E+00
         0.00000E+00
         0.00000E+00
         0.00000E+00
         0.00000E+00
         0.00000E+00
         0.00000E+00
         0.00000E+00
         0.00000E+00
         0.00000E+00
         0.00000E+00
         0.00000E+00
         0.00000E+00
         0.00000E+00
         0.00000E+00
         0.00000E+00
         0.00000E+00
         0.00000E+00
         0.00000E+00
         0.00000E+00
         0.00000E+00
         0.00000E+00
         0.00000E+00
         0.00000E+00
         0.00000E+00
         0.00000E+00
         0.00000E+00
         0.00000E+00
         0.00000E+00
         0.00000E+00
         0.00000E+00
         0.00000E+00
         0.00000E+00
         0.00000E+00
         0.00000E+00
         0.00000E+00
         0.00000E+00
         0.00000E+00
         0.00000E+00
         0.00000E+00
         0.00000E+00
         0.00000E+00
         0.00000E+00
         0.00000E+00
         0.00000E+00
         0.00000E+00
         0.00000E+00
         0.00000E+00
         0.00000E+00
         0.00000E+00
         0.00000E+00
         0.00000E+00
         0.00000E+00
         0.00000E+00
         0.00000E+00
         0.00000E+00
         0.00000E+00
         0.00000E+00
         0.00000E+00
         0.00000E+00
         0.00000E+00
         0.00000E+00
         0.00000E+00
         0.00000E+00
         0.00000E+00
         0.00000E+00
         0.00000E+00
         0.00000E+00
         0.00000E+00
         0.00000E+00
         0.00000E+00
         0.00000E+00
         0.00000E+00
         0.00000E+00
         0.00000E+00
         0.00000E+00
         0.00000E+00
         0.00000E+00
         0.00000E+00
         0.00000E+00
         0.00000E+00
         0.00000E+00
         0.00000E+00
         0.00000E+00
         0.00000E+00
         0.00000E+00
         0.00000E+00
         0.00000E+00
         0.00000E+00
         0.00000E+00
         0.00000E+00
         0.00000E+00
         0.00000E+00
         0.00000E+00
         0.00000E+00
         0.00000E+00
         0.00000E+00
         0.00000E+00
         0.00000E+00
         0.00000E+00
         0.00000E+00
         0.00000E+00
         0.00000E+00
         0.00000E+00
         0.00000E+00
         0.00000E+00
         0.00000E+00
         0.00000E+00
         0.00000E+00
         0.00000E+00
         0.00000E+00
         0.00000E+00
         0.00000E+00
         0.00000E+00
         0.00000E+00
         0.00000E+00
         0.00000E+00
         0.00000E+00
         0.00000E+00
         0.00000E+00
         0.00000E+00
         0.00000E+00
         0.00000E+00
         0.00000E+00
         0.00000E+00
         0.00000E+00
         0.00000E+00
         0.00000E+00
         0.00000E+00
         0.00000E+00
         0.00000E+00
         0.00000E+00
         0.00000E+00
         0.00000E+00
         0.00000E+00
  
SCALARS           initial_coordinate_x  double 1
LOOKUP_TABLE default
         0.10378E-02
         0.17452E-02
         0.23177E-02
         0.16698E-02
         0.10379E-02
         0.17453E-02
         0.23178E-02
         0.16700E-02
         0.30377E-02
         0.27791E-02
         0.30377E-02
         0.27788E-02
         0.12850E-02
         0.65139E-03
         0.12851E-02
         0.65164E-03
         0.12757E-03
        -0.12822E-03
         0.12783E-03
        -0.12804E-03
         0.94500E-03
         0.11327E-02
         0.17490E-02
         0.94533E-03
         0.11330E-02
         0.17494E-02
         0.40588E-03
         0.39779E-03
         0.40594E-03
         0.39781E-03
        -0.76303E-03
        -0.86604E-03
         0.46119E-03
        -0.76268E-03
        -0.86593E-03
         0.46164E-03
        -0.18300E-02
        -0.18440E-02
        -0.18297E-02
        -0.18441E-02
        -0.27238E-02
        -0.28028E-02
        -0.27238E-02
        -0.28031E-02
        -0.25365E-02
        -0.19287E-02
        -0.25363E-02
        -0.19283E-02
        -0.99363E-03
        -0.99377E-03
        -0.14380E-02
        -0.14377E-02
        -0.31574E-03
        -0.31594E-03
        -0.11068E-02
        -0.11071E-02
        -0.18845E-02
        -0.18713E-02
        -0.18846E-02
        -0.18714E-02
        -0.15871E-03
        -0.94089E-03
        -0.15844E-03
        -0.94029E-03
         0.78856E-03
         0.78922E-03
         0.17211E-02
         0.17211E-02
         0.32050E-02
         0.28046E-02
         0.32047E-02
         0.28047E-02
         0.23059E-02
         0.23060E-02
        -0.40614E-03
        -0.40627E-03
        -0.12092E-02
        -0.12092E-02
        -0.19448E-02
        -0.19448E-02
        -0.25029E-02
        -0.26371E-02
        -0.25029E-02
        -0.26372E-02
        -0.27671E-02
        -0.27674E-02
        -0.21123E-02
        -0.21122E-02
        -0.16087E-02
        -0.16087E-02
        -0.11939E-02
        -0.58641E-03
        -0.11937E-02
        -0.58606E-03
         0.20912E-03
         0.20952E-03
         0.10586E-02
         0.10589E-02
         0.18413E-02
         0.18413E-02
         0.24544E-02
         0.26022E-02
         0.24543E-02
         0.26021E-02
         0.37964E-02
         0.39100E-02
         0.37964E-02
         0.39100E-02
         0.34621E-02
         0.34621E-02
         0.29267E-02
         0.29267E-02
         0.22211E-02
         0.22211E-02
         0.13865E-02
         0.13865E-02
         0.47130E-03
         0.47130E-03
        -0.47130E-03
        -0.47130E-03
        -0.13865E-02
        -0.13865E-02
        -0.22211E-02
        -0.22211E-02
        -0.29267E-02
        -0.29267E-02
        -0.34621E-02
        -0.34621E-02
        -0.37964E-02
        -0.37964E-02
        -0.39100E-02
        -0.39100E-02
        -0.37964E-02
        -0.37964E-02
        -0.34621E-02
        -0.34621E-02
        -0.29267E-02
        -0.29267E-02
        -0.22211E-02
        -0.22211E-02
        -0.13865E-02
        -0.13865E-02
        -0.47130E-03
        -0.47130E-03
         0.47130E-03
         0.47130E-03
         0.13865E-02
         0.13865E-02
         0.22211E-02
         0.22211E-02
         0.29267E-02
         0.29267E-02
         0.34621E-02
         0.34621E-02
         0.37964E-02
         0.37964E-02
         0.10376E-02
         0.17450E-02
         0.23175E-02
         0.16696E-02
         0.30377E-02
         0.27795E-02
         0.12849E-02
         0.65115E-03
         0.12731E-03
        -0.12841E-03
         0.94467E-03
         0.11323E-02
         0.17487E-02
         0.40583E-03
         0.39777E-03
        -0.76338E-03
        -0.86615E-03
         0.46074E-03
        -0.18303E-02
        -0.18439E-02
        -0.27238E-02
        -0.28025E-02
        -0.25366E-02
        -0.19292E-02
        -0.99349E-03
        -0.14384E-02
        -0.31554E-03
        -0.11064E-02
        -0.18845E-02
        -0.18712E-02
        -0.15899E-03
        -0.94149E-03
         0.78790E-03
         0.17210E-02
         0.32053E-02
         0.28046E-02
         0.23058E-02
        -0.40600E-03
        -0.12092E-02
        -0.19447E-02
        -0.25028E-02
        -0.26370E-02
        -0.27668E-02
        -0.21125E-02
        -0.16088E-02
        -0.11940E-02
        -0.58676E-03
         0.20871E-03
         0.10583E-02
         0.18413E-02
         0.24545E-02
         0.26022E-02
         0.37964E-02
         0.39100E-02
         0.34621E-02
         0.29267E-02
         0.22211E-02
         0.13865E-02
         0.47130E-03
        -0.47130E-03
        -0.13865E-02
        -0.22211E-02
        -0.29267E-02
        -0.34621E-02
        -0.37964E-02
        -0.39100E-02
        -0.37964E-02
        -0.34621E-02
        -0.29267E-02
        -0.22211E-02
        -0.13865E-02
        -0.47130E-03
         0.47130E-03
         0.13865E-02
         0.22211E-02
         0.29267E-02
         0.34621E-02
         0.37964E-02
         0.10375E-02
         0.17448E-02
         0.23174E-02
         0.16694E-02
         0.30377E-02
         0.27798E-02
         0.12848E-02
         0.65090E-03
         0.12705E-03
        -0.12859E-03
         0.94434E-03
         0.11320E-02
         0.17483E-02
         0.40577E-03
         0.39776E-03
        -0.76374E-03
        -0.86626E-03
         0.46029E-03
        -0.18306E-02
        -0.18438E-02
        -0.27238E-02
        -0.28022E-02
        -0.25368E-02
        -0.19296E-02
        -0.99334E-03
        -0.14387E-02
        -0.31534E-03
        -0.11061E-02
        -0.18844E-02
        -0.18710E-02
        -0.15926E-03
        -0.94209E-03
         0.78724E-03
         0.17210E-02
         0.32056E-02
         0.28046E-02
         0.23057E-02
        -0.40586E-03
        -0.12092E-02
        -0.19447E-02
        -0.25028E-02
        -0.26369E-02
        -0.27665E-02
        -0.21126E-02
        -0.16088E-02
        -0.11941E-02
        -0.58711E-03
         0.20830E-03
         0.10580E-02
         0.18414E-02
         0.24546E-02
         0.26023E-02
         0.37964E-02
         0.39100E-02
         0.34621E-02
         0.29267E-02
         0.22211E-02
         0.13865E-02
         0.47130E-03
        -0.47130E-03
        -0.13865E-02
        -0.22211E-02
        -0.29267E-02
        -0.34621E-02
        -0.37964E-02
        -0.39100E-02
        -0.37964E-02
        -0.34621E-02
        -0.29267E-02
        -0.22211E-02
        -0.13865E-02
        -0.47130E-03
         0.47130E-03
         0.13865E-02
         0.22211E-02
         0.29267E-02
         0.34621E-02
         0.37964E-02
         0.10374E-02
         0.17446E-02
         0.23173E-02
         0.16692E-02
         0.30376E-02
         0.27801E-02
         0.12847E-02
         0.65065E-03
         0.12678E-03
        -0.12878E-03
         0.94401E-03
         0.11316E-02
         0.17479E-02
         0.40572E-03
         0.39774E-03
        -0.76409E-03
        -0.86637E-03
         0.45985E-03
        -0.18309E-02
        -0.18437E-02
        -0.27237E-02
        -0.28020E-02
        -0.25369E-02
        -0.19300E-02
        -0.99320E-03
        -0.14391E-02
        -0.31514E-03
        -0.11057E-02
        -0.18844E-02
        -0.18709E-02
        -0.15954E-03
        -0.94269E-03
         0.78658E-03
         0.17209E-02
         0.32060E-02
         0.28046E-02
         0.23056E-02
        -0.40572E-03
        -0.12092E-02
        -0.19446E-02
        -0.25028E-02
        -0.26368E-02
        -0.27662E-02
        -0.21128E-02
        -0.16088E-02
        -0.11942E-02
        -0.58746E-03
         0.20790E-03
         0.10577E-02
         0.18414E-02
         0.24548E-02
         0.26024E-02
         0.37964E-02
         0.39100E-02
         0.34621E-02
         0.29267E-02
         0.22211E-02
         0.13865E-02
         0.47130E-03
        -0.47130E-03
        -0.13865E-02
        -0.22211E-02
        -0.29267E-02
        -0.34621E-02
        -0.37964E-02
        -0.39100E-02
        -0.37964E-02
        -0.34621E-02
        -0.29267E-02
        -0.22211E-02
        -0.13865E-02
        -0.47130E-03
         0.47130E-03
         0.13865E-02
         0.22211E-02
         0.29267E-02
         0.34621E-02
         0.37964E-02
         0.10373E-02
         0.17445E-02
         0.23172E-02
         0.16689E-02
         0.30376E-02
         0.27805E-02
         0.12846E-02
         0.65041E-03
         0.12652E-03
        -0.12896E-03
         0.94367E-03
         0.11313E-02
         0.17475E-02
         0.40566E-03
         0.39772E-03
        -0.76444E-03
        -0.86648E-03
         0.45940E-03
        -0.18312E-02
        -0.18436E-02
        -0.27237E-02
        -0.28017E-02
        -0.25371E-02
        -0.19305E-02
        -0.99305E-03
        -0.14394E-02
        -0.31494E-03
        -0.11054E-02
        -0.18843E-02
        -0.18708E-02
        -0.15981E-03
        -0.94328E-03
         0.78592E-03
         0.17209E-02
         0.32063E-02
         0.28045E-02
         0.23055E-02
        -0.40558E-03
        -0.12092E-02
        -0.19446E-02
        -0.25027E-02
        -0.26367E-02
        -0.27658E-02
        -0.21129E-02
        -0.16089E-02
        -0.11943E-02
        -0.58781E-03
         0.20749E-03
         0.10574E-02
         0.18415E-02
         0.24549E-02
         0.26025E-02
         0.37964E-02
         0.39100E-02
         0.34621E-02
         0.29267E-02
         0.22211E-02
         0.13865E-02
         0.47130E-03
        -0.47130E-03
        -0.13865E-02
        -0.22211E-02
        -0.29267E-02
        -0.34621E-02
        -0.37964E-02
        -0.39100E-02
        -0.37964E-02
        -0.34621E-02
        -0.29267E-02
        -0.22211E-02
        -0.13865E-02
        -0.47130E-03
         0.47130E-03
         0.13865E-02
         0.22211E-02
         0.29267E-02
         0.34621E-02
         0.37964E-02
         0.10372E-02
         0.17443E-02
         0.23171E-02
         0.16687E-02
         0.30376E-02
         0.27808E-02
         0.12845E-02
         0.65016E-03
         0.12626E-03
        -0.12915E-03
         0.94334E-03
         0.11310E-02
         0.17471E-02
         0.40561E-03
         0.39770E-03
        -0.76480E-03
        -0.86659E-03
         0.45895E-03
        -0.18315E-02
        -0.18435E-02
        -0.27237E-02
        -0.28014E-02
        -0.25372E-02
        -0.19309E-02
        -0.99291E-03
        -0.14398E-02
        -0.31474E-03
        -0.11051E-02
        -0.18843E-02
        -0.18706E-02
        -0.16009E-03
        -0.94388E-03
         0.78526E-03
         0.17208E-02
         0.32066E-02
         0.28045E-02
         0.23053E-02
        -0.40545E-03
        -0.12092E-02
        -0.19446E-02
        -0.25027E-02
        -0.26366E-02
        -0.27655E-02
        -0.21130E-02
        -0.16089E-02
        -0.11944E-02
        -0.58816E-03
         0.20709E-03
         0.10571E-02
         0.18415E-02
         0.24550E-02
         0.26025E-02
         0.37964E-02
         0.39100E-02
         0.34621E-02
         0.29267E-02
         0.22211E-02
         0.13865E-02
         0.47130E-03
        -0.47130E-03
        -0.13865E-02
        -0.22211E-02
        -0.29267E-02
        -0.34621E-02
        -0.37964E-02
        -0.39100E-02
        -0.37964E-02
        -0.34621E-02
        -0.29267E-02
        -0.22211E-02
        -0.13865E-02
        -0.47130E-03
         0.47130E-03
         0.13865E-02
         0.22211E-02
         0.29267E-02
         0.34621E-02
         0.37964E-02
         0.10371E-02
         0.17441E-02
         0.23169E-02
         0.16685E-02
         0.30376E-02
         0.27812E-02
         0.12844E-02
         0.64992E-03
         0.12600E-03
        -0.12933E-03
         0.94301E-03
         0.11306E-02
         0.17467E-02
         0.40556E-03
         0.39769E-03
        -0.76515E-03
        -0.86670E-03
         0.45850E-03
        -0.18318E-02
        -0.18434E-02
        -0.27236E-02
        -0.28011E-02
        -0.25374E-02
        -0.19313E-02
        -0.99277E-03
        -0.14401E-02
        -0.31454E-03
        -0.11047E-02
        -0.18842E-02
        -0.18705E-02
        -0.16036E-03
        -0.94448E-03
         0.78460E-03
         0.17208E-02
         0.32070E-02
         0.28045E-02
         0.23052E-02
        -0.40531E-03
        -0.12092E-02
        -0.19445E-02
        -0.25027E-02
        -0.26366E-02
        -0.27652E-02
        -0.21132E-02
        -0.16090E-02
        -0.11946E-02
        -0.58851E-03
         0.20668E-03
         0.10567E-02
         0.18416E-02
         0.24551E-02
         0.26026E-02
         0.37964E-02
         0.39100E-02
         0.34621E-02
         0.29267E-02
         0.22211E-02
         0.13865E-02
         0.47130E-03
        -0.47130E-03
        -0.13865E-02
        -0.22211E-02
        -0.29267E-02
        -0.34621E-02
        -0.37964E-02
        -0.39100E-02
        -0.37964E-02
        -0.34621E-02
        -0.29267E-02
        -0.22211E-02
        -0.13865E-02
        -0.47130E-03
         0.47130E-03
         0.13865E-02
         0.22211E-02
         0.29267E-02
         0.34621E-02
         0.37964E-02
         0.10370E-02
         0.17439E-02
         0.23168E-02
         0.16683E-02
         0.30375E-02
         0.27815E-02
         0.12843E-02
         0.64967E-03
         0.12573E-03
        -0.12952E-03
         0.94268E-03
         0.11303E-02
         0.17463E-02
         0.40550E-03
         0.39767E-03
        -0.76551E-03
        -0.86680E-03
         0.45806E-03
        -0.18321E-02
        -0.18433E-02
        -0.27236E-02
        -0.28009E-02
        -0.25375E-02
        -0.19317E-02
        -0.99262E-03
        -0.14405E-02
        -0.31434E-03
        -0.11044E-02
        -0.18842E-02
        -0.18704E-02
        -0.16064E-03
        -0.94508E-03
         0.78394E-03
         0.17208E-02
         0.32073E-02
         0.28045E-02
         0.23051E-02
        -0.40517E-03
        -0.12092E-02
        -0.19445E-02
        -0.25026E-02
        -0.26365E-02
        -0.27649E-02
        -0.21133E-02
        -0.16090E-02
        -0.11947E-02
        -0.58886E-03
         0.20627E-03
         0.10564E-02
         0.18416E-02
         0.24553E-02
         0.26027E-02
         0.37964E-02
         0.39100E-02
         0.34621E-02
         0.29267E-02
         0.22211E-02
         0.13865E-02
         0.47130E-03
        -0.47130E-03
        -0.13865E-02
        -0.22211E-02
        -0.29267E-02
        -0.34621E-02
        -0.37964E-02
        -0.39100E-02
        -0.37964E-02
        -0.34621E-02
        -0.29267E-02
        -0.22211E-02
        -0.13865E-02
        -0.47130E-03
         0.47130E-03
         0.13865E-02
         0.22211E-02
         0.29267E-02
         0.34621E-02
         0.37964E-02
         0.10368E-02
         0.17438E-02
         0.23167E-02
         0.16681E-02
         0.30375E-02
         0.27819E-02
         0.12842E-02
         0.64943E-03
         0.12547E-03
        -0.12970E-03
         0.94235E-03
         0.11300E-02
         0.17459E-02
         0.40545E-03
         0.39766E-03
        -0.76586E-03
        -0.86691E-03
         0.45761E-03
        -0.18324E-02
        -0.18432E-02
        -0.27236E-02
        -0.28006E-02
        -0.25377E-02
        -0.19322E-02
        -0.99248E-03
        -0.14408E-02
        -0.31414E-03
        -0.11040E-02
        -0.18841E-02
        -0.18703E-02
        -0.16091E-03
        -0.94568E-03
         0.78328E-03
         0.17207E-02
         0.32076E-02
         0.28044E-02
         0.23050E-02
        -0.40503E-03
        -0.12092E-02
        -0.19445E-02
        -0.25026E-02
        -0.26364E-02
        -0.27646E-02
        -0.21134E-02
        -0.16091E-02
        -0.11948E-02
        -0.58921E-03
         0.20587E-03
         0.10561E-02
         0.18416E-02
         0.24554E-02
         0.26027E-02
         0.37964E-02
         0.39100E-02
         0.34621E-02
         0.29267E-02
         0.22211E-02
         0.13865E-02
         0.47130E-03
        -0.47130E-03
        -0.13865E-02
        -0.22211E-02
        -0.29267E-02
        -0.34621E-02
        -0.37964E-02
        -0.39100E-02
        -0.37964E-02
        -0.34621E-02
        -0.29267E-02
        -0.22211E-02
        -0.13865E-02
        -0.47130E-03
         0.47130E-03
         0.13865E-02
         0.22211E-02
         0.29267E-02
         0.34621E-02
         0.37964E-02
         0.10367E-02
         0.17436E-02
         0.23166E-02
         0.16679E-02
         0.30375E-02
         0.27822E-02
         0.12841E-02
         0.64918E-03
         0.12521E-03
        -0.12989E-03
         0.94202E-03
         0.11296E-02
         0.17455E-02
         0.40539E-03
         0.39764E-03
        -0.76621E-03
        -0.86702E-03
         0.45716E-03
        -0.18326E-02
        -0.18431E-02
        -0.27235E-02
        -0.28003E-02
        -0.25379E-02
        -0.19326E-02
        -0.99233E-03
        -0.14412E-02
        -0.31394E-03
        -0.11037E-02
        -0.18841E-02
        -0.18701E-02
        -0.16119E-03
        -0.94628E-03
         0.78262E-03
         0.17207E-02
         0.32079E-02
         0.28044E-02
         0.23049E-02
        -0.40490E-03
        -0.12093E-02
        -0.19444E-02
        -0.25026E-02
        -0.26363E-02
        -0.27643E-02
        -0.21136E-02
        -0.16091E-02
        -0.11949E-02
        -0.58956E-03
         0.20546E-03
         0.10558E-02
         0.18417E-02
         0.24555E-02
         0.26028E-02
         0.37964E-02
         0.39100E-02
         0.34621E-02
         0.29267E-02
         0.22211E-02
         0.13865E-02
         0.47130E-03
        -0.47130E-03
        -0.13865E-02
        -0.22211E-02
        -0.29267E-02
        -0.34621E-02
        -0.37964E-02
        -0.39100E-02
        -0.37964E-02
        -0.34621E-02
        -0.29267E-02
        -0.22211E-02
        -0.13865E-02
        -0.47130E-03
         0.47130E-03
         0.13865E-02
         0.22211E-02
         0.29267E-02
         0.34621E-02
         0.37964E-02
         0.10366E-02
         0.17434E-02
         0.23164E-02
         0.16677E-02
         0.30375E-02
         0.27825E-02
         0.12840E-02
         0.64894E-03
         0.12495E-03
        -0.13007E-03
         0.94169E-03
         0.11293E-02
         0.17451E-02
         0.40534E-03
         0.39762E-03
        -0.76657E-03
        -0.86713E-03
         0.45671E-03
        -0.18329E-02
        -0.18430E-02
        -0.27235E-02
        -0.28001E-02
        -0.25380E-02
        -0.19330E-02
        -0.99219E-03
        -0.14415E-02
        -0.31374E-03
        -0.11033E-02
        -0.18840E-02
        -0.18700E-02
        -0.16146E-03
        -0.94687E-03
         0.78195E-03
         0.17207E-02
         0.32083E-02
         0.28044E-02
         0.23048E-02
        -0.40476E-03
        -0.12093E-02
        -0.19444E-02
        -0.25026E-02
        -0.26362E-02
        -0.27640E-02
        -0.21137E-02
        -0.16091E-02
        -0.11950E-02
        -0.58991E-03
         0.20505E-03
         0.10555E-02
         0.18417E-02
         0.24556E-02
         0.26029E-02
         0.37964E-02
         0.39100E-02
         0.34621E-02
         0.29267E-02
         0.22211E-02
         0.13865E-02
         0.47130E-03
        -0.47130E-03
        -0.13865E-02
        -0.22211E-02
        -0.29267E-02
        -0.34621E-02
        -0.37964E-02
        -0.39100E-02
        -0.37964E-02
        -0.34621E-02
        -0.29267E-02
        -0.22211E-02
        -0.13865E-02
        -0.47130E-03
         0.47130E-03
         0.13865E-02
         0.22211E-02
         0.29267E-02
         0.34621E-02
         0.37964E-02
         0.10365E-02
         0.17432E-02
         0.23163E-02
         0.16675E-02
         0.30374E-02
         0.27829E-02
         0.12839E-02
         0.64869E-03
         0.12468E-03
        -0.13026E-03
         0.94135E-03
         0.11289E-02
         0.17447E-02
         0.40528E-03
         0.39760E-03
        -0.76692E-03
        -0.86724E-03
         0.45626E-03
        -0.18332E-02
        -0.18430E-02
        -0.27235E-02
        -0.27998E-02
        -0.25382E-02
        -0.19334E-02
        -0.99205E-03
        -0.14419E-02
        -0.31354E-03
        -0.11030E-02
        -0.18840E-02
        -0.18699E-02
        -0.16174E-03
        -0.94747E-03
         0.78129E-03
         0.17206E-02
         0.32086E-02
         0.28044E-02
         0.23047E-02
        -0.40462E-03
        -0.12093E-02
        -0.19444E-02
        -0.25025E-02
        -0.26361E-02
        -0.27637E-02
        -0.21139E-02
        -0.16092E-02
        -0.11951E-02
        -0.59025E-03
         0.20465E-03
         0.10552E-02
         0.18418E-02
         0.24558E-02
         0.26030E-02
         0.37964E-02
         0.39100E-02
         0.34621E-02
         0.29267E-02
         0.22211E-02
         0.13865E-02
         0.47130E-03
        -0.47130E-03
        -0.13865E-02
        -0.22211E-02
        -0.29267E-02
        -0.34621E-02
        -0.37964E-02
        -0.39100E-02
        -0.37964E-02
        -0.34621E-02
        -0.29267E-02
        -0.22211E-02
        -0.13865E-02
        -0.47130E-03
         0.47130E-03
         0.13865E-02
         0.22211E-02
         0.29267E-02
         0.34621E-02
         0.37964E-02
         0.10364E-02
         0.17430E-02
         0.23162E-02
         0.16672E-02
         0.30374E-02
         0.27832E-02
         0.12838E-02
         0.64845E-03
         0.12442E-03
        -0.13044E-03
         0.94102E-03
         0.11286E-02
         0.17443E-02
         0.40523E-03
         0.39759E-03
        -0.76727E-03
        -0.86735E-03
         0.45582E-03
        -0.18335E-02
        -0.18429E-02
        -0.27235E-02
        -0.27995E-02
        -0.25383E-02
        -0.19339E-02
        -0.99190E-03
        -0.14422E-02
        -0.31334E-03
        -0.11026E-02
        -0.18839E-02
        -0.18697E-02
        -0.16201E-03
        -0.94807E-03
         0.78063E-03
         0.17206E-02
         0.32089E-02
         0.28043E-02
         0.23046E-02
        -0.40448E-03
        -0.12093E-02
        -0.19443E-02
        -0.25025E-02
        -0.26360E-02
        -0.27633E-02
        -0.21140E-02
        -0.16092E-02
        -0.11953E-02
        -0.59060E-03
         0.20424E-03
         0.10549E-02
         0.18418E-02
         0.24559E-02
         0.26030E-02
         0.37964E-02
         0.39100E-02
         0.34621E-02
         0.29267E-02
         0.22211E-02
         0.13865E-02
         0.47130E-03
        -0.47130E-03
        -0.13865E-02
        -0.22211E-02
        -0.29267E-02
        -0.34621E-02
        -0.37964E-02
        -0.39100E-02
        -0.37964E-02
        -0.34621E-02
        -0.29267E-02
        -0.22211E-02
        -0.13865E-02
        -0.47130E-03
         0.47130E-03
         0.13865E-02
         0.22211E-02
         0.29267E-02
         0.34621E-02
         0.37964E-02
         0.10363E-02
         0.17429E-02
         0.23161E-02
         0.16670E-02
         0.30374E-02
         0.27836E-02
         0.12837E-02
         0.64820E-03
         0.12416E-03
        -0.13063E-03
         0.94069E-03
         0.11282E-02
         0.17439E-02
         0.40518E-03
         0.39757E-03
        -0.76763E-03
        -0.86746E-03
         0.45537E-03
        -0.18338E-02
        -0.18428E-02
        -0.27234E-02
        -0.27992E-02
        -0.25385E-02
        -0.19343E-02
        -0.99176E-03
        -0.14425E-02
        -0.31314E-03
        -0.11023E-02
        -0.18839E-02
        -0.18696E-02
        -0.16229E-03
        -0.94867E-03
         0.77997E-03
         0.17205E-02
         0.32092E-02
         0.28043E-02
         0.23044E-02
        -0.40434E-03
        -0.12093E-02
        -0.19443E-02
        -0.25025E-02
        -0.26359E-02
        -0.27630E-02
        -0.21141E-02
        -0.16093E-02
        -0.11954E-02
        -0.59095E-03
         0.20384E-03
         0.10546E-02
         0.18419E-02
         0.24560E-02
         0.26031E-02
         0.37964E-02
         0.39100E-02
         0.34621E-02
         0.29267E-02
         0.22211E-02
         0.13865E-02
         0.47130E-03
        -0.47130E-03
        -0.13865E-02
        -0.22211E-02
        -0.29267E-02
        -0.34621E-02
        -0.37964E-02
        -0.39100E-02
        -0.37964E-02
        -0.34621E-02
        -0.29267E-02
        -0.22211E-02
        -0.13865E-02
        -0.47130E-03
         0.47130E-03
         0.13865E-02
         0.22211E-02
         0.29267E-02
         0.34621E-02
         0.37964E-02
         0.10362E-02
         0.17427E-02
         0.23160E-02
         0.16668E-02
         0.30373E-02
         0.27839E-02
         0.12836E-02
         0.64796E-03
         0.12390E-03
        -0.13082E-03
         0.94036E-03
         0.11279E-02
         0.17435E-02
         0.40512E-03
         0.39755E-03
        -0.76798E-03
        -0.86756E-03
         0.45492E-03
        -0.18341E-02
        -0.18427E-02
        -0.27234E-02
        -0.27990E-02
        -0.25386E-02
        -0.19347E-02
        -0.99161E-03
        -0.14429E-02
        -0.31294E-03
        -0.11019E-02
        -0.18838E-02
        -0.18695E-02
        -0.16256E-03
        -0.94927E-03
         0.77931E-03
         0.17205E-02
         0.32096E-02
         0.28043E-02
         0.23043E-02
        -0.40420E-03
        -0.12093E-02
        -0.19443E-02
        -0.25024E-02
        -0.26358E-02
        -0.27627E-02
        -0.21143E-02
        -0.16093E-02
        -0.11955E-02
        -0.59130E-03
         0.20343E-03
         0.10543E-02
         0.18419E-02
         0.24561E-02
         0.26032E-02
         0.37964E-02
         0.39100E-02
         0.34621E-02
         0.29267E-02
         0.22211E-02
         0.13865E-02
         0.47130E-03
        -0.47130E-03
        -0.13865E-02
        -0.22211E-02
        -0.29267E-02
        -0.34621E-02
        -0.37964E-02
        -0.39100E-02
        -0.37964E-02
        -0.34621E-02
        -0.29267E-02
        -0.22211E-02
        -0.13865E-02
        -0.47130E-03
         0.47130E-03
         0.13865E-02
         0.22211E-02
         0.29267E-02
         0.34621E-02
         0.37964E-02
         0.10360E-02
         0.17425E-02
         0.23158E-02
         0.16666E-02
         0.30373E-02
         0.27842E-02
         0.12835E-02
         0.64771E-03
         0.12363E-03
        -0.13100E-03
         0.94003E-03
         0.11276E-02
         0.17432E-02
         0.40507E-03
         0.39754E-03
        -0.76834E-03
        -0.86767E-03
         0.45447E-03
        -0.18344E-02
        -0.18426E-02
        -0.27234E-02
        -0.27987E-02
        -0.25388E-02
        -0.19352E-02
        -0.99147E-03
        -0.14433E-02
        -0.31274E-03
        -0.11016E-02
        -0.18838E-02
        -0.18694E-02
        -0.16284E-03
        -0.94986E-03
         0.77865E-03
         0.17205E-02
         0.32099E-02
         0.28042E-02
         0.23042E-02
        -0.40407E-03
        -0.12093E-02
        -0.19442E-02
        -0.25024E-02
        -0.26358E-02
        -0.27624E-02
        -0.21144E-02
        -0.16094E-02
        -0.11956E-02
        -0.59165E-03
         0.20302E-03
         0.10540E-02
         0.18419E-02
         0.24563E-02
         0.26033E-02
         0.37964E-02
         0.39100E-02
         0.34621E-02
         0.29267E-02
         0.22211E-02
         0.13865E-02
         0.47130E-03
        -0.47130E-03
        -0.13865E-02
        -0.22211E-02
        -0.29267E-02
        -0.34621E-02
        -0.37964E-02
        -0.39100E-02
        -0.37964E-02
        -0.34621E-02
        -0.29267E-02
        -0.22211E-02
        -0.13865E-02
        -0.47130E-03
         0.47130E-03
         0.13865E-02
         0.22211E-02
         0.29267E-02
         0.34621E-02
         0.37964E-02
         0.10359E-02
         0.17423E-02
         0.23157E-02
         0.16664E-02
         0.30373E-02
         0.27846E-02
         0.12834E-02
         0.64747E-03
         0.12337E-03
        -0.13118E-03
         0.93970E-03
         0.11272E-02
         0.17428E-02
         0.40501E-03
         0.39752E-03
        -0.76869E-03
        -0.86778E-03
         0.45402E-03
        -0.18347E-02
        -0.18425E-02
        -0.27234E-02
        -0.27984E-02
        -0.25389E-02
        -0.19356E-02
        -0.99133E-03
        -0.14436E-02
        -0.31254E-03
        -0.11013E-02
        -0.18837E-02
        -0.18692E-02
        -0.16311E-03
        -0.95046E-03
         0.77799E-03
         0.17204E-02
         0.32102E-02
         0.28042E-02
         0.23041E-02
        -0.40393E-03
        -0.12093E-02
        -0.19442E-02
        -0.25024E-02
        -0.26357E-02
        -0.27621E-02
        -0.21146E-02
        -0.16094E-02
        -0.11957E-02
        -0.59200E-03
         0.20262E-03
         0.10536E-02
         0.18420E-02
         0.24564E-02
         0.26033E-02
         0.37964E-02
         0.39100E-02
         0.34621E-02
         0.29267E-02
         0.22211E-02
         0.13865E-02
         0.47130E-03
        -0.47130E-03
        -0.13865E-02
        -0.22211E-02
        -0.29267E-02
        -0.34621E-02
        -0.37964E-02
        -0.39100E-02
        -0.37964E-02
        -0.34621E-02
        -0.29267E-02
        -0.22211E-02
        -0.13865E-02
        -0.47130E-03
         0.47130E-03
         0.13865E-02
         0.22211E-02
         0.29267E-02
         0.34621E-02
         0.37964E-02
         0.10358E-02
         0.17422E-02
         0.23156E-02
         0.16662E-02
         0.30373E-02
         0.27849E-02
         0.12833E-02
         0.64722E-03
         0.12311E-03
        -0.13137E-03
         0.93937E-03
         0.11269E-02
         0.17424E-02
         0.40496E-03
         0.39750E-03
        -0.76904E-03
        -0.86789E-03
         0.45358E-03
        -0.18350E-02
        -0.18424E-02
        -0.27233E-02
        -0.27981E-02
        -0.25391E-02
        -0.19360E-02
        -0.99118E-03
        -0.14440E-02
        -0.31234E-03
        -0.11009E-02
        -0.18836E-02
        -0.18691E-02
        -0.16339E-03
        -0.95106E-03
         0.77733E-03
         0.17204E-02
         0.32105E-02
         0.28042E-02
         0.23040E-02
        -0.40379E-03
        -0.12093E-02
        -0.19441E-02
        -0.25023E-02
        -0.26356E-02
        -0.27618E-02
        -0.21147E-02
        -0.16094E-02
        -0.11958E-02
        -0.59235E-03
         0.20221E-03
         0.10533E-02
         0.18420E-02
         0.24565E-02
         0.26034E-02
         0.37964E-02
         0.39100E-02
         0.34621E-02
         0.29267E-02
         0.22211E-02
         0.13865E-02
         0.47130E-03
        -0.47130E-03
        -0.13865E-02
        -0.22211E-02
        -0.29267E-02
        -0.34621E-02
        -0.37964E-02
        -0.39100E-02
        -0.37964E-02
        -0.34621E-02
        -0.29267E-02
        -0.22211E-02
        -0.13865E-02
        -0.47130E-03
         0.47130E-03
         0.13865E-02
         0.22211E-02
         0.29267E-02
         0.34621E-02
         0.37964E-02
         0.10357E-02
         0.17420E-02
         0.23155E-02
         0.16660E-02
         0.30372E-02
         0.27853E-02
         0.12832E-02
         0.64698E-03
         0.12285E-03
        -0.13155E-03
         0.93903E-03
         0.11266E-02
         0.17420E-02
         0.40490E-03
         0.39749E-03
        -0.76940E-03
        -0.86800E-03
         0.45313E-03
        -0.18353E-02
        -0.18423E-02
        -0.27233E-02
        -0.27979E-02
        -0.25393E-02
        -0.19365E-02
        -0.99104E-03
        -0.14443E-02
        -0.31214E-03
        -0.11006E-02
        -0.18836E-02
        -0.18690E-02
        -0.16366E-03
        -0.95166E-03
         0.77667E-03
         0.17203E-02
         0.32109E-02
         0.28042E-02
         0.23039E-02
        -0.40365E-03
        -0.12093E-02
        -0.19441E-02
        -0.25023E-02
        -0.26355E-02
        -0.27615E-02
        -0.21148E-02
        -0.16095E-02
        -0.11960E-02
        -0.59270E-03
         0.20180E-03
         0.10530E-02
         0.18421E-02
         0.24566E-02
         0.26035E-02
         0.37964E-02
         0.39100E-02
         0.34621E-02
         0.29267E-02
         0.22211E-02
         0.13865E-02
         0.47130E-03
        -0.47130E-03
        -0.13865E-02
        -0.22211E-02
        -0.29267E-02
        -0.34621E-02
        -0.37964E-02
        -0.39100E-02
        -0.37964E-02
        -0.34621E-02
        -0.29267E-02
        -0.22211E-02
        -0.13865E-02
        -0.47130E-03
         0.47130E-03
         0.13865E-02
         0.22211E-02
         0.29267E-02
         0.34621E-02
         0.37964E-02
         0.10356E-02
         0.17418E-02
         0.23153E-02
         0.16657E-02
         0.30372E-02
         0.27856E-02
         0.12830E-02
         0.64673E-03
         0.12259E-03
        -0.13174E-03
         0.93870E-03
         0.11262E-02
         0.17416E-02
         0.40485E-03
         0.39747E-03
        -0.76975E-03
        -0.86811E-03
         0.45268E-03
        -0.18356E-02
        -0.18422E-02
        -0.27233E-02
        -0.27976E-02
        -0.25394E-02
        -0.19369E-02
        -0.99090E-03
        -0.14446E-02
        -0.31194E-03
        -0.11002E-02
        -0.18835E-02
        -0.18689E-02
        -0.16394E-03
        -0.95226E-03
         0.77601E-03
         0.17203E-02
         0.32112E-02
         0.28042E-02
         0.23038E-02
        -0.40352E-03
        -0.12093E-02
        -0.19441E-02
        -0.25023E-02
        -0.26354E-02
        -0.27612E-02
        -0.21150E-02
        -0.16095E-02
        -0.11961E-02
        -0.59305E-03
         0.20140E-03
         0.10527E-02
         0.18421E-02
         0.24568E-02
         0.26036E-02
         0.37964E-02
         0.39100E-02
         0.34621E-02
         0.29267E-02
         0.22211E-02
         0.13865E-02
         0.47130E-03
        -0.47130E-03
        -0.13865E-02
        -0.22211E-02
        -0.29267E-02
        -0.34621E-02
        -0.37964E-02
        -0.39100E-02
        -0.37964E-02
        -0.34621E-02
        -0.29267E-02
        -0.22211E-02
        -0.13865E-02
        -0.47130E-03
         0.47130E-03
         0.13865E-02
         0.22211E-02
         0.29267E-02
         0.34621E-02
         0.37964E-02
         0.10355E-02
         0.17416E-02
         0.23152E-02
         0.16655E-02
         0.30372E-02
         0.27860E-02
         0.12829E-02
         0.64649E-03
         0.12232E-03
        -0.13193E-03
         0.93837E-03
         0.11259E-02
         0.17412E-02
         0.40480E-03
         0.39745E-03
        -0.77011E-03
        -0.86822E-03
         0.45223E-03
        -0.18359E-02
        -0.18421E-02
        -0.27232E-02
        -0.27973E-02
        -0.25396E-02
        -0.19373E-02
        -0.99075E-03
        -0.14450E-02
        -0.31173E-03
        -0.10999E-02
        -0.18835E-02
        -0.18687E-02
        -0.16421E-03
        -0.95285E-03
         0.77535E-03
         0.17202E-02
         0.32115E-02
         0.28041E-02
         0.23037E-02
        -0.40338E-03
        -0.12093E-02
        -0.19440E-02
        -0.25023E-02
        -0.26353E-02
        -0.27609E-02
        -0.21151E-02
        -0.16096E-02
        -0.11962E-02
        -0.59340E-03
         0.20099E-03
         0.10524E-02
         0.18422E-02
         0.24569E-02
         0.26036E-02
         0.37964E-02
         0.39100E-02
         0.34621E-02
         0.29267E-02
         0.22211E-02
         0.13865E-02
         0.47130E-03
        -0.47130E-03
        -0.13865E-02
        -0.22211E-02
        -0.29267E-02
        -0.34621E-02
        -0.37964E-02
        -0.39100E-02
        -0.37964E-02
        -0.34621E-02
        -0.29267E-02
        -0.22211E-02
        -0.13865E-02
        -0.47130E-03
         0.47130E-03
         0.13865E-02
         0.22211E-02
         0.29267E-02
         0.34621E-02
         0.37964E-02
         0.10354E-02
         0.17414E-02
         0.23151E-02
         0.16653E-02
         0.30372E-02
         0.27863E-02
         0.12829E-02
         0.64624E-03
         0.12206E-03
        -0.13211E-03
         0.93804E-03
         0.11255E-02
         0.17408E-02
         0.40474E-03
         0.39744E-03
        -0.77046E-03
        -0.86832E-03
         0.45179E-03
        -0.18362E-02
        -0.18420E-02
        -0.27232E-02
        -0.27970E-02
        -0.25397E-02
        -0.19377E-02
        -0.99061E-03
        -0.14453E-02
        -0.31153E-03
        -0.10995E-02
        -0.18834E-02
        -0.18686E-02
        -0.16449E-03
        -0.95345E-03
         0.77469E-03
         0.17202E-02
         0.32119E-02
         0.28041E-02
         0.23036E-02
        -0.40324E-03
        -0.12093E-02
        -0.19440E-02
        -0.25022E-02
        -0.26352E-02
        -0.27606E-02
        -0.21152E-02
        -0.16096E-02
        -0.11963E-02
        -0.59375E-03
         0.20059E-03
         0.10521E-02
         0.18422E-02
         0.24570E-02
         0.26037E-02
         0.37964E-02
         0.39100E-02
         0.34621E-02
         0.29267E-02
         0.22211E-02
         0.13865E-02
         0.47130E-03
        -0.47130E-03
        -0.13865E-02
        -0.22211E-02
        -0.29267E-02
        -0.34621E-02
        -0.37964E-02
        -0.39100E-02
        -0.37964E-02
        -0.34621E-02
        -0.29267E-02
        -0.22211E-02
        -0.13865E-02
        -0.47130E-03
         0.47130E-03
         0.13865E-02
         0.22211E-02
         0.29267E-02
         0.34621E-02
         0.37964E-02
         0.10352E-02
         0.17413E-02
         0.23150E-02
         0.16651E-02
         0.30371E-02
         0.27866E-02
         0.12827E-02
         0.64600E-03
         0.12180E-03
        -0.13230E-03
         0.93771E-03
         0.11252E-02
         0.17404E-02
         0.40469E-03
         0.39742E-03
        -0.77081E-03
        -0.86843E-03
         0.45134E-03
        -0.18365E-02
        -0.18419E-02
        -0.27232E-02
        -0.27968E-02
        -0.25399E-02
        -0.19382E-02
        -0.99046E-03
        -0.14457E-02
        -0.31133E-03
        -0.10992E-02
        -0.18834E-02
        -0.18685E-02
        -0.16476E-03
        -0.95405E-03
         0.77402E-03
         0.17202E-02
         0.32122E-02
         0.28041E-02
         0.23034E-02
        -0.40310E-03
        -0.12093E-02
        -0.19440E-02
        -0.25022E-02
        -0.26351E-02
        -0.27602E-02
        -0.21154E-02
        -0.16097E-02
        -0.11964E-02
        -0.59409E-03
         0.20018E-03
         0.10518E-02
         0.18422E-02
         0.24571E-02
         0.26038E-02
         0.37964E-02
         0.39100E-02
         0.34621E-02
         0.29267E-02
         0.22211E-02
         0.13865E-02
         0.47130E-03
        -0.47130E-03
        -0.13865E-02
        -0.22211E-02
        -0.29267E-02
        -0.34621E-02
        -0.37964E-02
        -0.39100E-02
        -0.37964E-02
        -0.34621E-02
        -0.29267E-02
        -0.22211E-02
        -0.13865E-02
        -0.47130E-03
         0.47130E-03
         0.13865E-02
         0.22211E-02
         0.29267E-02
         0.34621E-02
         0.37964E-02
         0.10351E-02
         0.17411E-02
         0.23149E-02
         0.16649E-02
         0.30371E-02
         0.27870E-02
         0.12826E-02
         0.64575E-03
         0.12154E-03
        -0.13248E-03
         0.93738E-03
         0.11249E-02
         0.17400E-02
         0.40463E-03
         0.39740E-03
        -0.77117E-03
        -0.86854E-03
         0.45089E-03
        -0.18368E-02
        -0.18418E-02
        -0.27232E-02
        -0.27965E-02
        -0.25400E-02
        -0.19386E-02
        -0.99032E-03
        -0.14460E-02
        -0.31113E-03
        -0.10988E-02
        -0.18833E-02
        -0.18683E-02
        -0.16504E-03
        -0.95465E-03
         0.77336E-03
         0.17201E-02
         0.32125E-02
         0.28041E-02
         0.23033E-02
        -0.40296E-03
        -0.12093E-02
        -0.19439E-02
        -0.25022E-02
        -0.26350E-02
        -0.27599E-02
        -0.21155E-02
        -0.16097E-02
        -0.11965E-02
        -0.59444E-03
         0.19977E-03
         0.10515E-02
         0.18423E-02
         0.24573E-02
         0.26039E-02
         0.37964E-02
         0.39100E-02
         0.34621E-02
         0.29267E-02
         0.22211E-02
         0.13865E-02
         0.47130E-03
        -0.47130E-03
        -0.13865E-02
        -0.22211E-02
        -0.29267E-02
        -0.34621E-02
        -0.37964E-02
        -0.39100E-02
        -0.37964E-02
        -0.34621E-02
        -0.29267E-02
        -0.22211E-02
        -0.13865E-02
        -0.47130E-03
         0.47130E-03
         0.13865E-02
         0.22211E-02
         0.29267E-02
         0.34621E-02
         0.37964E-02
  
SCALARS           initial_coordinate_y  double 1
LOOKUP_TABLE default
         0.67292E-03
         0.12308E-02
         0.59151E-03
        -0.33775E-03
         0.67237E-03
         0.12301E-02
         0.59098E-03
        -0.33851E-03
         0.14882E-03
        -0.67643E-03
         0.14846E-03
        -0.67692E-03
         0.18412E-02
         0.14576E-02
         0.18410E-02
         0.14566E-02
         0.29933E-03
         0.11672E-02
         0.29819E-03
         0.11655E-02
         0.22748E-02
         0.28286E-02
         0.24238E-02
         0.22746E-02
         0.28291E-02
         0.24236E-02
         0.21685E-02
         0.29366E-02
         0.21684E-02
         0.29369E-02
        -0.10033E-02
         0.78969E-04
        -0.70318E-03
        -0.10032E-02
         0.78160E-04
        -0.70391E-03
        -0.71196E-03
         0.82749E-04
        -0.71210E-03
         0.82626E-04
        -0.77865E-03
         0.40713E-04
        -0.77882E-03
         0.40439E-04
        -0.15195E-02
        -0.13230E-02
        -0.15195E-02
        -0.13231E-02
         0.98847E-03
         0.98712E-03
        -0.17325E-02
        -0.17325E-02
         0.20220E-02
         0.20217E-02
         0.18615E-02
         0.18616E-02
         0.17175E-02
         0.90940E-03
         0.17175E-02
         0.90916E-03
        -0.19800E-02
        -0.23489E-02
        -0.19800E-02
        -0.23489E-02
        -0.17074E-02
        -0.17074E-02
        -0.14894E-02
        -0.14892E-02
         0.76036E-03
         0.12477E-02
         0.75936E-03
         0.12473E-02
         0.18665E-02
         0.18664E-02
         0.29038E-02
         0.29049E-02
         0.27207E-02
         0.27212E-02
         0.24642E-02
         0.24645E-02
         0.22359E-02
         0.16503E-02
         0.22359E-02
         0.16503E-02
         0.87493E-03
         0.87466E-03
        -0.21373E-02
        -0.21373E-02
        -0.26931E-02
        -0.26931E-02
        -0.31291E-02
        -0.30382E-02
        -0.31291E-02
        -0.30382E-02
        -0.28748E-02
        -0.28748E-02
        -0.26423E-02
        -0.26420E-02
        -0.23707E-02
        -0.23705E-02
        -0.21445E-02
        -0.15105E-02
        -0.21439E-02
        -0.15106E-02
         0.93572E-03
         0.00000E+00
         0.93572E-03
         0.00000E+00
         0.18171E-02
         0.18171E-02
         0.25928E-02
         0.25928E-02
         0.32179E-02
         0.32179E-02
         0.36559E-02
         0.36559E-02
         0.38815E-02
         0.38815E-02
         0.38815E-02
         0.38815E-02
         0.36559E-02
         0.36559E-02
         0.32179E-02
         0.32179E-02
         0.25928E-02
         0.25928E-02
         0.18171E-02
         0.18171E-02
         0.93572E-03
         0.93572E-03
         0.22152E-17
        -0.47884E-18
        -0.93572E-03
        -0.93572E-03
        -0.18171E-02
        -0.18171E-02
        -0.25928E-02
        -0.25928E-02
        -0.32179E-02
        -0.32179E-02
        -0.36559E-02
        -0.36559E-02
        -0.38815E-02
        -0.38815E-02
        -0.38815E-02
        -0.38815E-02
        -0.36559E-02
        -0.36559E-02
        -0.32179E-02
        -0.32179E-02
        -0.25928E-02
        -0.25928E-02
        -0.18171E-02
        -0.18171E-02
        -0.93572E-03
        -0.93572E-03
         0.67348E-03
         0.12314E-02
         0.59203E-03
        -0.33700E-03
         0.14918E-03
        -0.67594E-03
         0.18414E-02
         0.14586E-02
         0.30048E-03
         0.11690E-02
         0.22749E-02
         0.28282E-02
         0.24239E-02
         0.21685E-02
         0.29364E-02
        -0.10035E-02
         0.79778E-04
        -0.70245E-03
        -0.71182E-03
         0.82873E-04
        -0.77848E-03
         0.40986E-04
        -0.15194E-02
        -0.13228E-02
         0.98983E-03
        -0.17324E-02
         0.20223E-02
         0.18614E-02
         0.17175E-02
         0.90964E-03
        -0.19800E-02
        -0.23489E-02
        -0.17074E-02
        -0.14896E-02
         0.76137E-03
         0.12481E-02
         0.18665E-02
         0.29027E-02
         0.27202E-02
         0.24640E-02
         0.22359E-02
         0.16503E-02
         0.87519E-03
        -0.21373E-02
        -0.26932E-02
        -0.31291E-02
        -0.30382E-02
        -0.28748E-02
        -0.26426E-02
        -0.23709E-02
        -0.21450E-02
        -0.15104E-02
         0.93572E-03
         0.00000E+00
         0.18171E-02
         0.25928E-02
         0.32179E-02
         0.36559E-02
         0.38815E-02
         0.38815E-02
         0.36559E-02
         0.32179E-02
         0.25928E-02
         0.18171E-02
         0.93572E-03
        -0.47884E-18
        -0.93572E-03
        -0.18171E-02
        -0.25928E-02
        -0.32179E-02
        -0.36559E-02
        -0.38815E-02
        -0.38815E-02
        -0.36559E-02
        -0.32179E-02
        -0.25928E-02
        -0.18171E-02
        -0.93572E-03
         0.67403E-03
         0.12321E-02
         0.59255E-03
        -0.33624E-03
         0.14955E-03
        -0.67544E-03
         0.18415E-02
         0.14596E-02
         0.30163E-03
         0.11707E-02
         0.22750E-02
         0.28277E-02
         0.24241E-02
         0.21685E-02
         0.29361E-02
        -0.10036E-02
         0.80588E-04
        -0.70173E-03
        -0.71168E-03
         0.82996E-04
        -0.77831E-03
         0.41259E-04
        -0.15194E-02
        -0.13227E-02
         0.99119E-03
        -0.17324E-02
         0.20226E-02
         0.18613E-02
         0.17175E-02
         0.90988E-03
        -0.19801E-02
        -0.23490E-02
        -0.17074E-02
        -0.14899E-02
         0.76237E-03
         0.12485E-02
         0.18666E-02
         0.29017E-02
         0.27198E-02
         0.24638E-02
         0.22359E-02
         0.16503E-02
         0.87545E-03
        -0.21374E-02
        -0.26932E-02
        -0.31291E-02
        -0.30382E-02
        -0.28748E-02
        -0.26428E-02
        -0.23711E-02
        -0.21456E-02
        -0.15103E-02
         0.93572E-03
         0.00000E+00
         0.18171E-02
         0.25928E-02
         0.32179E-02
         0.36559E-02
         0.38815E-02
         0.38815E-02
         0.36559E-02
         0.32179E-02
         0.25928E-02
         0.18171E-02
         0.93572E-03
         0.39516E-17
        -0.93572E-03
        -0.18171E-02
        -0.25928E-02
        -0.32179E-02
        -0.36559E-02
        -0.38815E-02
        -0.38815E-02
        -0.36559E-02
        -0.32179E-02
        -0.25928E-02
        -0.18171E-02
        -0.93572E-03
         0.67459E-03
         0.12328E-02
         0.59308E-03
        -0.33549E-03
         0.14991E-03
        -0.67495E-03
         0.18417E-02
         0.14606E-02
         0.30278E-03
         0.11725E-02
         0.22752E-02
         0.28273E-02
         0.24242E-02
         0.21686E-02
         0.29359E-02
        -0.10038E-02
         0.81397E-04
        -0.70100E-03
        -0.71154E-03
         0.83120E-04
        -0.77814E-03
         0.41533E-04
        -0.15193E-02
        -0.13227E-02
         0.99254E-03
        -0.17324E-02
         0.20228E-02
         0.18611E-02
         0.17175E-02
         0.91012E-03
        -0.19801E-02
        -0.23490E-02
        -0.17074E-02
        -0.14901E-02
         0.76338E-03
         0.12490E-02
         0.18666E-02
         0.29006E-02
         0.27193E-02
         0.24636E-02
         0.22359E-02
         0.16503E-02
         0.87571E-03
        -0.21374E-02
        -0.26932E-02
        -0.31291E-02
        -0.30382E-02
        -0.28748E-02
        -0.26431E-02
        -0.23713E-02
        -0.21461E-02
        -0.15102E-02
         0.93572E-03
         0.00000E+00
         0.18171E-02
         0.25928E-02
         0.32179E-02
         0.36559E-02
         0.38815E-02
         0.38815E-02
         0.36559E-02
         0.32179E-02
         0.25928E-02
         0.18171E-02
         0.93572E-03
        -0.47884E-18
        -0.93572E-03
        -0.18171E-02
        -0.25928E-02
        -0.32179E-02
        -0.36559E-02
        -0.38815E-02
        -0.38815E-02
        -0.36559E-02
        -0.32179E-02
        -0.25928E-02
        -0.18171E-02
        -0.93572E-03
         0.67514E-03
         0.12334E-02
         0.59360E-03
        -0.33474E-03
         0.15027E-03
        -0.67446E-03
         0.18419E-02
         0.14616E-02
         0.30393E-03
         0.11742E-02
         0.22753E-02
         0.28269E-02
         0.24244E-02
         0.21686E-02
         0.29356E-02
        -0.10039E-02
         0.82206E-04
        -0.70028E-03
        -0.71140E-03
         0.83243E-04
        -0.77797E-03
         0.41806E-04
        -0.15193E-02
        -0.13226E-02
         0.99390E-03
        -0.17323E-02
         0.20231E-02
         0.18610E-02
         0.17175E-02
         0.91036E-03
        -0.19801E-02
        -0.23490E-02
        -0.17074E-02
        -0.14904E-02
         0.76439E-03
         0.12494E-02
         0.18666E-02
         0.28995E-02
         0.27188E-02
         0.24633E-02
         0.22359E-02
         0.16503E-02
         0.87597E-03
        -0.21374E-02
        -0.26932E-02
        -0.31291E-02
        -0.30382E-02
        -0.28748E-02
        -0.26434E-02
        -0.23715E-02
        -0.21467E-02
        -0.15101E-02
         0.93572E-03
         0.00000E+00
         0.18171E-02
         0.25928E-02
         0.32179E-02
         0.36559E-02
         0.38815E-02
         0.38815E-02
         0.36559E-02
         0.32179E-02
         0.25928E-02
         0.18171E-02
         0.93572E-03
        -0.47884E-18
        -0.93572E-03
        -0.18171E-02
        -0.25928E-02
        -0.32179E-02
        -0.36559E-02
        -0.38815E-02
        -0.38815E-02
        -0.36559E-02
        -0.32179E-02
        -0.25928E-02
        -0.18171E-02
        -0.93572E-03
         0.67570E-03
         0.12341E-02
         0.59412E-03
        -0.33398E-03
         0.15064E-03
        -0.67396E-03
         0.18421E-02
         0.14626E-02
         0.30507E-03
         0.11760E-02
         0.22754E-02
         0.28264E-02
         0.24245E-02
         0.21686E-02
         0.29353E-02
        -0.10040E-02
         0.83015E-04
        -0.69955E-03
        -0.71126E-03
         0.83367E-04
        -0.77780E-03
         0.42080E-04
        -0.15192E-02
        -0.13224E-02
         0.99526E-03
        -0.17323E-02
         0.20234E-02
         0.18609E-02
         0.17175E-02
         0.91060E-03
        -0.19801E-02
        -0.23490E-02
        -0.17074E-02
        -0.14906E-02
         0.76539E-03
         0.12498E-02
         0.18667E-02
         0.28984E-02
         0.27184E-02
         0.24631E-02
         0.22359E-02
         0.16503E-02
         0.87623E-03
        -0.21374E-02
        -0.26932E-02
        -0.31291E-02
        -0.30382E-02
        -0.28748E-02
        -0.26436E-02
        -0.23717E-02
        -0.21472E-02
        -0.15100E-02
         0.93572E-03
         0.00000E+00
         0.18171E-02
         0.25928E-02
         0.32179E-02
         0.36559E-02
         0.38815E-02
         0.38815E-02
         0.36559E-02
         0.32179E-02
         0.25928E-02
         0.18171E-02
         0.93572E-03
        -0.47884E-18
        -0.93572E-03
        -0.18171E-02
        -0.25928E-02
        -0.32179E-02
        -0.36559E-02
        -0.38815E-02
        -0.38815E-02
        -0.36559E-02
        -0.32179E-02
        -0.25928E-02
        -0.18171E-02
        -0.93572E-03
         0.67625E-03
         0.12348E-02
         0.59465E-03
        -0.33323E-03
         0.15100E-03
        -0.67347E-03
         0.18423E-02
         0.14636E-02
         0.30622E-03
         0.11777E-02
         0.22755E-02
         0.28260E-02
         0.24247E-02
         0.21687E-02
         0.29351E-02
        -0.10042E-02
         0.83825E-04
        -0.69882E-03
        -0.71112E-03
         0.83490E-04
        -0.77763E-03
         0.42353E-04
        -0.15192E-02
        -0.13223E-02
         0.99661E-03
        -0.17322E-02
         0.20237E-02
         0.18607E-02
         0.17175E-02
         0.91084E-03
        -0.19801E-02
        -0.23491E-02
        -0.17074E-02
        -0.14909E-02
         0.76640E-03
         0.12503E-02
         0.18667E-02
         0.28974E-02
         0.27179E-02
         0.24629E-02
         0.22359E-02
         0.16503E-02
         0.87650E-03
        -0.21374E-02
        -0.26933E-02
        -0.31291E-02
        -0.30382E-02
        -0.28749E-02
        -0.26439E-02
        -0.23719E-02
        -0.21478E-02
        -0.15099E-02
         0.93572E-03
         0.00000E+00
         0.18171E-02
         0.25928E-02
         0.32179E-02
         0.36559E-02
         0.38815E-02
         0.38815E-02
         0.36559E-02
         0.32179E-02
         0.25928E-02
         0.18171E-02
         0.93572E-03
        -0.47884E-18
        -0.93572E-03
        -0.18171E-02
        -0.25928E-02
        -0.32179E-02
        -0.36559E-02
        -0.38815E-02
        -0.38815E-02
        -0.36559E-02
        -0.32179E-02
        -0.25928E-02
        -0.18171E-02
        -0.93572E-03
         0.67680E-03
         0.12354E-02
         0.59517E-03
        -0.33247E-03
         0.15136E-03
        -0.67298E-03
         0.18425E-02
         0.14646E-02
         0.30737E-03
         0.11795E-02
         0.22757E-02
         0.28255E-02
         0.24248E-02
         0.21687E-02
         0.29348E-02
        -0.10043E-02
         0.84634E-04
        -0.69810E-03
        -0.71098E-03
         0.83614E-04
        -0.77746E-03
         0.42626E-04
        -0.15191E-02
        -0.13223E-02
         0.99797E-03
        -0.17322E-02
         0.20240E-02
         0.18606E-02
         0.17175E-02
         0.91108E-03
        -0.19802E-02
        -0.23491E-02
        -0.17074E-02
        -0.14911E-02
         0.76740E-03
         0.12507E-02
         0.18668E-02
         0.28963E-02
         0.27174E-02
         0.24627E-02
         0.22358E-02
         0.16503E-02
         0.87676E-03
        -0.21374E-02
        -0.26933E-02
        -0.31291E-02
        -0.30382E-02
        -0.28749E-02
        -0.26442E-02
        -0.23721E-02
        -0.21483E-02
        -0.15097E-02
         0.93572E-03
         0.00000E+00
         0.18171E-02
         0.25928E-02
         0.32179E-02
         0.36559E-02
         0.38815E-02
         0.38815E-02
         0.36559E-02
         0.32179E-02
         0.25928E-02
         0.18171E-02
         0.93572E-03
        -0.47884E-18
        -0.93572E-03
        -0.18171E-02
        -0.25928E-02
        -0.32179E-02
        -0.36559E-02
        -0.38815E-02
        -0.38815E-02
        -0.36559E-02
        -0.32179E-02
        -0.25928E-02
        -0.18171E-02
        -0.93572E-03
         0.67736E-03
         0.12361E-02
         0.59570E-03
        -0.33172E-03
         0.15173E-03
        -0.67248E-03
         0.18427E-02
         0.14656E-02
         0.30852E-03
         0.11812E-02
         0.22758E-02
         0.28251E-02
         0.24249E-02
         0.21688E-02
         0.29345E-02
        -0.10044E-02
         0.85443E-04
        -0.69737E-03
        -0.71084E-03
         0.83737E-04
        -0.77729E-03
         0.42899E-04
        -0.15191E-02
        -0.13222E-02
         0.99932E-03
        -0.17322E-02
         0.20243E-02
         0.18605E-02
         0.17175E-02
         0.91132E-03
        -0.19802E-02
        -0.23491E-02
        -0.17074E-02
        -0.14914E-02
         0.76841E-03
         0.12511E-02
         0.18668E-02
         0.28952E-02
         0.27170E-02
         0.24624E-02
         0.22358E-02
         0.16503E-02
         0.87702E-03
        -0.21374E-02
        -0.26933E-02
        -0.31291E-02
        -0.30382E-02
        -0.28749E-02
        -0.26444E-02
        -0.23723E-02
        -0.21489E-02
        -0.15096E-02
         0.93572E-03
         0.00000E+00
         0.18171E-02
         0.25928E-02
         0.32179E-02
         0.36559E-02
         0.38815E-02
         0.38815E-02
         0.36559E-02
         0.32179E-02
         0.25928E-02
         0.18171E-02
         0.93572E-03
        -0.47884E-18
        -0.93572E-03
        -0.18171E-02
        -0.25928E-02
        -0.32179E-02
        -0.36559E-02
        -0.38815E-02
        -0.38815E-02
        -0.36559E-02
        -0.32179E-02
        -0.25928E-02
        -0.18171E-02
        -0.93572E-03
         0.67791E-03
         0.12368E-02
         0.59622E-03
        -0.33096E-03
         0.15209E-03
        -0.67199E-03
         0.18429E-02
         0.14666E-02
         0.30967E-03
         0.11830E-02
         0.22759E-02
         0.28247E-02
         0.24251E-02
         0.21688E-02
         0.29343E-02
        -0.10046E-02
         0.86253E-04
        -0.69665E-03
        -0.71070E-03
         0.83861E-04
        -0.77712E-03
         0.43173E-04
        -0.15190E-02
        -0.13220E-02
         0.10007E-02
        -0.17321E-02
         0.20245E-02
         0.18603E-02
         0.17175E-02
         0.91156E-03
        -0.19802E-02
        -0.23491E-02
        -0.17074E-02
        -0.14916E-02
         0.76941E-03
         0.12515E-02
         0.18668E-02
         0.28942E-02
         0.27165E-02
         0.24622E-02
         0.22358E-02
         0.16503E-02
         0.87728E-03
        -0.21374E-02
        -0.26933E-02
        -0.31291E-02
        -0.30382E-02
        -0.28749E-02
        -0.26447E-02
        -0.23725E-02
        -0.21494E-02
        -0.15095E-02
         0.93572E-03
         0.00000E+00
         0.18171E-02
         0.25928E-02
         0.32179E-02
         0.36559E-02
         0.38815E-02
         0.38815E-02
         0.36559E-02
         0.32179E-02
         0.25928E-02
         0.18171E-02
         0.93572E-03
        -0.47884E-18
        -0.93572E-03
        -0.18171E-02
        -0.25928E-02
        -0.32179E-02
        -0.36559E-02
        -0.38815E-02
        -0.38815E-02
        -0.36559E-02
        -0.32179E-02
        -0.25928E-02
        -0.18171E-02
        -0.93572E-03
         0.67847E-03
         0.12374E-02
         0.59674E-03
        -0.33021E-03
         0.15245E-03
        -0.67150E-03
         0.18430E-02
         0.14676E-02
         0.31081E-03
         0.11847E-02
         0.22761E-02
         0.28242E-02
         0.24252E-02
         0.21688E-02
         0.29340E-02
        -0.10047E-02
         0.87062E-04
        -0.69592E-03
        -0.71056E-03
         0.83985E-04
        -0.77695E-03
         0.43446E-04
        -0.15190E-02
        -0.13219E-02
         0.10020E-02
        -0.17321E-02
         0.20248E-02
         0.18602E-02
         0.17175E-02
         0.91180E-03
        -0.19803E-02
        -0.23491E-02
        -0.17073E-02
        -0.14919E-02
         0.77042E-03
         0.12520E-02
         0.18669E-02
         0.28931E-02
         0.27160E-02
         0.24620E-02
         0.22358E-02
         0.16503E-02
         0.87754E-03
        -0.21374E-02
        -0.26933E-02
        -0.31291E-02
        -0.30382E-02
        -0.28749E-02
        -0.26450E-02
        -0.23727E-02
        -0.21500E-02
        -0.15094E-02
         0.93572E-03
         0.00000E+00
         0.18171E-02
         0.25928E-02
         0.32179E-02
         0.36559E-02
         0.38815E-02
         0.38815E-02
         0.36559E-02
         0.32179E-02
         0.25928E-02
         0.18171E-02
         0.93572E-03
         0.39516E-17
        -0.93572E-03
        -0.18171E-02
        -0.25928E-02
        -0.32179E-02
        -0.36559E-02
        -0.38815E-02
        -0.38815E-02
        -0.36559E-02
        -0.32179E-02
        -0.25928E-02
        -0.18171E-02
        -0.93572E-03
         0.67902E-03
         0.12381E-02
         0.59727E-03
        -0.32945E-03
         0.15282E-03
        -0.67100E-03
         0.18432E-02
         0.14686E-02
         0.31196E-03
         0.11865E-02
         0.22762E-02
         0.28238E-02
         0.24254E-02
         0.21688E-02
         0.29337E-02
        -0.10049E-02
         0.87871E-04
        -0.69519E-03
        -0.71042E-03
         0.84108E-04
        -0.77678E-03
         0.43720E-04
        -0.15189E-02
        -0.13219E-02
         0.10034E-02
        -0.17320E-02
         0.20251E-02
         0.18601E-02
         0.17175E-02
         0.91204E-03
        -0.19803E-02
        -0.23492E-02
        -0.17073E-02
        -0.14921E-02
         0.77142E-03
         0.12524E-02
         0.18669E-02
         0.28920E-02
         0.27155E-02
         0.24618E-02
         0.22358E-02
         0.16503E-02
         0.87781E-03
        -0.21374E-02
        -0.26934E-02
        -0.31291E-02
        -0.30382E-02
        -0.28749E-02
        -0.26452E-02
        -0.23729E-02
        -0.21505E-02
        -0.15093E-02
         0.93572E-03
         0.00000E+00
         0.18171E-02
         0.25928E-02
         0.32179E-02
         0.36559E-02
         0.38815E-02
         0.38815E-02
         0.36559E-02
         0.32179E-02
         0.25928E-02
         0.18171E-02
         0.93572E-03
        -0.47884E-18
        -0.93572E-03
        -0.18171E-02
        -0.25928E-02
        -0.32179E-02
        -0.36559E-02
        -0.38815E-02
        -0.38815E-02
        -0.36559E-02
        -0.32179E-02
        -0.25928E-02
        -0.18171E-02
        -0.93572E-03
         0.67958E-03
         0.12387E-02
         0.59779E-03
        -0.32870E-03
         0.15318E-03
        -0.67051E-03
         0.18434E-02
         0.14696E-02
         0.31311E-03
         0.11882E-02
         0.22763E-02
         0.28233E-02
         0.24255E-02
         0.21689E-02
         0.29335E-02
        -0.10050E-02
         0.88681E-04
        -0.69447E-03
        -0.71028E-03
         0.84232E-04
        -0.77661E-03
         0.43993E-04
        -0.15189E-02
        -0.13218E-02
         0.10048E-02
        -0.17320E-02
         0.20254E-02
         0.18599E-02
         0.17175E-02
         0.91228E-03
        -0.19803E-02
        -0.23492E-02
        -0.17073E-02
        -0.14923E-02
         0.77243E-03
         0.12528E-02
         0.18670E-02
         0.28910E-02
         0.27151E-02
         0.24615E-02
         0.22358E-02
         0.16503E-02
         0.87807E-03
        -0.21374E-02
        -0.26934E-02
        -0.31291E-02
        -0.30382E-02
        -0.28749E-02
        -0.26455E-02
        -0.23732E-02
        -0.21511E-02
        -0.15092E-02
         0.93572E-03
         0.00000E+00
         0.18171E-02
         0.25928E-02
         0.32179E-02
         0.36559E-02
         0.38815E-02
         0.38815E-02
         0.36559E-02
         0.32179E-02
         0.25928E-02
         0.18171E-02
         0.93572E-03
         0.22152E-17
        -0.93572E-03
        -0.18171E-02
        -0.25928E-02
        -0.32179E-02
        -0.36559E-02
        -0.38815E-02
        -0.38815E-02
        -0.36559E-02
        -0.32179E-02
        -0.25928E-02
        -0.18171E-02
        -0.93572E-03
         0.68013E-03
         0.12394E-02
         0.59831E-03
        -0.32794E-03
         0.15354E-03
        -0.67002E-03
         0.18436E-02
         0.14706E-02
         0.31426E-03
         0.11900E-02
         0.22765E-02
         0.28229E-02
         0.24257E-02
         0.21689E-02
         0.29332E-02
        -0.10051E-02
         0.89490E-04
        -0.69374E-03
        -0.71013E-03
         0.84355E-04
        -0.77644E-03
         0.44266E-04
        -0.15188E-02
        -0.13216E-02
         0.10061E-02
        -0.17320E-02
         0.20257E-02
         0.18598E-02
         0.17175E-02
         0.91252E-03
        -0.19803E-02
        -0.23492E-02
        -0.17073E-02
        -0.14926E-02
         0.77343E-03
         0.12533E-02
         0.18670E-02
         0.28899E-02
         0.27146E-02
         0.24613E-02
         0.22358E-02
         0.16503E-02
         0.87833E-03
        -0.21374E-02
        -0.26934E-02
        -0.31291E-02
        -0.30382E-02
        -0.28750E-02
        -0.26458E-02
        -0.23734E-02
        -0.21516E-02
        -0.15091E-02
         0.93572E-03
         0.00000E+00
         0.18171E-02
         0.25928E-02
         0.32179E-02
         0.36559E-02
         0.38815E-02
         0.38815E-02
         0.36559E-02
         0.32179E-02
         0.25928E-02
         0.18171E-02
         0.93572E-03
        -0.47884E-18
        -0.93572E-03
        -0.18171E-02
        -0.25928E-02
        -0.32179E-02
        -0.36559E-02
        -0.38815E-02
        -0.38815E-02
        -0.36559E-02
        -0.32179E-02
        -0.25928E-02
        -0.18171E-02
        -0.93572E-03
         0.68068E-03
         0.12401E-02
         0.59884E-03
        -0.32719E-03
         0.15391E-03
        -0.66953E-03
         0.18438E-02
         0.14716E-02
         0.31541E-03
         0.11917E-02
         0.22766E-02
         0.28225E-02
         0.24258E-02
         0.21690E-02
         0.29330E-02
        -0.10053E-02
         0.90299E-04
        -0.69302E-03
        -0.70999E-03
         0.84479E-04
        -0.77627E-03
         0.44540E-04
        -0.15188E-02
        -0.13215E-02
         0.10075E-02
        -0.17319E-02
         0.20260E-02
         0.18597E-02
         0.17175E-02
         0.91276E-03
        -0.19804E-02
        -0.23493E-02
        -0.17073E-02
        -0.14928E-02
         0.77444E-03
         0.12537E-02
         0.18670E-02
         0.28888E-02
         0.27141E-02
         0.24611E-02
         0.22358E-02
         0.16503E-02
         0.87859E-03
        -0.21374E-02
        -0.26934E-02
        -0.31291E-02
        -0.30382E-02
        -0.28750E-02
        -0.26460E-02
        -0.23736E-02
        -0.21521E-02
        -0.15090E-02
         0.93572E-03
         0.00000E+00
         0.18171E-02
         0.25928E-02
         0.32179E-02
         0.36559E-02
         0.38815E-02
         0.38815E-02
         0.36559E-02
         0.32179E-02
         0.25928E-02
         0.18171E-02
         0.93572E-03
         0.22152E-17
        -0.93572E-03
        -0.18171E-02
        -0.25928E-02
        -0.32179E-02
        -0.36559E-02
        -0.38815E-02
        -0.38815E-02
        -0.36559E-02
        -0.32179E-02
        -0.25928E-02
        -0.18171E-02
        -0.93572E-03
         0.68124E-03
         0.12407E-02
         0.59936E-03
        -0.32643E-03
         0.15427E-03
        -0.66903E-03
         0.18440E-02
         0.14727E-02
         0.31656E-03
         0.11935E-02
         0.22767E-02
         0.28220E-02
         0.24260E-02
         0.21690E-02
         0.29327E-02
        -0.10054E-02
         0.91108E-04
        -0.69229E-03
        -0.70985E-03
         0.84602E-04
        -0.77610E-03
         0.44813E-04
        -0.15187E-02
        -0.13215E-02
         0.10088E-02
        -0.17319E-02
         0.20262E-02
         0.18595E-02
         0.17175E-02
         0.91300E-03
        -0.19804E-02
        -0.23493E-02
        -0.17073E-02
        -0.14931E-02
         0.77544E-03
         0.12541E-02
         0.18671E-02
         0.28877E-02
         0.27137E-02
         0.24609E-02
         0.22358E-02
         0.16503E-02
         0.87885E-03
        -0.21374E-02
        -0.26934E-02
        -0.31291E-02
        -0.30382E-02
        -0.28750E-02
        -0.26463E-02
        -0.23738E-02
        -0.21527E-02
        -0.15088E-02
         0.93572E-03
         0.00000E+00
         0.18171E-02
         0.25928E-02
         0.32179E-02
         0.36559E-02
         0.38815E-02
         0.38815E-02
         0.36559E-02
         0.32179E-02
         0.25928E-02
         0.18171E-02
         0.93572E-03
        -0.47884E-18
        -0.93572E-03
        -0.18171E-02
        -0.25928E-02
        -0.32179E-02
        -0.36559E-02
        -0.38815E-02
        -0.38815E-02
        -0.36559E-02
        -0.32179E-02
        -0.25928E-02
        -0.18171E-02
        -0.93572E-03
         0.68179E-03
         0.12414E-02
         0.59988E-03
        -0.32568E-03
         0.15463E-03
        -0.66854E-03
         0.18442E-02
         0.14736E-02
         0.31770E-03
         0.11952E-02
         0.22768E-02
         0.28216E-02
         0.24261E-02
         0.21690E-02
         0.29324E-02
        -0.10056E-02
         0.91918E-04
        -0.69156E-03
        -0.70971E-03
         0.84726E-04
        -0.77593E-03
         0.45086E-04
        -0.15187E-02
        -0.13213E-02
         0.10102E-02
        -0.17318E-02
         0.20265E-02
         0.18594E-02
         0.17175E-02
         0.91324E-03
        -0.19804E-02
        -0.23493E-02
        -0.17073E-02
        -0.14933E-02
         0.77645E-03
         0.12545E-02
         0.18671E-02
         0.28867E-02
         0.27132E-02
         0.24606E-02
         0.22358E-02
         0.16503E-02
         0.87912E-03
        -0.21374E-02
        -0.26935E-02
        -0.31291E-02
        -0.30381E-02
        -0.28750E-02
        -0.26466E-02
        -0.23740E-02
        -0.21533E-02
        -0.15087E-02
         0.93572E-03
         0.00000E+00
         0.18171E-02
         0.25928E-02
         0.32179E-02
         0.36559E-02
         0.38815E-02
         0.38815E-02
         0.36559E-02
         0.32179E-02
         0.25928E-02
         0.18171E-02
         0.93572E-03
        -0.47884E-18
        -0.93572E-03
        -0.18171E-02
        -0.25928E-02
        -0.32179E-02
        -0.36559E-02
        -0.38815E-02
        -0.38815E-02
        -0.36559E-02
        -0.32179E-02
        -0.25928E-02
        -0.18171E-02
        -0.93572E-03
         0.68235E-03
         0.12421E-02
         0.60041E-03
        -0.32493E-03
         0.15500E-03
        -0.66805E-03
         0.18444E-02
         0.14747E-02
         0.31885E-03
         0.11970E-02
         0.22770E-02
         0.28211E-02
         0.24262E-02
         0.21691E-02
         0.29322E-02
        -0.10057E-02
         0.92727E-04
        -0.69084E-03
        -0.70957E-03
         0.84849E-04
        -0.77576E-03
         0.45359E-04
        -0.15186E-02
        -0.13212E-02
         0.10115E-02
        -0.17318E-02
         0.20268E-02
         0.18593E-02
         0.17175E-02
         0.91347E-03
        -0.19804E-02
        -0.23493E-02
        -0.17073E-02
        -0.14936E-02
         0.77745E-03
         0.12550E-02
         0.18671E-02
         0.28856E-02
         0.27127E-02
         0.24604E-02
         0.22358E-02
         0.16503E-02
         0.87938E-03
        -0.21374E-02
        -0.26935E-02
        -0.31291E-02
        -0.30381E-02
        -0.28750E-02
        -0.26468E-02
        -0.23742E-02
        -0.21538E-02
        -0.15086E-02
         0.93572E-03
         0.00000E+00
         0.18171E-02
         0.25928E-02
         0.32179E-02
         0.36559E-02
         0.38815E-02
         0.38815E-02
         0.36559E-02
         0.32179E-02
         0.25928E-02
         0.18171E-02
         0.93572E-03
        -0.47884E-18
        -0.93572E-03
        -0.18171E-02
        -0.25928E-02
        -0.32179E-02
        -0.36559E-02
        -0.38815E-02
        -0.38815E-02
        -0.36559E-02
        -0.32179E-02
        -0.25928E-02
        -0.18171E-02
        -0.93572E-03
         0.68290E-03
         0.12427E-02
         0.60093E-03
        -0.32417E-03
         0.15536E-03
        -0.66755E-03
         0.18445E-02
         0.14757E-02
         0.32000E-03
         0.11987E-02
         0.22771E-02
         0.28207E-02
         0.24264E-02
         0.21691E-02
         0.29319E-02
        -0.10058E-02
         0.93536E-04
        -0.69011E-03
        -0.70943E-03
         0.84973E-04
        -0.77559E-03
         0.45633E-04
        -0.15186E-02
        -0.13212E-02
         0.10129E-02
        -0.17318E-02
         0.20271E-02
         0.18592E-02
         0.17175E-02
         0.91371E-03
        -0.19805E-02
        -0.23493E-02
        -0.17073E-02
        -0.14938E-02
         0.77846E-03
         0.12554E-02
         0.18672E-02
         0.28845E-02
         0.27122E-02
         0.24602E-02
         0.22358E-02
         0.16502E-02
         0.87964E-03
        -0.21374E-02
        -0.26935E-02
        -0.31291E-02
        -0.30381E-02
        -0.28750E-02
        -0.26471E-02
        -0.23744E-02
        -0.21543E-02
        -0.15085E-02
         0.93572E-03
         0.00000E+00
         0.18171E-02
         0.25928E-02
         0.32179E-02
         0.36559E-02
         0.38815E-02
         0.38815E-02
         0.36559E-02
         0.32179E-02
         0.25928E-02
         0.18171E-02
         0.93572E-03
        -0.47884E-18
        -0.93572E-03
        -0.18171E-02
        -0.25928E-02
        -0.32179E-02
        -0.36559E-02
        -0.38815E-02
        -0.38815E-02
        -0.36559E-02
        -0.32179E-02
        -0.25928E-02
        -0.18171E-02
        -0.93572E-03
         0.68346E-03
         0.12434E-02
         0.60145E-03
        -0.32342E-03
         0.15572E-03
        -0.66706E-03
         0.18447E-02
         0.14767E-02
         0.32115E-03
         0.12005E-02
         0.22772E-02
         0.28203E-02
         0.24265E-02
         0.21691E-02
         0.29316E-02
        -0.10060E-02
         0.94345E-04
        -0.68939E-03
        -0.70929E-03
         0.85096E-04
        -0.77542E-03
         0.45906E-04
        -0.15185E-02
        -0.13211E-02
         0.10142E-02
        -0.17317E-02
         0.20274E-02
         0.18590E-02
         0.17175E-02
         0.91395E-03
        -0.19805E-02
        -0.23494E-02
        -0.17073E-02
        -0.14941E-02
         0.77946E-03
         0.12558E-02
         0.18672E-02
         0.28835E-02
         0.27118E-02
         0.24600E-02
         0.22358E-02
         0.16502E-02
         0.87990E-03
        -0.21374E-02
        -0.26935E-02
        -0.31291E-02
        -0.30381E-02
        -0.28750E-02
        -0.26474E-02
        -0.23746E-02
        -0.21549E-02
        -0.15084E-02
         0.93572E-03
         0.00000E+00
         0.18171E-02
         0.25928E-02
         0.32179E-02
         0.36559E-02
         0.38815E-02
         0.38815E-02
         0.36559E-02
         0.32179E-02
         0.25928E-02
         0.18171E-02
         0.93572E-03
         0.22152E-17
        -0.93572E-03
        -0.18171E-02
        -0.25928E-02
        -0.32179E-02
        -0.36559E-02
        -0.38815E-02
        -0.38815E-02
        -0.36559E-02
        -0.32179E-02
        -0.25928E-02
        -0.18171E-02
        -0.93572E-03
         0.68401E-03
         0.12440E-02
         0.60198E-03
        -0.32266E-03
         0.15609E-03
        -0.66657E-03
         0.18449E-02
         0.14777E-02
         0.32230E-03
         0.12022E-02
         0.22774E-02
         0.28198E-02
         0.24267E-02
         0.21692E-02
         0.29314E-02
        -0.10061E-02
         0.95155E-04
        -0.68866E-03
        -0.70915E-03
         0.85220E-04
        -0.77525E-03
         0.46180E-04
        -0.15185E-02
        -0.13210E-02
         0.10156E-02
        -0.17317E-02
         0.20277E-02
         0.18589E-02
         0.17175E-02
         0.91419E-03
        -0.19805E-02
        -0.23494E-02
        -0.17073E-02
        -0.14943E-02
         0.78047E-03
         0.12563E-02
         0.18672E-02
         0.28824E-02
         0.27113E-02
         0.24597E-02
         0.22358E-02
         0.16502E-02
         0.88016E-03
        -0.21374E-02
        -0.26935E-02
        -0.31291E-02
        -0.30381E-02
        -0.28751E-02
        -0.26476E-02
        -0.23748E-02
        -0.21554E-02
        -0.15083E-02
         0.93572E-03
         0.00000E+00
         0.18171E-02
         0.25928E-02
         0.32179E-02
         0.36559E-02
         0.38815E-02
         0.38815E-02
         0.36559E-02
         0.32179E-02
         0.25928E-02
         0.18171E-02
         0.93572E-03
        -0.47884E-18
        -0.93572E-03
        -0.18171E-02
        -0.25928E-02
        -0.32179E-02
        -0.36559E-02
        -0.38815E-02
        -0.38815E-02
        -0.36559E-02
        -0.32179E-02
        -0.25928E-02
        -0.18171E-02
        -0.93572E-03
         0.68457E-03
         0.12447E-02
         0.60250E-03
        -0.32191E-03
         0.15645E-03
        -0.66607E-03
         0.18451E-02
         0.14787E-02
         0.32345E-03
         0.12040E-02
         0.22775E-02
         0.28194E-02
         0.24268E-02
         0.21692E-02
         0.29311E-02
        -0.10062E-02
         0.95964E-04
        -0.68793E-03
        -0.70901E-03
         0.85343E-04
        -0.77507E-03
         0.46453E-04
        -0.15184E-02
        -0.13209E-02
         0.10169E-02
        -0.17316E-02
         0.20280E-02
         0.18588E-02
         0.17175E-02
         0.91443E-03
        -0.19806E-02
        -0.23494E-02
        -0.17073E-02
        -0.14945E-02
         0.78148E-03
         0.12567E-02
         0.18673E-02
         0.28813E-02
         0.27108E-02
         0.24595E-02
         0.22358E-02
         0.16502E-02
         0.88043E-03
        -0.21374E-02
        -0.26936E-02
        -0.31291E-02
        -0.30381E-02
        -0.28751E-02
        -0.26479E-02
        -0.23750E-02
        -0.21560E-02
        -0.15082E-02
         0.93572E-03
         0.00000E+00
         0.18171E-02
         0.25928E-02
         0.32179E-02
         0.36559E-02
         0.38815E-02
         0.38815E-02
         0.36559E-02
         0.32179E-02
         0.25928E-02
         0.18171E-02
         0.93572E-03
        -0.47884E-18
        -0.93572E-03
        -0.18171E-02
        -0.25928E-02
        -0.32179E-02
        -0.36559E-02
        -0.38815E-02
        -0.38815E-02
        -0.36559E-02
        -0.32179E-02
        -0.25928E-02
        -0.18171E-02
        -0.93572E-03
         0.68512E-03
         0.12454E-02
         0.60302E-03
        -0.32115E-03
         0.15681E-03
        -0.66558E-03
         0.18453E-02
         0.14797E-02
         0.32459E-03
         0.12058E-02
         0.22776E-02
         0.28189E-02
         0.24270E-02
         0.21693E-02
         0.29308E-02
        -0.10064E-02
         0.96773E-04
        -0.68721E-03
        -0.70887E-03
         0.85467E-04
        -0.77490E-03
         0.46726E-04
        -0.15184E-02
        -0.13208E-02
         0.10183E-02
        -0.17316E-02
         0.20283E-02
         0.18586E-02
         0.17175E-02
         0.91467E-03
        -0.19806E-02
        -0.23494E-02
        -0.17073E-02
        -0.14948E-02
         0.78248E-03
         0.12571E-02
         0.18673E-02
         0.28802E-02
         0.27103E-02
         0.24593E-02
         0.22358E-02
         0.16502E-02
         0.88069E-03
        -0.21374E-02
        -0.26936E-02
        -0.31291E-02
        -0.30381E-02
        -0.28751E-02
        -0.26482E-02
        -0.23752E-02
        -0.21565E-02
        -0.15081E-02
         0.93572E-03
         0.00000E+00
         0.18171E-02
         0.25928E-02
         0.32179E-02
         0.36559E-02
         0.38815E-02
         0.38815E-02
         0.36559E-02
         0.32179E-02
         0.25928E-02
         0.18171E-02
         0.93572E-03
        -0.47884E-18
        -0.93572E-03
        -0.18171E-02
        -0.25928E-02
        -0.32179E-02
        -0.36559E-02
        -0.38815E-02
        -0.38815E-02
        -0.36559E-02
        -0.32179E-02
        -0.25928E-02
        -0.18171E-02
        -0.93572E-03
         0.68567E-03
         0.12460E-02
         0.60355E-03
        -0.32040E-03
         0.15718E-03
        -0.66509E-03
         0.18455E-02
         0.14807E-02
         0.32574E-03
         0.12075E-02
         0.22777E-02
         0.28185E-02
         0.24271E-02
         0.21693E-02
         0.29306E-02
        -0.10065E-02
         0.97583E-04
        -0.68648E-03
        -0.70873E-03
         0.85591E-04
        -0.77474E-03
         0.47000E-04
        -0.15183E-02
        -0.13207E-02
         0.10197E-02
        -0.17316E-02
         0.20285E-02
         0.18585E-02
         0.17175E-02
         0.91491E-03
        -0.19806E-02
        -0.23495E-02
        -0.17073E-02
        -0.14950E-02
         0.78348E-03
         0.12576E-02
         0.18674E-02
         0.28792E-02
         0.27099E-02
         0.24591E-02
         0.22358E-02
         0.16502E-02
         0.88095E-03
        -0.21374E-02
        -0.26936E-02
        -0.31290E-02
        -0.30381E-02
        -0.28751E-02
        -0.26484E-02
        -0.23754E-02
        -0.21571E-02
        -0.15080E-02
         0.93572E-03
         0.00000E+00
         0.18171E-02
         0.25928E-02
         0.32179E-02
         0.36559E-02
         0.38815E-02
         0.38815E-02
         0.36559E-02
         0.32179E-02
         0.25928E-02
         0.18171E-02
         0.93572E-03
         0.47884E-18
        -0.93572E-03
        -0.18171E-02
        -0.25928E-02
        -0.32179E-02
        -0.36559E-02
        -0.38815E-02
        -0.38815E-02
        -0.36559E-02
        -0.32179E-02
        -0.25928E-02
        -0.18171E-02
        -0.93572E-03
  
SCALARS           initial_coordinate_z  double 1
LOOKUP_TABLE default
        -0.10771E-01
        -0.10771E-01
        -0.10771E-01
        -0.10771E-01
        -0.11750E-01
        -0.11750E-01
        -0.11750E-01
        -0.11750E-01
        -0.10771E-01
        -0.10771E-01
        -0.11750E-01
        -0.11750E-01
        -0.10771E-01
        -0.10771E-01
        -0.11750E-01
        -0.11750E-01
        -0.10771E-01
        -0.10771E-01
        -0.11750E-01
        -0.11750E-01
        -0.10771E-01
        -0.10771E-01
        -0.10771E-01
        -0.11750E-01
        -0.11750E-01
        -0.11750E-01
        -0.10771E-01
        -0.10771E-01
        -0.11750E-01
        -0.11750E-01
        -0.10771E-01
        -0.10771E-01
        -0.10771E-01
        -0.11750E-01
        -0.11750E-01
        -0.11750E-01
        -0.10771E-01
        -0.10771E-01
        -0.11750E-01
        -0.11750E-01
        -0.10771E-01
        -0.10771E-01
        -0.11750E-01
        -0.11750E-01
        -0.10771E-01
        -0.10771E-01
        -0.11750E-01
        -0.11750E-01
        -0.10771E-01
        -0.11750E-01
        -0.10771E-01
        -0.11750E-01
        -0.10771E-01
        -0.11750E-01
        -0.10771E-01
        -0.11750E-01
        -0.10771E-01
        -0.10771E-01
        -0.11750E-01
        -0.11750E-01
        -0.10771E-01
        -0.10771E-01
        -0.11750E-01
        -0.11750E-01
        -0.10771E-01
        -0.11750E-01
        -0.10771E-01
        -0.11750E-01
        -0.10771E-01
        -0.10771E-01
        -0.11750E-01
        -0.11750E-01
        -0.10771E-01
        -0.11750E-01
        -0.10771E-01
        -0.11750E-01
        -0.10771E-01
        -0.11750E-01
        -0.10771E-01
        -0.11750E-01
        -0.10771E-01
        -0.10771E-01
        -0.11750E-01
        -0.11750E-01
        -0.10771E-01
        -0.11750E-01
        -0.10771E-01
        -0.11750E-01
        -0.10771E-01
        -0.11750E-01
        -0.10771E-01
        -0.10771E-01
        -0.11750E-01
        -0.11750E-01
        -0.10771E-01
        -0.11750E-01
        -0.10771E-01
        -0.11750E-01
        -0.10771E-01
        -0.11750E-01
        -0.10771E-01
        -0.10771E-01
        -0.11750E-01
        -0.11750E-01
        -0.10771E-01
        -0.10771E-01
        -0.11750E-01
        -0.11750E-01
        -0.10771E-01
        -0.11750E-01
        -0.10771E-01
        -0.11750E-01
        -0.10771E-01
        -0.11750E-01
        -0.10771E-01
        -0.11750E-01
        -0.10771E-01
        -0.11750E-01
        -0.10771E-01
        -0.11750E-01
        -0.10771E-01
        -0.11750E-01
        -0.10771E-01
        -0.11750E-01
        -0.10771E-01
        -0.11750E-01
        -0.10771E-01
        -0.11750E-01
        -0.10771E-01
        -0.11750E-01
        -0.10771E-01
        -0.11750E-01
        -0.10771E-01
        -0.11750E-01
        -0.10771E-01
        -0.11750E-01
        -0.10771E-01
        -0.11750E-01
        -0.10771E-01
        -0.11750E-01
        -0.10771E-01
        -0.11750E-01
        -0.10771E-01
        -0.11750E-01
        -0.10771E-01
        -0.11750E-01
        -0.10771E-01
        -0.11750E-01
        -0.10771E-01
        -0.11750E-01
        -0.10771E-01
        -0.11750E-01
        -0.10771E-01
        -0.11750E-01
        -0.10771E-01
        -0.11750E-01
        -0.97917E-02
        -0.97917E-02
        -0.97917E-02
        -0.97917E-02
        -0.97917E-02
        -0.97917E-02
        -0.97917E-02
        -0.97917E-02
        -0.97917E-02
        -0.97917E-02
        -0.97917E-02
        -0.97917E-02
        -0.97917E-02
        -0.97917E-02
        -0.97917E-02
        -0.97917E-02
        -0.97917E-02
        -0.97917E-02
        -0.97917E-02
        -0.97917E-02
        -0.97917E-02
        -0.97917E-02
        -0.97917E-02
        -0.97917E-02
        -0.97917E-02
        -0.97917E-02
        -0.97917E-02
        -0.97917E-02
        -0.97917E-02
        -0.97917E-02
        -0.97917E-02
        -0.97917E-02
        -0.97917E-02
        -0.97917E-02
        -0.97917E-02
        -0.97917E-02
        -0.97917E-02
        -0.97917E-02
        -0.97917E-02
        -0.97917E-02
        -0.97917E-02
        -0.97917E-02
        -0.97917E-02
        -0.97917E-02
        -0.97917E-02
        -0.97917E-02
        -0.97917E-02
        -0.97917E-02
        -0.97917E-02
        -0.97917E-02
        -0.97917E-02
        -0.97917E-02
        -0.97917E-02
        -0.97917E-02
        -0.97917E-02
        -0.97917E-02
        -0.97917E-02
        -0.97917E-02
        -0.97917E-02
        -0.97917E-02
        -0.97917E-02
        -0.97917E-02
        -0.97917E-02
        -0.97917E-02
        -0.97917E-02
        -0.97917E-02
        -0.97917E-02
        -0.97917E-02
        -0.97917E-02
        -0.97917E-02
        -0.97917E-02
        -0.97917E-02
        -0.97917E-02
        -0.97917E-02
        -0.97917E-02
        -0.97917E-02
        -0.97917E-02
        -0.97917E-02
        -0.88125E-02
        -0.88125E-02
        -0.88125E-02
        -0.88125E-02
        -0.88125E-02
        -0.88125E-02
        -0.88125E-02
        -0.88125E-02
        -0.88125E-02
        -0.88125E-02
        -0.88125E-02
        -0.88125E-02
        -0.88125E-02
        -0.88125E-02
        -0.88125E-02
        -0.88125E-02
        -0.88125E-02
        -0.88125E-02
        -0.88125E-02
        -0.88125E-02
        -0.88125E-02
        -0.88125E-02
        -0.88125E-02
        -0.88125E-02
        -0.88125E-02
        -0.88125E-02
        -0.88125E-02
        -0.88125E-02
        -0.88125E-02
        -0.88125E-02
        -0.88125E-02
        -0.88125E-02
        -0.88125E-02
        -0.88125E-02
        -0.88125E-02
        -0.88125E-02
        -0.88125E-02
        -0.88125E-02
        -0.88125E-02
        -0.88125E-02
        -0.88125E-02
        -0.88125E-02
        -0.88125E-02
        -0.88125E-02
        -0.88125E-02
        -0.88125E-02
        -0.88125E-02
        -0.88125E-02
        -0.88125E-02
        -0.88125E-02
        -0.88125E-02
        -0.88125E-02
        -0.88125E-02
        -0.88125E-02
        -0.88125E-02
        -0.88125E-02
        -0.88125E-02
        -0.88125E-02
        -0.88125E-02
        -0.88125E-02
        -0.88125E-02
        -0.88125E-02
        -0.88125E-02
        -0.88125E-02
        -0.88125E-02
        -0.88125E-02
        -0.88125E-02
        -0.88125E-02
        -0.88125E-02
        -0.88125E-02
        -0.88125E-02
        -0.88125E-02
        -0.88125E-02
        -0.88125E-02
        -0.88125E-02
        -0.88125E-02
        -0.88125E-02
        -0.88125E-02
        -0.78333E-02
        -0.78333E-02
        -0.78333E-02
        -0.78333E-02
        -0.78333E-02
        -0.78333E-02
        -0.78333E-02
        -0.78333E-02
        -0.78333E-02
        -0.78333E-02
        -0.78333E-02
        -0.78333E-02
        -0.78333E-02
        -0.78333E-02
        -0.78333E-02
        -0.78333E-02
        -0.78333E-02
        -0.78333E-02
        -0.78333E-02
        -0.78333E-02
        -0.78333E-02
        -0.78333E-02
        -0.78333E-02
        -0.78333E-02
        -0.78333E-02
        -0.78333E-02
        -0.78333E-02
        -0.78333E-02
        -0.78333E-02
        -0.78333E-02
        -0.78333E-02
        -0.78333E-02
        -0.78333E-02
        -0.78333E-02
        -0.78333E-02
        -0.78333E-02
        -0.78333E-02
        -0.78333E-02
        -0.78333E-02
        -0.78333E-02
        -0.78333E-02
        -0.78333E-02
        -0.78333E-02
        -0.78333E-02
        -0.78333E-02
        -0.78333E-02
        -0.78333E-02
        -0.78333E-02
        -0.78333E-02
        -0.78333E-02
        -0.78333E-02
        -0.78333E-02
        -0.78333E-02
        -0.78333E-02
        -0.78333E-02
        -0.78333E-02
        -0.78333E-02
        -0.78333E-02
        -0.78333E-02
        -0.78333E-02
        -0.78333E-02
        -0.78333E-02
        -0.78333E-02
        -0.78333E-02
        -0.78333E-02
        -0.78333E-02
        -0.78333E-02
        -0.78333E-02
        -0.78333E-02
        -0.78333E-02
        -0.78333E-02
        -0.78333E-02
        -0.78333E-02
        -0.78333E-02
        -0.78333E-02
        -0.78333E-02
        -0.78333E-02
        -0.78333E-02
        -0.68542E-02
        -0.68542E-02
        -0.68542E-02
        -0.68542E-02
        -0.68542E-02
        -0.68542E-02
        -0.68542E-02
        -0.68542E-02
        -0.68542E-02
        -0.68542E-02
        -0.68542E-02
        -0.68542E-02
        -0.68542E-02
        -0.68542E-02
        -0.68542E-02
        -0.68542E-02
        -0.68542E-02
        -0.68542E-02
        -0.68542E-02
        -0.68542E-02
        -0.68542E-02
        -0.68542E-02
        -0.68542E-02
        -0.68542E-02
        -0.68542E-02
        -0.68542E-02
        -0.68542E-02
        -0.68542E-02
        -0.68542E-02
        -0.68542E-02
        -0.68542E-02
        -0.68542E-02
        -0.68542E-02
        -0.68542E-02
        -0.68542E-02
        -0.68542E-02
        -0.68542E-02
        -0.68542E-02
        -0.68542E-02
        -0.68542E-02
        -0.68542E-02
        -0.68542E-02
        -0.68542E-02
        -0.68542E-02
        -0.68542E-02
        -0.68542E-02
        -0.68542E-02
        -0.68542E-02
        -0.68542E-02
        -0.68542E-02
        -0.68542E-02
        -0.68542E-02
        -0.68542E-02
        -0.68542E-02
        -0.68542E-02
        -0.68542E-02
        -0.68542E-02
        -0.68542E-02
        -0.68542E-02
        -0.68542E-02
        -0.68542E-02
        -0.68542E-02
        -0.68542E-02
        -0.68542E-02
        -0.68542E-02
        -0.68542E-02
        -0.68542E-02
        -0.68542E-02
        -0.68542E-02
        -0.68542E-02
        -0.68542E-02
        -0.68542E-02
        -0.68542E-02
        -0.68542E-02
        -0.68542E-02
        -0.68542E-02
        -0.68542E-02
        -0.68542E-02
        -0.58750E-02
        -0.58750E-02
        -0.58750E-02
        -0.58750E-02
        -0.58750E-02
        -0.58750E-02
        -0.58750E-02
        -0.58750E-02
        -0.58750E-02
        -0.58750E-02
        -0.58750E-02
        -0.58750E-02
        -0.58750E-02
        -0.58750E-02
        -0.58750E-02
        -0.58750E-02
        -0.58750E-02
        -0.58750E-02
        -0.58750E-02
        -0.58750E-02
        -0.58750E-02
        -0.58750E-02
        -0.58750E-02
        -0.58750E-02
        -0.58750E-02
        -0.58750E-02
        -0.58750E-02
        -0.58750E-02
        -0.58750E-02
        -0.58750E-02
        -0.58750E-02
        -0.58750E-02
        -0.58750E-02
        -0.58750E-02
        -0.58750E-02
        -0.58750E-02
        -0.58750E-02
        -0.58750E-02
        -0.58750E-02
        -0.58750E-02
        -0.58750E-02
        -0.58750E-02
        -0.58750E-02
        -0.58750E-02
        -0.58750E-02
        -0.58750E-02
        -0.58750E-02
        -0.58750E-02
        -0.58750E-02
        -0.58750E-02
        -0.58750E-02
        -0.58750E-02
        -0.58750E-02
        -0.58750E-02
        -0.58750E-02
        -0.58750E-02
        -0.58750E-02
        -0.58750E-02
        -0.58750E-02
        -0.58750E-02
        -0.58750E-02
        -0.58750E-02
        -0.58750E-02
        -0.58750E-02
        -0.58750E-02
        -0.58750E-02
        -0.58750E-02
        -0.58750E-02
        -0.58750E-02
        -0.58750E-02
        -0.58750E-02
        -0.58750E-02
        -0.58750E-02
        -0.58750E-02
        -0.58750E-02
        -0.58750E-02
        -0.58750E-02
        -0.58750E-02
        -0.48958E-02
        -0.48958E-02
        -0.48958E-02
        -0.48958E-02
        -0.48958E-02
        -0.48958E-02
        -0.48958E-02
        -0.48958E-02
        -0.48958E-02
        -0.48958E-02
        -0.48958E-02
        -0.48958E-02
        -0.48958E-02
        -0.48958E-02
        -0.48958E-02
        -0.48958E-02
        -0.48958E-02
        -0.48958E-02
        -0.48958E-02
        -0.48958E-02
        -0.48958E-02
        -0.48958E-02
        -0.48958E-02
        -0.48958E-02
        -0.48958E-02
        -0.48958E-02
        -0.48958E-02
        -0.48958E-02
        -0.48958E-02
        -0.48958E-02
        -0.48958E-02
        -0.48958E-02
        -0.48958E-02
        -0.48958E-02
        -0.48958E-02
        -0.48958E-02
        -0.48958E-02
        -0.48958E-02
        -0.48958E-02
        -0.48958E-02
        -0.48958E-02
        -0.48958E-02
        -0.48958E-02
        -0.48958E-02
        -0.48958E-02
        -0.48958E-02
        -0.48958E-02
        -0.48958E-02
        -0.48958E-02
        -0.48958E-02
        -0.48958E-02
        -0.48958E-02
        -0.48958E-02
        -0.48958E-02
        -0.48958E-02
        -0.48958E-02
        -0.48958E-02
        -0.48958E-02
        -0.48958E-02
        -0.48958E-02
        -0.48958E-02
        -0.48958E-02
        -0.48958E-02
        -0.48958E-02
        -0.48958E-02
        -0.48958E-02
        -0.48958E-02
        -0.48958E-02
        -0.48958E-02
        -0.48958E-02
        -0.48958E-02
        -0.48958E-02
        -0.48958E-02
        -0.48958E-02
        -0.48958E-02
        -0.48958E-02
        -0.48958E-02
        -0.48958E-02
        -0.39167E-02
        -0.39167E-02
        -0.39167E-02
        -0.39167E-02
        -0.39167E-02
        -0.39167E-02
        -0.39167E-02
        -0.39167E-02
        -0.39167E-02
        -0.39167E-02
        -0.39167E-02
        -0.39167E-02
        -0.39167E-02
        -0.39167E-02
        -0.39167E-02
        -0.39167E-02
        -0.39167E-02
        -0.39167E-02
        -0.39167E-02
        -0.39167E-02
        -0.39167E-02
        -0.39167E-02
        -0.39167E-02
        -0.39167E-02
        -0.39167E-02
        -0.39167E-02
        -0.39167E-02
        -0.39167E-02
        -0.39167E-02
        -0.39167E-02
        -0.39167E-02
        -0.39167E-02
        -0.39167E-02
        -0.39167E-02
        -0.39167E-02
        -0.39167E-02
        -0.39167E-02
        -0.39167E-02
        -0.39167E-02
        -0.39167E-02
        -0.39167E-02
        -0.39167E-02
        -0.39167E-02
        -0.39167E-02
        -0.39167E-02
        -0.39167E-02
        -0.39167E-02
        -0.39167E-02
        -0.39167E-02
        -0.39167E-02
        -0.39167E-02
        -0.39167E-02
        -0.39167E-02
        -0.39167E-02
        -0.39167E-02
        -0.39167E-02
        -0.39167E-02
        -0.39167E-02
        -0.39167E-02
        -0.39167E-02
        -0.39167E-02
        -0.39167E-02
        -0.39167E-02
        -0.39167E-02
        -0.39167E-02
        -0.39167E-02
        -0.39167E-02
        -0.39167E-02
        -0.39167E-02
        -0.39167E-02
        -0.39167E-02
        -0.39167E-02
        -0.39167E-02
        -0.39167E-02
        -0.39167E-02
        -0.39167E-02
        -0.39167E-02
        -0.39167E-02
        -0.29375E-02
        -0.29375E-02
        -0.29375E-02
        -0.29375E-02
        -0.29375E-02
        -0.29375E-02
        -0.29375E-02
        -0.29375E-02
        -0.29375E-02
        -0.29375E-02
        -0.29375E-02
        -0.29375E-02
        -0.29375E-02
        -0.29375E-02
        -0.29375E-02
        -0.29375E-02
        -0.29375E-02
        -0.29375E-02
        -0.29375E-02
        -0.29375E-02
        -0.29375E-02
        -0.29375E-02
        -0.29375E-02
        -0.29375E-02
        -0.29375E-02
        -0.29375E-02
        -0.29375E-02
        -0.29375E-02
        -0.29375E-02
        -0.29375E-02
        -0.29375E-02
        -0.29375E-02
        -0.29375E-02
        -0.29375E-02
        -0.29375E-02
        -0.29375E-02
        -0.29375E-02
        -0.29375E-02
        -0.29375E-02
        -0.29375E-02
        -0.29375E-02
        -0.29375E-02
        -0.29375E-02
        -0.29375E-02
        -0.29375E-02
        -0.29375E-02
        -0.29375E-02
        -0.29375E-02
        -0.29375E-02
        -0.29375E-02
        -0.29375E-02
        -0.29375E-02
        -0.29375E-02
        -0.29375E-02
        -0.29375E-02
        -0.29375E-02
        -0.29375E-02
        -0.29375E-02
        -0.29375E-02
        -0.29375E-02
        -0.29375E-02
        -0.29375E-02
        -0.29375E-02
        -0.29375E-02
        -0.29375E-02
        -0.29375E-02
        -0.29375E-02
        -0.29375E-02
        -0.29375E-02
        -0.29375E-02
        -0.29375E-02
        -0.29375E-02
        -0.29375E-02
        -0.29375E-02
        -0.29375E-02
        -0.29375E-02
        -0.29375E-02
        -0.29375E-02
        -0.19583E-02
        -0.19583E-02
        -0.19583E-02
        -0.19583E-02
        -0.19583E-02
        -0.19583E-02
        -0.19583E-02
        -0.19583E-02
        -0.19583E-02
        -0.19583E-02
        -0.19583E-02
        -0.19583E-02
        -0.19583E-02
        -0.19583E-02
        -0.19583E-02
        -0.19583E-02
        -0.19583E-02
        -0.19583E-02
        -0.19583E-02
        -0.19583E-02
        -0.19583E-02
        -0.19583E-02
        -0.19583E-02
        -0.19583E-02
        -0.19583E-02
        -0.19583E-02
        -0.19583E-02
        -0.19583E-02
        -0.19583E-02
        -0.19583E-02
        -0.19583E-02
        -0.19583E-02
        -0.19583E-02
        -0.19583E-02
        -0.19583E-02
        -0.19583E-02
        -0.19583E-02
        -0.19583E-02
        -0.19583E-02
        -0.19583E-02
        -0.19583E-02
        -0.19583E-02
        -0.19583E-02
        -0.19583E-02
        -0.19583E-02
        -0.19583E-02
        -0.19583E-02
        -0.19583E-02
        -0.19583E-02
        -0.19583E-02
        -0.19583E-02
        -0.19583E-02
        -0.19583E-02
        -0.19583E-02
        -0.19583E-02
        -0.19583E-02
        -0.19583E-02
        -0.19583E-02
        -0.19583E-02
        -0.19583E-02
        -0.19583E-02
        -0.19583E-02
        -0.19583E-02
        -0.19583E-02
        -0.19583E-02
        -0.19583E-02
        -0.19583E-02
        -0.19583E-02
        -0.19583E-02
        -0.19583E-02
        -0.19583E-02
        -0.19583E-02
        -0.19583E-02
        -0.19583E-02
        -0.19583E-02
        -0.19583E-02
        -0.19583E-02
        -0.19583E-02
        -0.97917E-03
        -0.97917E-03
        -0.97917E-03
        -0.97917E-03
        -0.97917E-03
        -0.97917E-03
        -0.97917E-03
        -0.97917E-03
        -0.97917E-03
        -0.97917E-03
        -0.97917E-03
        -0.97917E-03
        -0.97917E-03
        -0.97917E-03
        -0.97917E-03
        -0.97917E-03
        -0.97917E-03
        -0.97917E-03
        -0.97917E-03
        -0.97917E-03
        -0.97917E-03
        -0.97917E-03
        -0.97917E-03
        -0.97917E-03
        -0.97917E-03
        -0.97917E-03
        -0.97917E-03
        -0.97917E-03
        -0.97917E-03
        -0.97917E-03
        -0.97917E-03
        -0.97917E-03
        -0.97917E-03
        -0.97917E-03
        -0.97917E-03
        -0.97917E-03
        -0.97917E-03
        -0.97917E-03
        -0.97917E-03
        -0.97917E-03
        -0.97917E-03
        -0.97917E-03
        -0.97917E-03
        -0.97917E-03
        -0.97917E-03
        -0.97917E-03
        -0.97917E-03
        -0.97917E-03
        -0.97917E-03
        -0.97917E-03
        -0.97917E-03
        -0.97917E-03
        -0.97917E-03
        -0.97917E-03
        -0.97917E-03
        -0.97917E-03
        -0.97917E-03
        -0.97917E-03
        -0.97917E-03
        -0.97917E-03
        -0.97917E-03
        -0.97917E-03
        -0.97917E-03
        -0.97917E-03
        -0.97917E-03
        -0.97917E-03
        -0.97917E-03
        -0.97917E-03
        -0.97917E-03
        -0.97917E-03
        -0.97917E-03
        -0.97917E-03
        -0.97917E-03
        -0.97917E-03
        -0.97917E-03
        -0.97917E-03
        -0.97917E-03
        -0.97917E-03
         0.38917E-18
         0.44621E-18
         0.34485E-18
         0.23671E-18
         0.26613E-18
         0.16162E-18
         0.53980E-18
         0.50579E-18
         0.36337E-18
         0.48798E-18
         0.60712E-18
         0.67611E-18
         0.60634E-18
         0.60658E-18
         0.70997E-18
         0.20892E-18
         0.35894E-18
         0.21887E-18
         0.27638E-18
         0.38382E-18
         0.29058E-18
         0.40326E-18
         0.18564E-18
         0.19650E-18
         0.48570E-18
         0.12837E-18
         0.60589E-18
         0.60416E-18
         0.60524E-18
         0.49621E-18
         0.61582E-19
         0.32255E-19
         0.73874E-19
         0.78478E-19
         0.34514E-18
         0.42054E-18
         0.51644E-18
         0.72521E-18
         0.72233E-18
         0.70722E-18
         0.69126E-18
         0.61573E-18
         0.51484E-18
         0.91170E-19
         0.30347E-20
        -0.66516E-19
        -0.69988E-19
        -0.68643E-19
        -0.59779E-19
        -0.43507E-19
        -0.29471E-19
         0.53205E-19
         0.86819E-18
         0.00000E+00
         0.86819E-18
         0.86819E-18
         0.00000E+00
         0.00000E+00
         0.00000E+00
         0.17364E-17
         0.17364E-17
         0.17364E-17
         0.43410E-18
         0.43410E-18
         0.43410E-18
         0.00000E+00
         0.00000E+00
         0.00000E+00
         0.00000E+00
         0.00000E+00
         0.21705E-18
        -0.21705E-18
         0.00000E+00
         0.00000E+00
         0.00000E+00
        -0.32557E-18
         0.54262E-19
        -0.40697E-18
         0.97917E-03
         0.97917E-03
         0.97917E-03
         0.97917E-03
         0.97917E-03
         0.97917E-03
         0.97917E-03
         0.97917E-03
         0.97917E-03
         0.97917E-03
         0.97917E-03
         0.97917E-03
         0.97917E-03
         0.97917E-03
         0.97917E-03
         0.97917E-03
         0.97917E-03
         0.97917E-03
         0.97917E-03
         0.97917E-03
         0.97917E-03
         0.97917E-03
         0.97917E-03
         0.97917E-03
         0.97917E-03
         0.97917E-03
         0.97917E-03
         0.97917E-03
         0.97917E-03
         0.97917E-03
         0.97917E-03
         0.97917E-03
         0.97917E-03
         0.97917E-03
         0.97917E-03
         0.97917E-03
         0.97917E-03
         0.97917E-03
         0.97917E-03
         0.97917E-03
         0.97917E-03
         0.97917E-03
         0.97917E-03
         0.97917E-03
         0.97917E-03
         0.97917E-03
         0.97917E-03
         0.97917E-03
         0.97917E-03
         0.97917E-03
         0.97917E-03
         0.97917E-03
         0.97917E-03
         0.97917E-03
         0.97917E-03
         0.97917E-03
         0.97917E-03
         0.97917E-03
         0.97917E-03
         0.97917E-03
         0.97917E-03
         0.97917E-03
         0.97917E-03
         0.97917E-03
         0.97917E-03
         0.97917E-03
         0.97917E-03
         0.97917E-03
         0.97917E-03
         0.97917E-03
         0.97917E-03
         0.97917E-03
         0.97917E-03
         0.97917E-03
         0.97917E-03
         0.97917E-03
         0.97917E-03
         0.97917E-03
         0.19583E-02
         0.19583E-02
         0.19583E-02
         0.19583E-02
         0.19583E-02
         0.19583E-02
         0.19583E-02
         0.19583E-02
         0.19583E-02
         0.19583E-02
         0.19583E-02
         0.19583E-02
         0.19583E-02
         0.19583E-02
         0.19583E-02
         0.19583E-02
         0.19583E-02
         0.19583E-02
         0.19583E-02
         0.19583E-02
         0.19583E-02
         0.19583E-02
         0.19583E-02
         0.19583E-02
         0.19583E-02
         0.19583E-02
         0.19583E-02
         0.19583E-02
         0.19583E-02
         0.19583E-02
         0.19583E-02
         0.19583E-02
         0.19583E-02
         0.19583E-02
         0.19583E-02
         0.19583E-02
         0.19583E-02
         0.19583E-02
         0.19583E-02
         0.19583E-02
         0.19583E-02
         0.19583E-02
         0.19583E-02
         0.19583E-02
         0.19583E-02
         0.19583E-02
         0.19583E-02
         0.19583E-02
         0.19583E-02
         0.19583E-02
         0.19583E-02
         0.19583E-02
         0.19583E-02
         0.19583E-02
         0.19583E-02
         0.19583E-02
         0.19583E-02
         0.19583E-02
         0.19583E-02
         0.19583E-02
         0.19583E-02
         0.19583E-02
         0.19583E-02
         0.19583E-02
         0.19583E-02
         0.19583E-02
         0.19583E-02
         0.19583E-02
         0.19583E-02
         0.19583E-02
         0.19583E-02
         0.19583E-02
         0.19583E-02
         0.19583E-02
         0.19583E-02
         0.19583E-02
         0.19583E-02
         0.19583E-02
         0.29375E-02
         0.29375E-02
         0.29375E-02
         0.29375E-02
         0.29375E-02
         0.29375E-02
         0.29375E-02
         0.29375E-02
         0.29375E-02
         0.29375E-02
         0.29375E-02
         0.29375E-02
         0.29375E-02
         0.29375E-02
         0.29375E-02
         0.29375E-02
         0.29375E-02
         0.29375E-02
         0.29375E-02
         0.29375E-02
         0.29375E-02
         0.29375E-02
         0.29375E-02
         0.29375E-02
         0.29375E-02
         0.29375E-02
         0.29375E-02
         0.29375E-02
         0.29375E-02
         0.29375E-02
         0.29375E-02
         0.29375E-02
         0.29375E-02
         0.29375E-02
         0.29375E-02
         0.29375E-02
         0.29375E-02
         0.29375E-02
         0.29375E-02
         0.29375E-02
         0.29375E-02
         0.29375E-02
         0.29375E-02
         0.29375E-02
         0.29375E-02
         0.29375E-02
         0.29375E-02
         0.29375E-02
         0.29375E-02
         0.29375E-02
         0.29375E-02
         0.29375E-02
         0.29375E-02
         0.29375E-02
         0.29375E-02
         0.29375E-02
         0.29375E-02
         0.29375E-02
         0.29375E-02
         0.29375E-02
         0.29375E-02
         0.29375E-02
         0.29375E-02
         0.29375E-02
         0.29375E-02
         0.29375E-02
         0.29375E-02
         0.29375E-02
         0.29375E-02
         0.29375E-02
         0.29375E-02
         0.29375E-02
         0.29375E-02
         0.29375E-02
         0.29375E-02
         0.29375E-02
         0.29375E-02
         0.29375E-02
         0.39167E-02
         0.39167E-02
         0.39167E-02
         0.39167E-02
         0.39167E-02
         0.39167E-02
         0.39167E-02
         0.39167E-02
         0.39167E-02
         0.39167E-02
         0.39167E-02
         0.39167E-02
         0.39167E-02
         0.39167E-02
         0.39167E-02
         0.39167E-02
         0.39167E-02
         0.39167E-02
         0.39167E-02
         0.39167E-02
         0.39167E-02
         0.39167E-02
         0.39167E-02
         0.39167E-02
         0.39167E-02
         0.39167E-02
         0.39167E-02
         0.39167E-02
         0.39167E-02
         0.39167E-02
         0.39167E-02
         0.39167E-02
         0.39167E-02
         0.39167E-02
         0.39167E-02
         0.39167E-02
         0.39167E-02
         0.39167E-02
         0.39167E-02
         0.39167E-02
         0.39167E-02
         0.39167E-02
         0.39167E-02
         0.39167E-02
         0.39167E-02
         0.39167E-02
         0.39167E-02
         0.39167E-02
         0.39167E-02
         0.39167E-02
         0.39167E-02
         0.39167E-02
         0.39167E-02
         0.39167E-02
         0.39167E-02
         0.39167E-02
         0.39167E-02
         0.39167E-02
         0.39167E-02
         0.39167E-02
         0.39167E-02
         0.39167E-02
         0.39167E-02
         0.39167E-02
         0.39167E-02
         0.39167E-02
         0.39167E-02
         0.39167E-02
         0.39167E-02
         0.39167E-02
         0.39167E-02
         0.39167E-02
         0.39167E-02
         0.39167E-02
         0.39167E-02
         0.39167E-02
         0.39167E-02
         0.39167E-02
         0.48958E-02
         0.48958E-02
         0.48958E-02
         0.48958E-02
         0.48958E-02
         0.48958E-02
         0.48958E-02
         0.48958E-02
         0.48958E-02
         0.48958E-02
         0.48958E-02
         0.48958E-02
         0.48958E-02
         0.48958E-02
         0.48958E-02
         0.48958E-02
         0.48958E-02
         0.48958E-02
         0.48958E-02
         0.48958E-02
         0.48958E-02
         0.48958E-02
         0.48958E-02
         0.48958E-02
         0.48958E-02
         0.48958E-02
         0.48958E-02
         0.48958E-02
         0.48958E-02
         0.48958E-02
         0.48958E-02
         0.48958E-02
         0.48958E-02
         0.48958E-02
         0.48958E-02
         0.48958E-02
         0.48958E-02
         0.48958E-02
         0.48958E-02
         0.48958E-02
         0.48958E-02
         0.48958E-02
         0.48958E-02
         0.48958E-02
         0.48958E-02
         0.48958E-02
         0.48958E-02
         0.48958E-02
         0.48958E-02
         0.48958E-02
         0.48958E-02
         0.48958E-02
         0.48958E-02
         0.48958E-02
         0.48958E-02
         0.48958E-02
         0.48958E-02
         0.48958E-02
         0.48958E-02
         0.48958E-02
         0.48958E-02
         0.48958E-02
         0.48958E-02
         0.48958E-02
         0.48958E-02
         0.48958E-02
         0.48958E-02
         0.48958E-02
         0.48958E-02
         0.48958E-02
         0.48958E-02
         0.48958E-02
         0.48958E-02
         0.48958E-02
         0.48958E-02
         0.48958E-02
         0.48958E-02
         0.48958E-02
         0.58750E-02
         0.58750E-02
         0.58750E-02
         0.58750E-02
         0.58750E-02
         0.58750E-02
         0.58750E-02
         0.58750E-02
         0.58750E-02
         0.58750E-02
         0.58750E-02
         0.58750E-02
         0.58750E-02
         0.58750E-02
         0.58750E-02
         0.58750E-02
         0.58750E-02
         0.58750E-02
         0.58750E-02
         0.58750E-02
         0.58750E-02
         0.58750E-02
         0.58750E-02
         0.58750E-02
         0.58750E-02
         0.58750E-02
         0.58750E-02
         0.58750E-02
         0.58750E-02
         0.58750E-02
         0.58750E-02
         0.58750E-02
         0.58750E-02
         0.58750E-02
         0.58750E-02
         0.58750E-02
         0.58750E-02
         0.58750E-02
         0.58750E-02
         0.58750E-02
         0.58750E-02
         0.58750E-02
         0.58750E-02
         0.58750E-02
         0.58750E-02
         0.58750E-02
         0.58750E-02
         0.58750E-02
         0.58750E-02
         0.58750E-02
         0.58750E-02
         0.58750E-02
         0.58750E-02
         0.58750E-02
         0.58750E-02
         0.58750E-02
         0.58750E-02
         0.58750E-02
         0.58750E-02
         0.58750E-02
         0.58750E-02
         0.58750E-02
         0.58750E-02
         0.58750E-02
         0.58750E-02
         0.58750E-02
         0.58750E-02
         0.58750E-02
         0.58750E-02
         0.58750E-02
         0.58750E-02
         0.58750E-02
         0.58750E-02
         0.58750E-02
         0.58750E-02
         0.58750E-02
         0.58750E-02
         0.58750E-02
         0.68542E-02
         0.68542E-02
         0.68542E-02
         0.68542E-02
         0.68542E-02
         0.68542E-02
         0.68542E-02
         0.68542E-02
         0.68542E-02
         0.68542E-02
         0.68542E-02
         0.68542E-02
         0.68542E-02
         0.68542E-02
         0.68542E-02
         0.68542E-02
         0.68542E-02
         0.68542E-02
         0.68542E-02
         0.68542E-02
         0.68542E-02
         0.68542E-02
         0.68542E-02
         0.68542E-02
         0.68542E-02
         0.68542E-02
         0.68542E-02
         0.68542E-02
         0.68542E-02
         0.68542E-02
         0.68542E-02
         0.68542E-02
         0.68542E-02
         0.68542E-02
         0.68542E-02
         0.68542E-02
         0.68542E-02
         0.68542E-02
         0.68542E-02
         0.68542E-02
         0.68542E-02
         0.68542E-02
         0.68542E-02
         0.68542E-02
         0.68542E-02
         0.68542E-02
         0.68542E-02
         0.68542E-02
         0.68542E-02
         0.68542E-02
         0.68542E-02
         0.68542E-02
         0.68542E-02
         0.68542E-02
         0.68542E-02
         0.68542E-02
         0.68542E-02
         0.68542E-02
         0.68542E-02
         0.68542E-02
         0.68542E-02
         0.68542E-02
         0.68542E-02
         0.68542E-02
         0.68542E-02
         0.68542E-02
         0.68542E-02
         0.68542E-02
         0.68542E-02
         0.68542E-02
         0.68542E-02
         0.68542E-02
         0.68542E-02
         0.68542E-02
         0.68542E-02
         0.68542E-02
         0.68542E-02
         0.68542E-02
         0.78333E-02
         0.78333E-02
         0.78333E-02
         0.78333E-02
         0.78333E-02
         0.78333E-02
         0.78333E-02
         0.78333E-02
         0.78333E-02
         0.78333E-02
         0.78333E-02
         0.78333E-02
         0.78333E-02
         0.78333E-02
         0.78333E-02
         0.78333E-02
         0.78333E-02
         0.78333E-02
         0.78333E-02
         0.78333E-02
         0.78333E-02
         0.78333E-02
         0.78333E-02
         0.78333E-02
         0.78333E-02
         0.78333E-02
         0.78333E-02
         0.78333E-02
         0.78333E-02
         0.78333E-02
         0.78333E-02
         0.78333E-02
         0.78333E-02
         0.78333E-02
         0.78333E-02
         0.78333E-02
         0.78333E-02
         0.78333E-02
         0.78333E-02
         0.78333E-02
         0.78333E-02
         0.78333E-02
         0.78333E-02
         0.78333E-02
         0.78333E-02
         0.78333E-02
         0.78333E-02
         0.78333E-02
         0.78333E-02
         0.78333E-02
         0.78333E-02
         0.78333E-02
         0.78333E-02
         0.78333E-02
         0.78333E-02
         0.78333E-02
         0.78333E-02
         0.78333E-02
         0.78333E-02
         0.78333E-02
         0.78333E-02
         0.78333E-02
         0.78333E-02
         0.78333E-02
         0.78333E-02
         0.78333E-02
         0.78333E-02
         0.78333E-02
         0.78333E-02
         0.78333E-02
         0.78333E-02
         0.78333E-02
         0.78333E-02
         0.78333E-02
         0.78333E-02
         0.78333E-02
         0.78333E-02
         0.78333E-02
         0.88125E-02
         0.88125E-02
         0.88125E-02
         0.88125E-02
         0.88125E-02
         0.88125E-02
         0.88125E-02
         0.88125E-02
         0.88125E-02
         0.88125E-02
         0.88125E-02
         0.88125E-02
         0.88125E-02
         0.88125E-02
         0.88125E-02
         0.88125E-02
         0.88125E-02
         0.88125E-02
         0.88125E-02
         0.88125E-02
         0.88125E-02
         0.88125E-02
         0.88125E-02
         0.88125E-02
         0.88125E-02
         0.88125E-02
         0.88125E-02
         0.88125E-02
         0.88125E-02
         0.88125E-02
         0.88125E-02
         0.88125E-02
         0.88125E-02
         0.88125E-02
         0.88125E-02
         0.88125E-02
         0.88125E-02
         0.88125E-02
         0.88125E-02
         0.88125E-02
         0.88125E-02
         0.88125E-02
         0.88125E-02
         0.88125E-02
         0.88125E-02
         0.88125E-02
         0.88125E-02
         0.88125E-02
         0.88125E-02
         0.88125E-02
         0.88125E-02
         0.88125E-02
         0.88125E-02
         0.88125E-02
         0.88125E-02
         0.88125E-02
         0.88125E-02
         0.88125E-02
         0.88125E-02
         0.88125E-02
         0.88125E-02
         0.88125E-02
         0.88125E-02
         0.88125E-02
         0.88125E-02
         0.88125E-02
         0.88125E-02
         0.88125E-02
         0.88125E-02
         0.88125E-02
         0.88125E-02
         0.88125E-02
         0.88125E-02
         0.88125E-02
         0.88125E-02
         0.88125E-02
         0.88125E-02
         0.88125E-02
         0.97917E-02
         0.97917E-02
         0.97917E-02
         0.97917E-02
         0.97917E-02
         0.97917E-02
         0.97917E-02
         0.97917E-02
         0.97917E-02
         0.97917E-02
         0.97917E-02
         0.97917E-02
         0.97917E-02
         0.97917E-02
         0.97917E-02
         0.97917E-02
         0.97917E-02
         0.97917E-02
         0.97917E-02
         0.97917E-02
         0.97917E-02
         0.97917E-02
         0.97917E-02
         0.97917E-02
         0.97917E-02
         0.97917E-02
         0.97917E-02
         0.97917E-02
         0.97917E-02
         0.97917E-02
         0.97917E-02
         0.97917E-02
         0.97917E-02
         0.97917E-02
         0.97917E-02
         0.97917E-02
         0.97917E-02
         0.97917E-02
         0.97917E-02
         0.97917E-02
         0.97917E-02
         0.97917E-02
         0.97917E-02
         0.97917E-02
         0.97917E-02
         0.97917E-02
         0.97917E-02
         0.97917E-02
         0.97917E-02
         0.97917E-02
         0.97917E-02
         0.97917E-02
         0.97917E-02
         0.97917E-02
         0.97917E-02
         0.97917E-02
         0.97917E-02
         0.97917E-02
         0.97917E-02
         0.97917E-02
         0.97917E-02
         0.97917E-02
         0.97917E-02
         0.97917E-02
         0.97917E-02
         0.97917E-02
         0.97917E-02
         0.97917E-02
         0.97917E-02
         0.97917E-02
         0.97917E-02
         0.97917E-02
         0.97917E-02
         0.97917E-02
         0.97917E-02
         0.97917E-02
         0.97917E-02
         0.97917E-02
         0.10771E-01
         0.10771E-01
         0.10771E-01
         0.10771E-01
         0.10771E-01
         0.10771E-01
         0.10771E-01
         0.10771E-01
         0.10771E-01
         0.10771E-01
         0.10771E-01
         0.10771E-01
         0.10771E-01
         0.10771E-01
         0.10771E-01
         0.10771E-01
         0.10771E-01
         0.10771E-01
         0.10771E-01
         0.10771E-01
         0.10771E-01
         0.10771E-01
         0.10771E-01
         0.10771E-01
         0.10771E-01
         0.10771E-01
         0.10771E-01
         0.10771E-01
         0.10771E-01
         0.10771E-01
         0.10771E-01
         0.10771E-01
         0.10771E-01
         0.10771E-01
         0.10771E-01
         0.10771E-01
         0.10771E-01
         0.10771E-01
         0.10771E-01
         0.10771E-01
         0.10771E-01
         0.10771E-01
         0.10771E-01
         0.10771E-01
         0.10771E-01
         0.10771E-01
         0.10771E-01
         0.10771E-01
         0.10771E-01
         0.10771E-01
         0.10771E-01
         0.10771E-01
         0.10771E-01
         0.10771E-01
         0.10771E-01
         0.10771E-01
         0.10771E-01
         0.10771E-01
         0.10771E-01
         0.10771E-01
         0.10771E-01
         0.10771E-01
         0.10771E-01
         0.10771E-01
         0.10771E-01
         0.10771E-01
         0.10771E-01
         0.10771E-01
         0.10771E-01
         0.10771E-01
         0.10771E-01
         0.10771E-01
         0.10771E-01
         0.10771E-01
         0.10771E-01
         0.10771E-01
         0.10771E-01
         0.10771E-01
         0.11750E-01
         0.11750E-01
         0.11750E-01
         0.11750E-01
         0.11750E-01
         0.11750E-01
         0.11750E-01
         0.11750E-01
         0.11750E-01
         0.11750E-01
         0.11750E-01
         0.11750E-01
         0.11750E-01
         0.11750E-01
         0.11750E-01
         0.11750E-01
         0.11750E-01
         0.11750E-01
         0.11750E-01
         0.11750E-01
         0.11750E-01
         0.11750E-01
         0.11750E-01
         0.11750E-01
         0.11750E-01
         0.11750E-01
         0.11750E-01
         0.11750E-01
         0.11750E-01
         0.11750E-01
         0.11750E-01
         0.11750E-01
         0.11750E-01
         0.11750E-01
         0.11750E-01
         0.11750E-01
         0.11750E-01
         0.11750E-01
         0.11750E-01
         0.11750E-01
         0.11750E-01
         0.11750E-01
         0.11750E-01
         0.11750E-01
         0.11750E-01
         0.11750E-01
         0.11750E-01
         0.11750E-01
         0.11750E-01
         0.11750E-01
         0.11750E-01
         0.11750E-01
         0.11750E-01
         0.11750E-01
         0.11750E-01
         0.11750E-01
         0.11750E-01
         0.11750E-01
         0.11750E-01
         0.11750E-01
         0.11750E-01
         0.11750E-01
         0.11750E-01
         0.11750E-01
         0.11750E-01
         0.11750E-01
         0.11750E-01
         0.11750E-01
         0.11750E-01
         0.11750E-01
         0.11750E-01
         0.11750E-01
         0.11750E-01
         0.11750E-01
         0.11750E-01
         0.11750E-01
         0.11750E-01
         0.11750E-01
  
SCALARS                init_velocity_x  double 1
LOOKUP_TABLE default
         0.00000E+00
         0.00000E+00
         0.00000E+00
         0.00000E+00
         0.00000E+00
         0.00000E+00
         0.00000E+00
         0.00000E+00
         0.00000E+00
         0.00000E+00
         0.00000E+00
         0.00000E+00
         0.00000E+00
         0.00000E+00
         0.00000E+00
         0.00000E+00
         0.00000E+00
         0.00000E+00
         0.00000E+00
         0.00000E+00
         0.00000E+00
         0.00000E+00
         0.00000E+00
         0.00000E+00
         0.00000E+00
         0.00000E+00
         0.00000E+00
         0.00000E+00
         0.00000E+00
         0.00000E+00
         0.00000E+00
         0.00000E+00
         0.00000E+00
         0.00000E+00
         0.00000E+00
         0.00000E+00
         0.00000E+00
         0.00000E+00
         0.00000E+00
         0.00000E+00
         0.00000E+00
         0.00000E+00
         0.00000E+00
         0.00000E+00
         0.00000E+00
         0.00000E+00
         0.00000E+00
         0.00000E+00
         0.00000E+00
         0.00000E+00
         0.00000E+00
         0.00000E+00
         0.00000E+00
         0.00000E+00
         0.00000E+00
         0.00000E+00
         0.00000E+00
         0.00000E+00
         0.00000E+00
         0.00000E+00
         0.00000E+00
         0.00000E+00
         0.00000E+00
         0.00000E+00
         0.00000E+00
         0.00000E+00
         0.00000E+00
         0.00000E+00
         0.00000E+00
         0.00000E+00
         0.00000E+00
         0.00000E+00
         0.00000E+00
         0.00000E+00
         0.00000E+00
         0.00000E+00
         0.00000E+00
         0.00000E+00
         0.00000E+00
         0.00000E+00
         0.00000E+00
         0.00000E+00
         0.00000E+00
         0.00000E+00
         0.00000E+00
         0.00000E+00
         0.00000E+00
         0.00000E+00
         0.00000E+00
         0.00000E+00
         0.00000E+00
         0.00000E+00
         0.00000E+00
         0.00000E+00
         0.00000E+00
         0.00000E+00
         0.00000E+00
         0.00000E+00
         0.00000E+00
         0.00000E+00
         0.00000E+00
         0.00000E+00
         0.00000E+00
         0.00000E+00
         0.00000E+00
         0.00000E+00
         0.00000E+00
         0.00000E+00
         0.00000E+00
         0.00000E+00
         0.00000E+00
         0.00000E+00
         0.00000E+00
         0.00000E+00
         0.00000E+00
         0.00000E+00
         0.00000E+00
         0.00000E+00
         0.00000E+00
         0.00000E+00
         0.00000E+00
         0.00000E+00
         0.00000E+00
         0.00000E+00
         0.00000E+00
         0.00000E+00
         0.00000E+00
         0.00000E+00
         0.00000E+00
         0.00000E+00
         0.00000E+00
         0.00000E+00
         0.00000E+00
         0.00000E+00
         0.00000E+00
         0.00000E+00
         0.00000E+00
         0.00000E+00
         0.00000E+00
         0.00000E+00
         0.00000E+00
         0.00000E+00
         0.00000E+00
         0.00000E+00
         0.00000E+00
         0.00000E+00
         0.00000E+00
         0.00000E+00
         0.00000E+00
         0.00000E+00
         0.00000E+00
         0.00000E+00
         0.00000E+00
         0.00000E+00
         0.00000E+00
         0.00000E+00
         0.00000E+00
         0.00000E+00
         0.00000E+00
         0.00000E+00
         0.00000E+00
         0.00000E+00
         0.00000E+00
         0.00000E+00
         0.00000E+00
         0.00000E+00
         0.00000E+00
         0.00000E+00
         0.00000E+00
         0.00000E+00
         0.00000E+00
         0.00000E+00
         0.00000E+00
         0.00000E+00
         0.00000E+00
         0.00000E+00
         0.00000E+00
         0.00000E+00
         0.00000E+00
         0.00000E+00
         0.00000E+00
         0.00000E+00
         0.00000E+00
         0.00000E+00
         0.00000E+00
         0.00000E+00
         0.00000E+00
         0.00000E+00
         0.00000E+00
         0.00000E+00
         0.00000E+00
         0.00000E+00
         0.00000E+00
         0.00000E+00
         0.00000E+00
         0.00000E+00
         0.00000E+00
         0.00000E+00
         0.00000E+00
         0.00000E+00
         0.00000E+00
         0.00000E+00
         0.00000E+00
         0.00000E+00
         0.00000E+00
         0.00000E+00
         0.00000E+00
         0.00000E+00
         0.00000E+00
         0.00000E+00
         0.00000E+00
         0.00000E+00
         0.00000E+00
         0.00000E+00
         0.00000E+00
         0.00000E+00
         0.00000E+00
         0.00000E+00
         0.00000E+00
         0.00000E+00
         0.00000E+00
         0.00000E+00
         0.00000E+00
         0.00000E+00
         0.00000E+00
         0.00000E+00
         0.00000E+00
         0.00000E+00
         0.00000E+00
         0.00000E+00
         0.00000E+00
         0.00000E+00
         0.00000E+00
         0.00000E+00
         0.00000E+00
         0.00000E+00
         0.00000E+00
         0.00000E+00
         0.00000E+00
         0.00000E+00
         0.00000E+00
         0.00000E+00
         0.00000E+00
         0.00000E+00
         0.00000E+00
         0.00000E+00
         0.00000E+00
         0.00000E+00
         0.00000E+00
         0.00000E+00
         0.00000E+00
         0.00000E+00
         0.00000E+00
         0.00000E+00
         0.00000E+00
         0.00000E+00
         0.00000E+00
         0.00000E+00
         0.00000E+00
         0.00000E+00
         0.00000E+00
         0.00000E+00
         0.00000E+00
         0.00000E+00
         0.00000E+00
         0.00000E+00
         0.00000E+00
         0.00000E+00
         0.00000E+00
         0.00000E+00
         0.00000E+00
         0.00000E+00
         0.00000E+00
         0.00000E+00
         0.00000E+00
         0.00000E+00
         0.00000E+00
         0.00000E+00
         0.00000E+00
         0.00000E+00
         0.00000E+00
         0.00000E+00
         0.00000E+00
         0.00000E+00
         0.00000E+00
         0.00000E+00
         0.00000E+00
         0.00000E+00
         0.00000E+00
         0.00000E+00
         0.00000E+00
         0.00000E+00
         0.00000E+00
         0.00000E+00
         0.00000E+00
         0.00000E+00
         0.00000E+00
         0.00000E+00
         0.00000E+00
         0.00000E+00
         0.00000E+00
         0.00000E+00
         0.00000E+00
         0.00000E+00
         0.00000E+00
         0.00000E+00
         0.00000E+00
         0.00000E+00
         0.00000E+00
         0.00000E+00
         0.00000E+00
         0.00000E+00
         0.00000E+00
         0.00000E+00
         0.00000E+00
         0.00000E+00
         0.00000E+00
         0.00000E+00
         0.00000E+00
         0.00000E+00
         0.00000E+00
         0.00000E+00
         0.00000E+00
         0.00000E+00
         0.00000E+00
         0.00000E+00
         0.00000E+00
         0.00000E+00
         0.00000E+00
         0.00000E+00
         0.00000E+00
         0.00000E+00
         0.00000E+00
         0.00000E+00
         0.00000E+00
         0.00000E+00
         0.00000E+00
         0.00000E+00
         0.00000E+00
         0.00000E+00
         0.00000E+00
         0.00000E+00
         0.00000E+00
         0.00000E+00
         0.00000E+00
         0.00000E+00
         0.00000E+00
         0.00000E+00
         0.00000E+00
         0.00000E+00
         0.00000E+00
         0.00000E+00
         0.00000E+00
         0.00000E+00
         0.00000E+00
         0.00000E+00
         0.00000E+00
         0.00000E+00
         0.00000E+00
         0.00000E+00
         0.00000E+00
         0.00000E+00
         0.00000E+00
         0.00000E+00
         0.00000E+00
         0.00000E+00
         0.00000E+00
         0.00000E+00
         0.00000E+00
         0.00000E+00
         0.00000E+00
         0.00000E+00
         0.00000E+00
         0.00000E+00
         0.00000E+00
         0.00000E+00
         0.00000E+00
         0.00000E+00
         0.00000E+00
         0.00000E+00
         0.00000E+00
         0.00000E+00
         0.00000E+00
         0.00000E+00
         0.00000E+00
         0.00000E+00
         0.00000E+00
         0.00000E+00
         0.00000E+00
         0.00000E+00
         0.00000E+00
         0.00000E+00
         0.00000E+00
         0.00000E+00
         0.00000E+00
         0.00000E+00
         0.00000E+00
         0.00000E+00
         0.00000E+00
         0.00000E+00
         0.00000E+00
         0.00000E+00
         0.00000E+00
         0.00000E+00
         0.00000E+00
         0.00000E+00
         0.00000E+00
         0.00000E+00
         0.00000E+00
         0.00000E+00
         0.00000E+00
         0.00000E+00
         0.00000E+00
         0.00000E+00
         0.00000E+00
         0.00000E+00
         0.00000E+00
         0.00000E+00
         0.00000E+00
         0.00000E+00
         0.00000E+00
         0.00000E+00
         0.00000E+00
         0.00000E+00
         0.00000E+00
         0.00000E+00
         0.00000E+00
         0.00000E+00
         0.00000E+00
         0.00000E+00
         0.00000E+00
         0.00000E+00
         0.00000E+00
         0.00000E+00
         0.00000E+00
         0.00000E+00
         0.00000E+00
         0.00000E+00
         0.00000E+00
         0.00000E+00
         0.00000E+00
         0.00000E+00
         0.00000E+00
         0.00000E+00
         0.00000E+00
         0.00000E+00
         0.00000E+00
         0.00000E+00
         0.00000E+00
         0.00000E+00
         0.00000E+00
         0.00000E+00
         0.00000E+00
         0.00000E+00
         0.00000E+00
         0.00000E+00
         0.00000E+00
         0.00000E+00
         0.00000E+00
         0.00000E+00
         0.00000E+00
         0.00000E+00
         0.00000E+00
         0.00000E+00
         0.00000E+00
         0.00000E+00
         0.00000E+00
         0.00000E+00
         0.00000E+00
         0.00000E+00
         0.00000E+00
         0.00000E+00
         0.00000E+00
         0.00000E+00
         0.00000E+00
         0.00000E+00
         0.00000E+00
         0.00000E+00
         0.00000E+00
         0.00000E+00
         0.00000E+00
         0.00000E+00
         0.00000E+00
         0.00000E+00
         0.00000E+00
         0.00000E+00
         0.00000E+00
         0.00000E+00
         0.00000E+00
         0.00000E+00
         0.00000E+00
         0.00000E+00
         0.00000E+00
         0.00000E+00
         0.00000E+00
         0.00000E+00
         0.00000E+00
         0.00000E+00
         0.00000E+00
         0.00000E+00
         0.00000E+00
         0.00000E+00
         0.00000E+00
         0.00000E+00
         0.00000E+00
         0.00000E+00
         0.00000E+00
         0.00000E+00
         0.00000E+00
         0.00000E+00
         0.00000E+00
         0.00000E+00
         0.00000E+00
         0.00000E+00
         0.00000E+00
         0.00000E+00
         0.00000E+00
         0.00000E+00
         0.00000E+00
         0.00000E+00
         0.00000E+00
         0.00000E+00
         0.00000E+00
         0.00000E+00
         0.00000E+00
         0.00000E+00
         0.00000E+00
         0.00000E+00
         0.00000E+00
         0.00000E+00
         0.00000E+00
         0.00000E+00
         0.00000E+00
         0.00000E+00
         0.00000E+00
         0.00000E+00
         0.00000E+00
         0.00000E+00
         0.00000E+00
         0.00000E+00
         0.00000E+00
         0.00000E+00
         0.00000E+00
         0.00000E+00
         0.00000E+00
         0.00000E+00
         0.00000E+00
         0.00000E+00
         0.00000E+00
         0.00000E+00
         0.00000E+00
         0.00000E+00
         0.00000E+00
         0.00000E+00
         0.00000E+00
         0.00000E+00
         0.00000E+00
         0.00000E+00
         0.00000E+00
         0.00000E+00
         0.00000E+00
         0.00000E+00
         0.00000E+00
         0.00000E+00
         0.00000E+00
         0.00000E+00
         0.00000E+00
         0.00000E+00
         0.00000E+00
         0.00000E+00
         0.00000E+00
         0.00000E+00
         0.00000E+00
         0.00000E+00
         0.00000E+00
         0.00000E+00
         0.00000E+00
         0.00000E+00
         0.00000E+00
         0.00000E+00
         0.00000E+00
         0.00000E+00
         0.00000E+00
         0.00000E+00
         0.00000E+00
         0.00000E+00
         0.00000E+00
         0.00000E+00
         0.00000E+00
         0.00000E+00
         0.00000E+00
         0.00000E+00
         0.00000E+00
         0.00000E+00
         0.00000E+00
         0.00000E+00
         0.00000E+00
         0.00000E+00
         0.00000E+00
         0.00000E+00
         0.00000E+00
         0.00000E+00
         0.00000E+00
         0.00000E+00
         0.00000E+00
         0.00000E+00
         0.00000E+00
         0.00000E+00
         0.00000E+00
         0.00000E+00
         0.00000E+00
         0.00000E+00
         0.00000E+00
         0.00000E+00
         0.00000E+00
         0.00000E+00
         0.00000E+00
         0.00000E+00
         0.00000E+00
         0.00000E+00
         0.00000E+00
         0.00000E+00
         0.00000E+00
         0.00000E+00
         0.00000E+00
         0.00000E+00
         0.00000E+00
         0.00000E+00
         0.00000E+00
         0.00000E+00
         0.00000E+00
         0.00000E+00
         0.00000E+00
         0.00000E+00
         0.00000E+00
         0.00000E+00
         0.00000E+00
         0.00000E+00
         0.00000E+00
         0.00000E+00
         0.00000E+00
         0.00000E+00
         0.00000E+00
         0.00000E+00
         0.00000E+00
         0.00000E+00
         0.00000E+00
         0.00000E+00
         0.00000E+00
         0.00000E+00
         0.00000E+00
         0.00000E+00
         0.00000E+00
         0.00000E+00
         0.00000E+00
         0.00000E+00
         0.00000E+00
         0.00000E+00
         0.00000E+00
         0.00000E+00
         0.00000E+00
         0.00000E+00
         0.00000E+00
         0.00000E+00
         0.00000E+00
         0.00000E+00
         0.00000E+00
         0.00000E+00
         0.00000E+00
         0.00000E+00
         0.00000E+00
         0.00000E+00
         0.00000E+00
         0.00000E+00
         0.00000E+00
         0.00000E+00
         0.00000E+00
         0.00000E+00
         0.00000E+00
         0.00000E+00
         0.00000E+00
         0.00000E+00
         0.00000E+00
         0.00000E+00
         0.00000E+00
         0.00000E+00
         0.00000E+00
         0.00000E+00
         0.00000E+00
         0.00000E+00
         0.00000E+00
         0.00000E+00
         0.00000E+00
         0.00000E+00
         0.00000E+00
         0.00000E+00
         0.00000E+00
         0.00000E+00
         0.00000E+00
         0.00000E+00
         0.00000E+00
         0.00000E+00
         0.00000E+00
         0.00000E+00
         0.00000E+00
         0.00000E+00
         0.00000E+00
         0.00000E+00
         0.00000E+00
         0.00000E+00
         0.00000E+00
         0.00000E+00
         0.00000E+00
         0.00000E+00
         0.00000E+00
         0.00000E+00
         0.00000E+00
         0.00000E+00
         0.00000E+00
         0.00000E+00
         0.00000E+00
         0.00000E+00
         0.00000E+00
         0.00000E+00
         0.00000E+00
         0.00000E+00
         0.00000E+00
         0.00000E+00
         0.00000E+00
         0.00000E+00
         0.00000E+00
         0.00000E+00
         0.00000E+00
         0.00000E+00
         0.00000E+00
         0.00000E+00
         0.00000E+00
         0.00000E+00
         0.00000E+00
         0.00000E+00
         0.00000E+00
         0.00000E+00
         0.00000E+00
         0.00000E+00
         0.00000E+00
         0.00000E+00
         0.00000E+00
         0.00000E+00
         0.00000E+00
         0.00000E+00
         0.00000E+00
         0.00000E+00
         0.00000E+00
         0.00000E+00
         0.00000E+00
         0.00000E+00
         0.00000E+00
         0.00000E+00
         0.00000E+00
         0.00000E+00
         0.00000E+00
         0.00000E+00
         0.00000E+00
         0.00000E+00
         0.00000E+00
         0.00000E+00
         0.00000E+00
         0.00000E+00
         0.00000E+00
         0.00000E+00
         0.00000E+00
         0.00000E+00
         0.00000E+00
         0.00000E+00
         0.00000E+00
         0.00000E+00
         0.00000E+00
         0.00000E+00
         0.00000E+00
         0.00000E+00
         0.00000E+00
         0.00000E+00
         0.00000E+00
         0.00000E+00
         0.00000E+00
         0.00000E+00
         0.00000E+00
         0.00000E+00
         0.00000E+00
         0.00000E+00
         0.00000E+00
         0.00000E+00
         0.00000E+00
         0.00000E+00
         0.00000E+00
         0.00000E+00
         0.00000E+00
         0.00000E+00
         0.00000E+00
         0.00000E+00
         0.00000E+00
         0.00000E+00
         0.00000E+00
         0.00000E+00
         0.00000E+00
         0.00000E+00
         0.00000E+00
         0.00000E+00
         0.00000E+00
         0.00000E+00
         0.00000E+00
         0.00000E+00
         0.00000E+00
         0.00000E+00
         0.00000E+00
         0.00000E+00
         0.00000E+00
         0.00000E+00
         0.00000E+00
         0.00000E+00
         0.00000E+00
         0.00000E+00
         0.00000E+00
         0.00000E+00
         0.00000E+00
         0.00000E+00
         0.00000E+00
         0.00000E+00
         0.00000E+00
         0.00000E+00
         0.00000E+00
         0.00000E+00
         0.00000E+00
         0.00000E+00
         0.00000E+00
         0.00000E+00
         0.00000E+00
         0.00000E+00
         0.00000E+00
         0.00000E+00
         0.00000E+00
         0.00000E+00
         0.00000E+00
         0.00000E+00
         0.00000E+00
         0.00000E+00
         0.00000E+00
         0.00000E+00
         0.00000E+00
         0.00000E+00
         0.00000E+00
         0.00000E+00
         0.00000E+00
         0.00000E+00
         0.00000E+00
         0.00000E+00
         0.00000E+00
         0.00000E+00
         0.00000E+00
         0.00000E+00
         0.00000E+00
         0.00000E+00
         0.00000E+00
         0.00000E+00
         0.00000E+00
         0.00000E+00
         0.00000E+00
         0.00000E+00
         0.00000E+00
         0.00000E+00
         0.00000E+00
         0.00000E+00
         0.00000E+00
         0.00000E+00
         0.00000E+00
         0.00000E+00
         0.00000E+00
         0.00000E+00
         0.00000E+00
         0.00000E+00
         0.00000E+00
         0.00000E+00
         0.00000E+00
         0.00000E+00
         0.00000E+00
         0.00000E+00
         0.00000E+00
         0.00000E+00
         0.00000E+00
         0.00000E+00
         0.00000E+00
         0.00000E+00
         0.00000E+00
         0.00000E+00
         0.00000E+00
         0.00000E+00
         0.00000E+00
         0.00000E+00
         0.00000E+00
         0.00000E+00
         0.00000E+00
         0.00000E+00
         0.00000E+00
         0.00000E+00
         0.00000E+00
         0.00000E+00
         0.00000E+00
         0.00000E+00
         0.00000E+00
         0.00000E+00
         0.00000E+00
         0.00000E+00
         0.00000E+00
         0.00000E+00
         0.00000E+00
         0.00000E+00
         0.00000E+00
         0.00000E+00
         0.00000E+00
         0.00000E+00
         0.00000E+00
         0.00000E+00
         0.00000E+00
         0.00000E+00
         0.00000E+00
         0.00000E+00
         0.00000E+00
         0.00000E+00
         0.00000E+00
         0.00000E+00
         0.00000E+00
         0.00000E+00
         0.00000E+00
         0.00000E+00
         0.00000E+00
         0.00000E+00
         0.00000E+00
         0.00000E+00
         0.00000E+00
         0.00000E+00
         0.00000E+00
         0.00000E+00
         0.00000E+00
         0.00000E+00
         0.00000E+00
         0.00000E+00
         0.00000E+00
         0.00000E+00
         0.00000E+00
         0.00000E+00
         0.00000E+00
         0.00000E+00
         0.00000E+00
         0.00000E+00
         0.00000E+00
         0.00000E+00
         0.00000E+00
         0.00000E+00
         0.00000E+00
         0.00000E+00
         0.00000E+00
         0.00000E+00
         0.00000E+00
         0.00000E+00
         0.00000E+00
         0.00000E+00
         0.00000E+00
         0.00000E+00
         0.00000E+00
         0.00000E+00
         0.00000E+00
         0.00000E+00
         0.00000E+00
         0.00000E+00
         0.00000E+00
         0.00000E+00
         0.00000E+00
         0.00000E+00
         0.00000E+00
         0.00000E+00
         0.00000E+00
         0.00000E+00
         0.00000E+00
         0.00000E+00
         0.00000E+00
         0.00000E+00
         0.00000E+00
         0.00000E+00
         0.00000E+00
         0.00000E+00
         0.00000E+00
         0.00000E+00
         0.00000E+00
         0.00000E+00
         0.00000E+00
         0.00000E+00
         0.00000E+00
         0.00000E+00
         0.00000E+00
         0.00000E+00
         0.00000E+00
         0.00000E+00
         0.00000E+00
         0.00000E+00
         0.00000E+00
         0.00000E+00
         0.00000E+00
         0.00000E+00
         0.00000E+00
         0.00000E+00
         0.00000E+00
         0.00000E+00
         0.00000E+00
         0.00000E+00
         0.00000E+00
         0.00000E+00
         0.00000E+00
         0.00000E+00
         0.00000E+00
         0.00000E+00
         0.00000E+00
         0.00000E+00
         0.00000E+00
         0.00000E+00
         0.00000E+00
         0.00000E+00
         0.00000E+00
         0.00000E+00
         0.00000E+00
         0.00000E+00
         0.00000E+00
         0.00000E+00
         0.00000E+00
         0.00000E+00
         0.00000E+00
         0.00000E+00
         0.00000E+00
         0.00000E+00
         0.00000E+00
         0.00000E+00
         0.00000E+00
         0.00000E+00
         0.00000E+00
         0.00000E+00
         0.00000E+00
         0.00000E+00
         0.00000E+00
         0.00000E+00
         0.00000E+00
         0.00000E+00
         0.00000E+00
         0.00000E+00
         0.00000E+00
         0.00000E+00
         0.00000E+00
         0.00000E+00
         0.00000E+00
         0.00000E+00
         0.00000E+00
         0.00000E+00
         0.00000E+00
         0.00000E+00
         0.00000E+00
         0.00000E+00
         0.00000E+00
         0.00000E+00
         0.00000E+00
         0.00000E+00
         0.00000E+00
         0.00000E+00
         0.00000E+00
         0.00000E+00
         0.00000E+00
         0.00000E+00
         0.00000E+00
         0.00000E+00
         0.00000E+00
         0.00000E+00
         0.00000E+00
         0.00000E+00
         0.00000E+00
         0.00000E+00
         0.00000E+00
         0.00000E+00
         0.00000E+00
         0.00000E+00
         0.00000E+00
         0.00000E+00
         0.00000E+00
         0.00000E+00
         0.00000E+00
         0.00000E+00
         0.00000E+00
         0.00000E+00
         0.00000E+00
         0.00000E+00
         0.00000E+00
         0.00000E+00
         0.00000E+00
         0.00000E+00
         0.00000E+00
         0.00000E+00
         0.00000E+00
         0.00000E+00
         0.00000E+00
         0.00000E+00
         0.00000E+00
         0.00000E+00
         0.00000E+00
         0.00000E+00
         0.00000E+00
         0.00000E+00
         0.00000E+00
         0.00000E+00
         0.00000E+00
         0.00000E+00
         0.00000E+00
         0.00000E+00
         0.00000E+00
         0.00000E+00
         0.00000E+00
         0.00000E+00
         0.00000E+00
         0.00000E+00
         0.00000E+00
         0.00000E+00
         0.00000E+00
         0.00000E+00
         0.00000E+00
         0.00000E+00
         0.00000E+00
         0.00000E+00
         0.00000E+00
         0.00000E+00
         0.00000E+00
         0.00000E+00
         0.00000E+00
         0.00000E+00
         0.00000E+00
         0.00000E+00
         0.00000E+00
         0.00000E+00
         0.00000E+00
         0.00000E+00
         0.00000E+00
         0.00000E+00
         0.00000E+00
         0.00000E+00
         0.00000E+00
         0.00000E+00
         0.00000E+00
         0.00000E+00
         0.00000E+00
         0.00000E+00
         0.00000E+00
         0.00000E+00
         0.00000E+00
         0.00000E+00
         0.00000E+00
         0.00000E+00
         0.00000E+00
         0.00000E+00
         0.00000E+00
         0.00000E+00
         0.00000E+00
         0.00000E+00
         0.00000E+00
         0.00000E+00
         0.00000E+00
         0.00000E+00
         0.00000E+00
         0.00000E+00
         0.00000E+00
         0.00000E+00
         0.00000E+00
         0.00000E+00
         0.00000E+00
         0.00000E+00
         0.00000E+00
         0.00000E+00
         0.00000E+00
         0.00000E+00
         0.00000E+00
         0.00000E+00
         0.00000E+00
         0.00000E+00
         0.00000E+00
         0.00000E+00
         0.00000E+00
         0.00000E+00
         0.00000E+00
         0.00000E+00
         0.00000E+00
         0.00000E+00
         0.00000E+00
         0.00000E+00
         0.00000E+00
         0.00000E+00
         0.00000E+00
         0.00000E+00
         0.00000E+00
         0.00000E+00
         0.00000E+00
         0.00000E+00
         0.00000E+00
         0.00000E+00
         0.00000E+00
         0.00000E+00
         0.00000E+00
         0.00000E+00
         0.00000E+00
         0.00000E+00
         0.00000E+00
         0.00000E+00
         0.00000E+00
         0.00000E+00
         0.00000E+00
         0.00000E+00
         0.00000E+00
         0.00000E+00
         0.00000E+00
         0.00000E+00
         0.00000E+00
         0.00000E+00
         0.00000E+00
         0.00000E+00
         0.00000E+00
         0.00000E+00
         0.00000E+00
         0.00000E+00
         0.00000E+00
         0.00000E+00
         0.00000E+00
         0.00000E+00
         0.00000E+00
         0.00000E+00
         0.00000E+00
         0.00000E+00
         0.00000E+00
         0.00000E+00
         0.00000E+00
         0.00000E+00
         0.00000E+00
         0.00000E+00
         0.00000E+00
         0.00000E+00
         0.00000E+00
         0.00000E+00
         0.00000E+00
         0.00000E+00
         0.00000E+00
         0.00000E+00
         0.00000E+00
         0.00000E+00
         0.00000E+00
         0.00000E+00
         0.00000E+00
         0.00000E+00
         0.00000E+00
         0.00000E+00
         0.00000E+00
         0.00000E+00
         0.00000E+00
         0.00000E+00
         0.00000E+00
         0.00000E+00
         0.00000E+00
         0.00000E+00
         0.00000E+00
         0.00000E+00
         0.00000E+00
         0.00000E+00
         0.00000E+00
         0.00000E+00
         0.00000E+00
         0.00000E+00
         0.00000E+00
         0.00000E+00
         0.00000E+00
         0.00000E+00
         0.00000E+00
         0.00000E+00
         0.00000E+00
         0.00000E+00
         0.00000E+00
         0.00000E+00
         0.00000E+00
         0.00000E+00
         0.00000E+00
         0.00000E+00
         0.00000E+00
         0.00000E+00
         0.00000E+00
         0.00000E+00
         0.00000E+00
         0.00000E+00
         0.00000E+00
         0.00000E+00
         0.00000E+00
         0.00000E+00
         0.00000E+00
         0.00000E+00
         0.00000E+00
         0.00000E+00
         0.00000E+00
         0.00000E+00
         0.00000E+00
         0.00000E+00
         0.00000E+00
         0.00000E+00
         0.00000E+00
         0.00000E+00
         0.00000E+00
         0.00000E+00
         0.00000E+00
         0.00000E+00
         0.00000E+00
         0.00000E+00
         0.00000E+00
         0.00000E+00
         0.00000E+00
         0.00000E+00
         0.00000E+00
         0.00000E+00
         0.00000E+00
         0.00000E+00
         0.00000E+00
         0.00000E+00
         0.00000E+00
         0.00000E+00
         0.00000E+00
         0.00000E+00
         0.00000E+00
         0.00000E+00
         0.00000E+00
         0.00000E+00
         0.00000E+00
         0.00000E+00
         0.00000E+00
         0.00000E+00
         0.00000E+00
         0.00000E+00
         0.00000E+00
         0.00000E+00
         0.00000E+00
         0.00000E+00
         0.00000E+00
         0.00000E+00
         0.00000E+00
         0.00000E+00
         0.00000E+00
         0.00000E+00
         0.00000E+00
         0.00000E+00
         0.00000E+00
         0.00000E+00
         0.00000E+00
         0.00000E+00
         0.00000E+00
         0.00000E+00
         0.00000E+00
         0.00000E+00
         0.00000E+00
         0.00000E+00
         0.00000E+00
         0.00000E+00
         0.00000E+00
         0.00000E+00
         0.00000E+00
         0.00000E+00
         0.00000E+00
         0.00000E+00
         0.00000E+00
         0.00000E+00
         0.00000E+00
         0.00000E+00
         0.00000E+00
         0.00000E+00
         0.00000E+00
         0.00000E+00
         0.00000E+00
         0.00000E+00
         0.00000E+00
         0.00000E+00
         0.00000E+00
         0.00000E+00
         0.00000E+00
         0.00000E+00
         0.00000E+00
         0.00000E+00
         0.00000E+00
         0.00000E+00
         0.00000E+00
         0.00000E+00
         0.00000E+00
         0.00000E+00
         0.00000E+00
         0.00000E+00
         0.00000E+00
         0.00000E+00
         0.00000E+00
         0.00000E+00
         0.00000E+00
         0.00000E+00
         0.00000E+00
         0.00000E+00
         0.00000E+00
         0.00000E+00
         0.00000E+00
         0.00000E+00
         0.00000E+00
         0.00000E+00
         0.00000E+00
         0.00000E+00
         0.00000E+00
         0.00000E+00
         0.00000E+00
         0.00000E+00
         0.00000E+00
         0.00000E+00
         0.00000E+00
         0.00000E+00
         0.00000E+00
         0.00000E+00
         0.00000E+00
         0.00000E+00
         0.00000E+00
         0.00000E+00
         0.00000E+00
         0.00000E+00
         0.00000E+00
         0.00000E+00
         0.00000E+00
         0.00000E+00
         0.00000E+00
         0.00000E+00
         0.00000E+00
         0.00000E+00
         0.00000E+00
         0.00000E+00
         0.00000E+00
         0.00000E+00
         0.00000E+00
         0.00000E+00
         0.00000E+00
         0.00000E+00
         0.00000E+00
         0.00000E+00
         0.00000E+00
         0.00000E+00
         0.00000E+00
         0.00000E+00
         0.00000E+00
         0.00000E+00
         0.00000E+00
         0.00000E+00
         0.00000E+00
         0.00000E+00
         0.00000E+00
         0.00000E+00
         0.00000E+00
         0.00000E+00
         0.00000E+00
         0.00000E+00
         0.00000E+00
         0.00000E+00
         0.00000E+00
         0.00000E+00
         0.00000E+00
         0.00000E+00
         0.00000E+00
         0.00000E+00
         0.00000E+00
         0.00000E+00
         0.00000E+00
         0.00000E+00
         0.00000E+00
         0.00000E+00
         0.00000E+00
         0.00000E+00
         0.00000E+00
         0.00000E+00
         0.00000E+00
         0.00000E+00
         0.00000E+00
         0.00000E+00
         0.00000E+00
         0.00000E+00
         0.00000E+00
         0.00000E+00
         0.00000E+00
         0.00000E+00
         0.00000E+00
         0.00000E+00
         0.00000E+00
         0.00000E+00
         0.00000E+00
         0.00000E+00
         0.00000E+00
         0.00000E+00
         0.00000E+00
         0.00000E+00
         0.00000E+00
         0.00000E+00
         0.00000E+00
         0.00000E+00
         0.00000E+00
         0.00000E+00
         0.00000E+00
         0.00000E+00
         0.00000E+00
         0.00000E+00
         0.00000E+00
         0.00000E+00
         0.00000E+00
         0.00000E+00
         0.00000E+00
         0.00000E+00
         0.00000E+00
         0.00000E+00
         0.00000E+00
         0.00000E+00
         0.00000E+00
         0.00000E+00
         0.00000E+00
         0.00000E+00
         0.00000E+00
         0.00000E+00
         0.00000E+00
         0.00000E+00
         0.00000E+00
         0.00000E+00
         0.00000E+00
         0.00000E+00
         0.00000E+00
         0.00000E+00
         0.00000E+00
         0.00000E+00
         0.00000E+00
         0.00000E+00
         0.00000E+00
         0.00000E+00
         0.00000E+00
         0.00000E+00
         0.00000E+00
         0.00000E+00
         0.00000E+00
         0.00000E+00
         0.00000E+00
         0.00000E+00
         0.00000E+00
         0.00000E+00
         0.00000E+00
         0.00000E+00
         0.00000E+00
         0.00000E+00
         0.00000E+00
         0.00000E+00
         0.00000E+00
         0.00000E+00
         0.00000E+00
         0.00000E+00
         0.00000E+00
         0.00000E+00
         0.00000E+00
         0.00000E+00
         0.00000E+00
         0.00000E+00
         0.00000E+00
         0.00000E+00
         0.00000E+00
         0.00000E+00
         0.00000E+00
         0.00000E+00
         0.00000E+00
         0.00000E+00
         0.00000E+00
         0.00000E+00
         0.00000E+00
         0.00000E+00
         0.00000E+00
         0.00000E+00
         0.00000E+00
         0.00000E+00
         0.00000E+00
         0.00000E+00
         0.00000E+00
         0.00000E+00
         0.00000E+00
         0.00000E+00
         0.00000E+00
         0.00000E+00
         0.00000E+00
         0.00000E+00
         0.00000E+00
         0.00000E+00
         0.00000E+00
         0.00000E+00
         0.00000E+00
         0.00000E+00
         0.00000E+00
         0.00000E+00
         0.00000E+00
         0.00000E+00
         0.00000E+00
         0.00000E+00
         0.00000E+00
         0.00000E+00
         0.00000E+00
         0.00000E+00
         0.00000E+00
         0.00000E+00
         0.00000E+00
         0.00000E+00
         0.00000E+00
         0.00000E+00
         0.00000E+00
         0.00000E+00
         0.00000E+00
         0.00000E+00
         0.00000E+00
         0.00000E+00
         0.00000E+00
         0.00000E+00
         0.00000E+00
         0.00000E+00
         0.00000E+00
         0.00000E+00
         0.00000E+00
         0.00000E+00
         0.00000E+00
         0.00000E+00
         0.00000E+00
         0.00000E+00
         0.00000E+00
         0.00000E+00
         0.00000E+00
         0.00000E+00
         0.00000E+00
         0.00000E+00
         0.00000E+00
         0.00000E+00
         0.00000E+00
         0.00000E+00
         0.00000E+00
         0.00000E+00
         0.00000E+00
         0.00000E+00
         0.00000E+00
         0.00000E+00
         0.00000E+00
         0.00000E+00
         0.00000E+00
         0.00000E+00
         0.00000E+00
         0.00000E+00
         0.00000E+00
         0.00000E+00
         0.00000E+00
         0.00000E+00
         0.00000E+00
         0.00000E+00
         0.00000E+00
         0.00000E+00
         0.00000E+00
         0.00000E+00
         0.00000E+00
         0.00000E+00
         0.00000E+00
         0.00000E+00
         0.00000E+00
         0.00000E+00
         0.00000E+00
         0.00000E+00
         0.00000E+00
         0.00000E+00
         0.00000E+00
         0.00000E+00
         0.00000E+00
         0.00000E+00
         0.00000E+00
         0.00000E+00
         0.00000E+00
         0.00000E+00
         0.00000E+00
         0.00000E+00
         0.00000E+00
         0.00000E+00
         0.00000E+00
         0.00000E+00
         0.00000E+00
         0.00000E+00
         0.00000E+00
         0.00000E+00
         0.00000E+00
         0.00000E+00
         0.00000E+00
         0.00000E+00
         0.00000E+00
         0.00000E+00
         0.00000E+00
         0.00000E+00
         0.00000E+00
         0.00000E+00
         0.00000E+00
         0.00000E+00
         0.00000E+00
         0.00000E+00
         0.00000E+00
         0.00000E+00
         0.00000E+00
         0.00000E+00
         0.00000E+00
         0.00000E+00
         0.00000E+00
         0.00000E+00
         0.00000E+00
         0.00000E+00
         0.00000E+00
         0.00000E+00
         0.00000E+00
         0.00000E+00
         0.00000E+00
         0.00000E+00
         0.00000E+00
         0.00000E+00
         0.00000E+00
         0.00000E+00
         0.00000E+00
         0.00000E+00
         0.00000E+00
         0.00000E+00
         0.00000E+00
         0.00000E+00
         0.00000E+00
         0.00000E+00
         0.00000E+00
         0.00000E+00
         0.00000E+00
         0.00000E+00
         0.00000E+00
         0.00000E+00
         0.00000E+00
         0.00000E+00
         0.00000E+00
         0.00000E+00
         0.00000E+00
         0.00000E+00
         0.00000E+00
         0.00000E+00
         0.00000E+00
         0.00000E+00
         0.00000E+00
         0.00000E+00
         0.00000E+00
         0.00000E+00
         0.00000E+00
         0.00000E+00
         0.00000E+00
         0.00000E+00
         0.00000E+00
         0.00000E+00
         0.00000E+00
         0.00000E+00
         0.00000E+00
         0.00000E+00
         0.00000E+00
         0.00000E+00
         0.00000E+00
         0.00000E+00
         0.00000E+00
         0.00000E+00
         0.00000E+00
         0.00000E+00
         0.00000E+00
         0.00000E+00
         0.00000E+00
         0.00000E+00
         0.00000E+00
         0.00000E+00
         0.00000E+00
         0.00000E+00
         0.00000E+00
         0.00000E+00
         0.00000E+00
         0.00000E+00
         0.00000E+00
         0.00000E+00
         0.00000E+00
         0.00000E+00
         0.00000E+00
         0.00000E+00
         0.00000E+00
         0.00000E+00
         0.00000E+00
         0.00000E+00
         0.00000E+00
         0.00000E+00
         0.00000E+00
         0.00000E+00
         0.00000E+00
         0.00000E+00
         0.00000E+00
         0.00000E+00
         0.00000E+00
         0.00000E+00
         0.00000E+00
         0.00000E+00
         0.00000E+00
         0.00000E+00
         0.00000E+00
         0.00000E+00
         0.00000E+00
         0.00000E+00
         0.00000E+00
         0.00000E+00
         0.00000E+00
         0.00000E+00
         0.00000E+00
         0.00000E+00
         0.00000E+00
         0.00000E+00
         0.00000E+00
         0.00000E+00
         0.00000E+00
         0.00000E+00
         0.00000E+00
         0.00000E+00
         0.00000E+00
         0.00000E+00
         0.00000E+00
         0.00000E+00
         0.00000E+00
         0.00000E+00
         0.00000E+00
         0.00000E+00
         0.00000E+00
         0.00000E+00
         0.00000E+00
         0.00000E+00
         0.00000E+00
         0.00000E+00
         0.00000E+00
         0.00000E+00
         0.00000E+00
         0.00000E+00
         0.00000E+00
         0.00000E+00
         0.00000E+00
         0.00000E+00
         0.00000E+00
         0.00000E+00
         0.00000E+00
         0.00000E+00
         0.00000E+00
         0.00000E+00
         0.00000E+00
         0.00000E+00
         0.00000E+00
         0.00000E+00
         0.00000E+00
         0.00000E+00
         0.00000E+00
         0.00000E+00
         0.00000E+00
         0.00000E+00
         0.00000E+00
         0.00000E+00
         0.00000E+00
         0.00000E+00
         0.00000E+00
         0.00000E+00
         0.00000E+00
         0.00000E+00
         0.00000E+00
         0.00000E+00
         0.00000E+00
         0.00000E+00
         0.00000E+00
         0.00000E+00
         0.00000E+00
         0.00000E+00
         0.00000E+00
         0.00000E+00
         0.00000E+00
         0.00000E+00
         0.00000E+00
         0.00000E+00
         0.00000E+00
         0.00000E+00
         0.00000E+00
         0.00000E+00
         0.00000E+00
         0.00000E+00
         0.00000E+00
         0.00000E+00
         0.00000E+00
         0.00000E+00
         0.00000E+00
         0.00000E+00
         0.00000E+00
         0.00000E+00
         0.00000E+00
         0.00000E+00
         0.00000E+00
         0.00000E+00
         0.00000E+00
         0.00000E+00
         0.00000E+00
         0.00000E+00
         0.00000E+00
         0.00000E+00
         0.00000E+00
         0.00000E+00
         0.00000E+00
         0.00000E+00
         0.00000E+00
         0.00000E+00
         0.00000E+00
         0.00000E+00
         0.00000E+00
         0.00000E+00
         0.00000E+00
         0.00000E+00
         0.00000E+00
         0.00000E+00
         0.00000E+00
         0.00000E+00
         0.00000E+00
         0.00000E+00
         0.00000E+00
         0.00000E+00
         0.00000E+00
         0.00000E+00
         0.00000E+00
         0.00000E+00
         0.00000E+00
         0.00000E+00
         0.00000E+00
         0.00000E+00
         0.00000E+00
         0.00000E+00
         0.00000E+00
         0.00000E+00
         0.00000E+00
         0.00000E+00
         0.00000E+00
         0.00000E+00
         0.00000E+00
         0.00000E+00
  
SCALARS                init_velocity_y  double 1
LOOKUP_TABLE default
         0.00000E+00
         0.00000E+00
         0.00000E+00
         0.00000E+00
         0.00000E+00
         0.00000E+00
         0.00000E+00
         0.00000E+00
         0.00000E+00
         0.00000E+00
         0.00000E+00
         0.00000E+00
         0.00000E+00
         0.00000E+00
         0.00000E+00
         0.00000E+00
         0.00000E+00
         0.00000E+00
         0.00000E+00
         0.00000E+00
         0.00000E+00
         0.00000E+00
         0.00000E+00
         0.00000E+00
         0.00000E+00
         0.00000E+00
         0.00000E+00
         0.00000E+00
         0.00000E+00
         0.00000E+00
         0.00000E+00
         0.00000E+00
         0.00000E+00
         0.00000E+00
         0.00000E+00
         0.00000E+00
         0.00000E+00
         0.00000E+00
         0.00000E+00
         0.00000E+00
         0.00000E+00
         0.00000E+00
         0.00000E+00
         0.00000E+00
         0.00000E+00
         0.00000E+00
         0.00000E+00
         0.00000E+00
         0.00000E+00
         0.00000E+00
         0.00000E+00
         0.00000E+00
         0.00000E+00
         0.00000E+00
         0.00000E+00
         0.00000E+00
         0.00000E+00
         0.00000E+00
         0.00000E+00
         0.00000E+00
         0.00000E+00
         0.00000E+00
         0.00000E+00
         0.00000E+00
         0.00000E+00
         0.00000E+00
         0.00000E+00
         0.00000E+00
         0.00000E+00
         0.00000E+00
         0.00000E+00
         0.00000E+00
         0.00000E+00
         0.00000E+00
         0.00000E+00
         0.00000E+00
         0.00000E+00
         0.00000E+00
         0.00000E+00
         0.00000E+00
         0.00000E+00
         0.00000E+00
         0.00000E+00
         0.00000E+00
         0.00000E+00
         0.00000E+00
         0.00000E+00
         0.00000E+00
         0.00000E+00
         0.00000E+00
         0.00000E+00
         0.00000E+00
         0.00000E+00
         0.00000E+00
         0.00000E+00
         0.00000E+00
         0.00000E+00
         0.00000E+00
         0.00000E+00
         0.00000E+00
         0.00000E+00
         0.00000E+00
         0.00000E+00
         0.00000E+00
         0.00000E+00
         0.00000E+00
         0.00000E+00
         0.00000E+00
         0.00000E+00
         0.00000E+00
         0.00000E+00
         0.00000E+00
         0.00000E+00
         0.00000E+00
         0.00000E+00
         0.00000E+00
         0.00000E+00
         0.00000E+00
         0.00000E+00
         0.00000E+00
         0.00000E+00
         0.00000E+00
         0.00000E+00
         0.00000E+00
         0.00000E+00
         0.00000E+00
         0.00000E+00
         0.00000E+00
         0.00000E+00
         0.00000E+00
         0.00000E+00
         0.00000E+00
         0.00000E+00
         0.00000E+00
         0.00000E+00
         0.00000E+00
         0.00000E+00
         0.00000E+00
         0.00000E+00
         0.00000E+00
         0.00000E+00
         0.00000E+00
         0.00000E+00
         0.00000E+00
         0.00000E+00
         0.00000E+00
         0.00000E+00
         0.00000E+00
         0.00000E+00
         0.00000E+00
         0.00000E+00
         0.00000E+00
         0.00000E+00
         0.00000E+00
         0.00000E+00
         0.00000E+00
         0.00000E+00
         0.00000E+00
         0.00000E+00
         0.00000E+00
         0.00000E+00
         0.00000E+00
         0.00000E+00
         0.00000E+00
         0.00000E+00
         0.00000E+00
         0.00000E+00
         0.00000E+00
         0.00000E+00
         0.00000E+00
         0.00000E+00
         0.00000E+00
         0.00000E+00
         0.00000E+00
         0.00000E+00
         0.00000E+00
         0.00000E+00
         0.00000E+00
         0.00000E+00
         0.00000E+00
         0.00000E+00
         0.00000E+00
         0.00000E+00
         0.00000E+00
         0.00000E+00
         0.00000E+00
         0.00000E+00
         0.00000E+00
         0.00000E+00
         0.00000E+00
         0.00000E+00
         0.00000E+00
         0.00000E+00
         0.00000E+00
         0.00000E+00
         0.00000E+00
         0.00000E+00
         0.00000E+00
         0.00000E+00
         0.00000E+00
         0.00000E+00
         0.00000E+00
         0.00000E+00
         0.00000E+00
         0.00000E+00
         0.00000E+00
         0.00000E+00
         0.00000E+00
         0.00000E+00
         0.00000E+00
         0.00000E+00
         0.00000E+00
         0.00000E+00
         0.00000E+00
         0.00000E+00
         0.00000E+00
         0.00000E+00
         0.00000E+00
         0.00000E+00
         0.00000E+00
         0.00000E+00
         0.00000E+00
         0.00000E+00
         0.00000E+00
         0.00000E+00
         0.00000E+00
         0.00000E+00
         0.00000E+00
         0.00000E+00
         0.00000E+00
         0.00000E+00
         0.00000E+00
         0.00000E+00
         0.00000E+00
         0.00000E+00
         0.00000E+00
         0.00000E+00
         0.00000E+00
         0.00000E+00
         0.00000E+00
         0.00000E+00
         0.00000E+00
         0.00000E+00
         0.00000E+00
         0.00000E+00
         0.00000E+00
         0.00000E+00
         0.00000E+00
         0.00000E+00
         0.00000E+00
         0.00000E+00
         0.00000E+00
         0.00000E+00
         0.00000E+00
         0.00000E+00
         0.00000E+00
         0.00000E+00
         0.00000E+00
         0.00000E+00
         0.00000E+00
         0.00000E+00
         0.00000E+00
         0.00000E+00
         0.00000E+00
         0.00000E+00
         0.00000E+00
         0.00000E+00
         0.00000E+00
         0.00000E+00
         0.00000E+00
         0.00000E+00
         0.00000E+00
         0.00000E+00
         0.00000E+00
         0.00000E+00
         0.00000E+00
         0.00000E+00
         0.00000E+00
         0.00000E+00
         0.00000E+00
         0.00000E+00
         0.00000E+00
         0.00000E+00
         0.00000E+00
         0.00000E+00
         0.00000E+00
         0.00000E+00
         0.00000E+00
         0.00000E+00
         0.00000E+00
         0.00000E+00
         0.00000E+00
         0.00000E+00
         0.00000E+00
         0.00000E+00
         0.00000E+00
         0.00000E+00
         0.00000E+00
         0.00000E+00
         0.00000E+00
         0.00000E+00
         0.00000E+00
         0.00000E+00
         0.00000E+00
         0.00000E+00
         0.00000E+00
         0.00000E+00
         0.00000E+00
         0.00000E+00
         0.00000E+00
         0.00000E+00
         0.00000E+00
         0.00000E+00
         0.00000E+00
         0.00000E+00
         0.00000E+00
         0.00000E+00
         0.00000E+00
         0.00000E+00
         0.00000E+00
         0.00000E+00
         0.00000E+00
         0.00000E+00
         0.00000E+00
         0.00000E+00
         0.00000E+00
         0.00000E+00
         0.00000E+00
         0.00000E+00
         0.00000E+00
         0.00000E+00
         0.00000E+00
         0.00000E+00
         0.00000E+00
         0.00000E+00
         0.00000E+00
         0.00000E+00
         0.00000E+00
         0.00000E+00
         0.00000E+00
         0.00000E+00
         0.00000E+00
         0.00000E+00
         0.00000E+00
         0.00000E+00
         0.00000E+00
         0.00000E+00
         0.00000E+00
         0.00000E+00
         0.00000E+00
         0.00000E+00
         0.00000E+00
         0.00000E+00
         0.00000E+00
         0.00000E+00
         0.00000E+00
         0.00000E+00
         0.00000E+00
         0.00000E+00
         0.00000E+00
         0.00000E+00
         0.00000E+00
         0.00000E+00
         0.00000E+00
         0.00000E+00
         0.00000E+00
         0.00000E+00
         0.00000E+00
         0.00000E+00
         0.00000E+00
         0.00000E+00
         0.00000E+00
         0.00000E+00
         0.00000E+00
         0.00000E+00
         0.00000E+00
         0.00000E+00
         0.00000E+00
         0.00000E+00
         0.00000E+00
         0.00000E+00
         0.00000E+00
         0.00000E+00
         0.00000E+00
         0.00000E+00
         0.00000E+00
         0.00000E+00
         0.00000E+00
         0.00000E+00
         0.00000E+00
         0.00000E+00
         0.00000E+00
         0.00000E+00
         0.00000E+00
         0.00000E+00
         0.00000E+00
         0.00000E+00
         0.00000E+00
         0.00000E+00
         0.00000E+00
         0.00000E+00
         0.00000E+00
         0.00000E+00
         0.00000E+00
         0.00000E+00
         0.00000E+00
         0.00000E+00
         0.00000E+00
         0.00000E+00
         0.00000E+00
         0.00000E+00
         0.00000E+00
         0.00000E+00
         0.00000E+00
         0.00000E+00
         0.00000E+00
         0.00000E+00
         0.00000E+00
         0.00000E+00
         0.00000E+00
         0.00000E+00
         0.00000E+00
         0.00000E+00
         0.00000E+00
         0.00000E+00
         0.00000E+00
         0.00000E+00
         0.00000E+00
         0.00000E+00
         0.00000E+00
         0.00000E+00
         0.00000E+00
         0.00000E+00
         0.00000E+00
         0.00000E+00
         0.00000E+00
         0.00000E+00
         0.00000E+00
         0.00000E+00
         0.00000E+00
         0.00000E+00
         0.00000E+00
         0.00000E+00
         0.00000E+00
         0.00000E+00
         0.00000E+00
         0.00000E+00
         0.00000E+00
         0.00000E+00
         0.00000E+00
         0.00000E+00
         0.00000E+00
         0.00000E+00
         0.00000E+00
         0.00000E+00
         0.00000E+00
         0.00000E+00
         0.00000E+00
         0.00000E+00
         0.00000E+00
         0.00000E+00
         0.00000E+00
         0.00000E+00
         0.00000E+00
         0.00000E+00
         0.00000E+00
         0.00000E+00
         0.00000E+00
         0.00000E+00
         0.00000E+00
         0.00000E+00
         0.00000E+00
         0.00000E+00
         0.00000E+00
         0.00000E+00
         0.00000E+00
         0.00000E+00
         0.00000E+00
         0.00000E+00
         0.00000E+00
         0.00000E+00
         0.00000E+00
         0.00000E+00
         0.00000E+00
         0.00000E+00
         0.00000E+00
         0.00000E+00
         0.00000E+00
         0.00000E+00
         0.00000E+00
         0.00000E+00
         0.00000E+00
         0.00000E+00
         0.00000E+00
         0.00000E+00
         0.00000E+00
         0.00000E+00
         0.00000E+00
         0.00000E+00
         0.00000E+00
         0.00000E+00
         0.00000E+00
         0.00000E+00
         0.00000E+00
         0.00000E+00
         0.00000E+00
         0.00000E+00
         0.00000E+00
         0.00000E+00
         0.00000E+00
         0.00000E+00
         0.00000E+00
         0.00000E+00
         0.00000E+00
         0.00000E+00
         0.00000E+00
         0.00000E+00
         0.00000E+00
         0.00000E+00
         0.00000E+00
         0.00000E+00
         0.00000E+00
         0.00000E+00
         0.00000E+00
         0.00000E+00
         0.00000E+00
         0.00000E+00
         0.00000E+00
         0.00000E+00
         0.00000E+00
         0.00000E+00
         0.00000E+00
         0.00000E+00
         0.00000E+00
         0.00000E+00
         0.00000E+00
         0.00000E+00
         0.00000E+00
         0.00000E+00
         0.00000E+00
         0.00000E+00
         0.00000E+00
         0.00000E+00
         0.00000E+00
         0.00000E+00
         0.00000E+00
         0.00000E+00
         0.00000E+00
         0.00000E+00
         0.00000E+00
         0.00000E+00
         0.00000E+00
         0.00000E+00
         0.00000E+00
         0.00000E+00
         0.00000E+00
         0.00000E+00
         0.00000E+00
         0.00000E+00
         0.00000E+00
         0.00000E+00
         0.00000E+00
         0.00000E+00
         0.00000E+00
         0.00000E+00
         0.00000E+00
         0.00000E+00
         0.00000E+00
         0.00000E+00
         0.00000E+00
         0.00000E+00
         0.00000E+00
         0.00000E+00
         0.00000E+00
         0.00000E+00
         0.00000E+00
         0.00000E+00
         0.00000E+00
         0.00000E+00
         0.00000E+00
         0.00000E+00
         0.00000E+00
         0.00000E+00
         0.00000E+00
         0.00000E+00
         0.00000E+00
         0.00000E+00
         0.00000E+00
         0.00000E+00
         0.00000E+00
         0.00000E+00
         0.00000E+00
         0.00000E+00
         0.00000E+00
         0.00000E+00
         0.00000E+00
         0.00000E+00
         0.00000E+00
         0.00000E+00
         0.00000E+00
         0.00000E+00
         0.00000E+00
         0.00000E+00
         0.00000E+00
         0.00000E+00
         0.00000E+00
         0.00000E+00
         0.00000E+00
         0.00000E+00
         0.00000E+00
         0.00000E+00
         0.00000E+00
         0.00000E+00
         0.00000E+00
         0.00000E+00
         0.00000E+00
         0.00000E+00
         0.00000E+00
         0.00000E+00
         0.00000E+00
         0.00000E+00
         0.00000E+00
         0.00000E+00
         0.00000E+00
         0.00000E+00
         0.00000E+00
         0.00000E+00
         0.00000E+00
         0.00000E+00
         0.00000E+00
         0.00000E+00
         0.00000E+00
         0.00000E+00
         0.00000E+00
         0.00000E+00
         0.00000E+00
         0.00000E+00
         0.00000E+00
         0.00000E+00
         0.00000E+00
         0.00000E+00
         0.00000E+00
         0.00000E+00
         0.00000E+00
         0.00000E+00
         0.00000E+00
         0.00000E+00
         0.00000E+00
         0.00000E+00
         0.00000E+00
         0.00000E+00
         0.00000E+00
         0.00000E+00
         0.00000E+00
         0.00000E+00
         0.00000E+00
         0.00000E+00
         0.00000E+00
         0.00000E+00
         0.00000E+00
         0.00000E+00
         0.00000E+00
         0.00000E+00
         0.00000E+00
         0.00000E+00
         0.00000E+00
         0.00000E+00
         0.00000E+00
         0.00000E+00
         0.00000E+00
         0.00000E+00
         0.00000E+00
         0.00000E+00
         0.00000E+00
         0.00000E+00
         0.00000E+00
         0.00000E+00
         0.00000E+00
         0.00000E+00
         0.00000E+00
         0.00000E+00
         0.00000E+00
         0.00000E+00
         0.00000E+00
         0.00000E+00
         0.00000E+00
         0.00000E+00
         0.00000E+00
         0.00000E+00
         0.00000E+00
         0.00000E+00
         0.00000E+00
         0.00000E+00
         0.00000E+00
         0.00000E+00
         0.00000E+00
         0.00000E+00
         0.00000E+00
         0.00000E+00
         0.00000E+00
         0.00000E+00
         0.00000E+00
         0.00000E+00
         0.00000E+00
         0.00000E+00
         0.00000E+00
         0.00000E+00
         0.00000E+00
         0.00000E+00
         0.00000E+00
         0.00000E+00
         0.00000E+00
         0.00000E+00
         0.00000E+00
         0.00000E+00
         0.00000E+00
         0.00000E+00
         0.00000E+00
         0.00000E+00
         0.00000E+00
         0.00000E+00
         0.00000E+00
         0.00000E+00
         0.00000E+00
         0.00000E+00
         0.00000E+00
         0.00000E+00
         0.00000E+00
         0.00000E+00
         0.00000E+00
         0.00000E+00
         0.00000E+00
         0.00000E+00
         0.00000E+00
         0.00000E+00
         0.00000E+00
         0.00000E+00
         0.00000E+00
         0.00000E+00
         0.00000E+00
         0.00000E+00
         0.00000E+00
         0.00000E+00
         0.00000E+00
         0.00000E+00
         0.00000E+00
         0.00000E+00
         0.00000E+00
         0.00000E+00
         0.00000E+00
         0.00000E+00
         0.00000E+00
         0.00000E+00
         0.00000E+00
         0.00000E+00
         0.00000E+00
         0.00000E+00
         0.00000E+00
         0.00000E+00
         0.00000E+00
         0.00000E+00
         0.00000E+00
         0.00000E+00
         0.00000E+00
         0.00000E+00
         0.00000E+00
         0.00000E+00
         0.00000E+00
         0.00000E+00
         0.00000E+00
         0.00000E+00
         0.00000E+00
         0.00000E+00
         0.00000E+00
         0.00000E+00
         0.00000E+00
         0.00000E+00
         0.00000E+00
         0.00000E+00
         0.00000E+00
         0.00000E+00
         0.00000E+00
         0.00000E+00
         0.00000E+00
         0.00000E+00
         0.00000E+00
         0.00000E+00
         0.00000E+00
         0.00000E+00
         0.00000E+00
         0.00000E+00
         0.00000E+00
         0.00000E+00
         0.00000E+00
         0.00000E+00
         0.00000E+00
         0.00000E+00
         0.00000E+00
         0.00000E+00
         0.00000E+00
         0.00000E+00
         0.00000E+00
         0.00000E+00
         0.00000E+00
         0.00000E+00
         0.00000E+00
         0.00000E+00
         0.00000E+00
         0.00000E+00
         0.00000E+00
         0.00000E+00
         0.00000E+00
         0.00000E+00
         0.00000E+00
         0.00000E+00
         0.00000E+00
         0.00000E+00
         0.00000E+00
         0.00000E+00
         0.00000E+00
         0.00000E+00
         0.00000E+00
         0.00000E+00
         0.00000E+00
         0.00000E+00
         0.00000E+00
         0.00000E+00
         0.00000E+00
         0.00000E+00
         0.00000E+00
         0.00000E+00
         0.00000E+00
         0.00000E+00
         0.00000E+00
         0.00000E+00
         0.00000E+00
         0.00000E+00
         0.00000E+00
         0.00000E+00
         0.00000E+00
         0.00000E+00
         0.00000E+00
         0.00000E+00
         0.00000E+00
         0.00000E+00
         0.00000E+00
         0.00000E+00
         0.00000E+00
         0.00000E+00
         0.00000E+00
         0.00000E+00
         0.00000E+00
         0.00000E+00
         0.00000E+00
         0.00000E+00
         0.00000E+00
         0.00000E+00
         0.00000E+00
         0.00000E+00
         0.00000E+00
         0.00000E+00
         0.00000E+00
         0.00000E+00
         0.00000E+00
         0.00000E+00
         0.00000E+00
         0.00000E+00
         0.00000E+00
         0.00000E+00
         0.00000E+00
         0.00000E+00
         0.00000E+00
         0.00000E+00
         0.00000E+00
         0.00000E+00
         0.00000E+00
         0.00000E+00
         0.00000E+00
         0.00000E+00
         0.00000E+00
         0.00000E+00
         0.00000E+00
         0.00000E+00
         0.00000E+00
         0.00000E+00
         0.00000E+00
         0.00000E+00
         0.00000E+00
         0.00000E+00
         0.00000E+00
         0.00000E+00
         0.00000E+00
         0.00000E+00
         0.00000E+00
         0.00000E+00
         0.00000E+00
         0.00000E+00
         0.00000E+00
         0.00000E+00
         0.00000E+00
         0.00000E+00
         0.00000E+00
         0.00000E+00
         0.00000E+00
         0.00000E+00
         0.00000E+00
         0.00000E+00
         0.00000E+00
         0.00000E+00
         0.00000E+00
         0.00000E+00
         0.00000E+00
         0.00000E+00
         0.00000E+00
         0.00000E+00
         0.00000E+00
         0.00000E+00
         0.00000E+00
         0.00000E+00
         0.00000E+00
         0.00000E+00
         0.00000E+00
         0.00000E+00
         0.00000E+00
         0.00000E+00
         0.00000E+00
         0.00000E+00
         0.00000E+00
         0.00000E+00
         0.00000E+00
         0.00000E+00
         0.00000E+00
         0.00000E+00
         0.00000E+00
         0.00000E+00
         0.00000E+00
         0.00000E+00
         0.00000E+00
         0.00000E+00
         0.00000E+00
         0.00000E+00
         0.00000E+00
         0.00000E+00
         0.00000E+00
         0.00000E+00
         0.00000E+00
         0.00000E+00
         0.00000E+00
         0.00000E+00
         0.00000E+00
         0.00000E+00
         0.00000E+00
         0.00000E+00
         0.00000E+00
         0.00000E+00
         0.00000E+00
         0.00000E+00
         0.00000E+00
         0.00000E+00
         0.00000E+00
         0.00000E+00
         0.00000E+00
         0.00000E+00
         0.00000E+00
         0.00000E+00
         0.00000E+00
         0.00000E+00
         0.00000E+00
         0.00000E+00
         0.00000E+00
         0.00000E+00
         0.00000E+00
         0.00000E+00
         0.00000E+00
         0.00000E+00
         0.00000E+00
         0.00000E+00
         0.00000E+00
         0.00000E+00
         0.00000E+00
         0.00000E+00
         0.00000E+00
         0.00000E+00
         0.00000E+00
         0.00000E+00
         0.00000E+00
         0.00000E+00
         0.00000E+00
         0.00000E+00
         0.00000E+00
         0.00000E+00
         0.00000E+00
         0.00000E+00
         0.00000E+00
         0.00000E+00
         0.00000E+00
         0.00000E+00
         0.00000E+00
         0.00000E+00
         0.00000E+00
         0.00000E+00
         0.00000E+00
         0.00000E+00
         0.00000E+00
         0.00000E+00
         0.00000E+00
         0.00000E+00
         0.00000E+00
         0.00000E+00
         0.00000E+00
         0.00000E+00
         0.00000E+00
         0.00000E+00
         0.00000E+00
         0.00000E+00
         0.00000E+00
         0.00000E+00
         0.00000E+00
         0.00000E+00
         0.00000E+00
         0.00000E+00
         0.00000E+00
         0.00000E+00
         0.00000E+00
         0.00000E+00
         0.00000E+00
         0.00000E+00
         0.00000E+00
         0.00000E+00
         0.00000E+00
         0.00000E+00
         0.00000E+00
         0.00000E+00
         0.00000E+00
         0.00000E+00
         0.00000E+00
         0.00000E+00
         0.00000E+00
         0.00000E+00
         0.00000E+00
         0.00000E+00
         0.00000E+00
         0.00000E+00
         0.00000E+00
         0.00000E+00
         0.00000E+00
         0.00000E+00
         0.00000E+00
         0.00000E+00
         0.00000E+00
         0.00000E+00
         0.00000E+00
         0.00000E+00
         0.00000E+00
         0.00000E+00
         0.00000E+00
         0.00000E+00
         0.00000E+00
         0.00000E+00
         0.00000E+00
         0.00000E+00
         0.00000E+00
         0.00000E+00
         0.00000E+00
         0.00000E+00
         0.00000E+00
         0.00000E+00
         0.00000E+00
         0.00000E+00
         0.00000E+00
         0.00000E+00
         0.00000E+00
         0.00000E+00
         0.00000E+00
         0.00000E+00
         0.00000E+00
         0.00000E+00
         0.00000E+00
         0.00000E+00
         0.00000E+00
         0.00000E+00
         0.00000E+00
         0.00000E+00
         0.00000E+00
         0.00000E+00
         0.00000E+00
         0.00000E+00
         0.00000E+00
         0.00000E+00
         0.00000E+00
         0.00000E+00
         0.00000E+00
         0.00000E+00
         0.00000E+00
         0.00000E+00
         0.00000E+00
         0.00000E+00
         0.00000E+00
         0.00000E+00
         0.00000E+00
         0.00000E+00
         0.00000E+00
         0.00000E+00
         0.00000E+00
         0.00000E+00
         0.00000E+00
         0.00000E+00
         0.00000E+00
         0.00000E+00
         0.00000E+00
         0.00000E+00
         0.00000E+00
         0.00000E+00
         0.00000E+00
         0.00000E+00
         0.00000E+00
         0.00000E+00
         0.00000E+00
         0.00000E+00
         0.00000E+00
         0.00000E+00
         0.00000E+00
         0.00000E+00
         0.00000E+00
         0.00000E+00
         0.00000E+00
         0.00000E+00
         0.00000E+00
         0.00000E+00
         0.00000E+00
         0.00000E+00
         0.00000E+00
         0.00000E+00
         0.00000E+00
         0.00000E+00
         0.00000E+00
         0.00000E+00
         0.00000E+00
         0.00000E+00
         0.00000E+00
         0.00000E+00
         0.00000E+00
         0.00000E+00
         0.00000E+00
         0.00000E+00
         0.00000E+00
         0.00000E+00
         0.00000E+00
         0.00000E+00
         0.00000E+00
         0.00000E+00
         0.00000E+00
         0.00000E+00
         0.00000E+00
         0.00000E+00
         0.00000E+00
         0.00000E+00
         0.00000E+00
         0.00000E+00
         0.00000E+00
         0.00000E+00
         0.00000E+00
         0.00000E+00
         0.00000E+00
         0.00000E+00
         0.00000E+00
         0.00000E+00
         0.00000E+00
         0.00000E+00
         0.00000E+00
         0.00000E+00
         0.00000E+00
         0.00000E+00
         0.00000E+00
         0.00000E+00
         0.00000E+00
         0.00000E+00
         0.00000E+00
         0.00000E+00
         0.00000E+00
         0.00000E+00
         0.00000E+00
         0.00000E+00
         0.00000E+00
         0.00000E+00
         0.00000E+00
         0.00000E+00
         0.00000E+00
         0.00000E+00
         0.00000E+00
         0.00000E+00
         0.00000E+00
         0.00000E+00
         0.00000E+00
         0.00000E+00
         0.00000E+00
         0.00000E+00
         0.00000E+00
         0.00000E+00
         0.00000E+00
         0.00000E+00
         0.00000E+00
         0.00000E+00
         0.00000E+00
         0.00000E+00
         0.00000E+00
         0.00000E+00
         0.00000E+00
         0.00000E+00
         0.00000E+00
         0.00000E+00
         0.00000E+00
         0.00000E+00
         0.00000E+00
         0.00000E+00
         0.00000E+00
         0.00000E+00
         0.00000E+00
         0.00000E+00
         0.00000E+00
         0.00000E+00
         0.00000E+00
         0.00000E+00
         0.00000E+00
         0.00000E+00
         0.00000E+00
         0.00000E+00
         0.00000E+00
         0.00000E+00
         0.00000E+00
         0.00000E+00
         0.00000E+00
         0.00000E+00
         0.00000E+00
         0.00000E+00
         0.00000E+00
         0.00000E+00
         0.00000E+00
         0.00000E+00
         0.00000E+00
         0.00000E+00
         0.00000E+00
         0.00000E+00
         0.00000E+00
         0.00000E+00
         0.00000E+00
         0.00000E+00
         0.00000E+00
         0.00000E+00
         0.00000E+00
         0.00000E+00
         0.00000E+00
         0.00000E+00
         0.00000E+00
         0.00000E+00
         0.00000E+00
         0.00000E+00
         0.00000E+00
         0.00000E+00
         0.00000E+00
         0.00000E+00
         0.00000E+00
         0.00000E+00
         0.00000E+00
         0.00000E+00
         0.00000E+00
         0.00000E+00
         0.00000E+00
         0.00000E+00
         0.00000E+00
         0.00000E+00
         0.00000E+00
         0.00000E+00
         0.00000E+00
         0.00000E+00
         0.00000E+00
         0.00000E+00
         0.00000E+00
         0.00000E+00
         0.00000E+00
         0.00000E+00
         0.00000E+00
         0.00000E+00
         0.00000E+00
         0.00000E+00
         0.00000E+00
         0.00000E+00
         0.00000E+00
         0.00000E+00
         0.00000E+00
         0.00000E+00
         0.00000E+00
         0.00000E+00
         0.00000E+00
         0.00000E+00
         0.00000E+00
         0.00000E+00
         0.00000E+00
         0.00000E+00
         0.00000E+00
         0.00000E+00
         0.00000E+00
         0.00000E+00
         0.00000E+00
         0.00000E+00
         0.00000E+00
         0.00000E+00
         0.00000E+00
         0.00000E+00
         0.00000E+00
         0.00000E+00
         0.00000E+00
         0.00000E+00
         0.00000E+00
         0.00000E+00
         0.00000E+00
         0.00000E+00
         0.00000E+00
         0.00000E+00
         0.00000E+00
         0.00000E+00
         0.00000E+00
         0.00000E+00
         0.00000E+00
         0.00000E+00
         0.00000E+00
         0.00000E+00
         0.00000E+00
         0.00000E+00
         0.00000E+00
         0.00000E+00
         0.00000E+00
         0.00000E+00
         0.00000E+00
         0.00000E+00
         0.00000E+00
         0.00000E+00
         0.00000E+00
         0.00000E+00
         0.00000E+00
         0.00000E+00
         0.00000E+00
         0.00000E+00
         0.00000E+00
         0.00000E+00
         0.00000E+00
         0.00000E+00
         0.00000E+00
         0.00000E+00
         0.00000E+00
         0.00000E+00
         0.00000E+00
         0.00000E+00
         0.00000E+00
         0.00000E+00
         0.00000E+00
         0.00000E+00
         0.00000E+00
         0.00000E+00
         0.00000E+00
         0.00000E+00
         0.00000E+00
         0.00000E+00
         0.00000E+00
         0.00000E+00
         0.00000E+00
         0.00000E+00
         0.00000E+00
         0.00000E+00
         0.00000E+00
         0.00000E+00
         0.00000E+00
         0.00000E+00
         0.00000E+00
         0.00000E+00
         0.00000E+00
         0.00000E+00
         0.00000E+00
         0.00000E+00
         0.00000E+00
         0.00000E+00
         0.00000E+00
         0.00000E+00
         0.00000E+00
         0.00000E+00
         0.00000E+00
         0.00000E+00
         0.00000E+00
         0.00000E+00
         0.00000E+00
         0.00000E+00
         0.00000E+00
         0.00000E+00
         0.00000E+00
         0.00000E+00
         0.00000E+00
         0.00000E+00
         0.00000E+00
         0.00000E+00
         0.00000E+00
         0.00000E+00
         0.00000E+00
         0.00000E+00
         0.00000E+00
         0.00000E+00
         0.00000E+00
         0.00000E+00
         0.00000E+00
         0.00000E+00
         0.00000E+00
         0.00000E+00
         0.00000E+00
         0.00000E+00
         0.00000E+00
         0.00000E+00
         0.00000E+00
         0.00000E+00
         0.00000E+00
         0.00000E+00
         0.00000E+00
         0.00000E+00
         0.00000E+00
         0.00000E+00
         0.00000E+00
         0.00000E+00
         0.00000E+00
         0.00000E+00
         0.00000E+00
         0.00000E+00
         0.00000E+00
         0.00000E+00
         0.00000E+00
         0.00000E+00
         0.00000E+00
         0.00000E+00
         0.00000E+00
         0.00000E+00
         0.00000E+00
         0.00000E+00
         0.00000E+00
         0.00000E+00
         0.00000E+00
         0.00000E+00
         0.00000E+00
         0.00000E+00
         0.00000E+00
         0.00000E+00
         0.00000E+00
         0.00000E+00
         0.00000E+00
         0.00000E+00
         0.00000E+00
         0.00000E+00
         0.00000E+00
         0.00000E+00
         0.00000E+00
         0.00000E+00
         0.00000E+00
         0.00000E+00
         0.00000E+00
         0.00000E+00
         0.00000E+00
         0.00000E+00
         0.00000E+00
         0.00000E+00
         0.00000E+00
         0.00000E+00
         0.00000E+00
         0.00000E+00
         0.00000E+00
         0.00000E+00
         0.00000E+00
         0.00000E+00
         0.00000E+00
         0.00000E+00
         0.00000E+00
         0.00000E+00
         0.00000E+00
         0.00000E+00
         0.00000E+00
         0.00000E+00
         0.00000E+00
         0.00000E+00
         0.00000E+00
         0.00000E+00
         0.00000E+00
         0.00000E+00
         0.00000E+00
         0.00000E+00
         0.00000E+00
         0.00000E+00
         0.00000E+00
         0.00000E+00
         0.00000E+00
         0.00000E+00
         0.00000E+00
         0.00000E+00
         0.00000E+00
         0.00000E+00
         0.00000E+00
         0.00000E+00
         0.00000E+00
         0.00000E+00
         0.00000E+00
         0.00000E+00
         0.00000E+00
         0.00000E+00
         0.00000E+00
         0.00000E+00
         0.00000E+00
         0.00000E+00
         0.00000E+00
         0.00000E+00
         0.00000E+00
         0.00000E+00
         0.00000E+00
         0.00000E+00
         0.00000E+00
         0.00000E+00
         0.00000E+00
         0.00000E+00
         0.00000E+00
         0.00000E+00
         0.00000E+00
         0.00000E+00
         0.00000E+00
         0.00000E+00
         0.00000E+00
         0.00000E+00
         0.00000E+00
         0.00000E+00
         0.00000E+00
         0.00000E+00
         0.00000E+00
         0.00000E+00
         0.00000E+00
         0.00000E+00
         0.00000E+00
         0.00000E+00
         0.00000E+00
         0.00000E+00
         0.00000E+00
         0.00000E+00
         0.00000E+00
         0.00000E+00
         0.00000E+00
         0.00000E+00
         0.00000E+00
         0.00000E+00
         0.00000E+00
         0.00000E+00
         0.00000E+00
         0.00000E+00
         0.00000E+00
         0.00000E+00
         0.00000E+00
         0.00000E+00
         0.00000E+00
         0.00000E+00
         0.00000E+00
         0.00000E+00
         0.00000E+00
         0.00000E+00
         0.00000E+00
         0.00000E+00
         0.00000E+00
         0.00000E+00
         0.00000E+00
         0.00000E+00
         0.00000E+00
         0.00000E+00
         0.00000E+00
         0.00000E+00
         0.00000E+00
         0.00000E+00
         0.00000E+00
         0.00000E+00
         0.00000E+00
         0.00000E+00
         0.00000E+00
         0.00000E+00
         0.00000E+00
         0.00000E+00
         0.00000E+00
         0.00000E+00
         0.00000E+00
         0.00000E+00
         0.00000E+00
         0.00000E+00
         0.00000E+00
         0.00000E+00
         0.00000E+00
         0.00000E+00
         0.00000E+00
         0.00000E+00
         0.00000E+00
         0.00000E+00
         0.00000E+00
         0.00000E+00
         0.00000E+00
         0.00000E+00
         0.00000E+00
         0.00000E+00
         0.00000E+00
         0.00000E+00
         0.00000E+00
         0.00000E+00
         0.00000E+00
         0.00000E+00
         0.00000E+00
         0.00000E+00
         0.00000E+00
         0.00000E+00
         0.00000E+00
         0.00000E+00
         0.00000E+00
         0.00000E+00
         0.00000E+00
         0.00000E+00
         0.00000E+00
         0.00000E+00
         0.00000E+00
         0.00000E+00
         0.00000E+00
         0.00000E+00
         0.00000E+00
         0.00000E+00
         0.00000E+00
         0.00000E+00
         0.00000E+00
         0.00000E+00
         0.00000E+00
         0.00000E+00
         0.00000E+00
         0.00000E+00
         0.00000E+00
         0.00000E+00
         0.00000E+00
         0.00000E+00
         0.00000E+00
         0.00000E+00
         0.00000E+00
         0.00000E+00
         0.00000E+00
         0.00000E+00
         0.00000E+00
         0.00000E+00
         0.00000E+00
         0.00000E+00
         0.00000E+00
         0.00000E+00
         0.00000E+00
         0.00000E+00
         0.00000E+00
         0.00000E+00
         0.00000E+00
         0.00000E+00
         0.00000E+00
         0.00000E+00
         0.00000E+00
         0.00000E+00
         0.00000E+00
         0.00000E+00
         0.00000E+00
         0.00000E+00
         0.00000E+00
         0.00000E+00
         0.00000E+00
         0.00000E+00
         0.00000E+00
         0.00000E+00
         0.00000E+00
         0.00000E+00
         0.00000E+00
         0.00000E+00
         0.00000E+00
         0.00000E+00
         0.00000E+00
         0.00000E+00
         0.00000E+00
         0.00000E+00
         0.00000E+00
         0.00000E+00
         0.00000E+00
         0.00000E+00
         0.00000E+00
         0.00000E+00
         0.00000E+00
         0.00000E+00
         0.00000E+00
         0.00000E+00
         0.00000E+00
         0.00000E+00
         0.00000E+00
         0.00000E+00
         0.00000E+00
         0.00000E+00
         0.00000E+00
         0.00000E+00
         0.00000E+00
         0.00000E+00
         0.00000E+00
         0.00000E+00
         0.00000E+00
         0.00000E+00
         0.00000E+00
         0.00000E+00
         0.00000E+00
         0.00000E+00
         0.00000E+00
         0.00000E+00
         0.00000E+00
         0.00000E+00
         0.00000E+00
         0.00000E+00
         0.00000E+00
         0.00000E+00
         0.00000E+00
         0.00000E+00
         0.00000E+00
         0.00000E+00
         0.00000E+00
         0.00000E+00
         0.00000E+00
         0.00000E+00
         0.00000E+00
         0.00000E+00
         0.00000E+00
         0.00000E+00
         0.00000E+00
         0.00000E+00
         0.00000E+00
         0.00000E+00
         0.00000E+00
         0.00000E+00
         0.00000E+00
         0.00000E+00
         0.00000E+00
         0.00000E+00
         0.00000E+00
         0.00000E+00
         0.00000E+00
         0.00000E+00
         0.00000E+00
         0.00000E+00
         0.00000E+00
         0.00000E+00
         0.00000E+00
         0.00000E+00
         0.00000E+00
         0.00000E+00
         0.00000E+00
         0.00000E+00
         0.00000E+00
         0.00000E+00
         0.00000E+00
         0.00000E+00
         0.00000E+00
         0.00000E+00
         0.00000E+00
         0.00000E+00
         0.00000E+00
         0.00000E+00
         0.00000E+00
         0.00000E+00
         0.00000E+00
         0.00000E+00
         0.00000E+00
         0.00000E+00
         0.00000E+00
         0.00000E+00
         0.00000E+00
         0.00000E+00
         0.00000E+00
         0.00000E+00
         0.00000E+00
         0.00000E+00
         0.00000E+00
         0.00000E+00
         0.00000E+00
         0.00000E+00
         0.00000E+00
         0.00000E+00
         0.00000E+00
         0.00000E+00
         0.00000E+00
         0.00000E+00
         0.00000E+00
         0.00000E+00
         0.00000E+00
         0.00000E+00
         0.00000E+00
         0.00000E+00
         0.00000E+00
         0.00000E+00
         0.00000E+00
         0.00000E+00
         0.00000E+00
         0.00000E+00
         0.00000E+00
         0.00000E+00
         0.00000E+00
         0.00000E+00
         0.00000E+00
         0.00000E+00
         0.00000E+00
         0.00000E+00
         0.00000E+00
         0.00000E+00
         0.00000E+00
         0.00000E+00
         0.00000E+00
         0.00000E+00
         0.00000E+00
         0.00000E+00
         0.00000E+00
         0.00000E+00
         0.00000E+00
         0.00000E+00
         0.00000E+00
         0.00000E+00
         0.00000E+00
         0.00000E+00
         0.00000E+00
         0.00000E+00
         0.00000E+00
         0.00000E+00
         0.00000E+00
         0.00000E+00
         0.00000E+00
         0.00000E+00
         0.00000E+00
         0.00000E+00
         0.00000E+00
         0.00000E+00
         0.00000E+00
         0.00000E+00
         0.00000E+00
         0.00000E+00
         0.00000E+00
         0.00000E+00
         0.00000E+00
         0.00000E+00
         0.00000E+00
         0.00000E+00
         0.00000E+00
         0.00000E+00
         0.00000E+00
         0.00000E+00
         0.00000E+00
         0.00000E+00
         0.00000E+00
         0.00000E+00
         0.00000E+00
         0.00000E+00
         0.00000E+00
         0.00000E+00
         0.00000E+00
         0.00000E+00
         0.00000E+00
         0.00000E+00
         0.00000E+00
         0.00000E+00
         0.00000E+00
         0.00000E+00
         0.00000E+00
         0.00000E+00
         0.00000E+00
         0.00000E+00
         0.00000E+00
         0.00000E+00
         0.00000E+00
         0.00000E+00
         0.00000E+00
         0.00000E+00
         0.00000E+00
         0.00000E+00
         0.00000E+00
         0.00000E+00
         0.00000E+00
         0.00000E+00
         0.00000E+00
         0.00000E+00
         0.00000E+00
         0.00000E+00
         0.00000E+00
         0.00000E+00
         0.00000E+00
         0.00000E+00
         0.00000E+00
         0.00000E+00
         0.00000E+00
         0.00000E+00
         0.00000E+00
         0.00000E+00
         0.00000E+00
         0.00000E+00
         0.00000E+00
         0.00000E+00
         0.00000E+00
         0.00000E+00
         0.00000E+00
         0.00000E+00
         0.00000E+00
         0.00000E+00
         0.00000E+00
         0.00000E+00
         0.00000E+00
         0.00000E+00
         0.00000E+00
         0.00000E+00
         0.00000E+00
         0.00000E+00
         0.00000E+00
         0.00000E+00
         0.00000E+00
         0.00000E+00
         0.00000E+00
         0.00000E+00
         0.00000E+00
         0.00000E+00
         0.00000E+00
         0.00000E+00
         0.00000E+00
         0.00000E+00
         0.00000E+00
         0.00000E+00
         0.00000E+00
         0.00000E+00
         0.00000E+00
         0.00000E+00
         0.00000E+00
         0.00000E+00
         0.00000E+00
         0.00000E+00
         0.00000E+00
         0.00000E+00
         0.00000E+00
         0.00000E+00
         0.00000E+00
         0.00000E+00
         0.00000E+00
         0.00000E+00
         0.00000E+00
         0.00000E+00
         0.00000E+00
         0.00000E+00
         0.00000E+00
         0.00000E+00
         0.00000E+00
  
SCALARS                init_velocity_z  double 1
LOOKUP_TABLE default
        -0.37300E+03
        -0.37300E+03
        -0.37300E+03
        -0.37300E+03
        -0.37300E+03
        -0.37300E+03
        -0.37300E+03
        -0.37300E+03
        -0.37300E+03
        -0.37300E+03
        -0.37300E+03
        -0.37300E+03
        -0.37300E+03
        -0.37300E+03
        -0.37300E+03
        -0.37300E+03
        -0.37300E+03
        -0.37300E+03
        -0.37300E+03
        -0.37300E+03
        -0.37300E+03
        -0.37300E+03
        -0.37300E+03
        -0.37300E+03
        -0.37300E+03
        -0.37300E+03
        -0.37300E+03
        -0.37300E+03
        -0.37300E+03
        -0.37300E+03
        -0.37300E+03
        -0.37300E+03
        -0.37300E+03
        -0.37300E+03
        -0.37300E+03
        -0.37300E+03
        -0.37300E+03
        -0.37300E+03
        -0.37300E+03
        -0.37300E+03
        -0.37300E+03
        -0.37300E+03
        -0.37300E+03
        -0.37300E+03
        -0.37300E+03
        -0.37300E+03
        -0.37300E+03
        -0.37300E+03
        -0.37300E+03
        -0.37300E+03
        -0.37300E+03
        -0.37300E+03
        -0.37300E+03
        -0.37300E+03
        -0.37300E+03
        -0.37300E+03
        -0.37300E+03
        -0.37300E+03
        -0.37300E+03
        -0.37300E+03
        -0.37300E+03
        -0.37300E+03
        -0.37300E+03
        -0.37300E+03
        -0.37300E+03
        -0.37300E+03
        -0.37300E+03
        -0.37300E+03
        -0.37300E+03
        -0.37300E+03
        -0.37300E+03
        -0.37300E+03
        -0.37300E+03
        -0.37300E+03
        -0.37300E+03
        -0.37300E+03
        -0.37300E+03
        -0.37300E+03
        -0.37300E+03
        -0.37300E+03
        -0.37300E+03
        -0.37300E+03
        -0.37300E+03
        -0.37300E+03
        -0.37300E+03
        -0.37300E+03
        -0.37300E+03
        -0.37300E+03
        -0.37300E+03
        -0.37300E+03
        -0.37300E+03
        -0.37300E+03
        -0.37300E+03
        -0.37300E+03
        -0.37300E+03
        -0.37300E+03
        -0.37300E+03
        -0.37300E+03
        -0.37300E+03
        -0.37300E+03
        -0.37300E+03
        -0.37300E+03
        -0.37300E+03
        -0.37300E+03
        -0.37300E+03
        -0.37300E+03
        -0.37300E+03
        -0.37300E+03
        -0.37300E+03
        -0.37300E+03
        -0.37300E+03
        -0.37300E+03
        -0.37300E+03
        -0.37300E+03
        -0.37300E+03
        -0.37300E+03
        -0.37300E+03
        -0.37300E+03
        -0.37300E+03
        -0.37300E+03
        -0.37300E+03
        -0.37300E+03
        -0.37300E+03
        -0.37300E+03
        -0.37300E+03
        -0.37300E+03
        -0.37300E+03
        -0.37300E+03
        -0.37300E+03
        -0.37300E+03
        -0.37300E+03
        -0.37300E+03
        -0.37300E+03
        -0.37300E+03
        -0.37300E+03
        -0.37300E+03
        -0.37300E+03
        -0.37300E+03
        -0.37300E+03
        -0.37300E+03
        -0.37300E+03
        -0.37300E+03
        -0.37300E+03
        -0.37300E+03
        -0.37300E+03
        -0.37300E+03
        -0.37300E+03
        -0.37300E+03
        -0.37300E+03
        -0.37300E+03
        -0.37300E+03
        -0.37300E+03
        -0.37300E+03
        -0.37300E+03
        -0.37300E+03
        -0.37300E+03
        -0.37300E+03
        -0.37300E+03
        -0.37300E+03
        -0.37300E+03
        -0.37300E+03
        -0.37300E+03
        -0.37300E+03
        -0.37300E+03
        -0.37300E+03
        -0.37300E+03
        -0.37300E+03
        -0.37300E+03
        -0.37300E+03
        -0.37300E+03
        -0.37300E+03
        -0.37300E+03
        -0.37300E+03
        -0.37300E+03
        -0.37300E+03
        -0.37300E+03
        -0.37300E+03
        -0.37300E+03
        -0.37300E+03
        -0.37300E+03
        -0.37300E+03
        -0.37300E+03
        -0.37300E+03
        -0.37300E+03
        -0.37300E+03
        -0.37300E+03
        -0.37300E+03
        -0.37300E+03
        -0.37300E+03
        -0.37300E+03
        -0.37300E+03
        -0.37300E+03
        -0.37300E+03
        -0.37300E+03
        -0.37300E+03
        -0.37300E+03
        -0.37300E+03
        -0.37300E+03
        -0.37300E+03
        -0.37300E+03
        -0.37300E+03
        -0.37300E+03
        -0.37300E+03
        -0.37300E+03
        -0.37300E+03
        -0.37300E+03
        -0.37300E+03
        -0.37300E+03
        -0.37300E+03
        -0.37300E+03
        -0.37300E+03
        -0.37300E+03
        -0.37300E+03
        -0.37300E+03
        -0.37300E+03
        -0.37300E+03
        -0.37300E+03
        -0.37300E+03
        -0.37300E+03
        -0.37300E+03
        -0.37300E+03
        -0.37300E+03
        -0.37300E+03
        -0.37300E+03
        -0.37300E+03
        -0.37300E+03
        -0.37300E+03
        -0.37300E+03
        -0.37300E+03
        -0.37300E+03
        -0.37300E+03
        -0.37300E+03
        -0.37300E+03
        -0.37300E+03
        -0.37300E+03
        -0.37300E+03
        -0.37300E+03
        -0.37300E+03
        -0.37300E+03
        -0.37300E+03
        -0.37300E+03
        -0.37300E+03
        -0.37300E+03
        -0.37300E+03
        -0.37300E+03
        -0.37300E+03
        -0.37300E+03
        -0.37300E+03
        -0.37300E+03
        -0.37300E+03
        -0.37300E+03
        -0.37300E+03
        -0.37300E+03
        -0.37300E+03
        -0.37300E+03
        -0.37300E+03
        -0.37300E+03
        -0.37300E+03
        -0.37300E+03
        -0.37300E+03
        -0.37300E+03
        -0.37300E+03
        -0.37300E+03
        -0.37300E+03
        -0.37300E+03
        -0.37300E+03
        -0.37300E+03
        -0.37300E+03
        -0.37300E+03
        -0.37300E+03
        -0.37300E+03
        -0.37300E+03
        -0.37300E+03
        -0.37300E+03
        -0.37300E+03
        -0.37300E+03
        -0.37300E+03
        -0.37300E+03
        -0.37300E+03
        -0.37300E+03
        -0.37300E+03
        -0.37300E+03
        -0.37300E+03
        -0.37300E+03
        -0.37300E+03
        -0.37300E+03
        -0.37300E+03
        -0.37300E+03
        -0.37300E+03
        -0.37300E+03
        -0.37300E+03
        -0.37300E+03
        -0.37300E+03
        -0.37300E+03
        -0.37300E+03
        -0.37300E+03
        -0.37300E+03
        -0.37300E+03
        -0.37300E+03
        -0.37300E+03
        -0.37300E+03
        -0.37300E+03
        -0.37300E+03
        -0.37300E+03
        -0.37300E+03
        -0.37300E+03
        -0.37300E+03
        -0.37300E+03
        -0.37300E+03
        -0.37300E+03
        -0.37300E+03
        -0.37300E+03
        -0.37300E+03
        -0.37300E+03
        -0.37300E+03
        -0.37300E+03
        -0.37300E+03
        -0.37300E+03
        -0.37300E+03
        -0.37300E+03
        -0.37300E+03
        -0.37300E+03
        -0.37300E+03
        -0.37300E+03
        -0.37300E+03
        -0.37300E+03
        -0.37300E+03
        -0.37300E+03
        -0.37300E+03
        -0.37300E+03
        -0.37300E+03
        -0.37300E+03
        -0.37300E+03
        -0.37300E+03
        -0.37300E+03
        -0.37300E+03
        -0.37300E+03
        -0.37300E+03
        -0.37300E+03
        -0.37300E+03
        -0.37300E+03
        -0.37300E+03
        -0.37300E+03
        -0.37300E+03
        -0.37300E+03
        -0.37300E+03
        -0.37300E+03
        -0.37300E+03
        -0.37300E+03
        -0.37300E+03
        -0.37300E+03
        -0.37300E+03
        -0.37300E+03
        -0.37300E+03
        -0.37300E+03
        -0.37300E+03
        -0.37300E+03
        -0.37300E+03
        -0.37300E+03
        -0.37300E+03
        -0.37300E+03
        -0.37300E+03
        -0.37300E+03
        -0.37300E+03
        -0.37300E+03
        -0.37300E+03
        -0.37300E+03
        -0.37300E+03
        -0.37300E+03
        -0.37300E+03
        -0.37300E+03
        -0.37300E+03
        -0.37300E+03
        -0.37300E+03
        -0.37300E+03
        -0.37300E+03
        -0.37300E+03
        -0.37300E+03
        -0.37300E+03
        -0.37300E+03
        -0.37300E+03
        -0.37300E+03
        -0.37300E+03
        -0.37300E+03
        -0.37300E+03
        -0.37300E+03
        -0.37300E+03
        -0.37300E+03
        -0.37300E+03
        -0.37300E+03
        -0.37300E+03
        -0.37300E+03
        -0.37300E+03
        -0.37300E+03
        -0.37300E+03
        -0.37300E+03
        -0.37300E+03
        -0.37300E+03
        -0.37300E+03
        -0.37300E+03
        -0.37300E+03
        -0.37300E+03
        -0.37300E+03
        -0.37300E+03
        -0.37300E+03
        -0.37300E+03
        -0.37300E+03
        -0.37300E+03
        -0.37300E+03
        -0.37300E+03
        -0.37300E+03
        -0.37300E+03
        -0.37300E+03
        -0.37300E+03
        -0.37300E+03
        -0.37300E+03
        -0.37300E+03
        -0.37300E+03
        -0.37300E+03
        -0.37300E+03
        -0.37300E+03
        -0.37300E+03
        -0.37300E+03
        -0.37300E+03
        -0.37300E+03
        -0.37300E+03
        -0.37300E+03
        -0.37300E+03
        -0.37300E+03
        -0.37300E+03
        -0.37300E+03
        -0.37300E+03
        -0.37300E+03
        -0.37300E+03
        -0.37300E+03
        -0.37300E+03
        -0.37300E+03
        -0.37300E+03
        -0.37300E+03
        -0.37300E+03
        -0.37300E+03
        -0.37300E+03
        -0.37300E+03
        -0.37300E+03
        -0.37300E+03
        -0.37300E+03
        -0.37300E+03
        -0.37300E+03
        -0.37300E+03
        -0.37300E+03
        -0.37300E+03
        -0.37300E+03
        -0.37300E+03
        -0.37300E+03
        -0.37300E+03
        -0.37300E+03
        -0.37300E+03
        -0.37300E+03
        -0.37300E+03
        -0.37300E+03
        -0.37300E+03
        -0.37300E+03
        -0.37300E+03
        -0.37300E+03
        -0.37300E+03
        -0.37300E+03
        -0.37300E+03
        -0.37300E+03
        -0.37300E+03
        -0.37300E+03
        -0.37300E+03
        -0.37300E+03
        -0.37300E+03
        -0.37300E+03
        -0.37300E+03
        -0.37300E+03
        -0.37300E+03
        -0.37300E+03
        -0.37300E+03
        -0.37300E+03
        -0.37300E+03
        -0.37300E+03
        -0.37300E+03
        -0.37300E+03
        -0.37300E+03
        -0.37300E+03
        -0.37300E+03
        -0.37300E+03
        -0.37300E+03
        -0.37300E+03
        -0.37300E+03
        -0.37300E+03
        -0.37300E+03
        -0.37300E+03
        -0.37300E+03
        -0.37300E+03
        -0.37300E+03
        -0.37300E+03
        -0.37300E+03
        -0.37300E+03
        -0.37300E+03
        -0.37300E+03
        -0.37300E+03
        -0.37300E+03
        -0.37300E+03
        -0.37300E+03
        -0.37300E+03
        -0.37300E+03
        -0.37300E+03
        -0.37300E+03
        -0.37300E+03
        -0.37300E+03
        -0.37300E+03
        -0.37300E+03
        -0.37300E+03
        -0.37300E+03
        -0.37300E+03
        -0.37300E+03
        -0.37300E+03
        -0.37300E+03
        -0.37300E+03
        -0.37300E+03
        -0.37300E+03
        -0.37300E+03
        -0.37300E+03
        -0.37300E+03
        -0.37300E+03
        -0.37300E+03
        -0.37300E+03
        -0.37300E+03
        -0.37300E+03
        -0.37300E+03
        -0.37300E+03
        -0.37300E+03
        -0.37300E+03
        -0.37300E+03
        -0.37300E+03
        -0.37300E+03
        -0.37300E+03
        -0.37300E+03
        -0.37300E+03
        -0.37300E+03
        -0.37300E+03
        -0.37300E+03
        -0.37300E+03
        -0.37300E+03
        -0.37300E+03
        -0.37300E+03
        -0.37300E+03
        -0.37300E+03
        -0.37300E+03
        -0.37300E+03
        -0.37300E+03
        -0.37300E+03
        -0.37300E+03
        -0.37300E+03
        -0.37300E+03
        -0.37300E+03
        -0.37300E+03
        -0.37300E+03
        -0.37300E+03
        -0.37300E+03
        -0.37300E+03
        -0.37300E+03
        -0.37300E+03
        -0.37300E+03
        -0.37300E+03
        -0.37300E+03
        -0.37300E+03
        -0.37300E+03
        -0.37300E+03
        -0.37300E+03
        -0.37300E+03
        -0.37300E+03
        -0.37300E+03
        -0.37300E+03
        -0.37300E+03
        -0.37300E+03
        -0.37300E+03
        -0.37300E+03
        -0.37300E+03
        -0.37300E+03
        -0.37300E+03
        -0.37300E+03
        -0.37300E+03
        -0.37300E+03
        -0.37300E+03
        -0.37300E+03
        -0.37300E+03
        -0.37300E+03
        -0.37300E+03
        -0.37300E+03
        -0.37300E+03
        -0.37300E+03
        -0.37300E+03
        -0.37300E+03
        -0.37300E+03
        -0.37300E+03
        -0.37300E+03
        -0.37300E+03
        -0.37300E+03
        -0.37300E+03
        -0.37300E+03
        -0.37300E+03
        -0.37300E+03
        -0.37300E+03
        -0.37300E+03
        -0.37300E+03
        -0.37300E+03
        -0.37300E+03
        -0.37300E+03
        -0.37300E+03
        -0.37300E+03
        -0.37300E+03
        -0.37300E+03
        -0.37300E+03
        -0.37300E+03
        -0.37300E+03
        -0.37300E+03
        -0.37300E+03
        -0.37300E+03
        -0.37300E+03
        -0.37300E+03
        -0.37300E+03
        -0.37300E+03
        -0.37300E+03
        -0.37300E+03
        -0.37300E+03
        -0.37300E+03
        -0.37300E+03
        -0.37300E+03
        -0.37300E+03
        -0.37300E+03
        -0.37300E+03
        -0.37300E+03
        -0.37300E+03
        -0.37300E+03
        -0.37300E+03
        -0.37300E+03
        -0.37300E+03
        -0.37300E+03
        -0.37300E+03
        -0.37300E+03
        -0.37300E+03
        -0.37300E+03
        -0.37300E+03
        -0.37300E+03
        -0.37300E+03
        -0.37300E+03
        -0.37300E+03
        -0.37300E+03
        -0.37300E+03
        -0.37300E+03
        -0.37300E+03
        -0.37300E+03
        -0.37300E+03
        -0.37300E+03
        -0.37300E+03
        -0.37300E+03
        -0.37300E+03
        -0.37300E+03
        -0.37300E+03
        -0.37300E+03
        -0.37300E+03
        -0.37300E+03
        -0.37300E+03
        -0.37300E+03
        -0.37300E+03
        -0.37300E+03
        -0.37300E+03
        -0.37300E+03
        -0.37300E+03
        -0.37300E+03
        -0.37300E+03
        -0.37300E+03
        -0.37300E+03
        -0.37300E+03
        -0.37300E+03
        -0.37300E+03
        -0.37300E+03
        -0.37300E+03
        -0.37300E+03
        -0.37300E+03
        -0.37300E+03
        -0.37300E+03
        -0.37300E+03
        -0.37300E+03
        -0.37300E+03
        -0.37300E+03
        -0.37300E+03
        -0.37300E+03
        -0.37300E+03
        -0.37300E+03
        -0.37300E+03
        -0.37300E+03
        -0.37300E+03
        -0.37300E+03
        -0.37300E+03
        -0.37300E+03
        -0.37300E+03
        -0.37300E+03
        -0.37300E+03
        -0.37300E+03
        -0.37300E+03
        -0.37300E+03
        -0.37300E+03
        -0.37300E+03
        -0.37300E+03
        -0.37300E+03
        -0.37300E+03
        -0.37300E+03
        -0.37300E+03
        -0.37300E+03
        -0.37300E+03
        -0.37300E+03
        -0.37300E+03
        -0.37300E+03
        -0.37300E+03
        -0.37300E+03
        -0.37300E+03
        -0.37300E+03
        -0.37300E+03
        -0.37300E+03
        -0.37300E+03
        -0.37300E+03
        -0.37300E+03
        -0.37300E+03
        -0.37300E+03
        -0.37300E+03
        -0.37300E+03
        -0.37300E+03
        -0.37300E+03
        -0.37300E+03
        -0.37300E+03
        -0.37300E+03
        -0.37300E+03
        -0.37300E+03
        -0.37300E+03
        -0.37300E+03
        -0.37300E+03
        -0.37300E+03
        -0.37300E+03
        -0.37300E+03
        -0.37300E+03
        -0.37300E+03
        -0.37300E+03
        -0.37300E+03
        -0.37300E+03
        -0.37300E+03
        -0.37300E+03
        -0.37300E+03
        -0.37300E+03
        -0.37300E+03
        -0.37300E+03
        -0.37300E+03
        -0.37300E+03
        -0.37300E+03
        -0.37300E+03
        -0.37300E+03
        -0.37300E+03
        -0.37300E+03
        -0.37300E+03
        -0.37300E+03
        -0.37300E+03
        -0.37300E+03
        -0.37300E+03
        -0.37300E+03
        -0.37300E+03
        -0.37300E+03
        -0.37300E+03
        -0.37300E+03
        -0.37300E+03
        -0.37300E+03
        -0.37300E+03
        -0.37300E+03
        -0.37300E+03
        -0.37300E+03
        -0.37300E+03
        -0.37300E+03
        -0.37300E+03
        -0.37300E+03
        -0.37300E+03
        -0.37300E+03
        -0.37300E+03
        -0.37300E+03
        -0.37300E+03
        -0.37300E+03
        -0.37300E+03
        -0.37300E+03
        -0.37300E+03
        -0.37300E+03
        -0.37300E+03
        -0.37300E+03
        -0.37300E+03
        -0.37300E+03
        -0.37300E+03
        -0.37300E+03
        -0.37300E+03
        -0.37300E+03
        -0.37300E+03
        -0.37300E+03
        -0.37300E+03
        -0.37300E+03
        -0.37300E+03
        -0.37300E+03
        -0.37300E+03
        -0.37300E+03
        -0.37300E+03
        -0.37300E+03
        -0.37300E+03
        -0.37300E+03
        -0.37300E+03
        -0.37300E+03
        -0.37300E+03
        -0.37300E+03
        -0.37300E+03
        -0.37300E+03
        -0.37300E+03
        -0.37300E+03
        -0.37300E+03
        -0.37300E+03
        -0.37300E+03
        -0.37300E+03
        -0.37300E+03
        -0.37300E+03
        -0.37300E+03
        -0.37300E+03
        -0.37300E+03
        -0.37300E+03
        -0.37300E+03
        -0.37300E+03
        -0.37300E+03
        -0.37300E+03
        -0.37300E+03
        -0.37300E+03
        -0.37300E+03
        -0.37300E+03
        -0.37300E+03
        -0.37300E+03
        -0.37300E+03
        -0.37300E+03
        -0.37300E+03
        -0.37300E+03
        -0.37300E+03
        -0.37300E+03
        -0.37300E+03
        -0.37300E+03
        -0.37300E+03
        -0.37300E+03
        -0.37300E+03
        -0.37300E+03
        -0.37300E+03
        -0.37300E+03
        -0.37300E+03
        -0.37300E+03
        -0.37300E+03
        -0.37300E+03
        -0.37300E+03
        -0.37300E+03
        -0.37300E+03
        -0.37300E+03
        -0.37300E+03
        -0.37300E+03
        -0.37300E+03
        -0.37300E+03
        -0.37300E+03
        -0.37300E+03
        -0.37300E+03
        -0.37300E+03
        -0.37300E+03
        -0.37300E+03
        -0.37300E+03
        -0.37300E+03
        -0.37300E+03
        -0.37300E+03
        -0.37300E+03
        -0.37300E+03
        -0.37300E+03
        -0.37300E+03
        -0.37300E+03
        -0.37300E+03
        -0.37300E+03
        -0.37300E+03
        -0.37300E+03
        -0.37300E+03
        -0.37300E+03
        -0.37300E+03
        -0.37300E+03
        -0.37300E+03
        -0.37300E+03
        -0.37300E+03
        -0.37300E+03
        -0.37300E+03
        -0.37300E+03
        -0.37300E+03
        -0.37300E+03
        -0.37300E+03
        -0.37300E+03
        -0.37300E+03
        -0.37300E+03
        -0.37300E+03
        -0.37300E+03
        -0.37300E+03
        -0.37300E+03
        -0.37300E+03
        -0.37300E+03
        -0.37300E+03
        -0.37300E+03
        -0.37300E+03
        -0.37300E+03
        -0.37300E+03
        -0.37300E+03
        -0.37300E+03
        -0.37300E+03
        -0.37300E+03
        -0.37300E+03
        -0.37300E+03
        -0.37300E+03
        -0.37300E+03
        -0.37300E+03
        -0.37300E+03
        -0.37300E+03
        -0.37300E+03
        -0.37300E+03
        -0.37300E+03
        -0.37300E+03
        -0.37300E+03
        -0.37300E+03
        -0.37300E+03
        -0.37300E+03
        -0.37300E+03
        -0.37300E+03
        -0.37300E+03
        -0.37300E+03
        -0.37300E+03
        -0.37300E+03
        -0.37300E+03
        -0.37300E+03
        -0.37300E+03
        -0.37300E+03
        -0.37300E+03
        -0.37300E+03
        -0.37300E+03
        -0.37300E+03
        -0.37300E+03
        -0.37300E+03
        -0.37300E+03
        -0.37300E+03
        -0.37300E+03
        -0.37300E+03
        -0.37300E+03
        -0.37300E+03
        -0.37300E+03
        -0.37300E+03
        -0.37300E+03
        -0.37300E+03
        -0.37300E+03
        -0.37300E+03
        -0.37300E+03
        -0.37300E+03
        -0.37300E+03
        -0.37300E+03
        -0.37300E+03
        -0.37300E+03
        -0.37300E+03
        -0.37300E+03
        -0.37300E+03
        -0.37300E+03
        -0.37300E+03
        -0.37300E+03
        -0.37300E+03
        -0.37300E+03
        -0.37300E+03
        -0.37300E+03
        -0.37300E+03
        -0.37300E+03
        -0.37300E+03
        -0.37300E+03
        -0.37300E+03
        -0.37300E+03
        -0.37300E+03
        -0.37300E+03
        -0.37300E+03
        -0.37300E+03
        -0.37300E+03
        -0.37300E+03
        -0.37300E+03
        -0.37300E+03
        -0.37300E+03
        -0.37300E+03
        -0.37300E+03
        -0.37300E+03
        -0.37300E+03
        -0.37300E+03
        -0.37300E+03
        -0.37300E+03
        -0.37300E+03
        -0.37300E+03
        -0.37300E+03
        -0.37300E+03
        -0.37300E+03
        -0.37300E+03
        -0.37300E+03
        -0.37300E+03
        -0.37300E+03
        -0.37300E+03
        -0.37300E+03
        -0.37300E+03
        -0.37300E+03
        -0.37300E+03
        -0.37300E+03
        -0.37300E+03
        -0.37300E+03
        -0.37300E+03
        -0.37300E+03
        -0.37300E+03
        -0.37300E+03
        -0.37300E+03
        -0.37300E+03
        -0.37300E+03
        -0.37300E+03
        -0.37300E+03
        -0.37300E+03
        -0.37300E+03
        -0.37300E+03
        -0.37300E+03
        -0.37300E+03
        -0.37300E+03
        -0.37300E+03
        -0.37300E+03
        -0.37300E+03
        -0.37300E+03
        -0.37300E+03
        -0.37300E+03
        -0.37300E+03
        -0.37300E+03
        -0.37300E+03
        -0.37300E+03
        -0.37300E+03
        -0.37300E+03
        -0.37300E+03
        -0.37300E+03
        -0.37300E+03
        -0.37300E+03
        -0.37300E+03
        -0.37300E+03
        -0.37300E+03
        -0.37300E+03
        -0.37300E+03
        -0.37300E+03
        -0.37300E+03
        -0.37300E+03
        -0.37300E+03
        -0.37300E+03
        -0.37300E+03
        -0.37300E+03
        -0.37300E+03
        -0.37300E+03
        -0.37300E+03
        -0.37300E+03
        -0.37300E+03
        -0.37300E+03
        -0.37300E+03
        -0.37300E+03
        -0.37300E+03
        -0.37300E+03
        -0.37300E+03
        -0.37300E+03
        -0.37300E+03
        -0.37300E+03
        -0.37300E+03
        -0.37300E+03
        -0.37300E+03
        -0.37300E+03
        -0.37300E+03
        -0.37300E+03
        -0.37300E+03
        -0.37300E+03
        -0.37300E+03
        -0.37300E+03
        -0.37300E+03
        -0.37300E+03
        -0.37300E+03
        -0.37300E+03
        -0.37300E+03
        -0.37300E+03
        -0.37300E+03
        -0.37300E+03
        -0.37300E+03
        -0.37300E+03
        -0.37300E+03
        -0.37300E+03
        -0.37300E+03
        -0.37300E+03
        -0.37300E+03
        -0.37300E+03
        -0.37300E+03
        -0.37300E+03
        -0.37300E+03
        -0.37300E+03
        -0.37300E+03
        -0.37300E+03
        -0.37300E+03
        -0.37300E+03
        -0.37300E+03
        -0.37300E+03
        -0.37300E+03
        -0.37300E+03
        -0.37300E+03
        -0.37300E+03
        -0.37300E+03
        -0.37300E+03
        -0.37300E+03
        -0.37300E+03
        -0.37300E+03
        -0.37300E+03
        -0.37300E+03
        -0.37300E+03
        -0.37300E+03
        -0.37300E+03
        -0.37300E+03
        -0.37300E+03
        -0.37300E+03
        -0.37300E+03
        -0.37300E+03
        -0.37300E+03
        -0.37300E+03
        -0.37300E+03
        -0.37300E+03
        -0.37300E+03
        -0.37300E+03
        -0.37300E+03
        -0.37300E+03
        -0.37300E+03
        -0.37300E+03
        -0.37300E+03
        -0.37300E+03
        -0.37300E+03
        -0.37300E+03
        -0.37300E+03
        -0.37300E+03
        -0.37300E+03
        -0.37300E+03
        -0.37300E+03
        -0.37300E+03
        -0.37300E+03
        -0.37300E+03
        -0.37300E+03
        -0.37300E+03
        -0.37300E+03
        -0.37300E+03
        -0.37300E+03
        -0.37300E+03
        -0.37300E+03
        -0.37300E+03
        -0.37300E+03
        -0.37300E+03
        -0.37300E+03
        -0.37300E+03
        -0.37300E+03
        -0.37300E+03
        -0.37300E+03
        -0.37300E+03
        -0.37300E+03
        -0.37300E+03
        -0.37300E+03
        -0.37300E+03
        -0.37300E+03
        -0.37300E+03
        -0.37300E+03
        -0.37300E+03
        -0.37300E+03
        -0.37300E+03
        -0.37300E+03
        -0.37300E+03
        -0.37300E+03
        -0.37300E+03
        -0.37300E+03
        -0.37300E+03
        -0.37300E+03
        -0.37300E+03
        -0.37300E+03
        -0.37300E+03
        -0.37300E+03
        -0.37300E+03
        -0.37300E+03
        -0.37300E+03
        -0.37300E+03
        -0.37300E+03
        -0.37300E+03
        -0.37300E+03
        -0.37300E+03
        -0.37300E+03
        -0.37300E+03
        -0.37300E+03
        -0.37300E+03
        -0.37300E+03
        -0.37300E+03
        -0.37300E+03
        -0.37300E+03
        -0.37300E+03
        -0.37300E+03
        -0.37300E+03
        -0.37300E+03
        -0.37300E+03
        -0.37300E+03
        -0.37300E+03
        -0.37300E+03
        -0.37300E+03
        -0.37300E+03
        -0.37300E+03
        -0.37300E+03
        -0.37300E+03
        -0.37300E+03
        -0.37300E+03
        -0.37300E+03
        -0.37300E+03
        -0.37300E+03
        -0.37300E+03
        -0.37300E+03
        -0.37300E+03
        -0.37300E+03
        -0.37300E+03
        -0.37300E+03
        -0.37300E+03
        -0.37300E+03
        -0.37300E+03
        -0.37300E+03
        -0.37300E+03
        -0.37300E+03
        -0.37300E+03
        -0.37300E+03
        -0.37300E+03
        -0.37300E+03
        -0.37300E+03
        -0.37300E+03
        -0.37300E+03
        -0.37300E+03
        -0.37300E+03
        -0.37300E+03
        -0.37300E+03
        -0.37300E+03
        -0.37300E+03
        -0.37300E+03
        -0.37300E+03
        -0.37300E+03
        -0.37300E+03
        -0.37300E+03
        -0.37300E+03
        -0.37300E+03
        -0.37300E+03
        -0.37300E+03
        -0.37300E+03
        -0.37300E+03
        -0.37300E+03
        -0.37300E+03
        -0.37300E+03
        -0.37300E+03
        -0.37300E+03
        -0.37300E+03
        -0.37300E+03
        -0.37300E+03
        -0.37300E+03
        -0.37300E+03
        -0.37300E+03
        -0.37300E+03
        -0.37300E+03
        -0.37300E+03
        -0.37300E+03
        -0.37300E+03
        -0.37300E+03
        -0.37300E+03
        -0.37300E+03
        -0.37300E+03
        -0.37300E+03
        -0.37300E+03
        -0.37300E+03
        -0.37300E+03
        -0.37300E+03
        -0.37300E+03
        -0.37300E+03
        -0.37300E+03
        -0.37300E+03
        -0.37300E+03
        -0.37300E+03
        -0.37300E+03
        -0.37300E+03
        -0.37300E+03
        -0.37300E+03
        -0.37300E+03
        -0.37300E+03
        -0.37300E+03
        -0.37300E+03
        -0.37300E+03
        -0.37300E+03
        -0.37300E+03
        -0.37300E+03
        -0.37300E+03
        -0.37300E+03
        -0.37300E+03
        -0.37300E+03
        -0.37300E+03
        -0.37300E+03
        -0.37300E+03
        -0.37300E+03
        -0.37300E+03
        -0.37300E+03
        -0.37300E+03
        -0.37300E+03
        -0.37300E+03
        -0.37300E+03
        -0.37300E+03
        -0.37300E+03
        -0.37300E+03
        -0.37300E+03
        -0.37300E+03
        -0.37300E+03
        -0.37300E+03
        -0.37300E+03
        -0.37300E+03
        -0.37300E+03
        -0.37300E+03
        -0.37300E+03
        -0.37300E+03
        -0.37300E+03
        -0.37300E+03
        -0.37300E+03
        -0.37300E+03
        -0.37300E+03
        -0.37300E+03
        -0.37300E+03
        -0.37300E+03
        -0.37300E+03
        -0.37300E+03
        -0.37300E+03
        -0.37300E+03
        -0.37300E+03
        -0.37300E+03
        -0.37300E+03
        -0.37300E+03
        -0.37300E+03
        -0.37300E+03
        -0.37300E+03
        -0.37300E+03
        -0.37300E+03
        -0.37300E+03
        -0.37300E+03
        -0.37300E+03
        -0.37300E+03
        -0.37300E+03
        -0.37300E+03
        -0.37300E+03
        -0.37300E+03
        -0.37300E+03
        -0.37300E+03
        -0.37300E+03
        -0.37300E+03
        -0.37300E+03
        -0.37300E+03
        -0.37300E+03
        -0.37300E+03
        -0.37300E+03
        -0.37300E+03
        -0.37300E+03
        -0.37300E+03
        -0.37300E+03
        -0.37300E+03
        -0.37300E+03
        -0.37300E+03
        -0.37300E+03
        -0.37300E+03
        -0.37300E+03
        -0.37300E+03
        -0.37300E+03
        -0.37300E+03
        -0.37300E+03
        -0.37300E+03
        -0.37300E+03
        -0.37300E+03
        -0.37300E+03
        -0.37300E+03
        -0.37300E+03
        -0.37300E+03
        -0.37300E+03
        -0.37300E+03
        -0.37300E+03
        -0.37300E+03
        -0.37300E+03
        -0.37300E+03
        -0.37300E+03
        -0.37300E+03
        -0.37300E+03
        -0.37300E+03
        -0.37300E+03
        -0.37300E+03
        -0.37300E+03
        -0.37300E+03
        -0.37300E+03
        -0.37300E+03
        -0.37300E+03
        -0.37300E+03
        -0.37300E+03
        -0.37300E+03
        -0.37300E+03
        -0.37300E+03
        -0.37300E+03
        -0.37300E+03
        -0.37300E+03
        -0.37300E+03
        -0.37300E+03
        -0.37300E+03
        -0.37300E+03
        -0.37300E+03
        -0.37300E+03
        -0.37300E+03
        -0.37300E+03
        -0.37300E+03
        -0.37300E+03
        -0.37300E+03
        -0.37300E+03
        -0.37300E+03
        -0.37300E+03
        -0.37300E+03
        -0.37300E+03
        -0.37300E+03
        -0.37300E+03
        -0.37300E+03
        -0.37300E+03
        -0.37300E+03
        -0.37300E+03
        -0.37300E+03
        -0.37300E+03
        -0.37300E+03
        -0.37300E+03
        -0.37300E+03
        -0.37300E+03
        -0.37300E+03
        -0.37300E+03
        -0.37300E+03
        -0.37300E+03
        -0.37300E+03
        -0.37300E+03
        -0.37300E+03
        -0.37300E+03
        -0.37300E+03
        -0.37300E+03
        -0.37300E+03
        -0.37300E+03
        -0.37300E+03
        -0.37300E+03
        -0.37300E+03
        -0.37300E+03
        -0.37300E+03
        -0.37300E+03
        -0.37300E+03
        -0.37300E+03
        -0.37300E+03
        -0.37300E+03
        -0.37300E+03
        -0.37300E+03
        -0.37300E+03
        -0.37300E+03
        -0.37300E+03
        -0.37300E+03
        -0.37300E+03
        -0.37300E+03
        -0.37300E+03
        -0.37300E+03
        -0.37300E+03
        -0.37300E+03
        -0.37300E+03
        -0.37300E+03
        -0.37300E+03
        -0.37300E+03
        -0.37300E+03
        -0.37300E+03
        -0.37300E+03
        -0.37300E+03
        -0.37300E+03
        -0.37300E+03
        -0.37300E+03
        -0.37300E+03
        -0.37300E+03
        -0.37300E+03
        -0.37300E+03
        -0.37300E+03
        -0.37300E+03
        -0.37300E+03
        -0.37300E+03
        -0.37300E+03
        -0.37300E+03
        -0.37300E+03
        -0.37300E+03
        -0.37300E+03
        -0.37300E+03
        -0.37300E+03
        -0.37300E+03
        -0.37300E+03
        -0.37300E+03
        -0.37300E+03
        -0.37300E+03
        -0.37300E+03
        -0.37300E+03
        -0.37300E+03
        -0.37300E+03
        -0.37300E+03
        -0.37300E+03
        -0.37300E+03
        -0.37300E+03
        -0.37300E+03
        -0.37300E+03
        -0.37300E+03
        -0.37300E+03
        -0.37300E+03
        -0.37300E+03
        -0.37300E+03
        -0.37300E+03
        -0.37300E+03
        -0.37300E+03
        -0.37300E+03
        -0.37300E+03
        -0.37300E+03
        -0.37300E+03
        -0.37300E+03
        -0.37300E+03
        -0.37300E+03
        -0.37300E+03
        -0.37300E+03
        -0.37300E+03
        -0.37300E+03
        -0.37300E+03
        -0.37300E+03
        -0.37300E+03
        -0.37300E+03
        -0.37300E+03
        -0.37300E+03
        -0.37300E+03
        -0.37300E+03
        -0.37300E+03
        -0.37300E+03
        -0.37300E+03
        -0.37300E+03
        -0.37300E+03
        -0.37300E+03
        -0.37300E+03
        -0.37300E+03
        -0.37300E+03
        -0.37300E+03
        -0.37300E+03
        -0.37300E+03
        -0.37300E+03
        -0.37300E+03
        -0.37300E+03
        -0.37300E+03
        -0.37300E+03
        -0.37300E+03
        -0.37300E+03
        -0.37300E+03
        -0.37300E+03
        -0.37300E+03
        -0.37300E+03
        -0.37300E+03
        -0.37300E+03
        -0.37300E+03
        -0.37300E+03
        -0.37300E+03
        -0.37300E+03
        -0.37300E+03
        -0.37300E+03
        -0.37300E+03
        -0.37300E+03
        -0.37300E+03
        -0.37300E+03
        -0.37300E+03
        -0.37300E+03
        -0.37300E+03
        -0.37300E+03
        -0.37300E+03
        -0.37300E+03
        -0.37300E+03
        -0.37300E+03
        -0.37300E+03
        -0.37300E+03
        -0.37300E+03
        -0.37300E+03
        -0.37300E+03
        -0.37300E+03
        -0.37300E+03
        -0.37300E+03
        -0.37300E+03
        -0.37300E+03
        -0.37300E+03
        -0.37300E+03
        -0.37300E+03
        -0.37300E+03
        -0.37300E+03
        -0.37300E+03
        -0.37300E+03
        -0.37300E+03
        -0.37300E+03
        -0.37300E+03
        -0.37300E+03
        -0.37300E+03
        -0.37300E+03
        -0.37300E+03
        -0.37300E+03
        -0.37300E+03
        -0.37300E+03
        -0.37300E+03
        -0.37300E+03
        -0.37300E+03
        -0.37300E+03
        -0.37300E+03
        -0.37300E+03
        -0.37300E+03
        -0.37300E+03
        -0.37300E+03
        -0.37300E+03
        -0.37300E+03
        -0.37300E+03
        -0.37300E+03
        -0.37300E+03
        -0.37300E+03
        -0.37300E+03
        -0.37300E+03
        -0.37300E+03
        -0.37300E+03
        -0.37300E+03
        -0.37300E+03
        -0.37300E+03
        -0.37300E+03
        -0.37300E+03
        -0.37300E+03
        -0.37300E+03
        -0.37300E+03
        -0.37300E+03
        -0.37300E+03
        -0.37300E+03
        -0.37300E+03
        -0.37300E+03
        -0.37300E+03
        -0.37300E+03
        -0.37300E+03
        -0.37300E+03
        -0.37300E+03
        -0.37300E+03
        -0.37300E+03
        -0.37300E+03
        -0.37300E+03
        -0.37300E+03
        -0.37300E+03
        -0.37300E+03
        -0.37300E+03
        -0.37300E+03
        -0.37300E+03
        -0.37300E+03
        -0.37300E+03
        -0.37300E+03
        -0.37300E+03
        -0.37300E+03
        -0.37300E+03
        -0.37300E+03
        -0.37300E+03
        -0.37300E+03
        -0.37300E+03
        -0.37300E+03
        -0.37300E+03
        -0.37300E+03
        -0.37300E+03
        -0.37300E+03
        -0.37300E+03
        -0.37300E+03
        -0.37300E+03
        -0.37300E+03
        -0.37300E+03
        -0.37300E+03
        -0.37300E+03
        -0.37300E+03
        -0.37300E+03
        -0.37300E+03
        -0.37300E+03
        -0.37300E+03
        -0.37300E+03
        -0.37300E+03
        -0.37300E+03
        -0.37300E+03
        -0.37300E+03
        -0.37300E+03
        -0.37300E+03
        -0.37300E+03
        -0.37300E+03
        -0.37300E+03
        -0.37300E+03
        -0.37300E+03
        -0.37300E+03
        -0.37300E+03
        -0.37300E+03
        -0.37300E+03
        -0.37300E+03
        -0.37300E+03
        -0.37300E+03
        -0.37300E+03
        -0.37300E+03
        -0.37300E+03
        -0.37300E+03
        -0.37300E+03
        -0.37300E+03
        -0.37300E+03
        -0.37300E+03
        -0.37300E+03
        -0.37300E+03
        -0.37300E+03
        -0.37300E+03
        -0.37300E+03
        -0.37300E+03
        -0.37300E+03
        -0.37300E+03
        -0.37300E+03
        -0.37300E+03
        -0.37300E+03
        -0.37300E+03
        -0.37300E+03
        -0.37300E+03
        -0.37300E+03
        -0.37300E+03
        -0.37300E+03
        -0.37300E+03
        -0.37300E+03
        -0.37300E+03
        -0.37300E+03
        -0.37300E+03
        -0.37300E+03
        -0.37300E+03
        -0.37300E+03
        -0.37300E+03
        -0.37300E+03
        -0.37300E+03
        -0.37300E+03
        -0.37300E+03
        -0.37300E+03
        -0.37300E+03
        -0.37300E+03
        -0.37300E+03
        -0.37300E+03
        -0.37300E+03
        -0.37300E+03
        -0.37300E+03
        -0.37300E+03
        -0.37300E+03
        -0.37300E+03
        -0.37300E+03
        -0.37300E+03
        -0.37300E+03
        -0.37300E+03
        -0.37300E+03
        -0.37300E+03
        -0.37300E+03
        -0.37300E+03
        -0.37300E+03
        -0.37300E+03
        -0.37300E+03
        -0.37300E+03
        -0.37300E+03
        -0.37300E+03
        -0.37300E+03
        -0.37300E+03
        -0.37300E+03
        -0.37300E+03
        -0.37300E+03
        -0.37300E+03
        -0.37300E+03
        -0.37300E+03
        -0.37300E+03
        -0.37300E+03
        -0.37300E+03
        -0.37300E+03
        -0.37300E+03
        -0.37300E+03
        -0.37300E+03
        -0.37300E+03
        -0.37300E+03
        -0.37300E+03
        -0.37300E+03
        -0.37300E+03
        -0.37300E+03
        -0.37300E+03
        -0.37300E+03
        -0.37300E+03
        -0.37300E+03
        -0.37300E+03
        -0.37300E+03
        -0.37300E+03
        -0.37300E+03
        -0.37300E+03
        -0.37300E+03
        -0.37300E+03
        -0.37300E+03
        -0.37300E+03
        -0.37300E+03
        -0.37300E+03
        -0.37300E+03
        -0.37300E+03
        -0.37300E+03
        -0.37300E+03
        -0.37300E+03
        -0.37300E+03
        -0.37300E+03
        -0.37300E+03
        -0.37300E+03
        -0.37300E+03
        -0.37300E+03
        -0.37300E+03
        -0.37300E+03
        -0.37300E+03
        -0.37300E+03
        -0.37300E+03
        -0.37300E+03
        -0.37300E+03
        -0.37300E+03
        -0.37300E+03
        -0.37300E+03
        -0.37300E+03
        -0.37300E+03
        -0.37300E+03
        -0.37300E+03
        -0.37300E+03
        -0.37300E+03
        -0.37300E+03
        -0.37300E+03
        -0.37300E+03
        -0.37300E+03
        -0.37300E+03
        -0.37300E+03
        -0.37300E+03
        -0.37300E+03
        -0.37300E+03
        -0.37300E+03
        -0.37300E+03
        -0.37300E+03
        -0.37300E+03
        -0.37300E+03
        -0.37300E+03
        -0.37300E+03
        -0.37300E+03
        -0.37300E+03
        -0.37300E+03
        -0.37300E+03
        -0.37300E+03
        -0.37300E+03
        -0.37300E+03
        -0.37300E+03
        -0.37300E+03
        -0.37300E+03
        -0.37300E+03
        -0.37300E+03
        -0.37300E+03
        -0.37300E+03
        -0.37300E+03
        -0.37300E+03
        -0.37300E+03
        -0.37300E+03
        -0.37300E+03
        -0.37300E+03
        -0.37300E+03
        -0.37300E+03
        -0.37300E+03
        -0.37300E+03
        -0.37300E+03
        -0.37300E+03
        -0.37300E+03
        -0.37300E+03
        -0.37300E+03
        -0.37300E+03
        -0.37300E+03
        -0.37300E+03
        -0.37300E+03
        -0.37300E+03
        -0.37300E+03
        -0.37300E+03
        -0.37300E+03
        -0.37300E+03
        -0.37300E+03
        -0.37300E+03
        -0.37300E+03
        -0.37300E+03
        -0.37300E+03
        -0.37300E+03
        -0.37300E+03
        -0.37300E+03
        -0.37300E+03
        -0.37300E+03
        -0.37300E+03
        -0.37300E+03
        -0.37300E+03
        -0.37300E+03
        -0.37300E+03
        -0.37300E+03
        -0.37300E+03
        -0.37300E+03
        -0.37300E+03
        -0.37300E+03
        -0.37300E+03
        -0.37300E+03
        -0.37300E+03
        -0.37300E+03
        -0.37300E+03
        -0.37300E+03
        -0.37300E+03
        -0.37300E+03
        -0.37300E+03
        -0.37300E+03
        -0.37300E+03
        -0.37300E+03
        -0.37300E+03
        -0.37300E+03
        -0.37300E+03
        -0.37300E+03
        -0.37300E+03
        -0.37300E+03
        -0.37300E+03
        -0.37300E+03
        -0.37300E+03
        -0.37300E+03
        -0.37300E+03
        -0.37300E+03
        -0.37300E+03
        -0.37300E+03
        -0.37300E+03
        -0.37300E+03
        -0.37300E+03
        -0.37300E+03
        -0.37300E+03
        -0.37300E+03
        -0.37300E+03
        -0.37300E+03
        -0.37300E+03
        -0.37300E+03
        -0.37300E+03
        -0.37300E+03
        -0.37300E+03
        -0.37300E+03
        -0.37300E+03
        -0.37300E+03
        -0.37300E+03
        -0.37300E+03
        -0.37300E+03
        -0.37300E+03
        -0.37300E+03
        -0.37300E+03
        -0.37300E+03
  
SCALARS              normalized_window  double 1
LOOKUP_TABLE default
         0.27500E+01
         0.27500E+01
         0.27500E+01
         0.27500E+01
         0.27500E+01
         0.27500E+01
         0.27500E+01
         0.27500E+01
         0.27500E+01
         0.27500E+01
         0.27500E+01
         0.27500E+01
         0.27500E+01
         0.27500E+01
         0.27500E+01
         0.27500E+01
         0.27500E+01
         0.27500E+01
         0.27500E+01
         0.27500E+01
         0.27500E+01
         0.27500E+01
         0.27500E+01
         0.27500E+01
         0.27500E+01
         0.27500E+01
         0.27500E+01
         0.27500E+01
         0.27500E+01
         0.27500E+01
         0.27500E+01
         0.27500E+01
         0.27500E+01
         0.27500E+01
         0.27500E+01
         0.27500E+01
         0.27500E+01
         0.27500E+01
         0.27500E+01
         0.27500E+01
         0.27500E+01
         0.27500E+01
         0.27500E+01
         0.27500E+01
         0.27500E+01
         0.27500E+01
         0.27500E+01
         0.27500E+01
         0.27500E+01
         0.27500E+01
         0.27500E+01
         0.27500E+01
         0.27500E+01
         0.27500E+01
         0.27500E+01
         0.27500E+01
         0.27500E+01
         0.27500E+01
         0.27500E+01
         0.27500E+01
         0.27500E+01
         0.27500E+01
         0.27500E+01
         0.27500E+01
         0.27500E+01
         0.27500E+01
         0.27500E+01
         0.27500E+01
         0.27500E+01
         0.27500E+01
         0.27500E+01
         0.27500E+01
         0.27500E+01
         0.27500E+01
         0.27500E+01
         0.27500E+01
         0.27500E+01
         0.27500E+01
         0.27500E+01
         0.27500E+01
         0.27500E+01
         0.27500E+01
         0.27500E+01
         0.27500E+01
         0.27500E+01
         0.27500E+01
         0.27500E+01
         0.27500E+01
         0.27500E+01
         0.27500E+01
         0.27500E+01
         0.27500E+01
         0.27500E+01
         0.27500E+01
         0.27500E+01
         0.27500E+01
         0.27500E+01
         0.27500E+01
         0.27500E+01
         0.27500E+01
         0.27500E+01
         0.27500E+01
         0.27500E+01
         0.27500E+01
         0.27500E+01
         0.27500E+01
         0.27500E+01
         0.27500E+01
         0.27500E+01
         0.27500E+01
         0.27500E+01
         0.27500E+01
         0.27500E+01
         0.27500E+01
         0.27500E+01
         0.27500E+01
         0.27500E+01
         0.27500E+01
         0.27500E+01
         0.27500E+01
         0.27500E+01
         0.27500E+01
         0.27500E+01
         0.27500E+01
         0.27500E+01
         0.27500E+01
         0.27500E+01
         0.27500E+01
         0.27500E+01
         0.27500E+01
         0.27500E+01
         0.27500E+01
         0.27500E+01
         0.27500E+01
         0.27500E+01
         0.27500E+01
         0.27500E+01
         0.27500E+01
         0.27500E+01
         0.27500E+01
         0.27500E+01
         0.27500E+01
         0.27500E+01
         0.27500E+01
         0.27500E+01
         0.27500E+01
         0.27500E+01
         0.27500E+01
         0.27500E+01
         0.27500E+01
         0.27500E+01
         0.27500E+01
         0.27500E+01
         0.27500E+01
         0.27500E+01
         0.27500E+01
         0.27500E+01
         0.27500E+01
         0.27500E+01
         0.27500E+01
         0.27500E+01
         0.27500E+01
         0.27500E+01
         0.27500E+01
         0.27500E+01
         0.27500E+01
         0.27500E+01
         0.27500E+01
         0.27500E+01
         0.27500E+01
         0.27500E+01
         0.27500E+01
         0.27500E+01
         0.27500E+01
         0.27500E+01
         0.27500E+01
         0.27500E+01
         0.27500E+01
         0.27500E+01
         0.27500E+01
         0.27500E+01
         0.27500E+01
         0.27500E+01
         0.27500E+01
         0.27500E+01
         0.27500E+01
         0.27500E+01
         0.27500E+01
         0.27500E+01
         0.27500E+01
         0.27500E+01
         0.27500E+01
         0.27500E+01
         0.27500E+01
         0.27500E+01
         0.27500E+01
         0.27500E+01
         0.27500E+01
         0.27500E+01
         0.27500E+01
         0.27500E+01
         0.27500E+01
         0.27500E+01
         0.27500E+01
         0.27500E+01
         0.27500E+01
         0.27500E+01
         0.27500E+01
         0.27500E+01
         0.27500E+01
         0.27500E+01
         0.27500E+01
         0.27500E+01
         0.27500E+01
         0.27500E+01
         0.27500E+01
         0.27500E+01
         0.27500E+01
         0.27500E+01
         0.27500E+01
         0.27500E+01
         0.27500E+01
         0.27500E+01
         0.27500E+01
         0.27500E+01
         0.27500E+01
         0.27500E+01
         0.27500E+01
         0.27500E+01
         0.27500E+01
         0.27500E+01
         0.27500E+01
         0.27500E+01
         0.27500E+01
         0.27500E+01
         0.27500E+01
         0.27500E+01
         0.27500E+01
         0.27500E+01
         0.27500E+01
         0.27500E+01
         0.27500E+01
         0.27500E+01
         0.27500E+01
         0.27500E+01
         0.27500E+01
         0.27500E+01
         0.27500E+01
         0.27500E+01
         0.27500E+01
         0.27500E+01
         0.27500E+01
         0.27500E+01
         0.27500E+01
         0.27500E+01
         0.27500E+01
         0.27500E+01
         0.27500E+01
         0.27500E+01
         0.27500E+01
         0.27500E+01
         0.27500E+01
         0.27500E+01
         0.27500E+01
         0.27500E+01
         0.27500E+01
         0.27500E+01
         0.27500E+01
         0.27500E+01
         0.27500E+01
         0.27500E+01
         0.27500E+01
         0.27500E+01
         0.27500E+01
         0.27500E+01
         0.27500E+01
         0.27500E+01
         0.27500E+01
         0.27500E+01
         0.27500E+01
         0.27500E+01
         0.27500E+01
         0.27500E+01
         0.27500E+01
         0.27500E+01
         0.27500E+01
         0.27500E+01
         0.27500E+01
         0.27500E+01
         0.27500E+01
         0.27500E+01
         0.27500E+01
         0.27500E+01
         0.27500E+01
         0.27500E+01
         0.27500E+01
         0.27500E+01
         0.27500E+01
         0.27500E+01
         0.27500E+01
         0.27500E+01
         0.27500E+01
         0.27500E+01
         0.27500E+01
         0.27500E+01
         0.27500E+01
         0.27500E+01
         0.27500E+01
         0.27500E+01
         0.27500E+01
         0.27500E+01
         0.27500E+01
         0.27500E+01
         0.27500E+01
         0.27500E+01
         0.27500E+01
         0.27500E+01
         0.27500E+01
         0.27500E+01
         0.27500E+01
         0.27500E+01
         0.27500E+01
         0.27500E+01
         0.27500E+01
         0.27500E+01
         0.27500E+01
         0.27500E+01
         0.27500E+01
         0.27500E+01
         0.27500E+01
         0.27500E+01
         0.27500E+01
         0.27500E+01
         0.27500E+01
         0.27500E+01
         0.27500E+01
         0.27500E+01
         0.27500E+01
         0.27500E+01
         0.27500E+01
         0.27500E+01
         0.27500E+01
         0.27500E+01
         0.27500E+01
         0.27500E+01
         0.27500E+01
         0.27500E+01
         0.27500E+01
         0.27500E+01
         0.27500E+01
         0.27500E+01
         0.27500E+01
         0.27500E+01
         0.27500E+01
         0.27500E+01
         0.27500E+01
         0.27500E+01
         0.27500E+01
         0.27500E+01
         0.27500E+01
         0.27500E+01
         0.27500E+01
         0.27500E+01
         0.27500E+01
         0.27500E+01
         0.27500E+01
         0.27500E+01
         0.27500E+01
         0.27500E+01
         0.27500E+01
         0.27500E+01
         0.27500E+01
         0.27500E+01
         0.27500E+01
         0.27500E+01
         0.27500E+01
         0.27500E+01
         0.27500E+01
         0.27500E+01
         0.27500E+01
         0.27500E+01
         0.27500E+01
         0.27500E+01
         0.27500E+01
         0.27500E+01
         0.27500E+01
         0.27500E+01
         0.27500E+01
         0.27500E+01
         0.27500E+01
         0.27500E+01
         0.27500E+01
         0.27500E+01
         0.27500E+01
         0.27500E+01
         0.27500E+01
         0.27500E+01
         0.27500E+01
         0.27500E+01
         0.27500E+01
         0.27500E+01
         0.27500E+01
         0.27500E+01
         0.27500E+01
         0.27500E+01
         0.27500E+01
         0.27500E+01
         0.27500E+01
         0.27500E+01
         0.27500E+01
         0.27500E+01
         0.27500E+01
         0.27500E+01
         0.27500E+01
         0.27500E+01
         0.27500E+01
         0.27500E+01
         0.27500E+01
         0.27500E+01
         0.27500E+01
         0.27500E+01
         0.27500E+01
         0.27500E+01
         0.27500E+01
         0.27500E+01
         0.27500E+01
         0.27500E+01
         0.27500E+01
         0.27500E+01
         0.27500E+01
         0.27500E+01
         0.27500E+01
         0.27500E+01
         0.27500E+01
         0.27500E+01
         0.27500E+01
         0.27500E+01
         0.27500E+01
         0.27500E+01
         0.27500E+01
         0.27500E+01
         0.27500E+01
         0.27500E+01
         0.27500E+01
         0.27500E+01
         0.27500E+01
         0.27500E+01
         0.27500E+01
         0.27500E+01
         0.27500E+01
         0.27500E+01
         0.27500E+01
         0.27500E+01
         0.27500E+01
         0.27500E+01
         0.27500E+01
         0.27500E+01
         0.27500E+01
         0.27500E+01
         0.27500E+01
         0.27500E+01
         0.27500E+01
         0.27500E+01
         0.27500E+01
         0.27500E+01
         0.27500E+01
         0.27500E+01
         0.27500E+01
         0.27500E+01
         0.27500E+01
         0.27500E+01
         0.27500E+01
         0.27500E+01
         0.27500E+01
         0.27500E+01
         0.27500E+01
         0.27500E+01
         0.27500E+01
         0.27500E+01
         0.27500E+01
         0.27500E+01
         0.27500E+01
         0.27500E+01
         0.27500E+01
         0.27500E+01
         0.27500E+01
         0.27500E+01
         0.27500E+01
         0.27500E+01
         0.27500E+01
         0.27500E+01
         0.27500E+01
         0.27500E+01
         0.27500E+01
         0.27500E+01
         0.27500E+01
         0.27500E+01
         0.27500E+01
         0.27500E+01
         0.27500E+01
         0.27500E+01
         0.27500E+01
         0.27500E+01
         0.27500E+01
         0.27500E+01
         0.27500E+01
         0.27500E+01
         0.27500E+01
         0.27500E+01
         0.27500E+01
         0.27500E+01
         0.27500E+01
         0.27500E+01
         0.27500E+01
         0.27500E+01
         0.27500E+01
         0.27500E+01
         0.27500E+01
         0.27500E+01
         0.27500E+01
         0.27500E+01
         0.27500E+01
         0.27500E+01
         0.27500E+01
         0.27500E+01
         0.27500E+01
         0.27500E+01
         0.27500E+01
         0.27500E+01
         0.27500E+01
         0.27500E+01
         0.27500E+01
         0.27500E+01
         0.27500E+01
         0.27500E+01
         0.27500E+01
         0.27500E+01
         0.27500E+01
         0.27500E+01
         0.27500E+01
         0.27500E+01
         0.27500E+01
         0.27500E+01
         0.27500E+01
         0.27500E+01
         0.27500E+01
         0.27500E+01
         0.27500E+01
         0.27500E+01
         0.27500E+01
         0.27500E+01
         0.27500E+01
         0.27500E+01
         0.27500E+01
         0.27500E+01
         0.27500E+01
         0.27500E+01
         0.27500E+01
         0.27500E+01
         0.27500E+01
         0.27500E+01
         0.27500E+01
         0.27500E+01
         0.27500E+01
         0.27500E+01
         0.27500E+01
         0.27500E+01
         0.27500E+01
         0.27500E+01
         0.27500E+01
         0.27500E+01
         0.27500E+01
         0.27500E+01
         0.27500E+01
         0.27500E+01
         0.27500E+01
         0.27500E+01
         0.27500E+01
         0.27500E+01
         0.27500E+01
         0.27500E+01
         0.27500E+01
         0.27500E+01
         0.27500E+01
         0.27500E+01
         0.27500E+01
         0.27500E+01
         0.27500E+01
         0.27500E+01
         0.27500E+01
         0.27500E+01
         0.27500E+01
         0.27500E+01
         0.27500E+01
         0.27500E+01
         0.27500E+01
         0.27500E+01
         0.27500E+01
         0.27500E+01
         0.27500E+01
         0.27500E+01
         0.27500E+01
         0.27500E+01
         0.27500E+01
         0.27500E+01
         0.27500E+01
         0.27500E+01
         0.27500E+01
         0.27500E+01
         0.27500E+01
         0.27500E+01
         0.27500E+01
         0.27500E+01
         0.27500E+01
         0.27500E+01
         0.27500E+01
         0.27500E+01
         0.27500E+01
         0.27500E+01
         0.27500E+01
         0.27500E+01
         0.27500E+01
         0.27500E+01
         0.27500E+01
         0.27500E+01
         0.27500E+01
         0.27500E+01
         0.27500E+01
         0.27500E+01
         0.27500E+01
         0.27500E+01
         0.27500E+01
         0.27500E+01
         0.27500E+01
         0.27500E+01
         0.27500E+01
         0.27500E+01
         0.27500E+01
         0.27500E+01
         0.27500E+01
         0.27500E+01
         0.27500E+01
         0.27500E+01
         0.27500E+01
         0.27500E+01
         0.27500E+01
         0.27500E+01
         0.27500E+01
         0.27500E+01
         0.27500E+01
         0.27500E+01
         0.27500E+01
         0.27500E+01
         0.27500E+01
         0.27500E+01
         0.27500E+01
         0.27500E+01
         0.27500E+01
         0.27500E+01
         0.27500E+01
         0.27500E+01
         0.27500E+01
         0.27500E+01
         0.27500E+01
         0.27500E+01
         0.27500E+01
         0.27500E+01
         0.27500E+01
         0.27500E+01
         0.27500E+01
         0.27500E+01
         0.27500E+01
         0.27500E+01
         0.27500E+01
         0.27500E+01
         0.27500E+01
         0.27500E+01
         0.27500E+01
         0.27500E+01
         0.27500E+01
         0.27500E+01
         0.27500E+01
         0.27500E+01
         0.27500E+01
         0.27500E+01
         0.27500E+01
         0.27500E+01
         0.27500E+01
         0.27500E+01
         0.27500E+01
         0.27500E+01
         0.27500E+01
         0.27500E+01
         0.27500E+01
         0.27500E+01
         0.27500E+01
         0.27500E+01
         0.27500E+01
         0.27500E+01
         0.27500E+01
         0.27500E+01
         0.27500E+01
         0.27500E+01
         0.27500E+01
         0.27500E+01
         0.27500E+01
         0.27500E+01
         0.27500E+01
         0.27500E+01
         0.27500E+01
         0.27500E+01
         0.27500E+01
         0.27500E+01
         0.27500E+01
         0.27500E+01
         0.27500E+01
         0.27500E+01
         0.27500E+01
         0.27500E+01
         0.27500E+01
         0.27500E+01
         0.27500E+01
         0.27500E+01
         0.27500E+01
         0.27500E+01
         0.27500E+01
         0.27500E+01
         0.27500E+01
         0.27500E+01
         0.27500E+01
         0.27500E+01
         0.27500E+01
         0.27500E+01
         0.27500E+01
         0.27500E+01
         0.27500E+01
         0.27500E+01
         0.27500E+01
         0.27500E+01
         0.27500E+01
         0.27500E+01
         0.27500E+01
         0.27500E+01
         0.27500E+01
         0.27500E+01
         0.27500E+01
         0.27500E+01
         0.27500E+01
         0.27500E+01
         0.27500E+01
         0.27500E+01
         0.27500E+01
         0.27500E+01
         0.27500E+01
         0.27500E+01
         0.27500E+01
         0.27500E+01
         0.27500E+01
         0.27500E+01
         0.27500E+01
         0.27500E+01
         0.27500E+01
         0.27500E+01
         0.27500E+01
         0.27500E+01
         0.27500E+01
         0.27500E+01
         0.27500E+01
         0.27500E+01
         0.27500E+01
         0.27500E+01
         0.27500E+01
         0.27500E+01
         0.27500E+01
         0.27500E+01
         0.27500E+01
         0.27500E+01
         0.27500E+01
         0.27500E+01
         0.27500E+01
         0.27500E+01
         0.27500E+01
         0.27500E+01
         0.27500E+01
         0.27500E+01
         0.27500E+01
         0.27500E+01
         0.27500E+01
         0.27500E+01
         0.27500E+01
         0.27500E+01
         0.27500E+01
         0.27500E+01
         0.27500E+01
         0.27500E+01
         0.27500E+01
         0.27500E+01
         0.27500E+01
         0.27500E+01
         0.27500E+01
         0.27500E+01
         0.27500E+01
         0.27500E+01
         0.27500E+01
         0.27500E+01
         0.27500E+01
         0.27500E+01
         0.27500E+01
         0.27500E+01
         0.27500E+01
         0.27500E+01
         0.27500E+01
         0.27500E+01
         0.27500E+01
         0.27500E+01
         0.27500E+01
         0.27500E+01
         0.27500E+01
         0.27500E+01
         0.27500E+01
         0.27500E+01
         0.27500E+01
         0.27500E+01
         0.27500E+01
         0.27500E+01
         0.27500E+01
         0.27500E+01
         0.27500E+01
         0.27500E+01
         0.27500E+01
         0.27500E+01
         0.27500E+01
         0.27500E+01
         0.27500E+01
         0.27500E+01
         0.27500E+01
         0.27500E+01
         0.27500E+01
         0.27500E+01
         0.27500E+01
         0.27500E+01
         0.27500E+01
         0.27500E+01
         0.27500E+01
         0.27500E+01
         0.27500E+01
         0.27500E+01
         0.27500E+01
         0.27500E+01
         0.27500E+01
         0.27500E+01
         0.27500E+01
         0.27500E+01
         0.27500E+01
         0.27500E+01
         0.27500E+01
         0.27500E+01
         0.27500E+01
         0.27500E+01
         0.27500E+01
         0.27500E+01
         0.27500E+01
         0.27500E+01
         0.27500E+01
         0.27500E+01
         0.27500E+01
         0.27500E+01
         0.27500E+01
         0.27500E+01
         0.27500E+01
         0.27500E+01
         0.27500E+01
         0.27500E+01
         0.27500E+01
         0.27500E+01
         0.27500E+01
         0.27500E+01
         0.27500E+01
         0.27500E+01
         0.27500E+01
         0.27500E+01
         0.27500E+01
         0.27500E+01
         0.27500E+01
         0.27500E+01
         0.27500E+01
         0.27500E+01
         0.27500E+01
         0.27500E+01
         0.27500E+01
         0.27500E+01
         0.27500E+01
         0.27500E+01
         0.27500E+01
         0.27500E+01
         0.27500E+01
         0.27500E+01
         0.27500E+01
         0.27500E+01
         0.27500E+01
         0.27500E+01
         0.27500E+01
         0.27500E+01
         0.27500E+01
         0.27500E+01
         0.27500E+01
         0.27500E+01
         0.27500E+01
         0.27500E+01
         0.27500E+01
         0.27500E+01
         0.27500E+01
         0.27500E+01
         0.27500E+01
         0.27500E+01
         0.27500E+01
         0.27500E+01
         0.27500E+01
         0.27500E+01
         0.27500E+01
         0.27500E+01
         0.27500E+01
         0.27500E+01
         0.27500E+01
         0.27500E+01
         0.27500E+01
         0.27500E+01
         0.27500E+01
         0.27500E+01
         0.27500E+01
         0.27500E+01
         0.27500E+01
         0.27500E+01
         0.27500E+01
         0.27500E+01
         0.27500E+01
         0.27500E+01
         0.27500E+01
         0.27500E+01
         0.27500E+01
         0.27500E+01
         0.27500E+01
         0.27500E+01
         0.27500E+01
         0.27500E+01
         0.27500E+01
         0.27500E+01
         0.27500E+01
         0.27500E+01
         0.27500E+01
         0.27500E+01
         0.27500E+01
         0.27500E+01
         0.27500E+01
         0.27500E+01
         0.27500E+01
         0.27500E+01
         0.27500E+01
         0.27500E+01
         0.27500E+01
         0.27500E+01
         0.27500E+01
         0.27500E+01
         0.27500E+01
         0.27500E+01
         0.27500E+01
         0.27500E+01
         0.27500E+01
         0.27500E+01
         0.27500E+01
         0.27500E+01
         0.27500E+01
         0.27500E+01
         0.27500E+01
         0.27500E+01
         0.27500E+01
         0.27500E+01
         0.27500E+01
         0.27500E+01
         0.27500E+01
         0.27500E+01
         0.27500E+01
         0.27500E+01
         0.27500E+01
         0.27500E+01
         0.27500E+01
         0.27500E+01
         0.27500E+01
         0.27500E+01
         0.27500E+01
         0.27500E+01
         0.27500E+01
         0.27500E+01
         0.27500E+01
         0.27500E+01
         0.27500E+01
         0.27500E+01
         0.27500E+01
         0.27500E+01
         0.27500E+01
         0.27500E+01
         0.27500E+01
         0.27500E+01
         0.27500E+01
         0.27500E+01
         0.27500E+01
         0.27500E+01
         0.27500E+01
         0.27500E+01
         0.27500E+01
         0.27500E+01
         0.27500E+01
         0.27500E+01
         0.27500E+01
         0.27500E+01
         0.27500E+01
         0.27500E+01
         0.27500E+01
         0.27500E+01
         0.27500E+01
         0.27500E+01
         0.27500E+01
         0.27500E+01
         0.27500E+01
         0.27500E+01
         0.27500E+01
         0.27500E+01
         0.27500E+01
         0.27500E+01
         0.27500E+01
         0.27500E+01
         0.27500E+01
         0.27500E+01
         0.27500E+01
         0.27500E+01
         0.27500E+01
         0.27500E+01
         0.27500E+01
         0.27500E+01
         0.27500E+01
         0.27500E+01
         0.27500E+01
         0.27500E+01
         0.27500E+01
         0.27500E+01
         0.27500E+01
         0.27500E+01
         0.27500E+01
         0.27500E+01
         0.27500E+01
         0.27500E+01
         0.27500E+01
         0.27500E+01
         0.27500E+01
         0.27500E+01
         0.27500E+01
         0.27500E+01
         0.27500E+01
         0.27500E+01
         0.27500E+01
         0.27500E+01
         0.27500E+01
         0.27500E+01
         0.27500E+01
         0.27500E+01
         0.27500E+01
         0.27500E+01
         0.27500E+01
         0.27500E+01
         0.27500E+01
         0.27500E+01
         0.27500E+01
         0.27500E+01
         0.27500E+01
         0.27500E+01
         0.27500E+01
         0.27500E+01
         0.27500E+01
         0.27500E+01
         0.27500E+01
         0.27500E+01
         0.27500E+01
         0.27500E+01
         0.27500E+01
         0.27500E+01
         0.27500E+01
         0.27500E+01
         0.27500E+01
         0.27500E+01
         0.27500E+01
         0.27500E+01
         0.27500E+01
         0.27500E+01
         0.27500E+01
         0.27500E+01
         0.27500E+01
         0.27500E+01
         0.27500E+01
         0.27500E+01
         0.27500E+01
         0.27500E+01
         0.27500E+01
         0.27500E+01
         0.27500E+01
         0.27500E+01
         0.27500E+01
         0.27500E+01
         0.27500E+01
         0.27500E+01
         0.27500E+01
         0.27500E+01
         0.27500E+01
         0.27500E+01
         0.27500E+01
         0.27500E+01
         0.27500E+01
         0.27500E+01
         0.27500E+01
         0.27500E+01
         0.27500E+01
         0.27500E+01
         0.27500E+01
         0.27500E+01
         0.27500E+01
         0.27500E+01
         0.27500E+01
         0.27500E+01
         0.27500E+01
         0.27500E+01
         0.27500E+01
         0.27500E+01
         0.27500E+01
         0.27500E+01
         0.27500E+01
         0.27500E+01
         0.27500E+01
         0.27500E+01
         0.27500E+01
         0.27500E+01
         0.27500E+01
         0.27500E+01
         0.27500E+01
         0.27500E+01
         0.27500E+01
         0.27500E+01
         0.27500E+01
         0.27500E+01
         0.27500E+01
         0.27500E+01
         0.27500E+01
         0.27500E+01
         0.27500E+01
         0.27500E+01
         0.27500E+01
         0.27500E+01
         0.27500E+01
         0.27500E+01
         0.27500E+01
         0.27500E+01
         0.27500E+01
         0.27500E+01
         0.27500E+01
         0.27500E+01
         0.27500E+01
         0.27500E+01
         0.27500E+01
         0.27500E+01
         0.27500E+01
         0.27500E+01
         0.27500E+01
         0.27500E+01
         0.27500E+01
         0.27500E+01
         0.27500E+01
         0.27500E+01
         0.27500E+01
         0.27500E+01
         0.27500E+01
         0.27500E+01
         0.27500E+01
         0.27500E+01
         0.27500E+01
         0.27500E+01
         0.27500E+01
         0.27500E+01
         0.27500E+01
         0.27500E+01
         0.27500E+01
         0.27500E+01
         0.27500E+01
         0.27500E+01
         0.27500E+01
         0.27500E+01
         0.27500E+01
         0.27500E+01
         0.27500E+01
         0.27500E+01
         0.27500E+01
         0.27500E+01
         0.27500E+01
         0.27500E+01
         0.27500E+01
         0.27500E+01
         0.27500E+01
         0.27500E+01
         0.27500E+01
         0.27500E+01
         0.27500E+01
         0.27500E+01
         0.27500E+01
         0.27500E+01
         0.27500E+01
         0.27500E+01
         0.27500E+01
         0.27500E+01
         0.27500E+01
         0.27500E+01
         0.27500E+01
         0.27500E+01
         0.27500E+01
         0.27500E+01
         0.27500E+01
         0.27500E+01
         0.27500E+01
         0.27500E+01
         0.27500E+01
         0.27500E+01
         0.27500E+01
         0.27500E+01
         0.27500E+01
         0.27500E+01
         0.27500E+01
         0.27500E+01
         0.27500E+01
         0.27500E+01
         0.27500E+01
         0.27500E+01
         0.27500E+01
         0.27500E+01
         0.27500E+01
         0.27500E+01
         0.27500E+01
         0.27500E+01
         0.27500E+01
         0.27500E+01
         0.27500E+01
         0.27500E+01
         0.27500E+01
         0.27500E+01
         0.27500E+01
         0.27500E+01
         0.27500E+01
         0.27500E+01
         0.27500E+01
         0.27500E+01
         0.27500E+01
         0.27500E+01
         0.27500E+01
         0.27500E+01
         0.27500E+01
         0.27500E+01
         0.27500E+01
         0.27500E+01
         0.27500E+01
         0.27500E+01
         0.27500E+01
         0.27500E+01
         0.27500E+01
         0.27500E+01
         0.27500E+01
         0.27500E+01
         0.27500E+01
         0.27500E+01
         0.27500E+01
         0.27500E+01
         0.27500E+01
         0.27500E+01
         0.27500E+01
         0.27500E+01
         0.27500E+01
         0.27500E+01
         0.27500E+01
         0.27500E+01
         0.27500E+01
         0.27500E+01
         0.27500E+01
         0.27500E+01
         0.27500E+01
         0.27500E+01
         0.27500E+01
         0.27500E+01
         0.27500E+01
         0.27500E+01
         0.27500E+01
         0.27500E+01
         0.27500E+01
         0.27500E+01
         0.27500E+01
         0.27500E+01
         0.27500E+01
         0.27500E+01
         0.27500E+01
         0.27500E+01
         0.27500E+01
         0.27500E+01
         0.27500E+01
         0.27500E+01
         0.27500E+01
         0.27500E+01
         0.27500E+01
         0.27500E+01
         0.27500E+01
         0.27500E+01
         0.27500E+01
         0.27500E+01
         0.27500E+01
         0.27500E+01
         0.27500E+01
         0.27500E+01
         0.27500E+01
         0.27500E+01
         0.27500E+01
         0.27500E+01
         0.27500E+01
         0.27500E+01
         0.27500E+01
         0.27500E+01
         0.27500E+01
         0.27500E+01
         0.27500E+01
         0.27500E+01
         0.27500E+01
         0.27500E+01
         0.27500E+01
         0.27500E+01
         0.27500E+01
         0.27500E+01
         0.27500E+01
         0.27500E+01
         0.27500E+01
         0.27500E+01
         0.27500E+01
         0.27500E+01
         0.27500E+01
         0.27500E+01
         0.27500E+01
         0.27500E+01
         0.27500E+01
         0.27500E+01
         0.27500E+01
         0.27500E+01
         0.27500E+01
         0.27500E+01
         0.27500E+01
         0.27500E+01
         0.27500E+01
         0.27500E+01
         0.27500E+01
         0.27500E+01
         0.27500E+01
         0.27500E+01
         0.27500E+01
         0.27500E+01
         0.27500E+01
         0.27500E+01
         0.27500E+01
         0.27500E+01
         0.27500E+01
         0.27500E+01
         0.27500E+01
         0.27500E+01
         0.27500E+01
         0.27500E+01
         0.27500E+01
         0.27500E+01
         0.27500E+01
         0.27500E+01
         0.27500E+01
         0.27500E+01
         0.27500E+01
         0.27500E+01
         0.27500E+01
         0.27500E+01
         0.27500E+01
         0.27500E+01
         0.27500E+01
         0.27500E+01
         0.27500E+01
         0.27500E+01
         0.27500E+01
         0.27500E+01
         0.27500E+01
         0.27500E+01
         0.27500E+01
         0.27500E+01
         0.27500E+01
         0.27500E+01
         0.27500E+01
         0.27500E+01
         0.27500E+01
         0.27500E+01
         0.27500E+01
         0.27500E+01
         0.27500E+01
         0.27500E+01
         0.27500E+01
         0.27500E+01
         0.27500E+01
         0.27500E+01
         0.27500E+01
         0.27500E+01
         0.27500E+01
         0.27500E+01
         0.27500E+01
         0.27500E+01
         0.27500E+01
         0.27500E+01
         0.27500E+01
         0.27500E+01
         0.27500E+01
         0.27500E+01
         0.27500E+01
         0.27500E+01
         0.27500E+01
         0.27500E+01
         0.27500E+01
         0.27500E+01
         0.27500E+01
         0.27500E+01
         0.27500E+01
         0.27500E+01
         0.27500E+01
         0.27500E+01
         0.27500E+01
         0.27500E+01
         0.27500E+01
         0.27500E+01
         0.27500E+01
         0.27500E+01
         0.27500E+01
         0.27500E+01
         0.27500E+01
         0.27500E+01
         0.27500E+01
         0.27500E+01
         0.27500E+01
         0.27500E+01
         0.27500E+01
         0.27500E+01
         0.27500E+01
         0.27500E+01
         0.27500E+01
         0.27500E+01
         0.27500E+01
         0.27500E+01
         0.27500E+01
         0.27500E+01
         0.27500E+01
         0.27500E+01
         0.27500E+01
         0.27500E+01
         0.27500E+01
         0.27500E+01
         0.27500E+01
         0.27500E+01
         0.27500E+01
         0.27500E+01
         0.27500E+01
         0.27500E+01
         0.27500E+01
         0.27500E+01
         0.27500E+01
         0.27500E+01
         0.27500E+01
         0.27500E+01
         0.27500E+01
         0.27500E+01
         0.27500E+01
         0.27500E+01
         0.27500E+01
         0.27500E+01
         0.27500E+01
         0.27500E+01
         0.27500E+01
         0.27500E+01
         0.27500E+01
         0.27500E+01
         0.27500E+01
         0.27500E+01
         0.27500E+01
         0.27500E+01
         0.27500E+01
         0.27500E+01
         0.27500E+01
         0.27500E+01
         0.27500E+01
         0.27500E+01
         0.27500E+01
         0.27500E+01
         0.27500E+01
         0.27500E+01
         0.27500E+01
         0.27500E+01
         0.27500E+01
         0.27500E+01
         0.27500E+01
         0.27500E+01
         0.27500E+01
         0.27500E+01
         0.27500E+01
         0.27500E+01
         0.27500E+01
         0.27500E+01
         0.27500E+01
         0.27500E+01
         0.27500E+01
         0.27500E+01
         0.27500E+01
         0.27500E+01
         0.27500E+01
         0.27500E+01
         0.27500E+01
         0.27500E+01
         0.27500E+01
         0.27500E+01
         0.27500E+01
         0.27500E+01
         0.27500E+01
         0.27500E+01
         0.27500E+01
         0.27500E+01
         0.27500E+01
         0.27500E+01
         0.27500E+01
         0.27500E+01
         0.27500E+01
         0.27500E+01
         0.27500E+01
         0.27500E+01
         0.27500E+01
         0.27500E+01
         0.27500E+01
         0.27500E+01
         0.27500E+01
         0.27500E+01
         0.27500E+01
         0.27500E+01
         0.27500E+01
         0.27500E+01
         0.27500E+01
         0.27500E+01
         0.27500E+01
         0.27500E+01
         0.27500E+01
         0.27500E+01
         0.27500E+01
         0.27500E+01
         0.27500E+01
         0.27500E+01
         0.27500E+01
         0.27500E+01
         0.27500E+01
         0.27500E+01
         0.27500E+01
         0.27500E+01
         0.27500E+01
         0.27500E+01
         0.27500E+01
         0.27500E+01
         0.27500E+01
         0.27500E+01
         0.27500E+01
         0.27500E+01
         0.27500E+01
         0.27500E+01
         0.27500E+01
         0.27500E+01
         0.27500E+01
         0.27500E+01
         0.27500E+01
         0.27500E+01
         0.27500E+01
         0.27500E+01
         0.27500E+01
         0.27500E+01
         0.27500E+01
         0.27500E+01
         0.27500E+01
         0.27500E+01
         0.27500E+01
         0.27500E+01
         0.27500E+01
         0.27500E+01
         0.27500E+01
         0.27500E+01
         0.27500E+01
         0.27500E+01
         0.27500E+01
         0.27500E+01
         0.27500E+01
         0.27500E+01
         0.27500E+01
         0.27500E+01
         0.27500E+01
         0.27500E+01
         0.27500E+01
         0.27500E+01
         0.27500E+01
         0.27500E+01
         0.27500E+01
         0.27500E+01
         0.27500E+01
         0.27500E+01
         0.27500E+01
         0.27500E+01
         0.27500E+01
         0.27500E+01
         0.27500E+01
         0.27500E+01
         0.27500E+01
         0.27500E+01
         0.27500E+01
         0.27500E+01
         0.27500E+01
         0.27500E+01
         0.27500E+01
         0.27500E+01
         0.27500E+01
         0.27500E+01
         0.27500E+01
         0.27500E+01
         0.27500E+01
         0.27500E+01
         0.27500E+01
         0.27500E+01
         0.27500E+01
         0.27500E+01
         0.27500E+01
         0.27500E+01
         0.27500E+01
         0.27500E+01
         0.27500E+01
         0.27500E+01
         0.27500E+01
         0.27500E+01
         0.27500E+01
         0.27500E+01
         0.27500E+01
         0.27500E+01
         0.27500E+01
         0.27500E+01
         0.27500E+01
         0.27500E+01
         0.27500E+01
         0.27500E+01
         0.27500E+01
         0.27500E+01
         0.27500E+01
         0.27500E+01
         0.27500E+01
         0.27500E+01
         0.27500E+01
         0.27500E+01
         0.27500E+01
         0.27500E+01
         0.27500E+01
         0.27500E+01
         0.27500E+01
         0.27500E+01
         0.27500E+01
         0.27500E+01
         0.27500E+01
         0.27500E+01
         0.27500E+01
         0.27500E+01
         0.27500E+01
         0.27500E+01
         0.27500E+01
         0.27500E+01
         0.27500E+01
         0.27500E+01
         0.27500E+01
         0.27500E+01
         0.27500E+01
         0.27500E+01
         0.27500E+01
         0.27500E+01
         0.27500E+01
         0.27500E+01
         0.27500E+01
         0.27500E+01
         0.27500E+01
         0.27500E+01
         0.27500E+01
         0.27500E+01
         0.27500E+01
         0.27500E+01
         0.27500E+01
         0.27500E+01
         0.27500E+01
         0.27500E+01
         0.27500E+01
         0.27500E+01
         0.27500E+01
         0.27500E+01
         0.27500E+01
         0.27500E+01
         0.27500E+01
         0.27500E+01
         0.27500E+01
         0.27500E+01
         0.27500E+01
         0.27500E+01
         0.27500E+01
         0.27500E+01
         0.27500E+01
         0.27500E+01
         0.27500E+01
         0.27500E+01
         0.27500E+01
         0.27500E+01
         0.27500E+01
         0.27500E+01
         0.27500E+01
         0.27500E+01
         0.27500E+01
         0.27500E+01
         0.27500E+01
         0.27500E+01
         0.27500E+01
         0.27500E+01
         0.27500E+01
         0.27500E+01
         0.27500E+01
         0.27500E+01
         0.27500E+01
         0.27500E+01
         0.27500E+01
         0.27500E+01
         0.27500E+01
         0.27500E+01
         0.27500E+01
         0.27500E+01
         0.27500E+01
         0.27500E+01
         0.27500E+01
         0.27500E+01
         0.27500E+01
         0.27500E+01
         0.27500E+01
         0.27500E+01
         0.27500E+01
         0.27500E+01
         0.27500E+01
         0.27500E+01
         0.27500E+01
         0.27500E+01
         0.27500E+01
         0.27500E+01
         0.27500E+01
         0.27500E+01
         0.27500E+01
         0.27500E+01
         0.27500E+01
         0.27500E+01
         0.27500E+01
         0.27500E+01
         0.27500E+01
         0.27500E+01
         0.27500E+01
         0.27500E+01
         0.27500E+01
         0.27500E+01
         0.27500E+01
         0.27500E+01
         0.27500E+01
         0.27500E+01
         0.27500E+01
         0.27500E+01
         0.27500E+01
         0.27500E+01
         0.27500E+01
         0.27500E+01
         0.27500E+01
         0.27500E+01
         0.27500E+01
         0.27500E+01
         0.27500E+01
         0.27500E+01
         0.27500E+01
         0.27500E+01
         0.27500E+01
         0.27500E+01
         0.27500E+01
         0.27500E+01
         0.27500E+01
         0.27500E+01
         0.27500E+01
         0.27500E+01
         0.27500E+01
         0.27500E+01
         0.27500E+01
         0.27500E+01
         0.27500E+01
         0.27500E+01
         0.27500E+01
         0.27500E+01
         0.27500E+01
         0.27500E+01
         0.27500E+01
         0.27500E+01
         0.27500E+01
         0.27500E+01
         0.27500E+01
         0.27500E+01
         0.27500E+01
         0.27500E+01
         0.27500E+01
         0.27500E+01
         0.27500E+01
         0.27500E+01
         0.27500E+01
         0.27500E+01
         0.27500E+01
         0.27500E+01
         0.27500E+01
         0.27500E+01
         0.27500E+01
         0.27500E+01
         0.27500E+01
         0.27500E+01
         0.27500E+01
         0.27500E+01
         0.27500E+01
         0.27500E+01
         0.27500E+01
         0.27500E+01
         0.27500E+01
         0.27500E+01
         0.27500E+01
         0.27500E+01
         0.27500E+01
         0.27500E+01
         0.27500E+01
         0.27500E+01
         0.27500E+01
         0.27500E+01
         0.27500E+01
         0.27500E+01
         0.27500E+01
         0.27500E+01
         0.27500E+01
         0.27500E+01
         0.27500E+01
         0.27500E+01
         0.27500E+01
         0.27500E+01
         0.27500E+01
         0.27500E+01
         0.27500E+01
         0.27500E+01
         0.27500E+01
         0.27500E+01
         0.27500E+01
         0.27500E+01
         0.27500E+01
         0.27500E+01
         0.27500E+01
         0.27500E+01
         0.27500E+01
         0.27500E+01
         0.27500E+01
         0.27500E+01
         0.27500E+01
         0.27500E+01
         0.27500E+01
         0.27500E+01
         0.27500E+01
         0.27500E+01
         0.27500E+01
         0.27500E+01
         0.27500E+01
         0.27500E+01
         0.27500E+01
         0.27500E+01
         0.27500E+01
         0.27500E+01
         0.27500E+01
         0.27500E+01
         0.27500E+01
         0.27500E+01
         0.27500E+01
         0.27500E+01
         0.27500E+01
         0.27500E+01
         0.27500E+01
         0.27500E+01
         0.27500E+01
         0.27500E+01
         0.27500E+01
         0.27500E+01
         0.27500E+01
         0.27500E+01
         0.27500E+01
         0.27500E+01
         0.27500E+01
         0.27500E+01
         0.27500E+01
         0.27500E+01
         0.27500E+01
         0.27500E+01
         0.27500E+01
         0.27500E+01
         0.27500E+01
         0.27500E+01
         0.27500E+01
         0.27500E+01
         0.27500E+01
         0.27500E+01
         0.27500E+01
         0.27500E+01
         0.27500E+01
         0.27500E+01
         0.27500E+01
         0.27500E+01
         0.27500E+01
         0.27500E+01
         0.27500E+01
         0.27500E+01
         0.27500E+01
         0.27500E+01
         0.27500E+01
         0.27500E+01
         0.27500E+01
         0.27500E+01
         0.27500E+01
         0.27500E+01
         0.27500E+01
         0.27500E+01
         0.27500E+01
         0.27500E+01
         0.27500E+01
         0.27500E+01
         0.27500E+01
         0.27500E+01
         0.27500E+01
         0.27500E+01
         0.27500E+01
         0.27500E+01
         0.27500E+01
  
SCALARS              physical_window_x  double 1
LOOKUP_TABLE default
         0.42419E-02
         0.35201E-02
         0.37624E-02
         0.42419E-02
         0.42417E-02
         0.35201E-02
         0.37618E-02
         0.42417E-02
         0.37624E-02
         0.37624E-02
         0.37618E-02
         0.37618E-02
         0.30086E-02
         0.32069E-02
         0.30084E-02
         0.32067E-02
         0.42419E-02
         0.32069E-02
         0.42417E-02
         0.32067E-02
         0.24180E-02
         0.29942E-02
         0.32396E-02
         0.24180E-02
         0.29933E-02
         0.32385E-02
         0.26608E-02
         0.27190E-02
         0.26608E-02
         0.27190E-02
         0.42687E-02
         0.36511E-02
         0.42687E-02
         0.42687E-02
         0.36511E-02
         0.42687E-02
         0.32069E-02
         0.29739E-02
         0.32066E-02
         0.29739E-02
         0.34652E-02
         0.32621E-02
         0.34652E-02
         0.32621E-02
         0.37123E-02
         0.32069E-02
         0.37123E-02
         0.32066E-02
         0.30844E-02
         0.30844E-02
         0.35191E-02
         0.35189E-02
         0.26925E-02
         0.26925E-02
         0.26925E-02
         0.26925E-02
         0.24643E-02
         0.27651E-02
         0.24643E-02
         0.27651E-02
         0.42687E-02
         0.35191E-02
         0.42687E-02
         0.35189E-02
         0.42687E-02
         0.42687E-02
         0.34658E-02
         0.34648E-02
         0.27274E-02
         0.31799E-02
         0.27273E-02
         0.31796E-02
         0.32396E-02
         0.32385E-02
         0.26964E-02
         0.26960E-02
         0.27828E-02
         0.27828E-02
         0.27828E-02
         0.27828E-02
         0.27004E-02
         0.31883E-02
         0.27003E-02
         0.31880E-02
         0.31883E-02
         0.31880E-02
         0.37123E-02
         0.37123E-02
         0.36245E-02
         0.36245E-02
         0.28253E-02
         0.31642E-02
         0.28253E-02
         0.31636E-02
         0.33485E-02
         0.33485E-02
         0.33485E-02
         0.33485E-02
         0.31978E-02
         0.31969E-02
         0.29849E-02
         0.32843E-02
         0.29849E-02
         0.32843E-02
         0.27274E-02
         0.31109E-02
         0.27273E-02
         0.31109E-02
         0.31799E-02
         0.31796E-02
         0.32396E-02
         0.32385E-02
         0.32396E-02
         0.32385E-02
         0.29942E-02
         0.29933E-02
         0.27190E-02
         0.27190E-02
         0.26964E-02
         0.26960E-02
         0.27828E-02
         0.27828E-02
         0.27828E-02
         0.27828E-02
         0.27004E-02
         0.27003E-02
         0.31883E-02
         0.31880E-02
         0.31883E-02
         0.31880E-02
         0.32621E-02
         0.32621E-02
         0.34652E-02
         0.34652E-02
         0.37123E-02
         0.37123E-02
         0.37123E-02
         0.37123E-02
         0.36245E-02
         0.36245E-02
         0.28253E-02
         0.28253E-02
         0.29097E-02
         0.29087E-02
         0.32389E-02
         0.32378E-02
         0.32389E-02
         0.32378E-02
         0.31978E-02
         0.31969E-02
         0.29849E-02
         0.29849E-02
         0.32843E-02
         0.32843E-02
         0.32843E-02
         0.32843E-02
         0.42420E-02
         0.35201E-02
         0.37629E-02
         0.42420E-02
         0.37629E-02
         0.37629E-02
         0.30087E-02
         0.32071E-02
         0.42420E-02
         0.32071E-02
         0.24178E-02
         0.29952E-02
         0.32407E-02
         0.26596E-02
         0.27191E-02
         0.42679E-02
         0.36502E-02
         0.42679E-02
         0.32071E-02
         0.29727E-02
         0.34648E-02
         0.32622E-02
         0.37119E-02
         0.32071E-02
         0.30833E-02
         0.35193E-02
         0.26910E-02
         0.26910E-02
         0.24638E-02
         0.27644E-02
         0.42679E-02
         0.35193E-02
         0.42679E-02
         0.34670E-02
         0.27274E-02
         0.31802E-02
         0.32407E-02
         0.26968E-02
         0.27828E-02
         0.27828E-02
         0.27005E-02
         0.31885E-02
         0.31885E-02
         0.37119E-02
         0.36244E-02
         0.28250E-02
         0.31647E-02
         0.33484E-02
         0.33484E-02
         0.31986E-02
         0.29848E-02
         0.32841E-02
         0.27274E-02
         0.31099E-02
         0.31802E-02
         0.32407E-02
         0.32407E-02
         0.29952E-02
         0.27191E-02
         0.26968E-02
         0.27828E-02
         0.27828E-02
         0.27005E-02
         0.31885E-02
         0.31885E-02
         0.32622E-02
         0.34648E-02
         0.37119E-02
         0.37119E-02
         0.36244E-02
         0.28250E-02
         0.29106E-02
         0.32401E-02
         0.32401E-02
         0.31986E-02
         0.29848E-02
         0.32841E-02
         0.32841E-02
         0.42421E-02
         0.35201E-02
         0.37634E-02
         0.42421E-02
         0.37634E-02
         0.37634E-02
         0.30089E-02
         0.32073E-02
         0.42421E-02
         0.32073E-02
         0.24177E-02
         0.29961E-02
         0.32418E-02
         0.26584E-02
         0.27191E-02
         0.42670E-02
         0.36493E-02
         0.42670E-02
         0.32073E-02
         0.29714E-02
         0.34644E-02
         0.32623E-02
         0.37115E-02
         0.32073E-02
         0.30822E-02
         0.35195E-02
         0.26896E-02
         0.26896E-02
         0.24633E-02
         0.27638E-02
         0.42670E-02
         0.35195E-02
         0.42670E-02
         0.34681E-02
         0.27275E-02
         0.31805E-02
         0.32418E-02
         0.26972E-02
         0.27828E-02
         0.27828E-02
         0.27006E-02
         0.31888E-02
         0.31888E-02
         0.37115E-02
         0.36243E-02
         0.28247E-02
         0.31652E-02
         0.33483E-02
         0.33483E-02
         0.31995E-02
         0.29847E-02
         0.32839E-02
         0.27275E-02
         0.31090E-02
         0.31805E-02
         0.32418E-02
         0.32418E-02
         0.29961E-02
         0.27191E-02
         0.26972E-02
         0.27828E-02
         0.27828E-02
         0.27006E-02
         0.31888E-02
         0.31888E-02
         0.32623E-02
         0.34644E-02
         0.37115E-02
         0.37115E-02
         0.36243E-02
         0.28247E-02
         0.29116E-02
         0.32412E-02
         0.32412E-02
         0.31995E-02
         0.29847E-02
         0.32839E-02
         0.32839E-02
         0.42423E-02
         0.35200E-02
         0.37639E-02
         0.42423E-02
         0.37639E-02
         0.37639E-02
         0.30091E-02
         0.32075E-02
         0.42423E-02
         0.32075E-02
         0.24176E-02
         0.29970E-02
         0.32428E-02
         0.26572E-02
         0.27192E-02
         0.42662E-02
         0.36483E-02
         0.42662E-02
         0.32075E-02
         0.29702E-02
         0.34639E-02
         0.32624E-02
         0.37111E-02
         0.32075E-02
         0.30811E-02
         0.35197E-02
         0.26881E-02
         0.26881E-02
         0.24628E-02
         0.27631E-02
         0.42662E-02
         0.35197E-02
         0.42662E-02
         0.34692E-02
         0.27276E-02
         0.31808E-02
         0.32428E-02
         0.26975E-02
         0.27828E-02
         0.27828E-02
         0.27007E-02
         0.31890E-02
         0.31890E-02
         0.37111E-02
         0.36242E-02
         0.28243E-02
         0.31658E-02
         0.33482E-02
         0.33482E-02
         0.32003E-02
         0.29846E-02
         0.32837E-02
         0.27276E-02
         0.31081E-02
         0.31808E-02
         0.32428E-02
         0.32428E-02
         0.29970E-02
         0.27192E-02
         0.26975E-02
         0.27828E-02
         0.27828E-02
         0.27007E-02
         0.31890E-02
         0.31890E-02
         0.32624E-02
         0.34639E-02
         0.37111E-02
         0.37111E-02
         0.36242E-02
         0.28243E-02
         0.29125E-02
         0.32423E-02
         0.32423E-02
         0.32003E-02
         0.29846E-02
         0.32837E-02
         0.32837E-02
         0.42424E-02
         0.35200E-02
         0.37644E-02
         0.42424E-02
         0.37644E-02
         0.37644E-02
         0.30093E-02
         0.32077E-02
         0.42424E-02
         0.32077E-02
         0.24174E-02
         0.29979E-02
         0.32439E-02
         0.26559E-02
         0.27192E-02
         0.42653E-02
         0.36474E-02
         0.42653E-02
         0.32077E-02
         0.29690E-02
         0.34635E-02
         0.32624E-02
         0.37108E-02
         0.32077E-02
         0.30799E-02
         0.35199E-02
         0.26867E-02
         0.26867E-02
         0.24623E-02
         0.27625E-02
         0.42653E-02
         0.35199E-02
         0.42653E-02
         0.34703E-02
         0.27276E-02
         0.31812E-02
         0.32439E-02
         0.26979E-02
         0.27828E-02
         0.27828E-02
         0.27008E-02
         0.31893E-02
         0.31893E-02
         0.37108E-02
         0.36241E-02
         0.28240E-02
         0.31663E-02
         0.33481E-02
         0.33481E-02
         0.32012E-02
         0.29844E-02
         0.32835E-02
         0.27276E-02
         0.31071E-02
         0.31812E-02
         0.32439E-02
         0.32439E-02
         0.29979E-02
         0.27192E-02
         0.26979E-02
         0.27828E-02
         0.27828E-02
         0.27008E-02
         0.31893E-02
         0.31893E-02
         0.32624E-02
         0.34635E-02
         0.37108E-02
         0.37108E-02
         0.36241E-02
         0.28240E-02
         0.29135E-02
         0.32434E-02
         0.32434E-02
         0.32012E-02
         0.29844E-02
         0.32835E-02
         0.32835E-02
         0.42425E-02
         0.35200E-02
         0.37649E-02
         0.42425E-02
         0.37649E-02
         0.37649E-02
         0.30095E-02
         0.32079E-02
         0.42425E-02
         0.32079E-02
         0.24173E-02
         0.29989E-02
         0.32450E-02
         0.26547E-02
         0.27193E-02
         0.42645E-02
         0.36465E-02
         0.42645E-02
         0.32079E-02
         0.29677E-02
         0.34631E-02
         0.32625E-02
         0.37104E-02
         0.32079E-02
         0.30788E-02
         0.35201E-02
         0.26852E-02
         0.26852E-02
         0.24618E-02
         0.27618E-02
         0.42645E-02
         0.35201E-02
         0.42645E-02
         0.34715E-02
         0.27277E-02
         0.31815E-02
         0.32450E-02
         0.26983E-02
         0.27828E-02
         0.27828E-02
         0.27009E-02
         0.31895E-02
         0.31895E-02
         0.37104E-02
         0.36239E-02
         0.28237E-02
         0.31668E-02
         0.33480E-02
         0.33480E-02
         0.32020E-02
         0.29843E-02
         0.32833E-02
         0.27277E-02
         0.31062E-02
         0.31815E-02
         0.32450E-02
         0.32450E-02
         0.29989E-02
         0.27193E-02
         0.26983E-02
         0.27828E-02
         0.27828E-02
         0.27009E-02
         0.31895E-02
         0.31895E-02
         0.32625E-02
         0.34631E-02
         0.37104E-02
         0.37104E-02
         0.36239E-02
         0.28237E-02
         0.29145E-02
         0.32445E-02
         0.32445E-02
         0.32020E-02
         0.29843E-02
         0.32833E-02
         0.32833E-02
         0.42427E-02
         0.35200E-02
         0.37654E-02
         0.42427E-02
         0.37654E-02
         0.37654E-02
         0.30097E-02
         0.32081E-02
         0.42427E-02
         0.32081E-02
         0.24171E-02
         0.29998E-02
         0.32461E-02
         0.26535E-02
         0.27193E-02
         0.42636E-02
         0.36455E-02
         0.42636E-02
         0.32081E-02
         0.29665E-02
         0.34626E-02
         0.32626E-02
         0.37100E-02
         0.32081E-02
         0.30777E-02
         0.35203E-02
         0.26838E-02
         0.26838E-02
         0.24613E-02
         0.27611E-02
         0.42636E-02
         0.35203E-02
         0.42636E-02
         0.34726E-02
         0.27278E-02
         0.31818E-02
         0.32461E-02
         0.26987E-02
         0.27827E-02
         0.27827E-02
         0.27010E-02
         0.31898E-02
         0.31898E-02
         0.37100E-02
         0.36238E-02
         0.28234E-02
         0.31673E-02
         0.33479E-02
         0.33479E-02
         0.32029E-02
         0.29842E-02
         0.32831E-02
         0.27278E-02
         0.31052E-02
         0.31818E-02
         0.32461E-02
         0.32461E-02
         0.29998E-02
         0.27193E-02
         0.26987E-02
         0.27827E-02
         0.27827E-02
         0.27010E-02
         0.31898E-02
         0.31898E-02
         0.32626E-02
         0.34626E-02
         0.37100E-02
         0.37100E-02
         0.36238E-02
         0.28234E-02
         0.29154E-02
         0.32457E-02
         0.32457E-02
         0.32029E-02
         0.29842E-02
         0.32831E-02
         0.32831E-02
         0.42428E-02
         0.35199E-02
         0.37660E-02
         0.42428E-02
         0.37660E-02
         0.37660E-02
         0.30099E-02
         0.32083E-02
         0.42428E-02
         0.32083E-02
         0.24170E-02
         0.30007E-02
         0.32471E-02
         0.26523E-02
         0.27194E-02
         0.42628E-02
         0.36446E-02
         0.42628E-02
         0.32083E-02
         0.29652E-02
         0.34622E-02
         0.32627E-02
         0.37096E-02
         0.32083E-02
         0.30766E-02
         0.35205E-02
         0.26823E-02
         0.26823E-02
         0.24608E-02
         0.27605E-02
         0.42628E-02
         0.35205E-02
         0.42628E-02
         0.34737E-02
         0.27279E-02
         0.31821E-02
         0.32471E-02
         0.26991E-02
         0.27827E-02
         0.27827E-02
         0.27011E-02
         0.31900E-02
         0.31900E-02
         0.37096E-02
         0.36237E-02
         0.28231E-02
         0.31679E-02
         0.33478E-02
         0.33478E-02
         0.32038E-02
         0.29841E-02
         0.32829E-02
         0.27279E-02
         0.31043E-02
         0.31821E-02
         0.32471E-02
         0.32471E-02
         0.30007E-02
         0.27194E-02
         0.26991E-02
         0.27827E-02
         0.27827E-02
         0.27011E-02
         0.31900E-02
         0.31900E-02
         0.32627E-02
         0.34622E-02
         0.37096E-02
         0.37096E-02
         0.36237E-02
         0.28231E-02
         0.29164E-02
         0.32468E-02
         0.32468E-02
         0.32038E-02
         0.29841E-02
         0.32829E-02
         0.32829E-02
         0.42429E-02
         0.35199E-02
         0.37665E-02
         0.42429E-02
         0.37665E-02
         0.37665E-02
         0.30101E-02
         0.32085E-02
         0.42429E-02
         0.32085E-02
         0.24168E-02
         0.30017E-02
         0.32482E-02
         0.26510E-02
         0.27194E-02
         0.42619E-02
         0.36437E-02
         0.42619E-02
         0.32085E-02
         0.29640E-02
         0.34618E-02
         0.32627E-02
         0.37092E-02
         0.32085E-02
         0.30755E-02
         0.35207E-02
         0.26808E-02
         0.26808E-02
         0.24603E-02
         0.27599E-02
         0.42619E-02
         0.35207E-02
         0.42619E-02
         0.34748E-02
         0.27279E-02
         0.31824E-02
         0.32482E-02
         0.26994E-02
         0.27827E-02
         0.27827E-02
         0.27012E-02
         0.31902E-02
         0.31902E-02
         0.37092E-02
         0.36236E-02
         0.28227E-02
         0.31684E-02
         0.33477E-02
         0.33477E-02
         0.32046E-02
         0.29840E-02
         0.32827E-02
         0.27279E-02
         0.31034E-02
         0.31824E-02
         0.32482E-02
         0.32482E-02
         0.30017E-02
         0.27194E-02
         0.26994E-02
         0.27827E-02
         0.27827E-02
         0.27012E-02
         0.31902E-02
         0.31902E-02
         0.32627E-02
         0.34618E-02
         0.37092E-02
         0.37092E-02
         0.36236E-02
         0.28227E-02
         0.29173E-02
         0.32479E-02
         0.32479E-02
         0.32046E-02
         0.29840E-02
         0.32827E-02
         0.32827E-02
         0.42431E-02
         0.35199E-02
         0.37670E-02
         0.42431E-02
         0.37670E-02
         0.37670E-02
         0.30102E-02
         0.32087E-02
         0.42431E-02
         0.32087E-02
         0.24167E-02
         0.30026E-02
         0.32493E-02
         0.26498E-02
         0.27194E-02
         0.42611E-02
         0.36427E-02
         0.42611E-02
         0.32087E-02
         0.29628E-02
         0.34613E-02
         0.32628E-02
         0.37089E-02
         0.32087E-02
         0.30744E-02
         0.35209E-02
         0.26794E-02
         0.26794E-02
         0.24598E-02
         0.27592E-02
         0.42611E-02
         0.35209E-02
         0.42611E-02
         0.34759E-02
         0.27280E-02
         0.31827E-02
         0.32493E-02
         0.26998E-02
         0.27827E-02
         0.27827E-02
         0.27013E-02
         0.31905E-02
         0.31905E-02
         0.37089E-02
         0.36235E-02
         0.28224E-02
         0.31689E-02
         0.33476E-02
         0.33476E-02
         0.32055E-02
         0.29839E-02
         0.32825E-02
         0.27280E-02
         0.31024E-02
         0.31827E-02
         0.32493E-02
         0.32493E-02
         0.30026E-02
         0.27194E-02
         0.26998E-02
         0.27827E-02
         0.27827E-02
         0.27013E-02
         0.31905E-02
         0.31905E-02
         0.32628E-02
         0.34613E-02
         0.37089E-02
         0.37089E-02
         0.36235E-02
         0.28224E-02
         0.29183E-02
         0.32490E-02
         0.32490E-02
         0.32055E-02
         0.29839E-02
         0.32825E-02
         0.32825E-02
         0.42432E-02
         0.35199E-02
         0.37675E-02
         0.42432E-02
         0.37675E-02
         0.37675E-02
         0.30104E-02
         0.32089E-02
         0.42432E-02
         0.32089E-02
         0.24166E-02
         0.30035E-02
         0.32504E-02
         0.26486E-02
         0.27195E-02
         0.42603E-02
         0.36418E-02
         0.42603E-02
         0.32089E-02
         0.29615E-02
         0.34609E-02
         0.32629E-02
         0.37085E-02
         0.32089E-02
         0.30732E-02
         0.35211E-02
         0.26779E-02
         0.26779E-02
         0.24593E-02
         0.27585E-02
         0.42603E-02
         0.35211E-02
         0.42603E-02
         0.34771E-02
         0.27281E-02
         0.31830E-02
         0.32504E-02
         0.27002E-02
         0.27827E-02
         0.27827E-02
         0.27014E-02
         0.31907E-02
         0.31907E-02
         0.37085E-02
         0.36233E-02
         0.28221E-02
         0.31694E-02
         0.33475E-02
         0.33475E-02
         0.32063E-02
         0.29838E-02
         0.32823E-02
         0.27281E-02
         0.31015E-02
         0.31830E-02
         0.32504E-02
         0.32504E-02
         0.30035E-02
         0.27195E-02
         0.27002E-02
         0.27827E-02
         0.27827E-02
         0.27014E-02
         0.31907E-02
         0.31907E-02
         0.32629E-02
         0.34609E-02
         0.37085E-02
         0.37085E-02
         0.36233E-02
         0.28221E-02
         0.29193E-02
         0.32501E-02
         0.32501E-02
         0.32063E-02
         0.29838E-02
         0.32823E-02
         0.32823E-02
         0.42433E-02
         0.35199E-02
         0.37680E-02
         0.42433E-02
         0.37680E-02
         0.37680E-02
         0.30106E-02
         0.32091E-02
         0.42433E-02
         0.32091E-02
         0.24164E-02
         0.30045E-02
         0.32514E-02
         0.26474E-02
         0.27195E-02
         0.42594E-02
         0.36409E-02
         0.42594E-02
         0.32091E-02
         0.29603E-02
         0.34605E-02
         0.32630E-02
         0.37081E-02
         0.32091E-02
         0.30721E-02
         0.35213E-02
         0.26765E-02
         0.26765E-02
         0.24588E-02
         0.27579E-02
         0.42594E-02
         0.35213E-02
         0.42594E-02
         0.34782E-02
         0.27281E-02
         0.31833E-02
         0.32514E-02
         0.27006E-02
         0.27826E-02
         0.27826E-02
         0.27015E-02
         0.31910E-02
         0.31910E-02
         0.37081E-02
         0.36232E-02
         0.28218E-02
         0.31700E-02
         0.33474E-02
         0.33474E-02
         0.32072E-02
         0.29836E-02
         0.32821E-02
         0.27281E-02
         0.31005E-02
         0.31833E-02
         0.32514E-02
         0.32514E-02
         0.30045E-02
         0.27195E-02
         0.27006E-02
         0.27826E-02
         0.27826E-02
         0.27015E-02
         0.31910E-02
         0.31910E-02
         0.32630E-02
         0.34605E-02
         0.37081E-02
         0.37081E-02
         0.36232E-02
         0.28218E-02
         0.29202E-02
         0.32512E-02
         0.32512E-02
         0.32072E-02
         0.29836E-02
         0.32821E-02
         0.32821E-02
         0.42435E-02
         0.35199E-02
         0.37685E-02
         0.42435E-02
         0.37685E-02
         0.37685E-02
         0.30108E-02
         0.32093E-02
         0.42435E-02
         0.32093E-02
         0.24163E-02
         0.30054E-02
         0.32525E-02
         0.26461E-02
         0.27196E-02
         0.42586E-02
         0.36399E-02
         0.42586E-02
         0.32093E-02
         0.29591E-02
         0.34601E-02
         0.32630E-02
         0.37077E-02
         0.32093E-02
         0.30710E-02
         0.35215E-02
         0.26750E-02
         0.26750E-02
         0.24583E-02
         0.27572E-02
         0.42586E-02
         0.35215E-02
         0.42586E-02
         0.34793E-02
         0.27282E-02
         0.31836E-02
         0.32525E-02
         0.27010E-02
         0.27826E-02
         0.27826E-02
         0.27016E-02
         0.31912E-02
         0.31912E-02
         0.37077E-02
         0.36231E-02
         0.28215E-02
         0.31705E-02
         0.33473E-02
         0.33473E-02
         0.32080E-02
         0.29835E-02
         0.32819E-02
         0.27282E-02
         0.30996E-02
         0.31836E-02
         0.32525E-02
         0.32525E-02
         0.30054E-02
         0.27196E-02
         0.27010E-02
         0.27826E-02
         0.27826E-02
         0.27016E-02
         0.31912E-02
         0.31912E-02
         0.32630E-02
         0.34601E-02
         0.37077E-02
         0.37077E-02
         0.36231E-02
         0.28215E-02
         0.29212E-02
         0.32524E-02
         0.32524E-02
         0.32080E-02
         0.29835E-02
         0.32819E-02
         0.32819E-02
         0.42436E-02
         0.35198E-02
         0.37690E-02
         0.42436E-02
         0.37690E-02
         0.37690E-02
         0.30110E-02
         0.32095E-02
         0.42436E-02
         0.32095E-02
         0.24162E-02
         0.30064E-02
         0.32536E-02
         0.26449E-02
         0.27196E-02
         0.42577E-02
         0.36390E-02
         0.42577E-02
         0.32096E-02
         0.29578E-02
         0.34596E-02
         0.32631E-02
         0.37074E-02
         0.32096E-02
         0.30699E-02
         0.35217E-02
         0.26735E-02
         0.26735E-02
         0.24578E-02
         0.27566E-02
         0.42577E-02
         0.35217E-02
         0.42577E-02
         0.34804E-02
         0.27283E-02
         0.31839E-02
         0.32536E-02
         0.27013E-02
         0.27826E-02
         0.27826E-02
         0.27017E-02
         0.31915E-02
         0.31915E-02
         0.37074E-02
         0.36230E-02
         0.28211E-02
         0.31710E-02
         0.33472E-02
         0.33472E-02
         0.32089E-02
         0.29834E-02
         0.32817E-02
         0.27283E-02
         0.30986E-02
         0.31839E-02
         0.32536E-02
         0.32536E-02
         0.30064E-02
         0.27196E-02
         0.27013E-02
         0.27826E-02
         0.27826E-02
         0.27017E-02
         0.31915E-02
         0.31915E-02
         0.32631E-02
         0.34596E-02
         0.37074E-02
         0.37074E-02
         0.36230E-02
         0.28211E-02
         0.29221E-02
         0.32535E-02
         0.32535E-02
         0.32089E-02
         0.29834E-02
         0.32817E-02
         0.32817E-02
         0.42437E-02
         0.35198E-02
         0.37695E-02
         0.42437E-02
         0.37695E-02
         0.37695E-02
         0.30112E-02
         0.32097E-02
         0.42437E-02
         0.32097E-02
         0.24160E-02
         0.30073E-02
         0.32547E-02
         0.26437E-02
         0.27197E-02
         0.42569E-02
         0.36381E-02
         0.42569E-02
         0.32098E-02
         0.29566E-02
         0.34592E-02
         0.32632E-02
         0.37070E-02
         0.32098E-02
         0.30688E-02
         0.35219E-02
         0.26721E-02
         0.26721E-02
         0.24573E-02
         0.27560E-02
         0.42569E-02
         0.35219E-02
         0.42569E-02
         0.34815E-02
         0.27284E-02
         0.31843E-02
         0.32547E-02
         0.27017E-02
         0.27826E-02
         0.27826E-02
         0.27018E-02
         0.31917E-02
         0.31917E-02
         0.37070E-02
         0.36229E-02
         0.28208E-02
         0.31716E-02
         0.33471E-02
         0.33471E-02
         0.32097E-02
         0.29833E-02
         0.32815E-02
         0.27284E-02
         0.30977E-02
         0.31843E-02
         0.32547E-02
         0.32547E-02
         0.30073E-02
         0.27197E-02
         0.27017E-02
         0.27826E-02
         0.27826E-02
         0.27018E-02
         0.31917E-02
         0.31917E-02
         0.32632E-02
         0.34592E-02
         0.37070E-02
         0.37070E-02
         0.36229E-02
         0.28208E-02
         0.29231E-02
         0.32546E-02
         0.32546E-02
         0.32097E-02
         0.29833E-02
         0.32815E-02
         0.32815E-02
         0.42439E-02
         0.35198E-02
         0.37701E-02
         0.42439E-02
         0.37701E-02
         0.37701E-02
         0.30113E-02
         0.32099E-02
         0.42439E-02
         0.32099E-02
         0.24159E-02
         0.30082E-02
         0.32558E-02
         0.26425E-02
         0.27197E-02
         0.42560E-02
         0.36371E-02
         0.42560E-02
         0.32100E-02
         0.29554E-02
         0.34588E-02
         0.32633E-02
         0.37066E-02
         0.32100E-02
         0.30677E-02
         0.35221E-02
         0.26706E-02
         0.26706E-02
         0.24568E-02
         0.27553E-02
         0.42560E-02
         0.35221E-02
         0.42560E-02
         0.34827E-02
         0.27284E-02
         0.31846E-02
         0.32558E-02
         0.27021E-02
         0.27826E-02
         0.27826E-02
         0.27019E-02
         0.31920E-02
         0.31920E-02
         0.37066E-02
         0.36227E-02
         0.28205E-02
         0.31721E-02
         0.33470E-02
         0.33470E-02
         0.32106E-02
         0.29831E-02
         0.32813E-02
         0.27284E-02
         0.30968E-02
         0.31846E-02
         0.32558E-02
         0.32558E-02
         0.30082E-02
         0.27197E-02
         0.27021E-02
         0.27826E-02
         0.27826E-02
         0.27019E-02
         0.31920E-02
         0.31920E-02
         0.32633E-02
         0.34588E-02
         0.37066E-02
         0.37066E-02
         0.36227E-02
         0.28205E-02
         0.29241E-02
         0.32557E-02
         0.32557E-02
         0.32106E-02
         0.29831E-02
         0.32813E-02
         0.32813E-02
         0.42440E-02
         0.35198E-02
         0.37706E-02
         0.42440E-02
         0.37706E-02
         0.37706E-02
         0.30115E-02
         0.32101E-02
         0.42440E-02
         0.32101E-02
         0.24158E-02
         0.30091E-02
         0.32568E-02
         0.26412E-02
         0.27198E-02
         0.42552E-02
         0.36362E-02
         0.42552E-02
         0.32102E-02
         0.29541E-02
         0.34583E-02
         0.32633E-02
         0.37062E-02
         0.32102E-02
         0.30665E-02
         0.35223E-02
         0.26692E-02
         0.26692E-02
         0.24563E-02
         0.27546E-02
         0.42552E-02
         0.35223E-02
         0.42552E-02
         0.34838E-02
         0.27285E-02
         0.31849E-02
         0.32568E-02
         0.27025E-02
         0.27826E-02
         0.27826E-02
         0.27020E-02
         0.31922E-02
         0.31922E-02
         0.37062E-02
         0.36226E-02
         0.28202E-02
         0.31726E-02
         0.33469E-02
         0.33469E-02
         0.32114E-02
         0.29830E-02
         0.32811E-02
         0.27285E-02
         0.30958E-02
         0.31849E-02
         0.32568E-02
         0.32568E-02
         0.30091E-02
         0.27198E-02
         0.27025E-02
         0.27826E-02
         0.27826E-02
         0.27020E-02
         0.31922E-02
         0.31922E-02
         0.32633E-02
         0.34583E-02
         0.37062E-02
         0.37062E-02
         0.36226E-02
         0.28202E-02
         0.29250E-02
         0.32568E-02
         0.32568E-02
         0.32114E-02
         0.29830E-02
         0.32811E-02
         0.32811E-02
         0.42441E-02
         0.35198E-02
         0.37711E-02
         0.42441E-02
         0.37711E-02
         0.37711E-02
         0.30117E-02
         0.32103E-02
         0.42441E-02
         0.32103E-02
         0.24156E-02
         0.30101E-02
         0.32579E-02
         0.26400E-02
         0.27198E-02
         0.42543E-02
         0.36353E-02
         0.42543E-02
         0.32104E-02
         0.29529E-02
         0.34579E-02
         0.32634E-02
         0.37058E-02
         0.32104E-02
         0.30654E-02
         0.35225E-02
         0.26677E-02
         0.26677E-02
         0.24558E-02
         0.27540E-02
         0.42543E-02
         0.35225E-02
         0.42543E-02
         0.34849E-02
         0.27286E-02
         0.31852E-02
         0.32579E-02
         0.27029E-02
         0.27826E-02
         0.27826E-02
         0.27021E-02
         0.31924E-02
         0.31924E-02
         0.37058E-02
         0.36225E-02
         0.28198E-02
         0.31731E-02
         0.33468E-02
         0.33468E-02
         0.32123E-02
         0.29829E-02
         0.32809E-02
         0.27286E-02
         0.30949E-02
         0.31852E-02
         0.32579E-02
         0.32579E-02
         0.30101E-02
         0.27198E-02
         0.27029E-02
         0.27826E-02
         0.27826E-02
         0.27021E-02
         0.31924E-02
         0.31924E-02
         0.32634E-02
         0.34579E-02
         0.37058E-02
         0.37058E-02
         0.36225E-02
         0.28198E-02
         0.29260E-02
         0.32579E-02
         0.32579E-02
         0.32123E-02
         0.29829E-02
         0.32809E-02
         0.32809E-02
         0.42443E-02
         0.35197E-02
         0.37716E-02
         0.42443E-02
         0.37716E-02
         0.37716E-02
         0.30119E-02
         0.32105E-02
         0.42443E-02
         0.32105E-02
         0.24155E-02
         0.30110E-02
         0.32590E-02
         0.26388E-02
         0.27199E-02
         0.42535E-02
         0.36343E-02
         0.42535E-02
         0.32106E-02
         0.29517E-02
         0.34575E-02
         0.32635E-02
         0.37055E-02
         0.32106E-02
         0.30643E-02
         0.35227E-02
         0.26663E-02
         0.26663E-02
         0.24553E-02
         0.27533E-02
         0.42535E-02
         0.35227E-02
         0.42535E-02
         0.34860E-02
         0.27286E-02
         0.31855E-02
         0.32590E-02
         0.27032E-02
         0.27826E-02
         0.27826E-02
         0.27022E-02
         0.31927E-02
         0.31927E-02
         0.37055E-02
         0.36224E-02
         0.28195E-02
         0.31737E-02
         0.33467E-02
         0.33467E-02
         0.32132E-02
         0.29828E-02
         0.32807E-02
         0.27286E-02
         0.30939E-02
         0.31855E-02
         0.32590E-02
         0.32590E-02
         0.30110E-02
         0.27199E-02
         0.27032E-02
         0.27826E-02
         0.27826E-02
         0.27022E-02
         0.31927E-02
         0.31927E-02
         0.32635E-02
         0.34575E-02
         0.37055E-02
         0.37055E-02
         0.36224E-02
         0.28195E-02
         0.29269E-02
         0.32591E-02
         0.32591E-02
         0.32132E-02
         0.29828E-02
         0.32807E-02
         0.32807E-02
         0.42444E-02
         0.35197E-02
         0.37721E-02
         0.42444E-02
         0.37721E-02
         0.37721E-02
         0.30121E-02
         0.32107E-02
         0.42444E-02
         0.32107E-02
         0.24154E-02
         0.30119E-02
         0.32601E-02
         0.26376E-02
         0.27199E-02
         0.42527E-02
         0.36334E-02
         0.42527E-02
         0.32108E-02
         0.29504E-02
         0.34571E-02
         0.32636E-02
         0.37051E-02
         0.32108E-02
         0.30632E-02
         0.35229E-02
         0.26648E-02
         0.26648E-02
         0.24552E-02
         0.27527E-02
         0.42527E-02
         0.35229E-02
         0.42527E-02
         0.34871E-02
         0.27287E-02
         0.31858E-02
         0.32601E-02
         0.27036E-02
         0.27825E-02
         0.27825E-02
         0.27023E-02
         0.31929E-02
         0.31929E-02
         0.37051E-02
         0.36223E-02
         0.28192E-02
         0.31742E-02
         0.33466E-02
         0.33466E-02
         0.32140E-02
         0.29827E-02
         0.32805E-02
         0.27287E-02
         0.30930E-02
         0.31858E-02
         0.32601E-02
         0.32601E-02
         0.30119E-02
         0.27199E-02
         0.27036E-02
         0.27825E-02
         0.27825E-02
         0.27023E-02
         0.31929E-02
         0.31929E-02
         0.32636E-02
         0.34571E-02
         0.37051E-02
         0.37051E-02
         0.36223E-02
         0.28192E-02
         0.29279E-02
         0.32602E-02
         0.32602E-02
         0.32140E-02
         0.29827E-02
         0.32805E-02
         0.32805E-02
         0.42445E-02
         0.35197E-02
         0.37726E-02
         0.42445E-02
         0.37726E-02
         0.37726E-02
         0.30123E-02
         0.32108E-02
         0.42445E-02
         0.32108E-02
         0.24152E-02
         0.30129E-02
         0.32611E-02
         0.26363E-02
         0.27200E-02
         0.42518E-02
         0.36325E-02
         0.42518E-02
         0.32110E-02
         0.29492E-02
         0.34566E-02
         0.32636E-02
         0.37047E-02
         0.32110E-02
         0.30621E-02
         0.35231E-02
         0.26633E-02
         0.26633E-02
         0.24554E-02
         0.27520E-02
         0.42518E-02
         0.35231E-02
         0.42518E-02
         0.34882E-02
         0.27288E-02
         0.31861E-02
         0.32611E-02
         0.27040E-02
         0.27825E-02
         0.27825E-02
         0.27024E-02
         0.31932E-02
         0.31932E-02
         0.37047E-02
         0.36222E-02
         0.28189E-02
         0.31747E-02
         0.33465E-02
         0.33465E-02
         0.32149E-02
         0.29826E-02
         0.32803E-02
         0.27288E-02
         0.30921E-02
         0.31861E-02
         0.32611E-02
         0.32611E-02
         0.30129E-02
         0.27200E-02
         0.27040E-02
         0.27825E-02
         0.27825E-02
         0.27024E-02
         0.31932E-02
         0.31932E-02
         0.32636E-02
         0.34566E-02
         0.37047E-02
         0.37047E-02
         0.36222E-02
         0.28189E-02
         0.29289E-02
         0.32613E-02
         0.32613E-02
         0.32149E-02
         0.29826E-02
         0.32803E-02
         0.32803E-02
         0.42447E-02
         0.35196E-02
         0.37732E-02
         0.42447E-02
         0.37732E-02
         0.37732E-02
         0.30125E-02
         0.32111E-02
         0.42447E-02
         0.32111E-02
         0.24151E-02
         0.30138E-02
         0.32622E-02
         0.26351E-02
         0.27200E-02
         0.42510E-02
         0.36315E-02
         0.42510E-02
         0.32112E-02
         0.29480E-02
         0.34562E-02
         0.32637E-02
         0.37043E-02
         0.32112E-02
         0.30610E-02
         0.35233E-02
         0.26619E-02
         0.26619E-02
         0.24557E-02
         0.27514E-02
         0.42510E-02
         0.35233E-02
         0.42510E-02
         0.34894E-02
         0.27289E-02
         0.31864E-02
         0.32622E-02
         0.27044E-02
         0.27825E-02
         0.27825E-02
         0.27025E-02
         0.31934E-02
         0.31934E-02
         0.37043E-02
         0.36220E-02
         0.28186E-02
         0.31753E-02
         0.33464E-02
         0.33464E-02
         0.32157E-02
         0.29824E-02
         0.32801E-02
         0.27289E-02
         0.30911E-02
         0.31864E-02
         0.32622E-02
         0.32622E-02
         0.30138E-02
         0.27200E-02
         0.27044E-02
         0.27825E-02
         0.27825E-02
         0.27025E-02
         0.31934E-02
         0.31934E-02
         0.32637E-02
         0.34562E-02
         0.37043E-02
         0.37043E-02
         0.36220E-02
         0.28186E-02
         0.29298E-02
         0.32624E-02
         0.32624E-02
         0.32157E-02
         0.29824E-02
         0.32801E-02
         0.32801E-02
         0.42448E-02
         0.35196E-02
         0.37737E-02
         0.42448E-02
         0.37737E-02
         0.37737E-02
         0.30126E-02
         0.32112E-02
         0.42448E-02
         0.32112E-02
         0.24150E-02
         0.30147E-02
         0.32633E-02
         0.26339E-02
         0.27200E-02
         0.42501E-02
         0.36306E-02
         0.42501E-02
         0.32114E-02
         0.29467E-02
         0.34558E-02
         0.32638E-02
         0.37039E-02
         0.32114E-02
         0.30598E-02
         0.35235E-02
         0.26604E-02
         0.26604E-02
         0.24559E-02
         0.27507E-02
         0.42501E-02
         0.35235E-02
         0.42501E-02
         0.34905E-02
         0.27289E-02
         0.31867E-02
         0.32633E-02
         0.27048E-02
         0.27825E-02
         0.27825E-02
         0.27026E-02
         0.31937E-02
         0.31937E-02
         0.37039E-02
         0.36219E-02
         0.28183E-02
         0.31758E-02
         0.33463E-02
         0.33463E-02
         0.32166E-02
         0.29823E-02
         0.32799E-02
         0.27289E-02
         0.30902E-02
         0.31867E-02
         0.32633E-02
         0.32633E-02
         0.30147E-02
         0.27200E-02
         0.27048E-02
         0.27825E-02
         0.27825E-02
         0.27026E-02
         0.31937E-02
         0.31937E-02
         0.32638E-02
         0.34558E-02
         0.37039E-02
         0.37039E-02
         0.36219E-02
         0.28183E-02
         0.29308E-02
         0.32635E-02
         0.32635E-02
         0.32166E-02
         0.29823E-02
         0.32799E-02
         0.32799E-02
         0.42448E-02
         0.35196E-02
         0.37737E-02
         0.42448E-02
         0.37737E-02
         0.37737E-02
         0.30126E-02
         0.32112E-02
         0.42448E-02
         0.32112E-02
         0.24148E-02
         0.30147E-02
         0.32633E-02
         0.26327E-02
         0.27200E-02
         0.42493E-02
         0.36297E-02
         0.42493E-02
         0.32114E-02
         0.29455E-02
         0.34553E-02
         0.32638E-02
         0.37036E-02
         0.32114E-02
         0.30587E-02
         0.35235E-02
         0.26590E-02
         0.26590E-02
         0.24559E-02
         0.27501E-02
         0.42493E-02
         0.35235E-02
         0.42493E-02
         0.34905E-02
         0.27289E-02
         0.31867E-02
         0.32633E-02
         0.27048E-02
         0.27825E-02
         0.27825E-02
         0.27026E-02
         0.31937E-02
         0.31937E-02
         0.37036E-02
         0.36218E-02
         0.28180E-02
         0.31758E-02
         0.33462E-02
         0.33462E-02
         0.32166E-02
         0.29822E-02
         0.32797E-02
         0.27289E-02
         0.30892E-02
         0.31867E-02
         0.32633E-02
         0.32633E-02
         0.30147E-02
         0.27200E-02
         0.27048E-02
         0.27825E-02
         0.27825E-02
         0.27026E-02
         0.31937E-02
         0.31937E-02
         0.32638E-02
         0.34553E-02
         0.37036E-02
         0.37036E-02
         0.36218E-02
         0.28180E-02
         0.29308E-02
         0.32635E-02
         0.32635E-02
         0.32166E-02
         0.29822E-02
         0.32797E-02
         0.32797E-02
  
SCALARS              physical_window_y  double 1
LOOKUP_TABLE default
         0.43155E-02
         0.43155E-02
         0.43155E-02
         0.43155E-02
         0.43155E-02
         0.43155E-02
         0.43155E-02
         0.43155E-02
         0.34883E-02
         0.34883E-02
         0.34882E-02
         0.34882E-02
         0.32826E-02
         0.32142E-02
         0.32826E-02
         0.32142E-02
         0.37863E-02
         0.31884E-02
         0.37863E-02
         0.31884E-02
         0.27172E-02
         0.33887E-02
         0.37164E-02
         0.27172E-02
         0.33887E-02
         0.37164E-02
         0.27582E-02
         0.28966E-02
         0.27582E-02
         0.28954E-02
         0.37007E-02
         0.35859E-02
         0.37863E-02
         0.37007E-02
         0.35824E-02
         0.37863E-02
         0.29875E-02
         0.29875E-02
         0.29867E-02
         0.29867E-02
         0.28561E-02
         0.26860E-02
         0.28556E-02
         0.26852E-02
         0.29518E-02
         0.28068E-02
         0.29517E-02
         0.28066E-02
         0.29975E-02
         0.29949E-02
         0.37007E-02
         0.37007E-02
         0.28693E-02
         0.28693E-02
         0.28693E-02
         0.28693E-02
         0.27602E-02
         0.26193E-02
         0.27602E-02
         0.26193E-02
         0.37007E-02
         0.37007E-02
         0.37007E-02
         0.37007E-02
         0.37685E-02
         0.37665E-02
         0.37685E-02
         0.37665E-02
         0.30230E-02
         0.37003E-02
         0.30229E-02
         0.37003E-02
         0.37164E-02
         0.37164E-02
         0.31934E-02
         0.31921E-02
         0.32777E-02
         0.32771E-02
         0.32777E-02
         0.32771E-02
         0.27006E-02
         0.25920E-02
         0.27006E-02
         0.25920E-02
         0.25916E-02
         0.25916E-02
         0.29715E-02
         0.29715E-02
         0.29715E-02
         0.29715E-02
         0.26477E-02
         0.29102E-02
         0.26477E-02
         0.29102E-02
         0.34085E-02
         0.34085E-02
         0.35350E-02
         0.35350E-02
         0.35350E-02
         0.35350E-02
         0.29766E-02
         0.32272E-02
         0.29763E-02
         0.32254E-02
         0.29087E-02
         0.29835E-02
         0.29087E-02
         0.29825E-02
         0.37003E-02
         0.37003E-02
         0.37164E-02
         0.37164E-02
         0.37164E-02
         0.37164E-02
         0.33887E-02
         0.33887E-02
         0.28966E-02
         0.28954E-02
         0.31934E-02
         0.31921E-02
         0.32777E-02
         0.32771E-02
         0.32777E-02
         0.32771E-02
         0.27006E-02
         0.27006E-02
         0.25920E-02
         0.25920E-02
         0.25916E-02
         0.25916E-02
         0.26860E-02
         0.26852E-02
         0.28561E-02
         0.28556E-02
         0.29518E-02
         0.29517E-02
         0.29715E-02
         0.29715E-02
         0.29715E-02
         0.29715E-02
         0.26477E-02
         0.26477E-02
         0.27685E-02
         0.27685E-02
         0.34085E-02
         0.34085E-02
         0.35350E-02
         0.35350E-02
         0.35350E-02
         0.35350E-02
         0.29766E-02
         0.29763E-02
         0.31381E-02
         0.31368E-02
         0.31381E-02
         0.31368E-02
         0.43153E-02
         0.43153E-02
         0.43153E-02
         0.43153E-02
         0.34883E-02
         0.34883E-02
         0.32812E-02
         0.32132E-02
         0.37858E-02
         0.31880E-02
         0.27155E-02
         0.33883E-02
         0.37163E-02
         0.27535E-02
         0.28978E-02
         0.37004E-02
         0.35894E-02
         0.37858E-02
         0.29882E-02
         0.29882E-02
         0.28566E-02
         0.26867E-02
         0.29519E-02
         0.28071E-02
         0.30001E-02
         0.37004E-02
         0.28667E-02
         0.28667E-02
         0.27589E-02
         0.26183E-02
         0.37004E-02
         0.37004E-02
         0.37706E-02
         0.37706E-02
         0.30232E-02
         0.36991E-02
         0.37163E-02
         0.31947E-02
         0.32784E-02
         0.32784E-02
         0.27006E-02
         0.25920E-02
         0.25909E-02
         0.29715E-02
         0.29715E-02
         0.26476E-02
         0.29101E-02
         0.34078E-02
         0.35344E-02
         0.35344E-02
         0.29769E-02
         0.32290E-02
         0.29059E-02
         0.29845E-02
         0.36991E-02
         0.37163E-02
         0.37163E-02
         0.33883E-02
         0.28978E-02
         0.31947E-02
         0.32784E-02
         0.32784E-02
         0.27006E-02
         0.25920E-02
         0.25909E-02
         0.26867E-02
         0.28566E-02
         0.29519E-02
         0.29715E-02
         0.29715E-02
         0.26476E-02
         0.27685E-02
         0.34078E-02
         0.35344E-02
         0.35344E-02
         0.29769E-02
         0.31395E-02
         0.31395E-02
         0.43150E-02
         0.43150E-02
         0.43150E-02
         0.43150E-02
         0.34884E-02
         0.34884E-02
         0.32798E-02
         0.32122E-02
         0.37853E-02
         0.31876E-02
         0.27137E-02
         0.33879E-02
         0.37162E-02
         0.27488E-02
         0.28990E-02
         0.37001E-02
         0.35930E-02
         0.37853E-02
         0.29889E-02
         0.29889E-02
         0.28571E-02
         0.26875E-02
         0.29521E-02
         0.28074E-02
         0.30027E-02
         0.37001E-02
         0.28641E-02
         0.28641E-02
         0.27576E-02
         0.26173E-02
         0.37001E-02
         0.37001E-02
         0.37727E-02
         0.37727E-02
         0.30234E-02
         0.36979E-02
         0.37162E-02
         0.31960E-02
         0.32790E-02
         0.32790E-02
         0.27006E-02
         0.25920E-02
         0.25902E-02
         0.29715E-02
         0.29715E-02
         0.26476E-02
         0.29100E-02
         0.34071E-02
         0.35339E-02
         0.35339E-02
         0.29772E-02
         0.32307E-02
         0.29032E-02
         0.29855E-02
         0.36979E-02
         0.37162E-02
         0.37162E-02
         0.33879E-02
         0.28990E-02
         0.31960E-02
         0.32790E-02
         0.32790E-02
         0.27006E-02
         0.25920E-02
         0.25902E-02
         0.26875E-02
         0.28571E-02
         0.29521E-02
         0.29715E-02
         0.29715E-02
         0.26476E-02
         0.27684E-02
         0.34071E-02
         0.35339E-02
         0.35339E-02
         0.29772E-02
         0.31408E-02
         0.31408E-02
         0.43148E-02
         0.43148E-02
         0.43148E-02
         0.43148E-02
         0.34885E-02
         0.34885E-02
         0.32783E-02
         0.32112E-02
         0.37849E-02
         0.31872E-02
         0.27120E-02
         0.33875E-02
         0.37161E-02
         0.27441E-02
         0.29003E-02
         0.36998E-02
         0.35965E-02
         0.37849E-02
         0.29896E-02
         0.29896E-02
         0.28575E-02
         0.26882E-02
         0.29522E-02
         0.28077E-02
         0.30053E-02
         0.36998E-02
         0.28615E-02
         0.28615E-02
         0.27563E-02
         0.26163E-02
         0.36998E-02
         0.36998E-02
         0.37747E-02
         0.37747E-02
         0.30236E-02
         0.36967E-02
         0.37161E-02
         0.31973E-02
         0.32796E-02
         0.32796E-02
         0.27006E-02
         0.25920E-02
         0.25895E-02
         0.29714E-02
         0.29714E-02
         0.26475E-02
         0.29099E-02
         0.34063E-02
         0.35333E-02
         0.35333E-02
         0.29775E-02
         0.32325E-02
         0.29004E-02
         0.29865E-02
         0.36967E-02
         0.37161E-02
         0.37161E-02
         0.33875E-02
         0.29003E-02
         0.31973E-02
         0.32796E-02
         0.32796E-02
         0.27006E-02
         0.25920E-02
         0.25895E-02
         0.26882E-02
         0.28575E-02
         0.29522E-02
         0.29714E-02
         0.29714E-02
         0.26475E-02
         0.27684E-02
         0.34063E-02
         0.35333E-02
         0.35333E-02
         0.29775E-02
         0.31422E-02
         0.31422E-02
         0.43145E-02
         0.43145E-02
         0.43145E-02
         0.43145E-02
         0.34886E-02
         0.34886E-02
         0.32769E-02
         0.32102E-02
         0.37844E-02
         0.31868E-02
         0.27103E-02
         0.33871E-02
         0.37160E-02
         0.27394E-02
         0.29015E-02
         0.36995E-02
         0.36000E-02
         0.37844E-02
         0.29903E-02
         0.29903E-02
         0.28580E-02
         0.26890E-02
         0.29523E-02
         0.28079E-02
         0.30079E-02
         0.36995E-02
         0.28589E-02
         0.28589E-02
         0.27550E-02
         0.26152E-02
         0.36995E-02
         0.36995E-02
         0.37768E-02
         0.37768E-02
         0.30238E-02
         0.36956E-02
         0.37160E-02
         0.31986E-02
         0.32802E-02
         0.32802E-02
         0.27006E-02
         0.25920E-02
         0.25887E-02
         0.29714E-02
         0.29714E-02
         0.26475E-02
         0.29098E-02
         0.34056E-02
         0.35327E-02
         0.35327E-02
         0.29778E-02
         0.32342E-02
         0.28977E-02
         0.29875E-02
         0.36956E-02
         0.37160E-02
         0.37160E-02
         0.33871E-02
         0.29015E-02
         0.31986E-02
         0.32802E-02
         0.32802E-02
         0.27006E-02
         0.25920E-02
         0.25887E-02
         0.26890E-02
         0.28580E-02
         0.29523E-02
         0.29714E-02
         0.29714E-02
         0.26475E-02
         0.27683E-02
         0.34056E-02
         0.35327E-02
         0.35327E-02
         0.29778E-02
         0.31435E-02
         0.31435E-02
         0.43143E-02
         0.43143E-02
         0.43143E-02
         0.43143E-02
         0.34887E-02
         0.34887E-02
         0.32755E-02
         0.32091E-02
         0.37839E-02
         0.31864E-02
         0.27086E-02
         0.33867E-02
         0.37159E-02
         0.27347E-02
         0.29027E-02
         0.36991E-02
         0.36036E-02
         0.37839E-02
         0.29920E-02
         0.29920E-02
         0.28585E-02
         0.26897E-02
         0.29525E-02
         0.28082E-02
         0.30105E-02
         0.36991E-02
         0.28563E-02
         0.28563E-02
         0.27537E-02
         0.26142E-02
         0.36991E-02
         0.36991E-02
         0.37789E-02
         0.37789E-02
         0.30240E-02
         0.36944E-02
         0.37159E-02
         0.31999E-02
         0.32808E-02
         0.32808E-02
         0.27006E-02
         0.25920E-02
         0.25880E-02
         0.29714E-02
         0.29714E-02
         0.26474E-02
         0.29097E-02
         0.34049E-02
         0.35322E-02
         0.35322E-02
         0.29781E-02
         0.32360E-02
         0.28949E-02
         0.29885E-02
         0.36944E-02
         0.37159E-02
         0.37159E-02
         0.33867E-02
         0.29027E-02
         0.31999E-02
         0.32808E-02
         0.32808E-02
         0.27006E-02
         0.25920E-02
         0.25880E-02
         0.26897E-02
         0.28585E-02
         0.29525E-02
         0.29714E-02
         0.29714E-02
         0.26474E-02
         0.27683E-02
         0.34049E-02
         0.35322E-02
         0.35322E-02
         0.29781E-02
         0.31449E-02
         0.31449E-02
         0.43140E-02
         0.43140E-02
         0.43140E-02
         0.43140E-02
         0.34888E-02
         0.34888E-02
         0.32740E-02
         0.32081E-02
         0.37834E-02
         0.31860E-02
         0.27069E-02
         0.33863E-02
         0.37158E-02
         0.27299E-02
         0.29039E-02
         0.36988E-02
         0.36071E-02
         0.37834E-02
         0.29946E-02
         0.29946E-02
         0.28589E-02
         0.26905E-02
         0.29526E-02
         0.28085E-02
         0.30131E-02
         0.36988E-02
         0.28538E-02
         0.28538E-02
         0.27524E-02
         0.26132E-02
         0.36988E-02
         0.36988E-02
         0.37809E-02
         0.37809E-02
         0.30241E-02
         0.36932E-02
         0.37158E-02
         0.32012E-02
         0.32814E-02
         0.32814E-02
         0.27006E-02
         0.25920E-02
         0.25873E-02
         0.29714E-02
         0.29714E-02
         0.26473E-02
         0.29097E-02
         0.34041E-02
         0.35316E-02
         0.35316E-02
         0.29784E-02
         0.32378E-02
         0.28921E-02
         0.29895E-02
         0.36932E-02
         0.37158E-02
         0.37158E-02
         0.33863E-02
         0.29039E-02
         0.32012E-02
         0.32814E-02
         0.32814E-02
         0.27006E-02
         0.25920E-02
         0.25873E-02
         0.26905E-02
         0.28589E-02
         0.29526E-02
         0.29714E-02
         0.29714E-02
         0.26473E-02
         0.27683E-02
         0.34041E-02
         0.35316E-02
         0.35316E-02
         0.29784E-02
         0.31463E-02
         0.31463E-02
         0.43138E-02
         0.43138E-02
         0.43138E-02
         0.43138E-02
         0.34888E-02
         0.34888E-02
         0.32726E-02
         0.32071E-02
         0.37830E-02
         0.31856E-02
         0.27051E-02
         0.33859E-02
         0.37157E-02
         0.27252E-02
         0.29051E-02
         0.36985E-02
         0.36106E-02
         0.37830E-02
         0.29972E-02
         0.29972E-02
         0.28594E-02
         0.26912E-02
         0.29528E-02
         0.28087E-02
         0.30156E-02
         0.36985E-02
         0.28512E-02
         0.28512E-02
         0.27512E-02
         0.26122E-02
         0.36985E-02
         0.36985E-02
         0.37830E-02
         0.37830E-02
         0.30243E-02
         0.36920E-02
         0.37157E-02
         0.32025E-02
         0.32821E-02
         0.32821E-02
         0.27006E-02
         0.25920E-02
         0.25866E-02
         0.29714E-02
         0.29714E-02
         0.26473E-02
         0.29096E-02
         0.34034E-02
         0.35310E-02
         0.35310E-02
         0.29787E-02
         0.32396E-02
         0.28894E-02
         0.29905E-02
         0.36920E-02
         0.37157E-02
         0.37157E-02
         0.33859E-02
         0.29051E-02
         0.32025E-02
         0.32821E-02
         0.32821E-02
         0.27006E-02
         0.25920E-02
         0.25866E-02
         0.26912E-02
         0.28594E-02
         0.29528E-02
         0.29714E-02
         0.29714E-02
         0.26473E-02
         0.27682E-02
         0.34034E-02
         0.35310E-02
         0.35310E-02
         0.29787E-02
         0.31476E-02
         0.31476E-02
         0.43135E-02
         0.43135E-02
         0.43135E-02
         0.43135E-02
         0.34889E-02
         0.34889E-02
         0.32712E-02
         0.32061E-02
         0.37825E-02
         0.31852E-02
         0.27034E-02
         0.33856E-02
         0.37156E-02
         0.27205E-02
         0.29063E-02
         0.36982E-02
         0.36142E-02
         0.37851E-02
         0.29998E-02
         0.29998E-02
         0.28599E-02
         0.26920E-02
         0.29529E-02
         0.28090E-02
         0.30182E-02
         0.36982E-02
         0.28486E-02
         0.28486E-02
         0.27499E-02
         0.26112E-02
         0.36982E-02
         0.36982E-02
         0.37851E-02
         0.37851E-02
         0.30245E-02
         0.36908E-02
         0.37156E-02
         0.32038E-02
         0.32827E-02
         0.32827E-02
         0.27006E-02
         0.25920E-02
         0.25859E-02
         0.29714E-02
         0.29714E-02
         0.26472E-02
         0.29095E-02
         0.34027E-02
         0.35304E-02
         0.35304E-02
         0.29790E-02
         0.32413E-02
         0.28866E-02
         0.29915E-02
         0.36908E-02
         0.37156E-02
         0.37156E-02
         0.33856E-02
         0.29063E-02
         0.32038E-02
         0.32827E-02
         0.32827E-02
         0.27006E-02
         0.25920E-02
         0.25859E-02
         0.26920E-02
         0.28599E-02
         0.29529E-02
         0.29714E-02
         0.29714E-02
         0.26472E-02
         0.27682E-02
         0.34027E-02
         0.35304E-02
         0.35304E-02
         0.29790E-02
         0.31490E-02
         0.31490E-02
         0.43133E-02
         0.43133E-02
         0.43133E-02
         0.43133E-02
         0.34890E-02
         0.34890E-02
         0.32698E-02
         0.32051E-02
         0.37820E-02
         0.31848E-02
         0.27017E-02
         0.33851E-02
         0.37155E-02
         0.27158E-02
         0.29075E-02
         0.36979E-02
         0.36177E-02
         0.37871E-02
         0.30024E-02
         0.30024E-02
         0.28603E-02
         0.26927E-02
         0.29530E-02
         0.28093E-02
         0.30208E-02
         0.36979E-02
         0.28460E-02
         0.28460E-02
         0.27486E-02
         0.26101E-02
         0.36979E-02
         0.36979E-02
         0.37871E-02
         0.37871E-02
         0.30247E-02
         0.36896E-02
         0.37155E-02
         0.32051E-02
         0.32833E-02
         0.32833E-02
         0.27006E-02
         0.25920E-02
         0.25851E-02
         0.29714E-02
         0.29714E-02
         0.26472E-02
         0.29094E-02
         0.34019E-02
         0.35299E-02
         0.35299E-02
         0.29793E-02
         0.32431E-02
         0.28838E-02
         0.29925E-02
         0.36896E-02
         0.37155E-02
         0.37155E-02
         0.33851E-02
         0.29075E-02
         0.32051E-02
         0.32833E-02
         0.32833E-02
         0.27006E-02
         0.25920E-02
         0.25851E-02
         0.26927E-02
         0.28603E-02
         0.29530E-02
         0.29714E-02
         0.29714E-02
         0.26472E-02
         0.27681E-02
         0.34019E-02
         0.35299E-02
         0.35299E-02
         0.29793E-02
         0.31503E-02
         0.31503E-02
         0.43130E-02
         0.43130E-02
         0.43130E-02
         0.43130E-02
         0.34891E-02
         0.34891E-02
         0.32683E-02
         0.32041E-02
         0.37816E-02
         0.31844E-02
         0.27000E-02
         0.33848E-02
         0.37154E-02
         0.27111E-02
         0.29087E-02
         0.36976E-02
         0.36213E-02
         0.37892E-02
         0.30050E-02
         0.30050E-02
         0.28608E-02
         0.26935E-02
         0.29532E-02
         0.28096E-02
         0.30234E-02
         0.36976E-02
         0.28434E-02
         0.28434E-02
         0.27472E-02
         0.26091E-02
         0.36976E-02
         0.36976E-02
         0.37892E-02
         0.37892E-02
         0.30249E-02
         0.36885E-02
         0.37154E-02
         0.32064E-02
         0.32839E-02
         0.32839E-02
         0.27006E-02
         0.25920E-02
         0.25844E-02
         0.29714E-02
         0.29714E-02
         0.26471E-02
         0.29094E-02
         0.34012E-02
         0.35293E-02
         0.35293E-02
         0.29797E-02
         0.32449E-02
         0.28811E-02
         0.29935E-02
         0.36885E-02
         0.37154E-02
         0.37154E-02
         0.33848E-02
         0.29087E-02
         0.32064E-02
         0.32839E-02
         0.32839E-02
         0.27006E-02
         0.25920E-02
         0.25844E-02
         0.26935E-02
         0.28608E-02
         0.29532E-02
         0.29714E-02
         0.29714E-02
         0.26471E-02
         0.27681E-02
         0.34012E-02
         0.35293E-02
         0.35293E-02
         0.29797E-02
         0.31517E-02
         0.31517E-02
         0.43128E-02
         0.43128E-02
         0.43128E-02
         0.43128E-02
         0.34892E-02
         0.34892E-02
         0.32669E-02
         0.32031E-02
         0.37811E-02
         0.31840E-02
         0.26982E-02
         0.33844E-02
         0.37152E-02
         0.27063E-02
         0.29099E-02
         0.36973E-02
         0.36248E-02
         0.37913E-02
         0.30076E-02
         0.30076E-02
         0.28613E-02
         0.26942E-02
         0.29533E-02
         0.28099E-02
         0.30260E-02
         0.36973E-02
         0.28408E-02
         0.28408E-02
         0.27460E-02
         0.26081E-02
         0.36973E-02
         0.36973E-02
         0.37913E-02
         0.37913E-02
         0.30250E-02
         0.36873E-02
         0.37152E-02
         0.32077E-02
         0.32845E-02
         0.32845E-02
         0.27006E-02
         0.25920E-02
         0.25837E-02
         0.29714E-02
         0.29714E-02
         0.26471E-02
         0.29093E-02
         0.34005E-02
         0.35287E-02
         0.35287E-02
         0.29800E-02
         0.32467E-02
         0.28783E-02
         0.29945E-02
         0.36873E-02
         0.37152E-02
         0.37152E-02
         0.33844E-02
         0.29099E-02
         0.32077E-02
         0.32845E-02
         0.32845E-02
         0.27006E-02
         0.25920E-02
         0.25837E-02
         0.26942E-02
         0.28613E-02
         0.29533E-02
         0.29714E-02
         0.29714E-02
         0.26471E-02
         0.27681E-02
         0.34005E-02
         0.35287E-02
         0.35287E-02
         0.29800E-02
         0.31530E-02
         0.31530E-02
         0.43125E-02
         0.43125E-02
         0.43125E-02
         0.43125E-02
         0.34893E-02
         0.34893E-02
         0.32655E-02
         0.32021E-02
         0.37806E-02
         0.31836E-02
         0.26965E-02
         0.33840E-02
         0.37151E-02
         0.27016E-02
         0.29111E-02
         0.36969E-02
         0.36283E-02
         0.37933E-02
         0.30102E-02
         0.30102E-02
         0.28617E-02
         0.26950E-02
         0.29535E-02
         0.28101E-02
         0.30286E-02
         0.36969E-02
         0.28382E-02
         0.28382E-02
         0.27447E-02
         0.26071E-02
         0.36969E-02
         0.36969E-02
         0.37933E-02
         0.37933E-02
         0.30252E-02
         0.36861E-02
         0.37151E-02
         0.32090E-02
         0.32852E-02
         0.32852E-02
         0.27006E-02
         0.25920E-02
         0.25830E-02
         0.29714E-02
         0.29714E-02
         0.26470E-02
         0.29092E-02
         0.33997E-02
         0.35282E-02
         0.35282E-02
         0.29803E-02
         0.32484E-02
         0.28755E-02
         0.29955E-02
         0.36861E-02
         0.37151E-02
         0.37151E-02
         0.33840E-02
         0.29111E-02
         0.32090E-02
         0.32852E-02
         0.32852E-02
         0.27006E-02
         0.25920E-02
         0.25830E-02
         0.26950E-02
         0.28617E-02
         0.29535E-02
         0.29714E-02
         0.29714E-02
         0.26470E-02
         0.27680E-02
         0.33997E-02
         0.35282E-02
         0.35282E-02
         0.29803E-02
         0.31544E-02
         0.31544E-02
         0.43123E-02
         0.43123E-02
         0.43123E-02
         0.43123E-02
         0.34893E-02
         0.34893E-02
         0.32640E-02
         0.32011E-02
         0.37801E-02
         0.31832E-02
         0.26948E-02
         0.33836E-02
         0.37150E-02
         0.26969E-02
         0.29123E-02
         0.36966E-02
         0.36319E-02
         0.37954E-02
         0.30128E-02
         0.30128E-02
         0.28622E-02
         0.26957E-02
         0.29536E-02
         0.28104E-02
         0.30312E-02
         0.36966E-02
         0.28357E-02
         0.28357E-02
         0.27434E-02
         0.26061E-02
         0.36966E-02
         0.36966E-02
         0.37954E-02
         0.37954E-02
         0.30254E-02
         0.36849E-02
         0.37150E-02
         0.32103E-02
         0.32858E-02
         0.32858E-02
         0.27006E-02
         0.25920E-02
         0.25823E-02
         0.29714E-02
         0.29714E-02
         0.26470E-02
         0.29091E-02
         0.33990E-02
         0.35276E-02
         0.35276E-02
         0.29806E-02
         0.32502E-02
         0.28728E-02
         0.29965E-02
         0.36849E-02
         0.37150E-02
         0.37150E-02
         0.33836E-02
         0.29123E-02
         0.32103E-02
         0.32858E-02
         0.32858E-02
         0.27006E-02
         0.25920E-02
         0.25823E-02
         0.26957E-02
         0.28622E-02
         0.29536E-02
         0.29714E-02
         0.29714E-02
         0.26470E-02
         0.27680E-02
         0.33990E-02
         0.35276E-02
         0.35276E-02
         0.29806E-02
         0.31557E-02
         0.31557E-02
         0.43120E-02
         0.43120E-02
         0.43120E-02
         0.43120E-02
         0.34894E-02
         0.34894E-02
         0.32626E-02
         0.32001E-02
         0.37797E-02
         0.31828E-02
         0.26931E-02
         0.33832E-02
         0.37149E-02
         0.26922E-02
         0.29135E-02
         0.36963E-02
         0.36354E-02
         0.37975E-02
         0.30154E-02
         0.30154E-02
         0.28627E-02
         0.26965E-02
         0.29537E-02
         0.28107E-02
         0.30338E-02
         0.36963E-02
         0.28331E-02
         0.28331E-02
         0.27421E-02
         0.26051E-02
         0.36963E-02
         0.36963E-02
         0.37975E-02
         0.37975E-02
         0.30256E-02
         0.36838E-02
         0.37149E-02
         0.32116E-02
         0.32864E-02
         0.32864E-02
         0.27006E-02
         0.25920E-02
         0.25815E-02
         0.29714E-02
         0.29714E-02
         0.26469E-02
         0.29090E-02
         0.33983E-02
         0.35270E-02
         0.35270E-02
         0.29809E-02
         0.32519E-02
         0.28700E-02
         0.29975E-02
         0.36838E-02
         0.37149E-02
         0.37149E-02
         0.33832E-02
         0.29135E-02
         0.32116E-02
         0.32864E-02
         0.32864E-02
         0.27006E-02
         0.25920E-02
         0.25815E-02
         0.26965E-02
         0.28627E-02
         0.29537E-02
         0.29714E-02
         0.29714E-02
         0.26469E-02
         0.27680E-02
         0.33983E-02
         0.35270E-02
         0.35270E-02
         0.29809E-02
         0.31571E-02
         0.31571E-02
         0.43118E-02
         0.43118E-02
         0.43118E-02
         0.43118E-02
         0.34895E-02
         0.34895E-02
         0.32612E-02
         0.31990E-02
         0.37792E-02
         0.31824E-02
         0.26913E-02
         0.33828E-02
         0.37148E-02
         0.26875E-02
         0.29148E-02
         0.36960E-02
         0.36390E-02
         0.37995E-02
         0.30180E-02
         0.30180E-02
         0.28631E-02
         0.26972E-02
         0.29539E-02
         0.28110E-02
         0.30364E-02
         0.36960E-02
         0.28305E-02
         0.28305E-02
         0.27408E-02
         0.26040E-02
         0.36960E-02
         0.36960E-02
         0.37995E-02
         0.37995E-02
         0.30258E-02
         0.36826E-02
         0.37148E-02
         0.32129E-02
         0.32870E-02
         0.32870E-02
         0.27006E-02
         0.25920E-02
         0.25808E-02
         0.29713E-02
         0.29713E-02
         0.26468E-02
         0.29089E-02
         0.33975E-02
         0.35264E-02
         0.35264E-02
         0.29812E-02
         0.32537E-02
         0.28672E-02
         0.29985E-02
         0.36826E-02
         0.37148E-02
         0.37148E-02
         0.33828E-02
         0.29148E-02
         0.32129E-02
         0.32870E-02
         0.32870E-02
         0.27006E-02
         0.25920E-02
         0.25808E-02
         0.26972E-02
         0.28631E-02
         0.29539E-02
         0.29713E-02
         0.29713E-02
         0.26468E-02
         0.27679E-02
         0.33975E-02
         0.35264E-02
         0.35264E-02
         0.29812E-02
         0.31585E-02
         0.31585E-02
         0.43115E-02
         0.43115E-02
         0.43115E-02
         0.43115E-02
         0.34896E-02
         0.34896E-02
         0.32597E-02
         0.31980E-02
         0.37787E-02
         0.31820E-02
         0.26896E-02
         0.33824E-02
         0.37147E-02
         0.26827E-02
         0.29160E-02
         0.36957E-02
         0.36425E-02
         0.38016E-02
         0.30206E-02
         0.30206E-02
         0.28636E-02
         0.26980E-02
         0.29540E-02
         0.28112E-02
         0.30390E-02
         0.36957E-02
         0.28279E-02
         0.28279E-02
         0.27395E-02
         0.26030E-02
         0.36957E-02
         0.36957E-02
         0.38016E-02
         0.38016E-02
         0.30260E-02
         0.36814E-02
         0.37147E-02
         0.32141E-02
         0.32876E-02
         0.32876E-02
         0.27006E-02
         0.25920E-02
         0.25801E-02
         0.29713E-02
         0.29713E-02
         0.26468E-02
         0.29089E-02
         0.33968E-02
         0.35259E-02
         0.35259E-02
         0.29815E-02
         0.32555E-02
         0.28645E-02
         0.29995E-02
         0.36814E-02
         0.37147E-02
         0.37147E-02
         0.33824E-02
         0.29160E-02
         0.32141E-02
         0.32876E-02
         0.32876E-02
         0.27006E-02
         0.25920E-02
         0.25801E-02
         0.26980E-02
         0.28636E-02
         0.29540E-02
         0.29713E-02
         0.29713E-02
         0.26468E-02
         0.27679E-02
         0.33968E-02
         0.35259E-02
         0.35259E-02
         0.29815E-02
         0.31598E-02
         0.31598E-02
         0.43113E-02
         0.43113E-02
         0.43113E-02
         0.43113E-02
         0.34897E-02
         0.34897E-02
         0.32583E-02
         0.31970E-02
         0.37783E-02
         0.31816E-02
         0.26879E-02
         0.33820E-02
         0.37146E-02
         0.26780E-02
         0.29172E-02
         0.36954E-02
         0.36460E-02
         0.38037E-02
         0.30232E-02
         0.30232E-02
         0.28641E-02
         0.26987E-02
         0.29542E-02
         0.28115E-02
         0.30416E-02
         0.36954E-02
         0.28253E-02
         0.28253E-02
         0.27382E-02
         0.26020E-02
         0.36954E-02
         0.36954E-02
         0.38037E-02
         0.38037E-02
         0.30261E-02
         0.36802E-02
         0.37146E-02
         0.32154E-02
         0.32882E-02
         0.32882E-02
         0.27006E-02
         0.25921E-02
         0.25794E-02
         0.29713E-02
         0.29713E-02
         0.26467E-02
         0.29088E-02
         0.33961E-02
         0.35253E-02
         0.35253E-02
         0.29818E-02
         0.32573E-02
         0.28617E-02
         0.30005E-02
         0.36802E-02
         0.37146E-02
         0.37146E-02
         0.33820E-02
         0.29172E-02
         0.32154E-02
         0.32882E-02
         0.32882E-02
         0.27006E-02
         0.25921E-02
         0.25794E-02
         0.26987E-02
         0.28641E-02
         0.29542E-02
         0.29713E-02
         0.29713E-02
         0.26467E-02
         0.27678E-02
         0.33961E-02
         0.35253E-02
         0.35253E-02
         0.29818E-02
         0.31612E-02
         0.31612E-02
         0.43110E-02
         0.43110E-02
         0.43110E-02
         0.43110E-02
         0.34898E-02
         0.34898E-02
         0.32569E-02
         0.31960E-02
         0.37778E-02
         0.31812E-02
         0.26862E-02
         0.33816E-02
         0.37145E-02
         0.26733E-02
         0.29184E-02
         0.36950E-02
         0.36495E-02
         0.38057E-02
         0.30258E-02
         0.30258E-02
         0.28645E-02
         0.26995E-02
         0.29543E-02
         0.28118E-02
         0.30442E-02
         0.36950E-02
         0.28227E-02
         0.28227E-02
         0.27369E-02
         0.26010E-02
         0.36950E-02
         0.36950E-02
         0.38057E-02
         0.38057E-02
         0.30263E-02
         0.36790E-02
         0.37145E-02
         0.32167E-02
         0.32889E-02
         0.32889E-02
         0.27006E-02
         0.25921E-02
         0.25787E-02
         0.29713E-02
         0.29713E-02
         0.26467E-02
         0.29087E-02
         0.33953E-02
         0.35247E-02
         0.35247E-02
         0.29821E-02
         0.32590E-02
         0.28589E-02
         0.30015E-02
         0.36790E-02
         0.37145E-02
         0.37145E-02
         0.33816E-02
         0.29184E-02
         0.32167E-02
         0.32889E-02
         0.32889E-02
         0.27006E-02
         0.25921E-02
         0.25787E-02
         0.26995E-02
         0.28645E-02
         0.29543E-02
         0.29713E-02
         0.29713E-02
         0.26467E-02
         0.27678E-02
         0.33953E-02
         0.35247E-02
         0.35247E-02
         0.29821E-02
         0.31625E-02
         0.31625E-02
         0.43108E-02
         0.43108E-02
         0.43108E-02
         0.43108E-02
         0.34898E-02
         0.34898E-02
         0.32555E-02
         0.31950E-02
         0.37773E-02
         0.31808E-02
         0.26845E-02
         0.33812E-02
         0.37144E-02
         0.26686E-02
         0.29196E-02
         0.36948E-02
         0.36531E-02
         0.38078E-02
         0.30285E-02
         0.30285E-02
         0.28650E-02
         0.27002E-02
         0.29544E-02
         0.28120E-02
         0.30467E-02
         0.36948E-02
         0.28201E-02
         0.28201E-02
         0.27356E-02
         0.26000E-02
         0.36948E-02
         0.36948E-02
         0.38078E-02
         0.38078E-02
         0.30265E-02
         0.36779E-02
         0.37144E-02
         0.32181E-02
         0.32895E-02
         0.32895E-02
         0.27006E-02
         0.25921E-02
         0.25779E-02
         0.29713E-02
         0.29713E-02
         0.26466E-02
         0.29086E-02
         0.33946E-02
         0.35242E-02
         0.35242E-02
         0.29824E-02
         0.32608E-02
         0.28562E-02
         0.30025E-02
         0.36779E-02
         0.37144E-02
         0.37144E-02
         0.33812E-02
         0.29196E-02
         0.32181E-02
         0.32895E-02
         0.32895E-02
         0.27006E-02
         0.25921E-02
         0.25779E-02
         0.27002E-02
         0.28650E-02
         0.29544E-02
         0.29713E-02
         0.29713E-02
         0.26466E-02
         0.27678E-02
         0.33946E-02
         0.35242E-02
         0.35242E-02
         0.29824E-02
         0.31639E-02
         0.31639E-02
         0.43105E-02
         0.43105E-02
         0.43105E-02
         0.43105E-02
         0.34899E-02
         0.34899E-02
         0.32540E-02
         0.31940E-02
         0.37768E-02
         0.31804E-02
         0.26827E-02
         0.33808E-02
         0.37143E-02
         0.26639E-02
         0.29208E-02
         0.36944E-02
         0.36566E-02
         0.38099E-02
         0.30311E-02
         0.30311E-02
         0.28655E-02
         0.27010E-02
         0.29546E-02
         0.28123E-02
         0.30493E-02
         0.36944E-02
         0.28175E-02
         0.28175E-02
         0.27343E-02
         0.25990E-02
         0.36944E-02
         0.36944E-02
         0.38099E-02
         0.38099E-02
         0.30267E-02
         0.36767E-02
         0.37143E-02
         0.32193E-02
         0.32901E-02
         0.32901E-02
         0.27006E-02
         0.25921E-02
         0.25772E-02
         0.29713E-02
         0.29713E-02
         0.26466E-02
         0.29085E-02
         0.33939E-02
         0.35236E-02
         0.35236E-02
         0.29827E-02
         0.32626E-02
         0.28534E-02
         0.30035E-02
         0.36767E-02
         0.37143E-02
         0.37143E-02
         0.33808E-02
         0.29208E-02
         0.32193E-02
         0.32901E-02
         0.32901E-02
         0.27006E-02
         0.25921E-02
         0.25772E-02
         0.27010E-02
         0.28655E-02
         0.29546E-02
         0.29713E-02
         0.29713E-02
         0.26466E-02
         0.27677E-02
         0.33939E-02
         0.35236E-02
         0.35236E-02
         0.29827E-02
         0.31652E-02
         0.31652E-02
         0.43103E-02
         0.43103E-02
         0.43103E-02
         0.43103E-02
         0.34900E-02
         0.34900E-02
         0.32526E-02
         0.31930E-02
         0.37764E-02
         0.31800E-02
         0.26810E-02
         0.33804E-02
         0.37142E-02
         0.26591E-02
         0.29220E-02
         0.36941E-02
         0.36602E-02
         0.38119E-02
         0.30337E-02
         0.30337E-02
         0.28660E-02
         0.27017E-02
         0.29547E-02
         0.28126E-02
         0.30519E-02
         0.36941E-02
         0.28150E-02
         0.28150E-02
         0.27330E-02
         0.25979E-02
         0.36941E-02
         0.36941E-02
         0.38119E-02
         0.38119E-02
         0.30269E-02
         0.36755E-02
         0.37142E-02
         0.32206E-02
         0.32907E-02
         0.32907E-02
         0.27006E-02
         0.25921E-02
         0.25765E-02
         0.29713E-02
         0.29713E-02
         0.26465E-02
         0.29085E-02
         0.33931E-02
         0.35230E-02
         0.35230E-02
         0.29830E-02
         0.32643E-02
         0.28507E-02
         0.30045E-02
         0.36755E-02
         0.37142E-02
         0.37142E-02
         0.33804E-02
         0.29220E-02
         0.32206E-02
         0.32907E-02
         0.32907E-02
         0.27006E-02
         0.25921E-02
         0.25765E-02
         0.27017E-02
         0.28660E-02
         0.29547E-02
         0.29713E-02
         0.29713E-02
         0.26465E-02
         0.27677E-02
         0.33931E-02
         0.35230E-02
         0.35230E-02
         0.29830E-02
         0.31666E-02
         0.31666E-02
         0.43100E-02
         0.43100E-02
         0.43100E-02
         0.43100E-02
         0.34901E-02
         0.34901E-02
         0.32512E-02
         0.31920E-02
         0.37759E-02
         0.31796E-02
         0.26793E-02
         0.33800E-02
         0.37141E-02
         0.26544E-02
         0.29232E-02
         0.36938E-02
         0.36637E-02
         0.38140E-02
         0.30363E-02
         0.30363E-02
         0.28664E-02
         0.27025E-02
         0.29548E-02
         0.28129E-02
         0.30545E-02
         0.36938E-02
         0.28124E-02
         0.28124E-02
         0.27317E-02
         0.25969E-02
         0.36938E-02
         0.36938E-02
         0.38140E-02
         0.38140E-02
         0.30271E-02
         0.36743E-02
         0.37141E-02
         0.32219E-02
         0.32913E-02
         0.32913E-02
         0.27006E-02
         0.25921E-02
         0.25758E-02
         0.29713E-02
         0.29713E-02
         0.26465E-02
         0.29084E-02
         0.33924E-02
         0.35224E-02
         0.35224E-02
         0.29833E-02
         0.32661E-02
         0.28479E-02
         0.30055E-02
         0.36743E-02
         0.37141E-02
         0.37141E-02
         0.33800E-02
         0.29232E-02
         0.32219E-02
         0.32913E-02
         0.32913E-02
         0.27006E-02
         0.25921E-02
         0.25758E-02
         0.27025E-02
         0.28664E-02
         0.29548E-02
         0.29713E-02
         0.29713E-02
         0.26465E-02
         0.27677E-02
         0.33924E-02
         0.35224E-02
         0.35224E-02
         0.29833E-02
         0.31680E-02
         0.31680E-02
         0.43098E-02
         0.43098E-02
         0.43098E-02
         0.43098E-02
         0.34901E-02
         0.34901E-02
         0.32498E-02
         0.31910E-02
         0.37754E-02
         0.31792E-02
         0.26776E-02
         0.33796E-02
         0.37140E-02
         0.26497E-02
         0.29232E-02
         0.36935E-02
         0.36637E-02
         0.38140E-02
         0.30363E-02
         0.30363E-02
         0.28664E-02
         0.27025E-02
         0.29548E-02
         0.28129E-02
         0.30545E-02
         0.36935E-02
         0.28098E-02
         0.28098E-02
         0.27304E-02
         0.25959E-02
         0.36935E-02
         0.36935E-02
         0.38140E-02
         0.38140E-02
         0.30271E-02
         0.36731E-02
         0.37140E-02
         0.32219E-02
         0.32913E-02
         0.32913E-02
         0.27006E-02
         0.25921E-02
         0.25751E-02
         0.29713E-02
         0.29713E-02
         0.26464E-02
         0.29083E-02
         0.33916E-02
         0.35219E-02
         0.35219E-02
         0.29833E-02
         0.32661E-02
         0.28451E-02
         0.30055E-02
         0.36731E-02
         0.37140E-02
         0.37140E-02
         0.33796E-02
         0.29232E-02
         0.32219E-02
         0.32913E-02
         0.32913E-02
         0.27006E-02
         0.25921E-02
         0.25751E-02
         0.27025E-02
         0.28664E-02
         0.29548E-02
         0.29713E-02
         0.29713E-02
         0.26464E-02
         0.27676E-02
         0.33916E-02
         0.35219E-02
         0.35219E-02
         0.29833E-02
         0.31680E-02
         0.31680E-02
  
SCALARS              physical_window_z  double 1
LOOKUP_TABLE default
         0.26928E-02
         0.26928E-02
         0.26928E-02
         0.26928E-02
         0.26928E-02
         0.26928E-02
         0.26928E-02
         0.26928E-02
         0.26928E-02
         0.26928E-02
         0.26928E-02
         0.26928E-02
         0.26928E-02
         0.26928E-02
         0.26928E-02
         0.26928E-02
         0.26928E-02
         0.26928E-02
         0.26928E-02
         0.26928E-02
         0.26928E-02
         0.26928E-02
         0.26928E-02
         0.26928E-02
         0.26928E-02
         0.26928E-02
         0.26928E-02
         0.26928E-02
         0.26928E-02
         0.26928E-02
         0.26928E-02
         0.26928E-02
         0.26928E-02
         0.26928E-02
         0.26928E-02
         0.26928E-02
         0.26928E-02
         0.26928E-02
         0.26928E-02
         0.26928E-02
         0.26928E-02
         0.26928E-02
         0.26928E-02
         0.26928E-02
         0.26928E-02
         0.26928E-02
         0.26928E-02
         0.26928E-02
         0.26928E-02
         0.26928E-02
         0.26928E-02
         0.26928E-02
         0.26928E-02
         0.26928E-02
         0.26928E-02
         0.26928E-02
         0.26928E-02
         0.26928E-02
         0.26928E-02
         0.26928E-02
         0.26928E-02
         0.26928E-02
         0.26928E-02
         0.26928E-02
         0.26928E-02
         0.26928E-02
         0.26928E-02
         0.26928E-02
         0.26928E-02
         0.26928E-02
         0.26928E-02
         0.26928E-02
         0.26928E-02
         0.26928E-02
         0.26928E-02
         0.26928E-02
         0.26928E-02
         0.26928E-02
         0.26928E-02
         0.26928E-02
         0.26928E-02
         0.26928E-02
         0.26928E-02
         0.26928E-02
         0.26928E-02
         0.26928E-02
         0.26928E-02
         0.26928E-02
         0.26928E-02
         0.26928E-02
         0.26928E-02
         0.26928E-02
         0.26928E-02
         0.26928E-02
         0.26928E-02
         0.26928E-02
         0.26928E-02
         0.26928E-02
         0.26928E-02
         0.26928E-02
         0.26928E-02
         0.26928E-02
         0.26928E-02
         0.26928E-02
         0.26928E-02
         0.26928E-02
         0.26928E-02
         0.26928E-02
         0.26928E-02
         0.26928E-02
         0.26928E-02
         0.26928E-02
         0.26928E-02
         0.26928E-02
         0.26928E-02
         0.26928E-02
         0.26928E-02
         0.26928E-02
         0.26928E-02
         0.26928E-02
         0.26928E-02
         0.26928E-02
         0.26928E-02
         0.26928E-02
         0.26928E-02
         0.26928E-02
         0.26928E-02
         0.26928E-02
         0.26928E-02
         0.26928E-02
         0.26928E-02
         0.26928E-02
         0.26928E-02
         0.26928E-02
         0.26928E-02
         0.26928E-02
         0.26928E-02
         0.26928E-02
         0.26928E-02
         0.26928E-02
         0.26928E-02
         0.26928E-02
         0.26928E-02
         0.26928E-02
         0.26928E-02
         0.26928E-02
         0.26928E-02
         0.26928E-02
         0.26928E-02
         0.26928E-02
         0.26928E-02
         0.26928E-02
         0.26928E-02
         0.26928E-02
         0.26928E-02
         0.26928E-02
         0.26927E-02
         0.26927E-02
         0.26927E-02
         0.26927E-02
         0.26927E-02
         0.26927E-02
         0.26927E-02
         0.26927E-02
         0.26927E-02
         0.26927E-02
         0.26927E-02
         0.26927E-02
         0.26927E-02
         0.26927E-02
         0.26927E-02
         0.26927E-02
         0.26927E-02
         0.26927E-02
         0.26927E-02
         0.26927E-02
         0.26927E-02
         0.26927E-02
         0.26927E-02
         0.26927E-02
         0.26927E-02
         0.26927E-02
         0.26927E-02
         0.26927E-02
         0.26927E-02
         0.26927E-02
         0.26927E-02
         0.26927E-02
         0.26927E-02
         0.26927E-02
         0.26927E-02
         0.26927E-02
         0.26927E-02
         0.26927E-02
         0.26927E-02
         0.26927E-02
         0.26927E-02
         0.26927E-02
         0.26927E-02
         0.26927E-02
         0.26927E-02
         0.26927E-02
         0.26927E-02
         0.26927E-02
         0.26927E-02
         0.26927E-02
         0.26927E-02
         0.26927E-02
         0.26927E-02
         0.26927E-02
         0.26927E-02
         0.26927E-02
         0.26927E-02
         0.26927E-02
         0.26927E-02
         0.26927E-02
         0.26927E-02
         0.26927E-02
         0.26927E-02
         0.26927E-02
         0.26927E-02
         0.26927E-02
         0.26927E-02
         0.26927E-02
         0.26927E-02
         0.26927E-02
         0.26927E-02
         0.26927E-02
         0.26927E-02
         0.26927E-02
         0.26927E-02
         0.26927E-02
         0.26927E-02
         0.26927E-02
         0.26927E-02
         0.26927E-02
         0.26927E-02
         0.26927E-02
         0.26927E-02
         0.26927E-02
         0.26927E-02
         0.26927E-02
         0.26927E-02
         0.26927E-02
         0.26927E-02
         0.26927E-02
         0.26927E-02
         0.26927E-02
         0.26927E-02
         0.26927E-02
         0.26927E-02
         0.26927E-02
         0.26927E-02
         0.26927E-02
         0.26927E-02
         0.26927E-02
         0.26927E-02
         0.26927E-02
         0.26927E-02
         0.26927E-02
         0.26927E-02
         0.26927E-02
         0.26927E-02
         0.26927E-02
         0.26927E-02
         0.26927E-02
         0.26927E-02
         0.26927E-02
         0.26927E-02
         0.26927E-02
         0.26927E-02
         0.26927E-02
         0.26927E-02
         0.26927E-02
         0.26927E-02
         0.26927E-02
         0.26927E-02
         0.26927E-02
         0.26927E-02
         0.26927E-02
         0.26927E-02
         0.26927E-02
         0.26927E-02
         0.26927E-02
         0.26927E-02
         0.26927E-02
         0.26927E-02
         0.26927E-02
         0.26927E-02
         0.26927E-02
         0.26927E-02
         0.26927E-02
         0.26927E-02
         0.26927E-02
         0.26927E-02
         0.26927E-02
         0.26927E-02
         0.26927E-02
         0.26927E-02
         0.26927E-02
         0.26927E-02
         0.26927E-02
         0.26927E-02
         0.26927E-02
         0.26927E-02
         0.26927E-02
         0.26927E-02
         0.26927E-02
         0.26927E-02
         0.26927E-02
         0.26927E-02
         0.26927E-02
         0.26927E-02
         0.26927E-02
         0.26927E-02
         0.26927E-02
         0.26927E-02
         0.26927E-02
         0.26927E-02
         0.26927E-02
         0.26927E-02
         0.26927E-02
         0.26927E-02
         0.26927E-02
         0.26927E-02
         0.26927E-02
         0.26927E-02
         0.26927E-02
         0.26927E-02
         0.26927E-02
         0.26927E-02
         0.26927E-02
         0.26927E-02
         0.26927E-02
         0.26927E-02
         0.26927E-02
         0.26927E-02
         0.26927E-02
         0.26927E-02
         0.26927E-02
         0.26927E-02
         0.26927E-02
         0.26927E-02
         0.26927E-02
         0.26927E-02
         0.26927E-02
         0.26927E-02
         0.26927E-02
         0.26927E-02
         0.26927E-02
         0.26927E-02
         0.26927E-02
         0.26927E-02
         0.26927E-02
         0.26927E-02
         0.26927E-02
         0.26927E-02
         0.26927E-02
         0.26927E-02
         0.26927E-02
         0.26927E-02
         0.26927E-02
         0.26927E-02
         0.26927E-02
         0.26927E-02
         0.26927E-02
         0.26927E-02
         0.26927E-02
         0.26927E-02
         0.26927E-02
         0.26927E-02
         0.26927E-02
         0.26927E-02
         0.26927E-02
         0.26927E-02
         0.26927E-02
         0.26927E-02
         0.26927E-02
         0.26927E-02
         0.26927E-02
         0.26927E-02
         0.26927E-02
         0.26927E-02
         0.26927E-02
         0.26927E-02
         0.26927E-02
         0.26927E-02
         0.26927E-02
         0.26927E-02
         0.26927E-02
         0.26927E-02
         0.26927E-02
         0.26927E-02
         0.26927E-02
         0.26927E-02
         0.26927E-02
         0.26927E-02
         0.26927E-02
         0.26927E-02
         0.26927E-02
         0.26927E-02
         0.26927E-02
         0.26927E-02
         0.26927E-02
         0.26927E-02
         0.26927E-02
         0.26927E-02
         0.26927E-02
         0.26927E-02
         0.26927E-02
         0.26927E-02
         0.26927E-02
         0.26927E-02
         0.26927E-02
         0.26927E-02
         0.26927E-02
         0.26927E-02
         0.26927E-02
         0.26927E-02
         0.26927E-02
         0.26927E-02
         0.26927E-02
         0.26927E-02
         0.26927E-02
         0.26927E-02
         0.26927E-02
         0.26927E-02
         0.26927E-02
         0.26927E-02
         0.26927E-02
         0.26927E-02
         0.26927E-02
         0.26927E-02
         0.26927E-02
         0.26927E-02
         0.26927E-02
         0.26927E-02
         0.26927E-02
         0.26927E-02
         0.26927E-02
         0.26927E-02
         0.26927E-02
         0.26927E-02
         0.26927E-02
         0.26927E-02
         0.26927E-02
         0.26927E-02
         0.26927E-02
         0.26927E-02
         0.26927E-02
         0.26927E-02
         0.26927E-02
         0.26927E-02
         0.26927E-02
         0.26927E-02
         0.26927E-02
         0.26927E-02
         0.26927E-02
         0.26927E-02
         0.26927E-02
         0.26927E-02
         0.26927E-02
         0.26927E-02
         0.26927E-02
         0.26927E-02
         0.26927E-02
         0.26927E-02
         0.26927E-02
         0.26927E-02
         0.26927E-02
         0.26927E-02
         0.26927E-02
         0.26927E-02
         0.26927E-02
         0.26927E-02
         0.26927E-02
         0.26927E-02
         0.26927E-02
         0.26927E-02
         0.26927E-02
         0.26927E-02
         0.26927E-02
         0.26927E-02
         0.26927E-02
         0.26927E-02
         0.26927E-02
         0.26927E-02
         0.26927E-02
         0.26927E-02
         0.26927E-02
         0.26927E-02
         0.26927E-02
         0.26927E-02
         0.26927E-02
         0.26927E-02
         0.26927E-02
         0.26927E-02
         0.26927E-02
         0.26927E-02
         0.26927E-02
         0.26927E-02
         0.26927E-02
         0.26927E-02
         0.26927E-02
         0.26927E-02
         0.26927E-02
         0.26927E-02
         0.26927E-02
         0.26927E-02
         0.26927E-02
         0.26927E-02
         0.26927E-02
         0.26927E-02
         0.26927E-02
         0.26927E-02
         0.26927E-02
         0.26927E-02
         0.26927E-02
         0.26927E-02
         0.26927E-02
         0.26927E-02
         0.26927E-02
         0.26927E-02
         0.26927E-02
         0.26927E-02
         0.26927E-02
         0.26927E-02
         0.26927E-02
         0.26927E-02
         0.26927E-02
         0.26927E-02
         0.26927E-02
         0.26927E-02
         0.26927E-02
         0.26927E-02
         0.26927E-02
         0.26927E-02
         0.26927E-02
         0.26927E-02
         0.26927E-02
         0.26927E-02
         0.26927E-02
         0.26927E-02
         0.26927E-02
         0.26927E-02
         0.26927E-02
         0.26927E-02
         0.26927E-02
         0.26927E-02
         0.26927E-02
         0.26927E-02
         0.26927E-02
         0.26927E-02
         0.26927E-02
         0.26927E-02
         0.26927E-02
         0.26927E-02
         0.26927E-02
         0.26927E-02
         0.26927E-02
         0.26927E-02
         0.26927E-02
         0.26927E-02
         0.26927E-02
         0.26927E-02
         0.26927E-02
         0.26927E-02
         0.26927E-02
         0.26927E-02
         0.26927E-02
         0.26927E-02
         0.26927E-02
         0.26927E-02
         0.26927E-02
         0.26927E-02
         0.26927E-02
         0.26927E-02
         0.26927E-02
         0.26927E-02
         0.26927E-02
         0.26927E-02
         0.26927E-02
         0.26927E-02
         0.26927E-02
         0.26927E-02
         0.26927E-02
         0.26927E-02
         0.26927E-02
         0.26927E-02
         0.26927E-02
         0.26927E-02
         0.26927E-02
         0.26927E-02
         0.26927E-02
         0.26927E-02
         0.26927E-02
         0.26927E-02
         0.26927E-02
         0.26927E-02
         0.26927E-02
         0.26927E-02
         0.26927E-02
         0.26927E-02
         0.26927E-02
         0.26927E-02
         0.26927E-02
         0.26927E-02
         0.26927E-02
         0.26927E-02
         0.26927E-02
         0.26927E-02
         0.26927E-02
         0.26927E-02
         0.26927E-02
         0.26927E-02
         0.26927E-02
         0.26927E-02
         0.26927E-02
         0.26927E-02
         0.26927E-02
         0.26927E-02
         0.26927E-02
         0.26927E-02
         0.26927E-02
         0.26927E-02
         0.26927E-02
         0.26927E-02
         0.26927E-02
         0.26927E-02
         0.26927E-02
         0.26927E-02
         0.26927E-02
         0.26927E-02
         0.26927E-02
         0.26927E-02
         0.26927E-02
         0.26927E-02
         0.26927E-02
         0.26927E-02
         0.26927E-02
         0.26927E-02
         0.26927E-02
         0.26927E-02
         0.26927E-02
         0.26927E-02
         0.26927E-02
         0.26927E-02
         0.26927E-02
         0.26927E-02
         0.26927E-02
         0.26927E-02
         0.26927E-02
         0.26927E-02
         0.26927E-02
         0.26927E-02
         0.26927E-02
         0.26927E-02
         0.26927E-02
         0.26927E-02
         0.26927E-02
         0.26927E-02
         0.26927E-02
         0.26927E-02
         0.26927E-02
         0.26927E-02
         0.26927E-02
         0.26927E-02
         0.26927E-02
         0.26927E-02
         0.26927E-02
         0.26927E-02
         0.26927E-02
         0.26927E-02
         0.26927E-02
         0.26927E-02
         0.26927E-02
         0.26927E-02
         0.26927E-02
         0.26927E-02
         0.26927E-02
         0.26927E-02
         0.26927E-02
         0.26927E-02
         0.26927E-02
         0.26927E-02
         0.26927E-02
         0.26927E-02
         0.26927E-02
         0.26927E-02
         0.26927E-02
         0.26927E-02
         0.26927E-02
         0.26927E-02
         0.26927E-02
         0.26927E-02
         0.26927E-02
         0.26927E-02
         0.26927E-02
         0.26927E-02
         0.26927E-02
         0.26927E-02
         0.26927E-02
         0.26927E-02
         0.26927E-02
         0.26927E-02
         0.26927E-02
         0.26927E-02
         0.26927E-02
         0.26927E-02
         0.26927E-02
         0.26927E-02
         0.26927E-02
         0.26927E-02
         0.26927E-02
         0.26927E-02
         0.26927E-02
         0.26927E-02
         0.26927E-02
         0.26927E-02
         0.26927E-02
         0.26927E-02
         0.26927E-02
         0.26927E-02
         0.26927E-02
         0.26927E-02
         0.26927E-02
         0.26927E-02
         0.26927E-02
         0.26927E-02
         0.26927E-02
         0.26927E-02
         0.26927E-02
         0.26927E-02
         0.26927E-02
         0.26927E-02
         0.26927E-02
         0.26927E-02
         0.26927E-02
         0.26927E-02
         0.26927E-02
         0.26927E-02
         0.26927E-02
         0.26927E-02
         0.26927E-02
         0.26927E-02
         0.26927E-02
         0.26927E-02
         0.26927E-02
         0.26927E-02
         0.26927E-02
         0.26927E-02
         0.26927E-02
         0.26927E-02
         0.26927E-02
         0.26927E-02
         0.26927E-02
         0.26927E-02
         0.26927E-02
         0.26927E-02
         0.26927E-02
         0.26927E-02
         0.26927E-02
         0.26927E-02
         0.26927E-02
         0.26927E-02
         0.26927E-02
         0.26927E-02
         0.26927E-02
         0.26927E-02
         0.26927E-02
         0.26927E-02
         0.26927E-02
         0.26927E-02
         0.26927E-02
         0.26927E-02
         0.26927E-02
         0.26927E-02
         0.26927E-02
         0.26927E-02
         0.26927E-02
         0.26927E-02
         0.26927E-02
         0.26927E-02
         0.26927E-02
         0.26927E-02
         0.26927E-02
         0.26927E-02
         0.26927E-02
         0.26927E-02
         0.26927E-02
         0.26927E-02
         0.26927E-02
         0.26927E-02
         0.26927E-02
         0.26927E-02
         0.26927E-02
         0.26927E-02
         0.26927E-02
         0.26927E-02
         0.26927E-02
         0.26927E-02
         0.26927E-02
         0.26927E-02
         0.26927E-02
         0.26927E-02
         0.26927E-02
         0.26927E-02
         0.26927E-02
         0.26927E-02
         0.26927E-02
         0.26927E-02
         0.26927E-02
         0.26927E-02
         0.26927E-02
         0.26927E-02
         0.26927E-02
         0.26927E-02
         0.26927E-02
         0.26927E-02
         0.26927E-02
         0.26927E-02
         0.26927E-02
         0.26927E-02
         0.26927E-02
         0.26927E-02
         0.26927E-02
         0.26927E-02
         0.26927E-02
         0.26927E-02
         0.26927E-02
         0.26927E-02
         0.26927E-02
         0.26927E-02
         0.26927E-02
         0.26927E-02
         0.26927E-02
         0.26927E-02
         0.26927E-02
         0.26927E-02
         0.26927E-02
         0.26927E-02
         0.26927E-02
         0.26927E-02
         0.26927E-02
         0.26927E-02
         0.26927E-02
         0.26927E-02
         0.26927E-02
         0.26927E-02
         0.26927E-02
         0.26927E-02
         0.26927E-02
         0.26927E-02
         0.26927E-02
         0.26927E-02
         0.26927E-02
         0.26927E-02
         0.26927E-02
         0.26927E-02
         0.26927E-02
         0.26927E-02
         0.26927E-02
         0.26927E-02
         0.26927E-02
         0.26927E-02
         0.26927E-02
         0.26927E-02
         0.26927E-02
         0.26927E-02
         0.26927E-02
         0.26927E-02
         0.26927E-02
         0.26927E-02
         0.26927E-02
         0.26927E-02
         0.26927E-02
         0.26927E-02
         0.26927E-02
         0.26927E-02
         0.26927E-02
         0.26927E-02
         0.26927E-02
         0.26927E-02
         0.26927E-02
         0.26927E-02
         0.26927E-02
         0.26927E-02
         0.26927E-02
         0.26927E-02
         0.26927E-02
         0.26927E-02
         0.26927E-02
         0.26927E-02
         0.26927E-02
         0.26927E-02
         0.26927E-02
         0.26927E-02
         0.26927E-02
         0.26927E-02
         0.26927E-02
         0.26927E-02
         0.26927E-02
         0.26927E-02
         0.26927E-02
         0.26927E-02
         0.26927E-02
         0.26927E-02
         0.26927E-02
         0.26927E-02
         0.26927E-02
         0.26927E-02
         0.26927E-02
         0.26927E-02
         0.26927E-02
         0.26927E-02
         0.26927E-02
         0.26927E-02
         0.26927E-02
         0.26927E-02
         0.26927E-02
         0.26927E-02
         0.26927E-02
         0.26927E-02
         0.26927E-02
         0.26927E-02
         0.26927E-02
         0.26927E-02
         0.26927E-02
         0.26927E-02
         0.26927E-02
         0.26927E-02
         0.26927E-02
         0.26927E-02
         0.26927E-02
         0.26927E-02
         0.26927E-02
         0.26927E-02
         0.26927E-02
         0.26927E-02
         0.26927E-02
         0.26927E-02
         0.26927E-02
         0.26927E-02
         0.26927E-02
         0.26927E-02
         0.26927E-02
         0.26927E-02
         0.26927E-02
         0.26927E-02
         0.26927E-02
         0.26927E-02
         0.26927E-02
         0.26927E-02
         0.26927E-02
         0.26927E-02
         0.26927E-02
         0.26927E-02
         0.26927E-02
         0.26927E-02
         0.26927E-02
         0.26927E-02
         0.26927E-02
         0.26927E-02
         0.26927E-02
         0.26927E-02
         0.26927E-02
         0.26927E-02
         0.26927E-02
         0.26927E-02
         0.26927E-02
         0.26927E-02
         0.26927E-02
         0.26927E-02
         0.26927E-02
         0.26927E-02
         0.26927E-02
         0.26927E-02
         0.26927E-02
         0.26927E-02
         0.26927E-02
         0.26927E-02
         0.26927E-02
         0.26927E-02
         0.26927E-02
         0.26927E-02
         0.26927E-02
         0.26927E-02
         0.26927E-02
         0.26927E-02
         0.26927E-02
         0.26927E-02
         0.26927E-02
         0.26927E-02
         0.26927E-02
         0.26927E-02
         0.26927E-02
         0.26927E-02
         0.26927E-02
         0.26927E-02
         0.26927E-02
         0.26927E-02
         0.26927E-02
         0.26927E-02
         0.26927E-02
         0.26927E-02
         0.26927E-02
         0.26927E-02
         0.26927E-02
         0.26927E-02
         0.26927E-02
         0.26927E-02
         0.26927E-02
         0.26927E-02
         0.26927E-02
         0.26927E-02
         0.26927E-02
         0.26927E-02
         0.26927E-02
         0.26927E-02
         0.26927E-02
         0.26927E-02
         0.26927E-02
         0.26927E-02
         0.26927E-02
         0.26927E-02
         0.26927E-02
         0.26927E-02
         0.26927E-02
         0.26927E-02
         0.26927E-02
         0.26927E-02
         0.26927E-02
         0.26927E-02
         0.26927E-02
         0.26927E-02
         0.26927E-02
         0.26927E-02
         0.26927E-02
         0.26927E-02
         0.26927E-02
         0.26927E-02
         0.26927E-02
         0.26927E-02
         0.26927E-02
         0.26927E-02
         0.26927E-02
         0.26927E-02
         0.26927E-02
         0.26927E-02
         0.26927E-02
         0.26927E-02
         0.26927E-02
         0.26927E-02
         0.26927E-02
         0.26927E-02
         0.26927E-02
         0.26927E-02
         0.26927E-02
         0.26927E-02
         0.26927E-02
         0.26927E-02
         0.26927E-02
         0.26927E-02
         0.26927E-02
         0.26927E-02
         0.26927E-02
         0.26927E-02
         0.26927E-02
         0.26927E-02
         0.26927E-02
         0.26927E-02
         0.26927E-02
         0.26927E-02
         0.26927E-02
         0.26927E-02
         0.26927E-02
         0.26927E-02
         0.26927E-02
         0.26927E-02
         0.26927E-02
         0.26927E-02
         0.26927E-02
         0.26927E-02
         0.26927E-02
         0.26927E-02
         0.26927E-02
         0.26927E-02
         0.26927E-02
         0.26927E-02
         0.26927E-02
         0.26927E-02
         0.26927E-02
         0.26927E-02
         0.26927E-02
         0.26927E-02
         0.26927E-02
         0.26927E-02
         0.26927E-02
         0.26927E-02
         0.26927E-02
         0.26927E-02
         0.26927E-02
         0.26927E-02
         0.26927E-02
         0.26927E-02
         0.26927E-02
         0.26927E-02
         0.26927E-02
         0.26927E-02
         0.26927E-02
         0.26927E-02
         0.26927E-02
         0.26927E-02
         0.26927E-02
         0.26927E-02
         0.26927E-02
         0.26927E-02
         0.26927E-02
         0.26927E-02
         0.26927E-02
         0.26927E-02
         0.26927E-02
         0.26927E-02
         0.26927E-02
         0.26927E-02
         0.26927E-02
         0.26927E-02
         0.26927E-02
         0.26927E-02
         0.26927E-02
         0.26927E-02
         0.26927E-02
         0.26927E-02
         0.26927E-02
         0.26927E-02
         0.26927E-02
         0.26927E-02
         0.26927E-02
         0.26927E-02
         0.26927E-02
         0.26927E-02
         0.26927E-02
         0.26927E-02
         0.26927E-02
         0.26927E-02
         0.26927E-02
         0.26927E-02
         0.26927E-02
         0.26927E-02
         0.26927E-02
         0.26927E-02
         0.26927E-02
         0.26927E-02
         0.26927E-02
         0.26927E-02
         0.26927E-02
         0.26927E-02
         0.26927E-02
         0.26927E-02
         0.26927E-02
         0.26927E-02
         0.26927E-02
         0.26927E-02
         0.26927E-02
         0.26927E-02
         0.26927E-02
         0.26927E-02
         0.26927E-02
         0.26927E-02
         0.26927E-02
         0.26927E-02
         0.26927E-02
         0.26927E-02
         0.26927E-02
         0.26927E-02
         0.26927E-02
         0.26927E-02
         0.26927E-02
         0.26927E-02
         0.26927E-02
         0.26927E-02
         0.26927E-02
         0.26927E-02
         0.26927E-02
         0.26927E-02
         0.26927E-02
         0.26927E-02
         0.26927E-02
         0.26927E-02
         0.26927E-02
         0.26927E-02
         0.26927E-02
         0.26927E-02
         0.26927E-02
         0.26927E-02
         0.26927E-02
         0.26927E-02
         0.26927E-02
         0.26927E-02
         0.26927E-02
         0.26927E-02
         0.26927E-02
         0.26927E-02
         0.26927E-02
         0.26927E-02
         0.26927E-02
         0.26927E-02
         0.26927E-02
         0.26927E-02
         0.26927E-02
         0.26927E-02
         0.26927E-02
         0.26927E-02
         0.26927E-02
         0.26927E-02
         0.26927E-02
         0.26927E-02
         0.26927E-02
         0.26927E-02
         0.26927E-02
         0.26927E-02
         0.26927E-02
         0.26927E-02
         0.26927E-02
         0.26927E-02
         0.26927E-02
         0.26927E-02
         0.26927E-02
         0.26927E-02
         0.26927E-02
         0.26927E-02
         0.26927E-02
         0.26927E-02
         0.26927E-02
         0.26927E-02
         0.26927E-02
         0.26927E-02
         0.26927E-02
         0.26927E-02
         0.26927E-02
         0.26927E-02
         0.26927E-02
         0.26927E-02
         0.26927E-02
         0.26927E-02
         0.26927E-02
         0.26927E-02
         0.26927E-02
         0.26927E-02
         0.26927E-02
         0.26927E-02
         0.26927E-02
         0.26927E-02
         0.26927E-02
         0.26927E-02
         0.26927E-02
         0.26927E-02
         0.26927E-02
         0.26927E-02
         0.26927E-02
         0.26927E-02
         0.26927E-02
         0.26927E-02
         0.26927E-02
         0.26927E-02
         0.26927E-02
         0.26927E-02
         0.26927E-02
         0.26927E-02
         0.26927E-02
         0.26927E-02
         0.26927E-02
         0.26927E-02
         0.26927E-02
         0.26927E-02
         0.26927E-02
         0.26927E-02
         0.26927E-02
         0.26927E-02
         0.26927E-02
         0.26927E-02
         0.26927E-02
         0.26927E-02
         0.26927E-02
         0.26927E-02
         0.26927E-02
         0.26927E-02
         0.26927E-02
         0.26927E-02
         0.26927E-02
         0.26927E-02
         0.26927E-02
         0.26927E-02
         0.26927E-02
         0.26927E-02
         0.26927E-02
         0.26927E-02
         0.26927E-02
         0.26927E-02
         0.26927E-02
         0.26927E-02
         0.26927E-02
         0.26927E-02
         0.26927E-02
         0.26927E-02
         0.26927E-02
         0.26927E-02
         0.26927E-02
         0.26927E-02
         0.26927E-02
         0.26927E-02
         0.26927E-02
         0.26927E-02
         0.26927E-02
         0.26927E-02
         0.26927E-02
         0.26927E-02
         0.26927E-02
         0.26927E-02
         0.26927E-02
         0.26927E-02
         0.26927E-02
         0.26927E-02
         0.26927E-02
         0.26927E-02
         0.26927E-02
         0.26927E-02
         0.26927E-02
         0.26927E-02
         0.26927E-02
         0.26927E-02
         0.26927E-02
         0.26927E-02
         0.26927E-02
         0.26927E-02
         0.26927E-02
         0.26927E-02
         0.26927E-02
         0.26927E-02
         0.26927E-02
         0.26927E-02
         0.26927E-02
         0.26927E-02
         0.26927E-02
         0.26927E-02
         0.26927E-02
         0.26927E-02
         0.26927E-02
         0.26927E-02
         0.26927E-02
         0.26927E-02
         0.26927E-02
         0.26927E-02
         0.26927E-02
         0.26927E-02
         0.26927E-02
         0.26927E-02
         0.26927E-02
         0.26927E-02
         0.26927E-02
         0.26927E-02
         0.26927E-02
         0.26927E-02
         0.26927E-02
         0.26927E-02
         0.26927E-02
         0.26927E-02
         0.26927E-02
         0.26927E-02
         0.26927E-02
         0.26927E-02
         0.26927E-02
         0.26927E-02
         0.26927E-02
         0.26927E-02
         0.26927E-02
         0.26927E-02
         0.26927E-02
         0.26927E-02
         0.26927E-02
         0.26927E-02
         0.26927E-02
         0.26927E-02
         0.26927E-02
         0.26927E-02
         0.26927E-02
         0.26927E-02
         0.26927E-02
         0.26927E-02
         0.26927E-02
         0.26927E-02
         0.26927E-02
         0.26927E-02
         0.26927E-02
         0.26927E-02
         0.26927E-02
         0.26927E-02
         0.26927E-02
         0.26927E-02
         0.26927E-02
         0.26927E-02
         0.26927E-02
         0.26927E-02
         0.26927E-02
         0.26927E-02
         0.26927E-02
         0.26927E-02
         0.26927E-02
         0.26927E-02
         0.26927E-02
         0.26927E-02
         0.26927E-02
         0.26927E-02
         0.26927E-02
         0.26927E-02
         0.26927E-02
         0.26927E-02
         0.26927E-02
         0.26927E-02
         0.26927E-02
         0.26927E-02
         0.26927E-02
         0.26927E-02
         0.26927E-02
         0.26927E-02
         0.26927E-02
         0.26927E-02
         0.26927E-02
         0.26927E-02
         0.26927E-02
         0.26927E-02
         0.26927E-02
         0.26927E-02
         0.26927E-02
         0.26927E-02
         0.26927E-02
         0.26927E-02
         0.26927E-02
         0.26927E-02
         0.26927E-02
         0.26927E-02
         0.26927E-02
         0.26927E-02
         0.26927E-02
         0.26927E-02
         0.26927E-02
         0.26927E-02
         0.26927E-02
         0.26927E-02
         0.26927E-02
         0.26927E-02
         0.26927E-02
         0.26927E-02
         0.26927E-02
         0.26927E-02
         0.26927E-02
         0.26927E-02
         0.26927E-02
         0.26927E-02
         0.26927E-02
         0.26927E-02
         0.26927E-02
         0.26927E-02
         0.26927E-02
         0.26927E-02
         0.26927E-02
         0.26927E-02
         0.26927E-02
         0.26927E-02
         0.26927E-02
         0.26927E-02
         0.26927E-02
         0.26927E-02
         0.26927E-02
         0.26927E-02
         0.26927E-02
         0.26927E-02
         0.26927E-02
         0.26927E-02
         0.26927E-02
         0.26927E-02
         0.26927E-02
         0.26927E-02
         0.26927E-02
         0.26927E-02
         0.26927E-02
         0.26927E-02
         0.26927E-02
         0.26927E-02
         0.26927E-02
         0.26927E-02
         0.26927E-02
         0.26927E-02
         0.26927E-02
         0.26927E-02
         0.26927E-02
         0.26927E-02
         0.26927E-02
         0.26927E-02
         0.26927E-02
         0.26927E-02
         0.26927E-02
         0.26927E-02
         0.26927E-02
         0.26927E-02
         0.26927E-02
         0.26927E-02
         0.26927E-02
         0.26927E-02
         0.26927E-02
         0.26927E-02
         0.26927E-02
         0.26927E-02
         0.26927E-02
         0.26927E-02
         0.26927E-02
         0.26927E-02
         0.26927E-02
         0.26927E-02
         0.26927E-02
         0.26927E-02
         0.26927E-02
         0.26927E-02
         0.26927E-02
         0.26927E-02
         0.26927E-02
         0.26927E-02
         0.26927E-02
         0.26927E-02
         0.26927E-02
         0.26927E-02
         0.26927E-02
         0.26927E-02
         0.26927E-02
         0.26927E-02
         0.26927E-02
         0.26927E-02
         0.26927E-02
         0.26927E-02
         0.26927E-02
         0.26927E-02
         0.26927E-02
         0.26927E-02
         0.26927E-02
         0.26927E-02
         0.26927E-02
         0.26927E-02
         0.26927E-02
         0.26927E-02
         0.26927E-02
         0.26927E-02
         0.26927E-02
         0.26927E-02
         0.26927E-02
         0.26927E-02
         0.26927E-02
         0.26927E-02
         0.26927E-02
         0.26927E-02
         0.26927E-02
         0.26927E-02
         0.26927E-02
         0.26927E-02
         0.26927E-02
         0.26927E-02
         0.26927E-02
         0.26927E-02
         0.26927E-02
         0.26927E-02
         0.26927E-02
         0.26927E-02
         0.26927E-02
         0.26927E-02
         0.26927E-02
         0.26927E-02
         0.26927E-02
         0.26927E-02
         0.26927E-02
         0.26927E-02
         0.26927E-02
         0.26927E-02
         0.26927E-02
         0.26927E-02
         0.26927E-02
         0.26927E-02
         0.26927E-02
         0.26927E-02
         0.26927E-02
         0.26927E-02
         0.26927E-02
         0.26927E-02
         0.26927E-02
         0.26927E-02
         0.26927E-02
         0.26927E-02
         0.26927E-02
         0.26927E-02
         0.26927E-02
         0.26927E-02
         0.26927E-02
         0.26927E-02
         0.26927E-02
         0.26927E-02
         0.26927E-02
         0.26927E-02
         0.26927E-02
         0.26927E-02
         0.26927E-02
         0.26927E-02
         0.26927E-02
         0.26927E-02
         0.26927E-02
         0.26927E-02
         0.26927E-02
         0.26927E-02
         0.26927E-02
         0.26927E-02
         0.26927E-02
         0.26927E-02
         0.26927E-02
         0.26927E-02
         0.26927E-02
         0.26927E-02
         0.26927E-02
         0.26927E-02
         0.26927E-02
         0.26927E-02
         0.26927E-02
         0.26927E-02
         0.26927E-02
         0.26927E-02
         0.26927E-02
         0.26927E-02
         0.26927E-02
         0.26927E-02
         0.26927E-02
         0.26927E-02
         0.26927E-02
         0.26927E-02
         0.26927E-02
         0.26927E-02
         0.26927E-02
         0.26927E-02
         0.26927E-02
         0.26927E-02
         0.26927E-02
         0.26927E-02
         0.26927E-02
         0.26927E-02
         0.26927E-02
         0.26927E-02
         0.26927E-02
         0.26927E-02
         0.26927E-02
         0.26927E-02
         0.26927E-02
         0.26927E-02
         0.26927E-02
         0.26927E-02
         0.26927E-02
         0.26927E-02
         0.26927E-02
         0.26927E-02
         0.26927E-02
         0.26927E-02
         0.26927E-02
         0.26927E-02
         0.26927E-02
         0.26927E-02
         0.26927E-02
         0.26927E-02
         0.26927E-02
         0.26927E-02
         0.26927E-02
         0.26927E-02
         0.26927E-02
         0.26927E-02
         0.26927E-02
         0.26927E-02
         0.26927E-02
         0.26927E-02
         0.26927E-02
         0.26927E-02
         0.26927E-02
         0.26927E-02
         0.26927E-02
         0.26927E-02
         0.26927E-02
         0.26927E-02
         0.26927E-02
         0.26927E-02
         0.26927E-02
         0.26927E-02
         0.26927E-02
         0.26927E-02
         0.26927E-02
         0.26927E-02
         0.26927E-02
         0.26927E-02
         0.26927E-02
         0.26927E-02
         0.26927E-02
         0.26927E-02
         0.26927E-02
         0.26927E-02
         0.26927E-02
         0.26927E-02
         0.26927E-02
         0.26927E-02
         0.26927E-02
         0.26927E-02
         0.26927E-02
         0.26927E-02
         0.26927E-02
         0.26927E-02
         0.26927E-02
         0.26927E-02
         0.26927E-02
         0.26927E-02
         0.26927E-02
         0.26927E-02
         0.26927E-02
         0.26927E-02
         0.26927E-02
         0.26927E-02
         0.26927E-02
         0.26927E-02
         0.26927E-02
         0.26927E-02
         0.26927E-02
         0.26927E-02
         0.26927E-02
         0.26927E-02
         0.26927E-02
         0.26927E-02
         0.26927E-02
         0.26927E-02
         0.26927E-02
         0.26927E-02
         0.26927E-02
         0.26927E-02
         0.26927E-02
         0.26927E-02
         0.26927E-02
         0.26927E-02
         0.26927E-02
         0.26927E-02
         0.26927E-02
         0.26927E-02
         0.26927E-02
         0.26927E-02
         0.26927E-02
         0.26927E-02
         0.26927E-02
         0.26927E-02
         0.26927E-02
         0.26927E-02
         0.26927E-02
         0.26927E-02
         0.26927E-02
         0.26927E-02
         0.26927E-02
         0.26927E-02
         0.26927E-02
         0.26927E-02
         0.26927E-02
         0.26927E-02
         0.26927E-02
         0.26927E-02
         0.26927E-02
         0.26927E-02
         0.26927E-02
         0.26927E-02
         0.26927E-02
         0.26927E-02
         0.26927E-02
         0.26927E-02
         0.26927E-02
         0.26927E-02
         0.26927E-02
         0.26927E-02
         0.26927E-02
         0.26927E-02
         0.26927E-02
         0.26927E-02
         0.26927E-02
         0.26927E-02
         0.26927E-02
         0.26927E-02
         0.26927E-02
         0.26927E-02
         0.26927E-02
         0.26927E-02
         0.26927E-02
         0.26928E-02
         0.26928E-02
         0.26928E-02
         0.26928E-02
         0.26928E-02
         0.26928E-02
         0.26928E-02
         0.26928E-02
         0.26928E-02
         0.26928E-02
         0.26928E-02
         0.26928E-02
         0.26928E-02
         0.26928E-02
         0.26928E-02
         0.26928E-02
         0.26928E-02
         0.26928E-02
         0.26928E-02
         0.26928E-02
         0.26928E-02
         0.26928E-02
         0.26928E-02
         0.26928E-02
         0.26928E-02
         0.26928E-02
         0.26928E-02
         0.26928E-02
         0.26928E-02
         0.26928E-02
         0.26928E-02
         0.26928E-02
         0.26928E-02
         0.26928E-02
         0.26928E-02
         0.26928E-02
         0.26928E-02
         0.26928E-02
         0.26928E-02
         0.26928E-02
         0.26928E-02
         0.26928E-02
         0.26928E-02
         0.26928E-02
         0.26928E-02
         0.26928E-02
         0.26928E-02
         0.26928E-02
         0.26928E-02
         0.26928E-02
         0.26928E-02
         0.26928E-02
         0.26928E-02
         0.26928E-02
         0.26928E-02
         0.26928E-02
         0.26928E-02
         0.26928E-02
         0.26928E-02
         0.26928E-02
         0.26928E-02
         0.26928E-02
         0.26928E-02
         0.26928E-02
         0.26928E-02
         0.26928E-02
         0.26928E-02
         0.26928E-02
         0.26928E-02
         0.26928E-02
         0.26928E-02
         0.26928E-02
         0.26928E-02
         0.26928E-02
         0.26928E-02
         0.26928E-02
         0.26928E-02
         0.26928E-02
         0.26928E-02
         0.26928E-02
         0.26928E-02
         0.26928E-02
         0.26928E-02
         0.26928E-02
         0.26928E-02
         0.26928E-02
         0.26928E-02
         0.26928E-02
         0.26928E-02
         0.26928E-02
         0.26928E-02
         0.26928E-02
         0.26928E-02
         0.26928E-02
         0.26928E-02
         0.26928E-02
         0.26928E-02
         0.26928E-02
         0.26928E-02
         0.26928E-02
         0.26928E-02
         0.26928E-02
         0.26928E-02
         0.26928E-02
         0.26928E-02
         0.26928E-02
         0.26928E-02
         0.26928E-02
         0.26928E-02
         0.26928E-02
         0.26928E-02
         0.26928E-02
         0.26928E-02
         0.26928E-02
         0.26928E-02
         0.26928E-02
         0.26928E-02
         0.26928E-02
         0.26928E-02
         0.26928E-02
         0.26928E-02
         0.26928E-02
         0.26928E-02
         0.26928E-02
         0.26928E-02
         0.26928E-02
         0.26928E-02
         0.26928E-02
         0.26928E-02
         0.26928E-02
         0.26928E-02
         0.26928E-02
         0.26928E-02
         0.26928E-02
         0.26928E-02
         0.26928E-02
         0.26928E-02
         0.26928E-02
         0.26928E-02
         0.26928E-02
         0.26928E-02
         0.26928E-02
         0.26928E-02
         0.26928E-02
         0.26928E-02
         0.26928E-02
         0.26928E-02
         0.26928E-02
         0.26928E-02
         0.26928E-02
         0.26928E-02
         0.26928E-02
         0.26928E-02
         0.26928E-02
         0.26928E-02
         0.26928E-02
  
SCALARS                   nodal_volume  double 1
LOOKUP_TABLE default
         0.91140E-09
         0.72412E-09
         0.77574E-09
         0.13316E-08
         0.45570E-09
         0.36211E-09
         0.38787E-09
         0.66566E-09
         0.71537E-09
         0.91211E-09
         0.35767E-09
         0.45600E-09
         0.51195E-09
         0.61532E-09
         0.25605E-09
         0.30776E-09
         0.10101E-08
         0.74536E-09
         0.50500E-09
         0.37281E-09
         0.30273E-09
         0.57012E-09
         0.62699E-09
         0.15144E-09
         0.28509E-09
         0.31352E-09
         0.51329E-09
         0.64933E-09
         0.25683E-09
         0.32471E-09
         0.12026E-08
         0.93909E-09
         0.11935E-08
         0.60122E-09
         0.46945E-09
         0.59663E-09
         0.70296E-09
         0.80270E-09
         0.35149E-09
         0.40134E-09
         0.75859E-09
         0.84013E-09
         0.37932E-09
         0.42007E-09
         0.64542E-09
         0.40086E-09
         0.32274E-09
         0.20045E-09
         0.76288E-09
         0.38153E-09
         0.63346E-09
         0.31675E-09
         0.66583E-09
         0.33318E-09
         0.68008E-09
         0.34022E-09
         0.58930E-09
         0.71738E-09
         0.29472E-09
         0.35874E-09
         0.90938E-09
         0.64302E-09
         0.45469E-09
         0.32154E-09
         0.10152E-08
         0.50747E-09
         0.88120E-09
         0.44042E-09
         0.40077E-09
         0.61872E-09
         0.20039E-09
         0.30940E-09
         0.70206E-09
         0.35106E-09
         0.74172E-09
         0.37089E-09
         0.71539E-09
         0.35770E-09
         0.56226E-09
         0.28113E-09
         0.35349E-09
         0.58452E-09
         0.17675E-09
         0.29229E-09
         0.77354E-09
         0.38679E-09
         0.62469E-09
         0.31238E-09
         0.54957E-09
         0.27483E-09
         0.36009E-09
         0.61365E-09
         0.18007E-09
         0.30685E-09
         0.83268E-09
         0.41635E-09
         0.87287E-09
         0.43642E-09
         0.70438E-09
         0.35217E-09
         0.43365E-09
         0.74413E-09
         0.21683E-09
         0.37198E-09
         0.27660E-09
         0.35144E-09
         0.13833E-09
         0.17573E-09
         0.32921E-09
         0.16465E-09
         0.38764E-09
         0.19382E-09
         0.37797E-09
         0.18897E-09
         0.36707E-09
         0.18352E-09
         0.39112E-09
         0.19552E-09
         0.41268E-09
         0.20627E-09
         0.38876E-09
         0.19433E-09
         0.30402E-09
         0.15200E-09
         0.24796E-09
         0.12398E-09
         0.31999E-09
         0.16000E-09
         0.42608E-09
         0.21303E-09
         0.46805E-09
         0.23401E-09
         0.44933E-09
         0.22466E-09
         0.40550E-09
         0.20276E-09
         0.36826E-09
         0.18414E-09
         0.29911E-09
         0.14956E-09
         0.25178E-09
         0.12591E-09
         0.32888E-09
         0.16445E-09
         0.43529E-09
         0.21765E-09
         0.44963E-09
         0.22482E-09
         0.36384E-09
         0.18194E-09
         0.29543E-09
         0.14774E-09
         0.36126E-09
         0.18063E-09
         0.42771E-09
         0.21386E-09
         0.91143E-09
         0.72396E-09
         0.77579E-09
         0.13322E-08
         0.71547E-09
         0.91237E-09
         0.51167E-09
         0.61494E-09
         0.10105E-08
         0.74486E-09
         0.30244E-09
         0.57001E-09
         0.62694E-09
         0.51257E-09
         0.64918E-09
         0.12029E-08
         0.93950E-09
         0.11941E-08
         0.70298E-09
         0.80279E-09
         0.75855E-09
         0.84015E-09
         0.64535E-09
         0.40081E-09
         0.76254E-09
         0.63339E-09
         0.66483E-09
         0.67941E-09
         0.58904E-09
         0.71721E-09
         0.90946E-09
         0.64293E-09
         0.10157E-08
         0.88199E-09
         0.40076E-09
         0.61859E-09
         0.70195E-09
         0.74166E-09
         0.71543E-09
         0.56228E-09
         0.35349E-09
         0.58443E-09
         0.77349E-09
         0.62459E-09
         0.54943E-09
         0.35999E-09
         0.61359E-09
         0.83268E-09
         0.87299E-09
         0.70451E-09
         0.43366E-09
         0.74449E-09
         0.27651E-09
         0.35143E-09
         0.32904E-09
         0.38765E-09
         0.37805E-09
         0.36714E-09
         0.39129E-09
         0.41297E-09
         0.38899E-09
         0.30408E-09
         0.24798E-09
         0.31999E-09
         0.42613E-09
         0.46815E-09
         0.44938E-09
         0.40548E-09
         0.36823E-09
         0.29908E-09
         0.25174E-09
         0.32885E-09
         0.43527E-09
         0.44962E-09
         0.36376E-09
         0.29536E-09
         0.36130E-09
         0.42769E-09
         0.91151E-09
         0.72383E-09
         0.77587E-09
         0.13329E-08
         0.71560E-09
         0.91267E-09
         0.51142E-09
         0.61459E-09
         0.10109E-08
         0.74439E-09
         0.30216E-09
         0.56992E-09
         0.62691E-09
         0.51187E-09
         0.64906E-09
         0.12033E-08
         0.93995E-09
         0.11947E-08
         0.70302E-09
         0.80291E-09
         0.75853E-09
         0.84020E-09
         0.64530E-09
         0.40078E-09
         0.76223E-09
         0.63335E-09
         0.66385E-09
         0.67875E-09
         0.58880E-09
         0.71706E-09
         0.90957E-09
         0.64286E-09
         0.10162E-08
         0.88281E-09
         0.40076E-09
         0.61849E-09
         0.70188E-09
         0.74162E-09
         0.71550E-09
         0.56232E-09
         0.35350E-09
         0.58436E-09
         0.77347E-09
         0.62452E-09
         0.54931E-09
         0.35990E-09
         0.61355E-09
         0.83270E-09
         0.87315E-09
         0.70467E-09
         0.43368E-09
         0.74487E-09
         0.27643E-09
         0.35143E-09
         0.32889E-09
         0.38767E-09
         0.37814E-09
         0.36723E-09
         0.39147E-09
         0.41328E-09
         0.38923E-09
         0.30416E-09
         0.24800E-09
         0.32001E-09
         0.42620E-09
         0.46826E-09
         0.44944E-09
         0.40548E-09
         0.36821E-09
         0.29906E-09
         0.25171E-09
         0.32883E-09
         0.43527E-09
         0.44963E-09
         0.36369E-09
         0.29530E-09
         0.36135E-09
         0.42769E-09
         0.91156E-09
         0.72368E-09
         0.77594E-09
         0.13335E-08
         0.71571E-09
         0.91295E-09
         0.51115E-09
         0.61422E-09
         0.10112E-08
         0.74389E-09
         0.30187E-09
         0.56982E-09
         0.62686E-09
         0.51116E-09
         0.64892E-09
         0.12036E-08
         0.94038E-09
         0.11953E-08
         0.70304E-09
         0.80300E-09
         0.75850E-09
         0.84023E-09
         0.64523E-09
         0.40073E-09
         0.76190E-09
         0.63330E-09
         0.66285E-09
         0.67809E-09
         0.58855E-09
         0.71689E-09
         0.90966E-09
         0.64278E-09
         0.10168E-08
         0.88361E-09
         0.40076E-09
         0.61837E-09
         0.70178E-09
         0.74156E-09
         0.71554E-09
         0.56234E-09
         0.35350E-09
         0.58428E-09
         0.77343E-09
         0.62442E-09
         0.54918E-09
         0.35981E-09
         0.61349E-09
         0.83271E-09
         0.87328E-09
         0.70481E-09
         0.43369E-09
         0.74524E-09
         0.27634E-09
         0.35142E-09
         0.32873E-09
         0.38768E-09
         0.37823E-09
         0.36731E-09
         0.39163E-09
         0.41358E-09
         0.38945E-09
         0.30422E-09
         0.24802E-09
         0.32001E-09
         0.42625E-09
         0.46837E-09
         0.44949E-09
         0.40546E-09
         0.36819E-09
         0.29904E-09
         0.25167E-09
         0.32881E-09
         0.43526E-09
         0.44963E-09
         0.36362E-09
         0.29523E-09
         0.36139E-09
         0.42768E-09
         0.91161E-09
         0.72353E-09
         0.77600E-09
         0.13341E-08
         0.71583E-09
         0.91323E-09
         0.51088E-09
         0.61386E-09
         0.10116E-08
         0.74341E-09
         0.30158E-09
         0.56972E-09
         0.62682E-09
         0.51045E-09
         0.64879E-09
         0.12040E-08
         0.94081E-09
         0.11959E-08
         0.70307E-09
         0.80310E-09
         0.75847E-09
         0.84027E-09
         0.64517E-09
         0.40069E-09
         0.76158E-09
         0.63325E-09
         0.66186E-09
         0.67742E-09
         0.58831E-09
         0.71673E-09
         0.90975E-09
         0.64270E-09
         0.10173E-08
         0.88441E-09
         0.40075E-09
         0.61825E-09
         0.70169E-09
         0.74151E-09
         0.71559E-09
         0.56237E-09
         0.35350E-09
         0.58420E-09
         0.77339E-09
         0.62433E-09
         0.54905E-09
         0.35972E-09
         0.61344E-09
         0.83272E-09
         0.87341E-09
         0.70496E-09
         0.43370E-09
         0.74562E-09
         0.27626E-09
         0.35142E-09
         0.32857E-09
         0.38770E-09
         0.37832E-09
         0.36739E-09
         0.39181E-09
         0.41387E-09
         0.38968E-09
         0.30429E-09
         0.24804E-09
         0.32002E-09
         0.42631E-09
         0.46847E-09
         0.44954E-09
         0.40545E-09
         0.36816E-09
         0.29901E-09
         0.25163E-09
         0.32878E-09
         0.43525E-09
         0.44963E-09
         0.36354E-09
         0.29517E-09
         0.36144E-09
         0.42766E-09
         0.91167E-09
         0.72338E-09
         0.77607E-09
         0.13348E-08
         0.71594E-09
         0.91351E-09
         0.51062E-09
         0.61349E-09
         0.10119E-08
         0.74292E-09
         0.30129E-09
         0.56962E-09
         0.62678E-09
         0.50974E-09
         0.64865E-09
         0.12044E-08
         0.94125E-09
         0.11965E-08
         0.70310E-09
         0.80321E-09
         0.75844E-09
         0.84031E-09
         0.64511E-09
         0.40065E-09
         0.76125E-09
         0.63320E-09
         0.66087E-09
         0.67676E-09
         0.58806E-09
         0.71657E-09
         0.90984E-09
         0.64263E-09
         0.10179E-08
         0.88522E-09
         0.40075E-09
         0.61813E-09
         0.70160E-09
         0.74146E-09
         0.71564E-09
         0.56240E-09
         0.35350E-09
         0.58412E-09
         0.77336E-09
         0.62425E-09
         0.54892E-09
         0.35963E-09
         0.61339E-09
         0.83274E-09
         0.87355E-09
         0.70511E-09
         0.43371E-09
         0.74599E-09
         0.27618E-09
         0.35141E-09
         0.32841E-09
         0.38771E-09
         0.37841E-09
         0.36747E-09
         0.39198E-09
         0.41417E-09
         0.38992E-09
         0.30436E-09
         0.24806E-09
         0.32003E-09
         0.42637E-09
         0.46858E-09
         0.44960E-09
         0.40544E-09
         0.36814E-09
         0.29899E-09
         0.25159E-09
         0.32876E-09
         0.43525E-09
         0.44963E-09
         0.36347E-09
         0.29511E-09
         0.36148E-09
         0.42766E-09
         0.91171E-09
         0.72323E-09
         0.77613E-09
         0.13354E-08
         0.71606E-09
         0.91379E-09
         0.51035E-09
         0.61313E-09
         0.10123E-08
         0.74243E-09
         0.30101E-09
         0.56952E-09
         0.62674E-09
         0.50903E-09
         0.64851E-09
         0.12047E-08
         0.94167E-09
         0.11971E-08
         0.70312E-09
         0.80331E-09
         0.75840E-09
         0.84034E-09
         0.64504E-09
         0.40061E-09
         0.76092E-09
         0.63314E-09
         0.65988E-09
         0.67609E-09
         0.58781E-09
         0.71641E-09
         0.90993E-09
         0.64255E-09
         0.10184E-08
         0.88601E-09
         0.40075E-09
         0.61801E-09
         0.70151E-09
         0.74140E-09
         0.71569E-09
         0.56243E-09
         0.35350E-09
         0.58404E-09
         0.77332E-09
         0.62416E-09
         0.54879E-09
         0.35953E-09
         0.61334E-09
         0.83274E-09
         0.87368E-09
         0.70525E-09
         0.43372E-09
         0.74636E-09
         0.27609E-09
         0.35141E-09
         0.32825E-09
         0.38772E-09
         0.37849E-09
         0.36754E-09
         0.39215E-09
         0.41447E-09
         0.39014E-09
         0.30443E-09
         0.24808E-09
         0.32004E-09
         0.42642E-09
         0.46868E-09
         0.44965E-09
         0.40543E-09
         0.36812E-09
         0.29897E-09
         0.25155E-09
         0.32874E-09
         0.43524E-09
         0.44963E-09
         0.36340E-09
         0.29504E-09
         0.36153E-09
         0.42764E-09
         0.91176E-09
         0.72308E-09
         0.77620E-09
         0.13360E-08
         0.71617E-09
         0.91407E-09
         0.51008E-09
         0.61276E-09
         0.10126E-08
         0.74195E-09
         0.30072E-09
         0.56942E-09
         0.62670E-09
         0.50832E-09
         0.64838E-09
         0.12051E-08
         0.94210E-09
         0.11977E-08
         0.70314E-09
         0.80341E-09
         0.75837E-09
         0.84038E-09
         0.64498E-09
         0.40056E-09
         0.76060E-09
         0.63309E-09
         0.65888E-09
         0.67542E-09
         0.58756E-09
         0.71624E-09
         0.91002E-09
         0.64247E-09
         0.10189E-08
         0.88682E-09
         0.40074E-09
         0.61790E-09
         0.70142E-09
         0.74135E-09
         0.71574E-09
         0.56245E-09
         0.35351E-09
         0.58396E-09
         0.77328E-09
         0.62407E-09
         0.54866E-09
         0.35944E-09
         0.61329E-09
         0.83275E-09
         0.87382E-09
         0.70539E-09
         0.43373E-09
         0.74673E-09
         0.27601E-09
         0.35140E-09
         0.32809E-09
         0.38774E-09
         0.37858E-09
         0.36762E-09
         0.39232E-09
         0.41477E-09
         0.39037E-09
         0.30450E-09
         0.24810E-09
         0.32005E-09
         0.42648E-09
         0.46879E-09
         0.44970E-09
         0.40541E-09
         0.36809E-09
         0.29894E-09
         0.25151E-09
         0.32871E-09
         0.43523E-09
         0.44963E-09
         0.36333E-09
         0.29497E-09
         0.36157E-09
         0.42763E-09
         0.91182E-09
         0.72293E-09
         0.77627E-09
         0.13367E-08
         0.71629E-09
         0.91436E-09
         0.50982E-09
         0.61240E-09
         0.10130E-08
         0.74146E-09
         0.30043E-09
         0.56932E-09
         0.62666E-09
         0.50762E-09
         0.64825E-09
         0.12054E-08
         0.94253E-09
         0.11983E-08
         0.70317E-09
         0.80351E-09
         0.75834E-09
         0.84041E-09
         0.64491E-09
         0.40053E-09
         0.76028E-09
         0.63304E-09
         0.65790E-09
         0.67476E-09
         0.58731E-09
         0.71609E-09
         0.91012E-09
         0.64239E-09
         0.10195E-08
         0.88762E-09
         0.40074E-09
         0.61778E-09
         0.70133E-09
         0.74130E-09
         0.71579E-09
         0.56249E-09
         0.35351E-09
         0.58388E-09
         0.77324E-09
         0.62398E-09
         0.54853E-09
         0.35935E-09
         0.61324E-09
         0.83277E-09
         0.87396E-09
         0.70554E-09
         0.43375E-09
         0.74711E-09
         0.27592E-09
         0.35140E-09
         0.32793E-09
         0.38775E-09
         0.37867E-09
         0.36770E-09
         0.39249E-09
         0.41507E-09
         0.39061E-09
         0.30457E-09
         0.24812E-09
         0.32006E-09
         0.42654E-09
         0.46890E-09
         0.44975E-09
         0.40540E-09
         0.36807E-09
         0.29892E-09
         0.25148E-09
         0.32869E-09
         0.43522E-09
         0.44963E-09
         0.36325E-09
         0.29491E-09
         0.36162E-09
         0.42762E-09
         0.91187E-09
         0.72278E-09
         0.77633E-09
         0.13373E-08
         0.71640E-09
         0.91463E-09
         0.50955E-09
         0.61204E-09
         0.10134E-08
         0.74098E-09
         0.30015E-09
         0.56922E-09
         0.62662E-09
         0.50691E-09
         0.64811E-09
         0.12058E-08
         0.94296E-09
         0.11989E-08
         0.70320E-09
         0.80361E-09
         0.75831E-09
         0.84045E-09
         0.64485E-09
         0.40048E-09
         0.75995E-09
         0.63298E-09
         0.65690E-09
         0.67409E-09
         0.58706E-09
         0.71592E-09
         0.91020E-09
         0.64231E-09
         0.10200E-08
         0.88843E-09
         0.40074E-09
         0.61766E-09
         0.70124E-09
         0.74124E-09
         0.71584E-09
         0.56251E-09
         0.35351E-09
         0.58380E-09
         0.77320E-09
         0.62389E-09
         0.54840E-09
         0.35926E-09
         0.61318E-09
         0.83277E-09
         0.87409E-09
         0.70568E-09
         0.43376E-09
         0.74748E-09
         0.27584E-09
         0.35139E-09
         0.32777E-09
         0.38777E-09
         0.37876E-09
         0.36778E-09
         0.39266E-09
         0.41536E-09
         0.39084E-09
         0.30464E-09
         0.24814E-09
         0.32006E-09
         0.42659E-09
         0.46900E-09
         0.44980E-09
         0.40539E-09
         0.36805E-09
         0.29890E-09
         0.25144E-09
         0.32867E-09
         0.43521E-09
         0.44963E-09
         0.36318E-09
         0.29485E-09
         0.36166E-09
         0.42761E-09
         0.91192E-09
         0.72263E-09
         0.77640E-09
         0.13380E-08
         0.71652E-09
         0.91491E-09
         0.50928E-09
         0.61167E-09
         0.10137E-08
         0.74049E-09
         0.29986E-09
         0.56912E-09
         0.62657E-09
         0.50620E-09
         0.64797E-09
         0.12061E-08
         0.94339E-09
         0.11995E-08
         0.70322E-09
         0.80371E-09
         0.75827E-09
         0.84048E-09
         0.64478E-09
         0.40044E-09
         0.75962E-09
         0.63293E-09
         0.65591E-09
         0.67343E-09
         0.58681E-09
         0.71576E-09
         0.91029E-09
         0.64223E-09
         0.10205E-08
         0.88923E-09
         0.40073E-09
         0.61754E-09
         0.70114E-09
         0.74119E-09
         0.71588E-09
         0.56254E-09
         0.35351E-09
         0.58372E-09
         0.77316E-09
         0.62380E-09
         0.54827E-09
         0.35917E-09
         0.61313E-09
         0.83278E-09
         0.87422E-09
         0.70582E-09
         0.43377E-09
         0.74785E-09
         0.27575E-09
         0.35138E-09
         0.32761E-09
         0.38778E-09
         0.37885E-09
         0.36786E-09
         0.39283E-09
         0.41566E-09
         0.39107E-09
         0.30470E-09
         0.24816E-09
         0.32007E-09
         0.42665E-09
         0.46911E-09
         0.44985E-09
         0.40538E-09
         0.36802E-09
         0.29887E-09
         0.25140E-09
         0.32864E-09
         0.43520E-09
         0.44963E-09
         0.36310E-09
         0.29478E-09
         0.36170E-09
         0.42760E-09
         0.91198E-09
         0.72248E-09
         0.77646E-09
         0.13386E-08
         0.71663E-09
         0.91520E-09
         0.50901E-09
         0.61131E-09
         0.10141E-08
         0.74000E-09
         0.29957E-09
         0.56902E-09
         0.62653E-09
         0.50549E-09
         0.64784E-09
         0.12065E-08
         0.94382E-09
         0.12002E-08
         0.70325E-09
         0.80381E-09
         0.75824E-09
         0.84052E-09
         0.64472E-09
         0.40040E-09
         0.75929E-09
         0.63288E-09
         0.65492E-09
         0.67276E-09
         0.58657E-09
         0.71560E-09
         0.91038E-09
         0.64216E-09
         0.10211E-08
         0.89003E-09
         0.40073E-09
         0.61742E-09
         0.70105E-09
         0.74114E-09
         0.71593E-09
         0.56257E-09
         0.35351E-09
         0.58364E-09
         0.77313E-09
         0.62371E-09
         0.54814E-09
         0.35908E-09
         0.61308E-09
         0.83280E-09
         0.87436E-09
         0.70597E-09
         0.43378E-09
         0.74823E-09
         0.27567E-09
         0.35138E-09
         0.32745E-09
         0.38779E-09
         0.37893E-09
         0.36794E-09
         0.39300E-09
         0.41596E-09
         0.39130E-09
         0.30477E-09
         0.24818E-09
         0.32008E-09
         0.42671E-09
         0.46921E-09
         0.44991E-09
         0.40537E-09
         0.36800E-09
         0.29885E-09
         0.25136E-09
         0.32862E-09
         0.43520E-09
         0.44963E-09
         0.36303E-09
         0.29472E-09
         0.36175E-09
         0.42759E-09
         0.91203E-09
         0.72233E-09
         0.77653E-09
         0.13392E-08
         0.71675E-09
         0.91547E-09
         0.50875E-09
         0.61094E-09
         0.10144E-08
         0.73952E-09
         0.29928E-09
         0.56892E-09
         0.62649E-09
         0.50478E-09
         0.64770E-09
         0.12068E-08
         0.94424E-09
         0.12008E-08
         0.70327E-09
         0.80391E-09
         0.75821E-09
         0.84055E-09
         0.64465E-09
         0.40035E-09
         0.75896E-09
         0.63282E-09
         0.65393E-09
         0.67210E-09
         0.58632E-09
         0.71543E-09
         0.91047E-09
         0.64208E-09
         0.10216E-08
         0.89084E-09
         0.40073E-09
         0.61730E-09
         0.70096E-09
         0.74108E-09
         0.71598E-09
         0.56259E-09
         0.35351E-09
         0.58356E-09
         0.77309E-09
         0.62362E-09
         0.54801E-09
         0.35898E-09
         0.61303E-09
         0.83281E-09
         0.87449E-09
         0.70611E-09
         0.43379E-09
         0.74860E-09
         0.27558E-09
         0.35137E-09
         0.32729E-09
         0.38781E-09
         0.37902E-09
         0.36802E-09
         0.39317E-09
         0.41625E-09
         0.39153E-09
         0.30484E-09
         0.24820E-09
         0.32009E-09
         0.42677E-09
         0.46932E-09
         0.44996E-09
         0.40536E-09
         0.36798E-09
         0.29883E-09
         0.25132E-09
         0.32859E-09
         0.43519E-09
         0.44963E-09
         0.36296E-09
         0.29465E-09
         0.36179E-09
         0.42758E-09
         0.91208E-09
         0.72218E-09
         0.77659E-09
         0.13399E-08
         0.71686E-09
         0.91576E-09
         0.50848E-09
         0.61058E-09
         0.10148E-08
         0.73903E-09
         0.29900E-09
         0.56882E-09
         0.62645E-09
         0.50408E-09
         0.64757E-09
         0.12072E-08
         0.94467E-09
         0.12014E-08
         0.70330E-09
         0.80401E-09
         0.75818E-09
         0.84059E-09
         0.64459E-09
         0.40031E-09
         0.75864E-09
         0.63277E-09
         0.65294E-09
         0.67143E-09
         0.58607E-09
         0.71527E-09
         0.91057E-09
         0.64200E-09
         0.10221E-08
         0.89164E-09
         0.40072E-09
         0.61719E-09
         0.70087E-09
         0.74103E-09
         0.71603E-09
         0.56262E-09
         0.35352E-09
         0.58348E-09
         0.77305E-09
         0.62354E-09
         0.54788E-09
         0.35889E-09
         0.61298E-09
         0.83282E-09
         0.87463E-09
         0.70626E-09
         0.43380E-09
         0.74897E-09
         0.27550E-09
         0.35137E-09
         0.32713E-09
         0.38782E-09
         0.37911E-09
         0.36810E-09
         0.39334E-09
         0.41655E-09
         0.39176E-09
         0.30491E-09
         0.24822E-09
         0.32010E-09
         0.42682E-09
         0.46942E-09
         0.45001E-09
         0.40534E-09
         0.36796E-09
         0.29881E-09
         0.25128E-09
         0.32857E-09
         0.43518E-09
         0.44963E-09
         0.36288E-09
         0.29459E-09
         0.36184E-09
         0.42757E-09
         0.91214E-09
         0.72204E-09
         0.77666E-09
         0.13405E-08
         0.71698E-09
         0.91604E-09
         0.50822E-09
         0.61022E-09
         0.10151E-08
         0.73855E-09
         0.29871E-09
         0.56872E-09
         0.62641E-09
         0.50337E-09
         0.64743E-09
         0.12075E-08
         0.94510E-09
         0.12020E-08
         0.70333E-09
         0.80411E-09
         0.75815E-09
         0.84063E-09
         0.64453E-09
         0.40027E-09
         0.75831E-09
         0.63272E-09
         0.65196E-09
         0.67077E-09
         0.58582E-09
         0.71511E-09
         0.91066E-09
         0.64192E-09
         0.10227E-08
         0.89245E-09
         0.40072E-09
         0.61707E-09
         0.70078E-09
         0.74098E-09
         0.71608E-09
         0.56265E-09
         0.35352E-09
         0.58340E-09
         0.77301E-09
         0.62345E-09
         0.54775E-09
         0.35880E-09
         0.61293E-09
         0.83283E-09
         0.87476E-09
         0.70641E-09
         0.43382E-09
         0.74935E-09
         0.27541E-09
         0.35136E-09
         0.32697E-09
         0.38784E-09
         0.37920E-09
         0.36818E-09
         0.39352E-09
         0.41685E-09
         0.39199E-09
         0.30498E-09
         0.24824E-09
         0.32011E-09
         0.42688E-09
         0.46953E-09
         0.45007E-09
         0.40533E-09
         0.36793E-09
         0.29878E-09
         0.25124E-09
         0.32855E-09
         0.43517E-09
         0.44963E-09
         0.36281E-09
         0.29452E-09
         0.36188E-09
         0.42756E-09
         0.91219E-09
         0.72188E-09
         0.77672E-09
         0.13412E-08
         0.71709E-09
         0.91632E-09
         0.50795E-09
         0.60986E-09
         0.10155E-08
         0.73806E-09
         0.29842E-09
         0.56862E-09
         0.62636E-09
         0.50266E-09
         0.64730E-09
         0.12079E-08
         0.94552E-09
         0.12026E-08
         0.70335E-09
         0.80421E-09
         0.75811E-09
         0.84066E-09
         0.64446E-09
         0.40023E-09
         0.75798E-09
         0.63267E-09
         0.65096E-09
         0.67010E-09
         0.58557E-09
         0.71494E-09
         0.91074E-09
         0.64184E-09
         0.10232E-08
         0.89325E-09
         0.40072E-09
         0.61695E-09
         0.70069E-09
         0.74092E-09
         0.71612E-09
         0.56268E-09
         0.35352E-09
         0.58332E-09
         0.77297E-09
         0.62336E-09
         0.54762E-09
         0.35871E-09
         0.61287E-09
         0.83284E-09
         0.87489E-09
         0.70655E-09
         0.43383E-09
         0.74972E-09
         0.27533E-09
         0.35136E-09
         0.32681E-09
         0.38785E-09
         0.37929E-09
         0.36825E-09
         0.39369E-09
         0.41715E-09
         0.39222E-09
         0.30505E-09
         0.24826E-09
         0.32011E-09
         0.42694E-09
         0.46963E-09
         0.45011E-09
         0.40532E-09
         0.36791E-09
         0.29876E-09
         0.25120E-09
         0.32853E-09
         0.43516E-09
         0.44962E-09
         0.36274E-09
         0.29445E-09
         0.36192E-09
         0.42755E-09
         0.91224E-09
         0.72173E-09
         0.77679E-09
         0.13418E-08
         0.71720E-09
         0.91660E-09
         0.50768E-09
         0.60949E-09
         0.10158E-08
         0.73758E-09
         0.29814E-09
         0.56852E-09
         0.62632E-09
         0.50195E-09
         0.64716E-09
         0.12082E-08
         0.94595E-09
         0.12032E-08
         0.70337E-09
         0.80431E-09
         0.75808E-09
         0.84069E-09
         0.64440E-09
         0.40018E-09
         0.75766E-09
         0.63262E-09
         0.64998E-09
         0.66943E-09
         0.58532E-09
         0.71478E-09
         0.91083E-09
         0.64176E-09
         0.10238E-08
         0.89406E-09
         0.40071E-09
         0.61683E-09
         0.70059E-09
         0.74087E-09
         0.71617E-09
         0.56270E-09
         0.35352E-09
         0.58324E-09
         0.77294E-09
         0.62327E-09
         0.54749E-09
         0.35861E-09
         0.61282E-09
         0.83284E-09
         0.87503E-09
         0.70669E-09
         0.43384E-09
         0.75009E-09
         0.27524E-09
         0.35135E-09
         0.32665E-09
         0.38786E-09
         0.37937E-09
         0.36833E-09
         0.39386E-09
         0.41745E-09
         0.39245E-09
         0.30512E-09
         0.24828E-09
         0.32012E-09
         0.42699E-09
         0.46974E-09
         0.45017E-09
         0.40531E-09
         0.36788E-09
         0.29873E-09
         0.25117E-09
         0.32850E-09
         0.43515E-09
         0.44962E-09
         0.36266E-09
         0.29439E-09
         0.36197E-09
         0.42754E-09
         0.91230E-09
         0.72159E-09
         0.77686E-09
         0.13425E-08
         0.71732E-09
         0.91688E-09
         0.50742E-09
         0.60913E-09
         0.10162E-08
         0.73710E-09
         0.29785E-09
         0.56842E-09
         0.62628E-09
         0.50125E-09
         0.64703E-09
         0.12086E-08
         0.94638E-09
         0.12038E-08
         0.70340E-09
         0.80441E-09
         0.75805E-09
         0.84073E-09
         0.64433E-09
         0.40014E-09
         0.75733E-09
         0.63257E-09
         0.64899E-09
         0.66877E-09
         0.58508E-09
         0.71462E-09
         0.91093E-09
         0.64169E-09
         0.10243E-08
         0.89487E-09
         0.40071E-09
         0.61671E-09
         0.70051E-09
         0.74082E-09
         0.71622E-09
         0.56273E-09
         0.35352E-09
         0.58316E-09
         0.77290E-09
         0.62318E-09
         0.54737E-09
         0.35852E-09
         0.61277E-09
         0.83286E-09
         0.87517E-09
         0.70684E-09
         0.43385E-09
         0.75047E-09
         0.27516E-09
         0.35135E-09
         0.32649E-09
         0.38788E-09
         0.37946E-09
         0.36841E-09
         0.39403E-09
         0.41775E-09
         0.39268E-09
         0.30519E-09
         0.24830E-09
         0.32013E-09
         0.42705E-09
         0.46985E-09
         0.45022E-09
         0.40530E-09
         0.36786E-09
         0.29871E-09
         0.25113E-09
         0.32848E-09
         0.43515E-09
         0.44962E-09
         0.36259E-09
         0.29433E-09
         0.36201E-09
         0.42753E-09
         0.91235E-09
         0.72143E-09
         0.77692E-09
         0.13431E-08
         0.71743E-09
         0.91716E-09
         0.50715E-09
         0.60877E-09
         0.10165E-08
         0.73661E-09
         0.29757E-09
         0.56832E-09
         0.62624E-09
         0.50054E-09
         0.64689E-09
         0.12089E-08
         0.94680E-09
         0.12044E-08
         0.70342E-09
         0.80450E-09
         0.75802E-09
         0.84076E-09
         0.64427E-09
         0.40010E-09
         0.75700E-09
         0.63251E-09
         0.64800E-09
         0.66810E-09
         0.58482E-09
         0.71445E-09
         0.91101E-09
         0.64161E-09
         0.10248E-08
         0.89567E-09
         0.40071E-09
         0.61659E-09
         0.70041E-09
         0.74077E-09
         0.71627E-09
         0.56276E-09
         0.35352E-09
         0.58308E-09
         0.77286E-09
         0.62309E-09
         0.54723E-09
         0.35843E-09
         0.61272E-09
         0.83287E-09
         0.87530E-09
         0.70698E-09
         0.43386E-09
         0.75084E-09
         0.27507E-09
         0.35134E-09
         0.32633E-09
         0.38789E-09
         0.37955E-09
         0.36849E-09
         0.39420E-09
         0.41804E-09
         0.39291E-09
         0.30525E-09
         0.24832E-09
         0.32014E-09
         0.42711E-09
         0.46995E-09
         0.45027E-09
         0.40528E-09
         0.36784E-09
         0.29869E-09
         0.25109E-09
         0.32845E-09
         0.43514E-09
         0.44962E-09
         0.36252E-09
         0.29426E-09
         0.36206E-09
         0.42751E-09
         0.91240E-09
         0.72128E-09
         0.77698E-09
         0.13437E-08
         0.71755E-09
         0.91744E-09
         0.50688E-09
         0.60841E-09
         0.10169E-08
         0.73612E-09
         0.29728E-09
         0.56822E-09
         0.62619E-09
         0.49984E-09
         0.64676E-09
         0.12093E-08
         0.94723E-09
         0.12050E-08
         0.70345E-09
         0.80460E-09
         0.75798E-09
         0.84080E-09
         0.64420E-09
         0.40006E-09
         0.75667E-09
         0.63246E-09
         0.64701E-09
         0.66744E-09
         0.58457E-09
         0.71429E-09
         0.91110E-09
         0.64153E-09
         0.10254E-08
         0.89648E-09
         0.40070E-09
         0.61647E-09
         0.70032E-09
         0.74071E-09
         0.71632E-09
         0.56279E-09
         0.35353E-09
         0.58300E-09
         0.77282E-09
         0.62300E-09
         0.54710E-09
         0.35834E-09
         0.61266E-09
         0.83288E-09
         0.87543E-09
         0.70713E-09
         0.43387E-09
         0.75122E-09
         0.27499E-09
         0.35133E-09
         0.32617E-09
         0.38790E-09
         0.37964E-09
         0.36857E-09
         0.39437E-09
         0.41834E-09
         0.39314E-09
         0.30532E-09
         0.24834E-09
         0.32014E-09
         0.42716E-09
         0.47005E-09
         0.45032E-09
         0.40527E-09
         0.36781E-09
         0.29866E-09
         0.25105E-09
         0.32843E-09
         0.43513E-09
         0.44962E-09
         0.36244E-09
         0.29419E-09
         0.36210E-09
         0.42750E-09
         0.91246E-09
         0.72114E-09
         0.77705E-09
         0.13444E-08
         0.71767E-09
         0.91773E-09
         0.50662E-09
         0.60805E-09
         0.10173E-08
         0.73564E-09
         0.29700E-09
         0.56812E-09
         0.62616E-09
         0.49914E-09
         0.64663E-09
         0.12097E-08
         0.94766E-09
         0.12056E-08
         0.70348E-09
         0.80471E-09
         0.75796E-09
         0.84084E-09
         0.64414E-09
         0.40002E-09
         0.75635E-09
         0.63241E-09
         0.64603E-09
         0.66678E-09
         0.58433E-09
         0.71413E-09
         0.91120E-09
         0.64146E-09
         0.10259E-08
         0.89729E-09
         0.40070E-09
         0.61636E-09
         0.70023E-09
         0.74067E-09
         0.71637E-09
         0.56282E-09
         0.35353E-09
         0.58293E-09
         0.77279E-09
         0.62291E-09
         0.54698E-09
         0.35825E-09
         0.61261E-09
         0.83289E-09
         0.87557E-09
         0.70728E-09
         0.43389E-09
         0.75160E-09
         0.27491E-09
         0.35133E-09
         0.32601E-09
         0.38792E-09
         0.37972E-09
         0.36865E-09
         0.39454E-09
         0.41864E-09
         0.39337E-09
         0.30539E-09
         0.24836E-09
         0.32015E-09
         0.42722E-09
         0.47016E-09
         0.45038E-09
         0.40526E-09
         0.36779E-09
         0.29864E-09
         0.25101E-09
         0.32841E-09
         0.43512E-09
         0.44962E-09
         0.36237E-09
         0.29413E-09
         0.36215E-09
         0.42750E-09
         0.91249E-09
         0.72097E-09
         0.77710E-09
         0.13450E-08
         0.71777E-09
         0.91799E-09
         0.50634E-09
         0.60767E-09
         0.10176E-08
         0.73514E-09
         0.29670E-09
         0.56801E-09
         0.62610E-09
         0.49842E-09
         0.64648E-09
         0.12100E-08
         0.94806E-09
         0.12062E-08
         0.70349E-09
         0.80479E-09
         0.75791E-09
         0.84086E-09
         0.64406E-09
         0.39997E-09
         0.75600E-09
         0.63234E-09
         0.64503E-09
         0.66610E-09
         0.58407E-09
         0.71395E-09
         0.91127E-09
         0.64136E-09
         0.10264E-08
         0.89808E-09
         0.40069E-09
         0.61622E-09
         0.70012E-09
         0.74060E-09
         0.71641E-09
         0.56283E-09
         0.35352E-09
         0.58283E-09
         0.77273E-09
         0.62281E-09
         0.54684E-09
         0.35815E-09
         0.61255E-09
         0.83288E-09
         0.87569E-09
         0.70741E-09
         0.43389E-09
         0.75195E-09
         0.27482E-09
         0.35132E-09
         0.32584E-09
         0.38793E-09
         0.37980E-09
         0.36872E-09
         0.39470E-09
         0.41893E-09
         0.39360E-09
         0.30545E-09
         0.24837E-09
         0.32016E-09
         0.42727E-09
         0.47026E-09
         0.45042E-09
         0.40524E-09
         0.36776E-09
         0.29861E-09
         0.25097E-09
         0.32838E-09
         0.43510E-09
         0.44961E-09
         0.36229E-09
         0.29406E-09
         0.36218E-09
         0.42748E-09
         0.91256E-09
         0.72083E-09
         0.77718E-09
         0.13457E-08
         0.71789E-09
         0.91829E-09
         0.50608E-09
         0.60732E-09
         0.10180E-08
         0.73467E-09
         0.29642E-09
         0.56792E-09
         0.62607E-09
         0.49772E-09
         0.64636E-09
         0.12103E-08
         0.94850E-09
         0.12068E-08
         0.70352E-09
         0.80490E-09
         0.75789E-09
         0.84091E-09
         0.64401E-09
         0.39993E-09
         0.75569E-09
         0.63230E-09
         0.64405E-09
         0.66544E-09
         0.58382E-09
         0.71379E-09
         0.91137E-09
         0.64129E-09
         0.10270E-08
         0.89890E-09
         0.40069E-09
         0.61611E-09
         0.70004E-09
         0.74056E-09
         0.71646E-09
         0.56287E-09
         0.35353E-09
         0.58276E-09
         0.77271E-09
         0.62273E-09
         0.54672E-09
         0.35806E-09
         0.61251E-09
         0.83291E-09
         0.87583E-09
         0.70756E-09
         0.43391E-09
         0.75234E-09
         0.27474E-09
         0.35132E-09
         0.32569E-09
         0.38794E-09
         0.37990E-09
         0.36881E-09
         0.39488E-09
         0.41923E-09
         0.39383E-09
         0.30553E-09
         0.24840E-09
         0.32017E-09
         0.42734E-09
         0.47037E-09
         0.45048E-09
         0.40524E-09
         0.36774E-09
         0.29859E-09
         0.25093E-09
         0.32836E-09
         0.43510E-09
         0.44962E-09
         0.36222E-09
         0.29400E-09
         0.36223E-09
         0.42747E-09
         0.45631E-09
         0.36039E-09
         0.38862E-09
         0.67302E-09
         0.35899E-09
         0.45923E-09
         0.25298E-09
         0.30358E-09
         0.50909E-09
         0.36723E-09
         0.14815E-09
         0.28394E-09
         0.31303E-09
         0.24869E-09
         0.32316E-09
         0.60528E-09
         0.47437E-09
         0.60357E-09
         0.35178E-09
         0.40249E-09
         0.37895E-09
         0.42048E-09
         0.32200E-09
         0.19996E-09
         0.37777E-09
         0.31615E-09
         0.32179E-09
         0.33257E-09
         0.29186E-09
         0.35687E-09
         0.45572E-09
         0.32064E-09
         0.51365E-09
         0.44967E-09
         0.20035E-09
         0.30804E-09
         0.35001E-09
         0.37028E-09
         0.35826E-09
         0.28145E-09
         0.17677E-09
         0.29137E-09
         0.38636E-09
         0.31135E-09
         0.27333E-09
         0.17901E-09
         0.30625E-09
         0.41647E-09
         0.43797E-09
         0.35383E-09
         0.21697E-09
         0.37628E-09
         0.13735E-09
         0.17566E-09
         0.16281E-09
         0.19398E-09
         0.18998E-09
         0.18443E-09
         0.19749E-09
         0.20970E-09
         0.19698E-09
         0.15279E-09
         0.12421E-09
         0.16009E-09
         0.21369E-09
         0.23522E-09
         0.22526E-09
         0.20262E-09
         0.18387E-09
         0.14930E-09
         0.12546E-09
         0.16418E-09
         0.21756E-09
         0.22482E-09
         0.18110E-09
         0.14699E-09
         0.18113E-09
         0.21374E-09
  
SCALARS               pre_disp_force_x  double 1
LOOKUP_TABLE default
         0.00000E+00
         0.00000E+00
         0.00000E+00
         0.00000E+00
         0.00000E+00
         0.00000E+00
         0.00000E+00
         0.00000E+00
         0.00000E+00
         0.00000E+00
         0.00000E+00
         0.00000E+00
         0.00000E+00
         0.00000E+00
         0.00000E+00
         0.00000E+00
         0.00000E+00
         0.00000E+00
         0.00000E+00
         0.00000E+00
         0.00000E+00
         0.00000E+00
         0.00000E+00
         0.00000E+00
         0.00000E+00
         0.00000E+00
         0.00000E+00
         0.00000E+00
         0.00000E+00
         0.00000E+00
         0.00000E+00
         0.00000E+00
         0.00000E+00
         0.00000E+00
         0.00000E+00
         0.00000E+00
         0.00000E+00
         0.00000E+00
         0.00000E+00
         0.00000E+00
         0.00000E+00
         0.00000E+00
         0.00000E+00
         0.00000E+00
         0.00000E+00
         0.00000E+00
         0.00000E+00
         0.00000E+00
         0.00000E+00
         0.00000E+00
         0.00000E+00
         0.00000E+00
         0.00000E+00
         0.00000E+00
         0.00000E+00
         0.00000E+00
         0.00000E+00
         0.00000E+00
         0.00000E+00
         0.00000E+00
         0.00000E+00
         0.00000E+00
         0.00000E+00
         0.00000E+00
         0.00000E+00
         0.00000E+00
         0.00000E+00
         0.00000E+00
         0.00000E+00
         0.00000E+00
         0.00000E+00
         0.00000E+00
         0.00000E+00
         0.00000E+00
         0.00000E+00
         0.00000E+00
         0.00000E+00
         0.00000E+00
         0.00000E+00
         0.00000E+00
         0.00000E+00
         0.00000E+00
         0.00000E+00
         0.00000E+00
         0.00000E+00
         0.00000E+00
         0.00000E+00
         0.00000E+00
         0.00000E+00
         0.00000E+00
         0.00000E+00
         0.00000E+00
         0.00000E+00
         0.00000E+00
         0.00000E+00
         0.00000E+00
         0.00000E+00
         0.00000E+00
         0.00000E+00
         0.00000E+00
         0.00000E+00
         0.00000E+00
         0.00000E+00
         0.00000E+00
         0.00000E+00
         0.00000E+00
         0.00000E+00
         0.00000E+00
         0.00000E+00
         0.00000E+00
         0.00000E+00
         0.00000E+00
         0.00000E+00
         0.00000E+00
         0.00000E+00
         0.00000E+00
         0.00000E+00
         0.00000E+00
         0.00000E+00
         0.00000E+00
         0.00000E+00
         0.00000E+00
         0.00000E+00
         0.00000E+00
         0.00000E+00
         0.00000E+00
         0.00000E+00
         0.00000E+00
         0.00000E+00
         0.00000E+00
         0.00000E+00
         0.00000E+00
         0.00000E+00
         0.00000E+00
         0.00000E+00
         0.00000E+00
         0.00000E+00
         0.00000E+00
         0.00000E+00
         0.00000E+00
         0.00000E+00
         0.00000E+00
         0.00000E+00
         0.00000E+00
         0.00000E+00
         0.00000E+00
         0.00000E+00
         0.00000E+00
         0.00000E+00
         0.00000E+00
         0.00000E+00
         0.00000E+00
         0.00000E+00
         0.00000E+00
         0.00000E+00
         0.00000E+00
         0.00000E+00
         0.00000E+00
         0.00000E+00
         0.00000E+00
         0.00000E+00
         0.00000E+00
         0.00000E+00
         0.00000E+00
         0.00000E+00
         0.00000E+00
         0.00000E+00
         0.00000E+00
         0.00000E+00
         0.00000E+00
         0.00000E+00
         0.00000E+00
         0.00000E+00
         0.00000E+00
         0.00000E+00
         0.00000E+00
         0.00000E+00
         0.00000E+00
         0.00000E+00
         0.00000E+00
         0.00000E+00
         0.00000E+00
         0.00000E+00
         0.00000E+00
         0.00000E+00
         0.00000E+00
         0.00000E+00
         0.00000E+00
         0.00000E+00
         0.00000E+00
         0.00000E+00
         0.00000E+00
         0.00000E+00
         0.00000E+00
         0.00000E+00
         0.00000E+00
         0.00000E+00
         0.00000E+00
         0.00000E+00
         0.00000E+00
         0.00000E+00
         0.00000E+00
         0.00000E+00
         0.00000E+00
         0.00000E+00
         0.00000E+00
         0.00000E+00
         0.00000E+00
         0.00000E+00
         0.00000E+00
         0.00000E+00
         0.00000E+00
         0.00000E+00
         0.00000E+00
         0.00000E+00
         0.00000E+00
         0.00000E+00
         0.00000E+00
         0.00000E+00
         0.00000E+00
         0.00000E+00
         0.00000E+00
         0.00000E+00
         0.00000E+00
         0.00000E+00
         0.00000E+00
         0.00000E+00
         0.00000E+00
         0.00000E+00
         0.00000E+00
         0.00000E+00
         0.00000E+00
         0.00000E+00
         0.00000E+00
         0.00000E+00
         0.00000E+00
         0.00000E+00
         0.00000E+00
         0.00000E+00
         0.00000E+00
         0.00000E+00
         0.00000E+00
         0.00000E+00
         0.00000E+00
         0.00000E+00
         0.00000E+00
         0.00000E+00
         0.00000E+00
         0.00000E+00
         0.00000E+00
         0.00000E+00
         0.00000E+00
         0.00000E+00
         0.00000E+00
         0.00000E+00
         0.00000E+00
         0.00000E+00
         0.00000E+00
         0.00000E+00
         0.00000E+00
         0.00000E+00
         0.00000E+00
         0.00000E+00
         0.00000E+00
         0.00000E+00
         0.00000E+00
         0.00000E+00
         0.00000E+00
         0.00000E+00
         0.00000E+00
         0.00000E+00
         0.00000E+00
         0.00000E+00
         0.00000E+00
         0.00000E+00
         0.00000E+00
         0.00000E+00
         0.00000E+00
         0.00000E+00
         0.00000E+00
         0.00000E+00
         0.00000E+00
         0.00000E+00
         0.00000E+00
         0.00000E+00
         0.00000E+00
         0.00000E+00
         0.00000E+00
         0.00000E+00
         0.00000E+00
         0.00000E+00
         0.00000E+00
         0.00000E+00
         0.00000E+00
         0.00000E+00
         0.00000E+00
         0.00000E+00
         0.00000E+00
         0.00000E+00
         0.00000E+00
         0.00000E+00
         0.00000E+00
         0.00000E+00
         0.00000E+00
         0.00000E+00
         0.00000E+00
         0.00000E+00
         0.00000E+00
         0.00000E+00
         0.00000E+00
         0.00000E+00
         0.00000E+00
         0.00000E+00
         0.00000E+00
         0.00000E+00
         0.00000E+00
         0.00000E+00
         0.00000E+00
         0.00000E+00
         0.00000E+00
         0.00000E+00
         0.00000E+00
         0.00000E+00
         0.00000E+00
         0.00000E+00
         0.00000E+00
         0.00000E+00
         0.00000E+00
         0.00000E+00
         0.00000E+00
         0.00000E+00
         0.00000E+00
         0.00000E+00
         0.00000E+00
         0.00000E+00
         0.00000E+00
         0.00000E+00
         0.00000E+00
         0.00000E+00
         0.00000E+00
         0.00000E+00
         0.00000E+00
         0.00000E+00
         0.00000E+00
         0.00000E+00
         0.00000E+00
         0.00000E+00
         0.00000E+00
         0.00000E+00
         0.00000E+00
         0.00000E+00
         0.00000E+00
         0.00000E+00
         0.00000E+00
         0.00000E+00
         0.00000E+00
         0.00000E+00
         0.00000E+00
         0.00000E+00
         0.00000E+00
         0.00000E+00
         0.00000E+00
         0.00000E+00
         0.00000E+00
         0.00000E+00
         0.00000E+00
         0.00000E+00
         0.00000E+00
         0.00000E+00
         0.00000E+00
         0.00000E+00
         0.00000E+00
         0.00000E+00
         0.00000E+00
         0.00000E+00
         0.00000E+00
         0.00000E+00
         0.00000E+00
         0.00000E+00
         0.00000E+00
         0.00000E+00
         0.00000E+00
         0.00000E+00
         0.00000E+00
         0.00000E+00
         0.00000E+00
         0.00000E+00
         0.00000E+00
         0.00000E+00
         0.00000E+00
         0.00000E+00
         0.00000E+00
         0.00000E+00
         0.00000E+00
         0.00000E+00
         0.00000E+00
         0.00000E+00
         0.00000E+00
         0.00000E+00
         0.00000E+00
         0.00000E+00
         0.00000E+00
         0.00000E+00
         0.00000E+00
         0.00000E+00
         0.00000E+00
         0.00000E+00
         0.00000E+00
         0.00000E+00
         0.00000E+00
         0.00000E+00
         0.00000E+00
         0.00000E+00
         0.00000E+00
         0.00000E+00
         0.00000E+00
         0.00000E+00
         0.00000E+00
         0.00000E+00
         0.00000E+00
         0.00000E+00
         0.00000E+00
         0.00000E+00
         0.00000E+00
         0.00000E+00
         0.00000E+00
         0.00000E+00
         0.00000E+00
         0.00000E+00
         0.00000E+00
         0.00000E+00
         0.00000E+00
         0.00000E+00
         0.00000E+00
         0.00000E+00
         0.00000E+00
         0.00000E+00
         0.00000E+00
         0.00000E+00
         0.00000E+00
         0.00000E+00
         0.00000E+00
         0.00000E+00
         0.00000E+00
         0.00000E+00
         0.00000E+00
         0.00000E+00
         0.00000E+00
         0.00000E+00
         0.00000E+00
         0.00000E+00
         0.00000E+00
         0.00000E+00
         0.00000E+00
         0.00000E+00
         0.00000E+00
         0.00000E+00
         0.00000E+00
         0.00000E+00
         0.00000E+00
         0.00000E+00
         0.00000E+00
         0.00000E+00
         0.00000E+00
         0.00000E+00
         0.00000E+00
         0.00000E+00
         0.00000E+00
         0.00000E+00
         0.00000E+00
         0.00000E+00
         0.00000E+00
         0.00000E+00
         0.00000E+00
         0.00000E+00
         0.00000E+00
         0.00000E+00
         0.00000E+00
         0.00000E+00
         0.00000E+00
         0.00000E+00
         0.00000E+00
         0.00000E+00
         0.00000E+00
         0.00000E+00
         0.00000E+00
         0.00000E+00
         0.00000E+00
         0.00000E+00
         0.00000E+00
         0.00000E+00
         0.00000E+00
         0.00000E+00
         0.00000E+00
         0.00000E+00
         0.00000E+00
         0.00000E+00
         0.00000E+00
         0.00000E+00
         0.00000E+00
         0.00000E+00
         0.00000E+00
         0.00000E+00
         0.00000E+00
         0.00000E+00
         0.00000E+00
         0.00000E+00
         0.00000E+00
         0.00000E+00
         0.00000E+00
         0.00000E+00
         0.00000E+00
         0.00000E+00
         0.00000E+00
         0.00000E+00
         0.00000E+00
         0.00000E+00
         0.00000E+00
         0.00000E+00
         0.00000E+00
         0.00000E+00
         0.00000E+00
         0.00000E+00
         0.00000E+00
         0.00000E+00
         0.00000E+00
         0.00000E+00
         0.00000E+00
         0.00000E+00
         0.00000E+00
         0.00000E+00
         0.00000E+00
         0.00000E+00
         0.00000E+00
         0.00000E+00
         0.00000E+00
         0.00000E+00
         0.00000E+00
         0.00000E+00
         0.00000E+00
         0.00000E+00
         0.00000E+00
         0.00000E+00
         0.00000E+00
         0.00000E+00
         0.00000E+00
         0.00000E+00
         0.00000E+00
         0.00000E+00
         0.00000E+00
         0.00000E+00
         0.00000E+00
         0.00000E+00
         0.00000E+00
         0.00000E+00
         0.00000E+00
         0.00000E+00
         0.00000E+00
         0.00000E+00
         0.00000E+00
         0.00000E+00
         0.00000E+00
         0.00000E+00
         0.00000E+00
         0.00000E+00
         0.00000E+00
         0.00000E+00
         0.00000E+00
         0.00000E+00
         0.00000E+00
         0.00000E+00
         0.00000E+00
         0.00000E+00
         0.00000E+00
         0.00000E+00
         0.00000E+00
         0.00000E+00
         0.00000E+00
         0.00000E+00
         0.00000E+00
         0.00000E+00
         0.00000E+00
         0.00000E+00
         0.00000E+00
         0.00000E+00
         0.00000E+00
         0.00000E+00
         0.00000E+00
         0.00000E+00
         0.00000E+00
         0.00000E+00
         0.00000E+00
         0.00000E+00
         0.00000E+00
         0.00000E+00
         0.00000E+00
         0.00000E+00
         0.00000E+00
         0.00000E+00
         0.00000E+00
         0.00000E+00
         0.00000E+00
         0.00000E+00
         0.00000E+00
         0.00000E+00
         0.00000E+00
         0.00000E+00
         0.00000E+00
         0.00000E+00
         0.00000E+00
         0.00000E+00
         0.00000E+00
         0.00000E+00
         0.00000E+00
         0.00000E+00
         0.00000E+00
         0.00000E+00
         0.00000E+00
         0.00000E+00
         0.00000E+00
         0.00000E+00
         0.00000E+00
         0.00000E+00
         0.00000E+00
         0.00000E+00
         0.00000E+00
         0.00000E+00
         0.00000E+00
         0.00000E+00
         0.00000E+00
         0.00000E+00
         0.00000E+00
         0.00000E+00
         0.00000E+00
         0.00000E+00
         0.00000E+00
         0.00000E+00
         0.00000E+00
         0.00000E+00
         0.00000E+00
         0.00000E+00
         0.00000E+00
         0.00000E+00
         0.00000E+00
         0.00000E+00
         0.00000E+00
         0.00000E+00
         0.00000E+00
         0.00000E+00
         0.00000E+00
         0.00000E+00
         0.00000E+00
         0.00000E+00
         0.00000E+00
         0.00000E+00
         0.00000E+00
         0.00000E+00
         0.00000E+00
         0.00000E+00
         0.00000E+00
         0.00000E+00
         0.00000E+00
         0.00000E+00
         0.00000E+00
         0.00000E+00
         0.00000E+00
         0.00000E+00
         0.00000E+00
         0.00000E+00
         0.00000E+00
         0.00000E+00
         0.00000E+00
         0.00000E+00
         0.00000E+00
         0.00000E+00
         0.00000E+00
         0.00000E+00
         0.00000E+00
         0.00000E+00
         0.00000E+00
         0.00000E+00
         0.00000E+00
         0.00000E+00
         0.00000E+00
         0.00000E+00
         0.00000E+00
         0.00000E+00
         0.00000E+00
         0.00000E+00
         0.00000E+00
         0.00000E+00
         0.00000E+00
         0.00000E+00
         0.00000E+00
         0.00000E+00
         0.00000E+00
         0.00000E+00
         0.00000E+00
         0.00000E+00
         0.00000E+00
         0.00000E+00
         0.00000E+00
         0.00000E+00
         0.00000E+00
         0.00000E+00
         0.00000E+00
         0.00000E+00
         0.00000E+00
         0.00000E+00
         0.00000E+00
         0.00000E+00
         0.00000E+00
         0.00000E+00
         0.00000E+00
         0.00000E+00
         0.00000E+00
         0.00000E+00
         0.00000E+00
         0.00000E+00
         0.00000E+00
         0.00000E+00
         0.00000E+00
         0.00000E+00
         0.00000E+00
         0.00000E+00
         0.00000E+00
         0.00000E+00
         0.00000E+00
         0.00000E+00
         0.00000E+00
         0.00000E+00
         0.00000E+00
         0.00000E+00
         0.00000E+00
         0.00000E+00
         0.00000E+00
         0.00000E+00
         0.00000E+00
         0.00000E+00
         0.00000E+00
         0.00000E+00
         0.00000E+00
         0.00000E+00
         0.00000E+00
         0.00000E+00
         0.00000E+00
         0.00000E+00
         0.00000E+00
         0.00000E+00
         0.00000E+00
         0.00000E+00
         0.00000E+00
         0.00000E+00
         0.00000E+00
         0.00000E+00
         0.00000E+00
         0.00000E+00
         0.00000E+00
         0.00000E+00
         0.00000E+00
         0.00000E+00
         0.00000E+00
         0.00000E+00
         0.00000E+00
         0.00000E+00
         0.00000E+00
         0.00000E+00
         0.00000E+00
         0.00000E+00
         0.00000E+00
         0.00000E+00
         0.00000E+00
         0.00000E+00
         0.00000E+00
         0.00000E+00
         0.00000E+00
         0.00000E+00
         0.00000E+00
         0.00000E+00
         0.00000E+00
         0.00000E+00
         0.00000E+00
         0.00000E+00
         0.00000E+00
         0.00000E+00
         0.00000E+00
         0.00000E+00
         0.00000E+00
         0.00000E+00
         0.00000E+00
         0.00000E+00
         0.00000E+00
         0.00000E+00
         0.00000E+00
         0.00000E+00
         0.00000E+00
         0.00000E+00
         0.00000E+00
         0.00000E+00
         0.00000E+00
         0.00000E+00
         0.00000E+00
         0.00000E+00
         0.00000E+00
         0.00000E+00
         0.00000E+00
         0.00000E+00
         0.00000E+00
         0.00000E+00
         0.00000E+00
         0.00000E+00
         0.00000E+00
         0.00000E+00
         0.00000E+00
         0.00000E+00
         0.00000E+00
         0.00000E+00
         0.00000E+00
         0.00000E+00
         0.00000E+00
         0.00000E+00
         0.00000E+00
         0.00000E+00
         0.00000E+00
         0.00000E+00
         0.00000E+00
         0.00000E+00
         0.00000E+00
         0.00000E+00
         0.00000E+00
         0.00000E+00
         0.00000E+00
         0.00000E+00
         0.00000E+00
         0.00000E+00
         0.00000E+00
         0.00000E+00
         0.00000E+00
         0.00000E+00
         0.00000E+00
         0.00000E+00
         0.00000E+00
         0.00000E+00
         0.00000E+00
         0.00000E+00
         0.00000E+00
         0.00000E+00
         0.00000E+00
         0.00000E+00
         0.00000E+00
         0.00000E+00
         0.00000E+00
         0.00000E+00
         0.00000E+00
         0.00000E+00
         0.00000E+00
         0.00000E+00
         0.00000E+00
         0.00000E+00
         0.00000E+00
         0.00000E+00
         0.00000E+00
         0.00000E+00
         0.00000E+00
         0.00000E+00
         0.00000E+00
         0.00000E+00
         0.00000E+00
         0.00000E+00
         0.00000E+00
         0.00000E+00
         0.00000E+00
         0.00000E+00
         0.00000E+00
         0.00000E+00
         0.00000E+00
         0.00000E+00
         0.00000E+00
         0.00000E+00
         0.00000E+00
         0.00000E+00
         0.00000E+00
         0.00000E+00
         0.00000E+00
         0.00000E+00
         0.00000E+00
         0.00000E+00
         0.00000E+00
         0.00000E+00
         0.00000E+00
         0.00000E+00
         0.00000E+00
         0.00000E+00
         0.00000E+00
         0.00000E+00
         0.00000E+00
         0.00000E+00
         0.00000E+00
         0.00000E+00
         0.00000E+00
         0.00000E+00
         0.00000E+00
         0.00000E+00
         0.00000E+00
         0.00000E+00
         0.00000E+00
         0.00000E+00
         0.00000E+00
         0.00000E+00
         0.00000E+00
         0.00000E+00
         0.00000E+00
         0.00000E+00
         0.00000E+00
         0.00000E+00
         0.00000E+00
         0.00000E+00
         0.00000E+00
         0.00000E+00
         0.00000E+00
         0.00000E+00
         0.00000E+00
         0.00000E+00
         0.00000E+00
         0.00000E+00
         0.00000E+00
         0.00000E+00
         0.00000E+00
         0.00000E+00
         0.00000E+00
         0.00000E+00
         0.00000E+00
         0.00000E+00
         0.00000E+00
         0.00000E+00
         0.00000E+00
         0.00000E+00
         0.00000E+00
         0.00000E+00
         0.00000E+00
         0.00000E+00
         0.00000E+00
         0.00000E+00
         0.00000E+00
         0.00000E+00
         0.00000E+00
         0.00000E+00
         0.00000E+00
         0.00000E+00
         0.00000E+00
         0.00000E+00
         0.00000E+00
         0.00000E+00
         0.00000E+00
         0.00000E+00
         0.00000E+00
         0.00000E+00
         0.00000E+00
         0.00000E+00
         0.00000E+00
         0.00000E+00
         0.00000E+00
         0.00000E+00
         0.00000E+00
         0.00000E+00
         0.00000E+00
         0.00000E+00
         0.00000E+00
         0.00000E+00
         0.00000E+00
         0.00000E+00
         0.00000E+00
         0.00000E+00
         0.00000E+00
         0.00000E+00
         0.00000E+00
         0.00000E+00
         0.00000E+00
         0.00000E+00
         0.00000E+00
         0.00000E+00
         0.00000E+00
         0.00000E+00
         0.00000E+00
         0.00000E+00
         0.00000E+00
         0.00000E+00
         0.00000E+00
         0.00000E+00
         0.00000E+00
         0.00000E+00
         0.00000E+00
         0.00000E+00
         0.00000E+00
         0.00000E+00
         0.00000E+00
         0.00000E+00
         0.00000E+00
         0.00000E+00
         0.00000E+00
         0.00000E+00
         0.00000E+00
         0.00000E+00
         0.00000E+00
         0.00000E+00
         0.00000E+00
         0.00000E+00
         0.00000E+00
         0.00000E+00
         0.00000E+00
         0.00000E+00
         0.00000E+00
         0.00000E+00
         0.00000E+00
         0.00000E+00
         0.00000E+00
         0.00000E+00
         0.00000E+00
         0.00000E+00
         0.00000E+00
         0.00000E+00
         0.00000E+00
         0.00000E+00
         0.00000E+00
         0.00000E+00
         0.00000E+00
         0.00000E+00
         0.00000E+00
         0.00000E+00
         0.00000E+00
         0.00000E+00
         0.00000E+00
         0.00000E+00
         0.00000E+00
         0.00000E+00
         0.00000E+00
         0.00000E+00
         0.00000E+00
         0.00000E+00
         0.00000E+00
         0.00000E+00
         0.00000E+00
         0.00000E+00
         0.00000E+00
         0.00000E+00
         0.00000E+00
         0.00000E+00
         0.00000E+00
         0.00000E+00
         0.00000E+00
         0.00000E+00
         0.00000E+00
         0.00000E+00
         0.00000E+00
         0.00000E+00
         0.00000E+00
         0.00000E+00
         0.00000E+00
         0.00000E+00
         0.00000E+00
         0.00000E+00
         0.00000E+00
         0.00000E+00
         0.00000E+00
         0.00000E+00
         0.00000E+00
         0.00000E+00
         0.00000E+00
         0.00000E+00
         0.00000E+00
         0.00000E+00
         0.00000E+00
         0.00000E+00
         0.00000E+00
         0.00000E+00
         0.00000E+00
         0.00000E+00
         0.00000E+00
         0.00000E+00
         0.00000E+00
         0.00000E+00
         0.00000E+00
         0.00000E+00
         0.00000E+00
         0.00000E+00
         0.00000E+00
         0.00000E+00
         0.00000E+00
         0.00000E+00
         0.00000E+00
         0.00000E+00
         0.00000E+00
         0.00000E+00
         0.00000E+00
         0.00000E+00
         0.00000E+00
         0.00000E+00
         0.00000E+00
         0.00000E+00
         0.00000E+00
         0.00000E+00
         0.00000E+00
         0.00000E+00
         0.00000E+00
         0.00000E+00
         0.00000E+00
         0.00000E+00
         0.00000E+00
         0.00000E+00
         0.00000E+00
         0.00000E+00
         0.00000E+00
         0.00000E+00
         0.00000E+00
         0.00000E+00
         0.00000E+00
         0.00000E+00
         0.00000E+00
         0.00000E+00
         0.00000E+00
         0.00000E+00
         0.00000E+00
         0.00000E+00
         0.00000E+00
         0.00000E+00
         0.00000E+00
         0.00000E+00
         0.00000E+00
         0.00000E+00
         0.00000E+00
         0.00000E+00
         0.00000E+00
         0.00000E+00
         0.00000E+00
         0.00000E+00
         0.00000E+00
         0.00000E+00
         0.00000E+00
         0.00000E+00
         0.00000E+00
         0.00000E+00
         0.00000E+00
         0.00000E+00
         0.00000E+00
         0.00000E+00
         0.00000E+00
         0.00000E+00
         0.00000E+00
         0.00000E+00
         0.00000E+00
         0.00000E+00
         0.00000E+00
         0.00000E+00
         0.00000E+00
         0.00000E+00
         0.00000E+00
         0.00000E+00
         0.00000E+00
         0.00000E+00
         0.00000E+00
         0.00000E+00
         0.00000E+00
         0.00000E+00
         0.00000E+00
         0.00000E+00
         0.00000E+00
         0.00000E+00
         0.00000E+00
         0.00000E+00
         0.00000E+00
         0.00000E+00
         0.00000E+00
         0.00000E+00
         0.00000E+00
         0.00000E+00
         0.00000E+00
         0.00000E+00
         0.00000E+00
         0.00000E+00
         0.00000E+00
         0.00000E+00
         0.00000E+00
         0.00000E+00
         0.00000E+00
         0.00000E+00
         0.00000E+00
         0.00000E+00
         0.00000E+00
         0.00000E+00
         0.00000E+00
         0.00000E+00
         0.00000E+00
         0.00000E+00
         0.00000E+00
         0.00000E+00
         0.00000E+00
         0.00000E+00
         0.00000E+00
         0.00000E+00
         0.00000E+00
         0.00000E+00
         0.00000E+00
         0.00000E+00
         0.00000E+00
         0.00000E+00
         0.00000E+00
         0.00000E+00
         0.00000E+00
         0.00000E+00
         0.00000E+00
         0.00000E+00
         0.00000E+00
         0.00000E+00
         0.00000E+00
         0.00000E+00
         0.00000E+00
         0.00000E+00
         0.00000E+00
         0.00000E+00
         0.00000E+00
         0.00000E+00
         0.00000E+00
         0.00000E+00
         0.00000E+00
         0.00000E+00
         0.00000E+00
         0.00000E+00
         0.00000E+00
         0.00000E+00
         0.00000E+00
         0.00000E+00
         0.00000E+00
         0.00000E+00
         0.00000E+00
         0.00000E+00
         0.00000E+00
         0.00000E+00
         0.00000E+00
         0.00000E+00
         0.00000E+00
         0.00000E+00
         0.00000E+00
         0.00000E+00
         0.00000E+00
         0.00000E+00
         0.00000E+00
         0.00000E+00
         0.00000E+00
         0.00000E+00
         0.00000E+00
         0.00000E+00
         0.00000E+00
         0.00000E+00
         0.00000E+00
         0.00000E+00
         0.00000E+00
         0.00000E+00
         0.00000E+00
         0.00000E+00
         0.00000E+00
         0.00000E+00
         0.00000E+00
         0.00000E+00
         0.00000E+00
         0.00000E+00
         0.00000E+00
         0.00000E+00
         0.00000E+00
         0.00000E+00
         0.00000E+00
         0.00000E+00
         0.00000E+00
         0.00000E+00
         0.00000E+00
         0.00000E+00
         0.00000E+00
         0.00000E+00
         0.00000E+00
         0.00000E+00
         0.00000E+00
         0.00000E+00
         0.00000E+00
         0.00000E+00
         0.00000E+00
         0.00000E+00
         0.00000E+00
         0.00000E+00
         0.00000E+00
         0.00000E+00
         0.00000E+00
         0.00000E+00
         0.00000E+00
         0.00000E+00
         0.00000E+00
         0.00000E+00
         0.00000E+00
         0.00000E+00
         0.00000E+00
         0.00000E+00
         0.00000E+00
         0.00000E+00
         0.00000E+00
         0.00000E+00
         0.00000E+00
         0.00000E+00
         0.00000E+00
         0.00000E+00
         0.00000E+00
         0.00000E+00
         0.00000E+00
         0.00000E+00
         0.00000E+00
         0.00000E+00
         0.00000E+00
         0.00000E+00
         0.00000E+00
         0.00000E+00
         0.00000E+00
         0.00000E+00
         0.00000E+00
         0.00000E+00
         0.00000E+00
         0.00000E+00
         0.00000E+00
         0.00000E+00
         0.00000E+00
         0.00000E+00
         0.00000E+00
         0.00000E+00
         0.00000E+00
         0.00000E+00
         0.00000E+00
         0.00000E+00
         0.00000E+00
         0.00000E+00
         0.00000E+00
         0.00000E+00
         0.00000E+00
         0.00000E+00
         0.00000E+00
         0.00000E+00
         0.00000E+00
         0.00000E+00
         0.00000E+00
         0.00000E+00
         0.00000E+00
         0.00000E+00
         0.00000E+00
         0.00000E+00
         0.00000E+00
         0.00000E+00
         0.00000E+00
         0.00000E+00
         0.00000E+00
         0.00000E+00
         0.00000E+00
         0.00000E+00
         0.00000E+00
         0.00000E+00
         0.00000E+00
         0.00000E+00
         0.00000E+00
         0.00000E+00
         0.00000E+00
         0.00000E+00
         0.00000E+00
         0.00000E+00
         0.00000E+00
         0.00000E+00
         0.00000E+00
         0.00000E+00
         0.00000E+00
         0.00000E+00
         0.00000E+00
         0.00000E+00
         0.00000E+00
         0.00000E+00
         0.00000E+00
         0.00000E+00
         0.00000E+00
         0.00000E+00
         0.00000E+00
         0.00000E+00
         0.00000E+00
         0.00000E+00
         0.00000E+00
         0.00000E+00
         0.00000E+00
         0.00000E+00
         0.00000E+00
         0.00000E+00
         0.00000E+00
         0.00000E+00
         0.00000E+00
         0.00000E+00
         0.00000E+00
         0.00000E+00
         0.00000E+00
         0.00000E+00
         0.00000E+00
         0.00000E+00
         0.00000E+00
         0.00000E+00
         0.00000E+00
         0.00000E+00
         0.00000E+00
         0.00000E+00
         0.00000E+00
         0.00000E+00
         0.00000E+00
         0.00000E+00
         0.00000E+00
         0.00000E+00
         0.00000E+00
         0.00000E+00
         0.00000E+00
         0.00000E+00
         0.00000E+00
         0.00000E+00
         0.00000E+00
         0.00000E+00
         0.00000E+00
         0.00000E+00
         0.00000E+00
         0.00000E+00
         0.00000E+00
         0.00000E+00
         0.00000E+00
         0.00000E+00
         0.00000E+00
         0.00000E+00
         0.00000E+00
         0.00000E+00
         0.00000E+00
         0.00000E+00
         0.00000E+00
         0.00000E+00
         0.00000E+00
         0.00000E+00
         0.00000E+00
         0.00000E+00
         0.00000E+00
         0.00000E+00
         0.00000E+00
         0.00000E+00
         0.00000E+00
         0.00000E+00
         0.00000E+00
         0.00000E+00
         0.00000E+00
         0.00000E+00
         0.00000E+00
         0.00000E+00
         0.00000E+00
         0.00000E+00
         0.00000E+00
         0.00000E+00
         0.00000E+00
         0.00000E+00
         0.00000E+00
         0.00000E+00
         0.00000E+00
         0.00000E+00
         0.00000E+00
         0.00000E+00
         0.00000E+00
         0.00000E+00
         0.00000E+00
         0.00000E+00
         0.00000E+00
         0.00000E+00
         0.00000E+00
         0.00000E+00
         0.00000E+00
         0.00000E+00
         0.00000E+00
         0.00000E+00
         0.00000E+00
         0.00000E+00
         0.00000E+00
         0.00000E+00
         0.00000E+00
         0.00000E+00
         0.00000E+00
         0.00000E+00
         0.00000E+00
         0.00000E+00
         0.00000E+00
         0.00000E+00
         0.00000E+00
         0.00000E+00
         0.00000E+00
         0.00000E+00
         0.00000E+00
         0.00000E+00
         0.00000E+00
         0.00000E+00
         0.00000E+00
         0.00000E+00
         0.00000E+00
         0.00000E+00
         0.00000E+00
         0.00000E+00
         0.00000E+00
         0.00000E+00
         0.00000E+00
         0.00000E+00
         0.00000E+00
         0.00000E+00
         0.00000E+00
         0.00000E+00
         0.00000E+00
         0.00000E+00
         0.00000E+00
         0.00000E+00
         0.00000E+00
         0.00000E+00
         0.00000E+00
         0.00000E+00
         0.00000E+00
         0.00000E+00
         0.00000E+00
         0.00000E+00
         0.00000E+00
         0.00000E+00
         0.00000E+00
         0.00000E+00
         0.00000E+00
         0.00000E+00
         0.00000E+00
         0.00000E+00
         0.00000E+00
         0.00000E+00
         0.00000E+00
         0.00000E+00
         0.00000E+00
         0.00000E+00
         0.00000E+00
         0.00000E+00
         0.00000E+00
         0.00000E+00
         0.00000E+00
         0.00000E+00
         0.00000E+00
         0.00000E+00
         0.00000E+00
         0.00000E+00
         0.00000E+00
         0.00000E+00
         0.00000E+00
         0.00000E+00
         0.00000E+00
         0.00000E+00
         0.00000E+00
         0.00000E+00
         0.00000E+00
         0.00000E+00
         0.00000E+00
         0.00000E+00
         0.00000E+00
         0.00000E+00
         0.00000E+00
         0.00000E+00
         0.00000E+00
         0.00000E+00
         0.00000E+00
         0.00000E+00
         0.00000E+00
         0.00000E+00
         0.00000E+00
         0.00000E+00
         0.00000E+00
         0.00000E+00
         0.00000E+00
         0.00000E+00
         0.00000E+00
         0.00000E+00
         0.00000E+00
         0.00000E+00
         0.00000E+00
         0.00000E+00
         0.00000E+00
         0.00000E+00
         0.00000E+00
         0.00000E+00
         0.00000E+00
         0.00000E+00
         0.00000E+00
         0.00000E+00
         0.00000E+00
         0.00000E+00
         0.00000E+00
         0.00000E+00
         0.00000E+00
         0.00000E+00
         0.00000E+00
         0.00000E+00
         0.00000E+00
         0.00000E+00
         0.00000E+00
         0.00000E+00
         0.00000E+00
         0.00000E+00
         0.00000E+00
         0.00000E+00
         0.00000E+00
         0.00000E+00
         0.00000E+00
         0.00000E+00
         0.00000E+00
         0.00000E+00
         0.00000E+00
         0.00000E+00
         0.00000E+00
         0.00000E+00
         0.00000E+00
         0.00000E+00
         0.00000E+00
         0.00000E+00
         0.00000E+00
         0.00000E+00
         0.00000E+00
         0.00000E+00
         0.00000E+00
         0.00000E+00
         0.00000E+00
         0.00000E+00
         0.00000E+00
         0.00000E+00
         0.00000E+00
         0.00000E+00
         0.00000E+00
         0.00000E+00
         0.00000E+00
         0.00000E+00
         0.00000E+00
         0.00000E+00
         0.00000E+00
         0.00000E+00
         0.00000E+00
         0.00000E+00
         0.00000E+00
         0.00000E+00
         0.00000E+00
         0.00000E+00
         0.00000E+00
         0.00000E+00
         0.00000E+00
         0.00000E+00
         0.00000E+00
         0.00000E+00
         0.00000E+00
         0.00000E+00
         0.00000E+00
         0.00000E+00
         0.00000E+00
         0.00000E+00
         0.00000E+00
         0.00000E+00
         0.00000E+00
         0.00000E+00
         0.00000E+00
         0.00000E+00
         0.00000E+00
         0.00000E+00
         0.00000E+00
         0.00000E+00
         0.00000E+00
         0.00000E+00
         0.00000E+00
         0.00000E+00
         0.00000E+00
         0.00000E+00
         0.00000E+00
         0.00000E+00
         0.00000E+00
         0.00000E+00
         0.00000E+00
         0.00000E+00
         0.00000E+00
         0.00000E+00
         0.00000E+00
         0.00000E+00
         0.00000E+00
         0.00000E+00
         0.00000E+00
         0.00000E+00
         0.00000E+00
         0.00000E+00
         0.00000E+00
         0.00000E+00
         0.00000E+00
         0.00000E+00
         0.00000E+00
         0.00000E+00
         0.00000E+00
         0.00000E+00
         0.00000E+00
         0.00000E+00
         0.00000E+00
         0.00000E+00
         0.00000E+00
         0.00000E+00
         0.00000E+00
         0.00000E+00
         0.00000E+00
         0.00000E+00
         0.00000E+00
         0.00000E+00
         0.00000E+00
         0.00000E+00
         0.00000E+00
         0.00000E+00
         0.00000E+00
         0.00000E+00
         0.00000E+00
         0.00000E+00
         0.00000E+00
         0.00000E+00
         0.00000E+00
         0.00000E+00
         0.00000E+00
         0.00000E+00
         0.00000E+00
         0.00000E+00
         0.00000E+00
         0.00000E+00
         0.00000E+00
         0.00000E+00
         0.00000E+00
         0.00000E+00
         0.00000E+00
         0.00000E+00
         0.00000E+00
         0.00000E+00
         0.00000E+00
         0.00000E+00
         0.00000E+00
         0.00000E+00
         0.00000E+00
         0.00000E+00
         0.00000E+00
         0.00000E+00
         0.00000E+00
         0.00000E+00
         0.00000E+00
         0.00000E+00
         0.00000E+00
         0.00000E+00
         0.00000E+00
         0.00000E+00
         0.00000E+00
         0.00000E+00
         0.00000E+00
         0.00000E+00
         0.00000E+00
         0.00000E+00
         0.00000E+00
         0.00000E+00
         0.00000E+00
         0.00000E+00
         0.00000E+00
         0.00000E+00
         0.00000E+00
         0.00000E+00
         0.00000E+00
         0.00000E+00
         0.00000E+00
         0.00000E+00
         0.00000E+00
         0.00000E+00
         0.00000E+00
         0.00000E+00
         0.00000E+00
         0.00000E+00
         0.00000E+00
         0.00000E+00
         0.00000E+00
         0.00000E+00
         0.00000E+00
         0.00000E+00
         0.00000E+00
         0.00000E+00
         0.00000E+00
         0.00000E+00
         0.00000E+00
         0.00000E+00
         0.00000E+00
         0.00000E+00
         0.00000E+00
         0.00000E+00
         0.00000E+00
         0.00000E+00
         0.00000E+00
         0.00000E+00
         0.00000E+00
         0.00000E+00
         0.00000E+00
         0.00000E+00
         0.00000E+00
         0.00000E+00
         0.00000E+00
         0.00000E+00
         0.00000E+00
         0.00000E+00
         0.00000E+00
         0.00000E+00
         0.00000E+00
         0.00000E+00
         0.00000E+00
         0.00000E+00
         0.00000E+00
         0.00000E+00
         0.00000E+00
         0.00000E+00
         0.00000E+00
         0.00000E+00
         0.00000E+00
         0.00000E+00
         0.00000E+00
         0.00000E+00
         0.00000E+00
         0.00000E+00
         0.00000E+00
         0.00000E+00
         0.00000E+00
         0.00000E+00
         0.00000E+00
         0.00000E+00
         0.00000E+00
         0.00000E+00
         0.00000E+00
         0.00000E+00
         0.00000E+00
         0.00000E+00
         0.00000E+00
         0.00000E+00
         0.00000E+00
         0.00000E+00
         0.00000E+00
         0.00000E+00
         0.00000E+00
         0.00000E+00
         0.00000E+00
         0.00000E+00
         0.00000E+00
         0.00000E+00
         0.00000E+00
         0.00000E+00
         0.00000E+00
         0.00000E+00
         0.00000E+00
         0.00000E+00
         0.00000E+00
         0.00000E+00
         0.00000E+00
         0.00000E+00
         0.00000E+00
         0.00000E+00
         0.00000E+00
         0.00000E+00
         0.00000E+00
         0.00000E+00
         0.00000E+00
         0.00000E+00
         0.00000E+00
         0.00000E+00
         0.00000E+00
         0.00000E+00
         0.00000E+00
         0.00000E+00
         0.00000E+00
         0.00000E+00
         0.00000E+00
         0.00000E+00
         0.00000E+00
         0.00000E+00
         0.00000E+00
         0.00000E+00
         0.00000E+00
         0.00000E+00
         0.00000E+00
         0.00000E+00
         0.00000E+00
         0.00000E+00
         0.00000E+00
         0.00000E+00
         0.00000E+00
         0.00000E+00
         0.00000E+00
         0.00000E+00
         0.00000E+00
         0.00000E+00
         0.00000E+00
         0.00000E+00
         0.00000E+00
         0.00000E+00
         0.00000E+00
         0.00000E+00
         0.00000E+00
         0.00000E+00
         0.00000E+00
         0.00000E+00
         0.00000E+00
         0.00000E+00
         0.00000E+00
         0.00000E+00
         0.00000E+00
         0.00000E+00
         0.00000E+00
         0.00000E+00
         0.00000E+00
         0.00000E+00
         0.00000E+00
         0.00000E+00
         0.00000E+00
         0.00000E+00
         0.00000E+00
         0.00000E+00
         0.00000E+00
         0.00000E+00
         0.00000E+00
         0.00000E+00
         0.00000E+00
         0.00000E+00
         0.00000E+00
         0.00000E+00
         0.00000E+00
         0.00000E+00
         0.00000E+00
         0.00000E+00
         0.00000E+00
         0.00000E+00
         0.00000E+00
         0.00000E+00
         0.00000E+00
         0.00000E+00
         0.00000E+00
         0.00000E+00
         0.00000E+00
         0.00000E+00
         0.00000E+00
         0.00000E+00
         0.00000E+00
         0.00000E+00
         0.00000E+00
         0.00000E+00
         0.00000E+00
         0.00000E+00
         0.00000E+00
  
SCALARS               pre_disp_force_y  double 1
LOOKUP_TABLE default
         0.00000E+00
         0.00000E+00
         0.00000E+00
         0.00000E+00
         0.00000E+00
         0.00000E+00
         0.00000E+00
         0.00000E+00
         0.00000E+00
         0.00000E+00
         0.00000E+00
         0.00000E+00
         0.00000E+00
         0.00000E+00
         0.00000E+00
         0.00000E+00
         0.00000E+00
         0.00000E+00
         0.00000E+00
         0.00000E+00
         0.00000E+00
         0.00000E+00
         0.00000E+00
         0.00000E+00
         0.00000E+00
         0.00000E+00
         0.00000E+00
         0.00000E+00
         0.00000E+00
         0.00000E+00
         0.00000E+00
         0.00000E+00
         0.00000E+00
         0.00000E+00
         0.00000E+00
         0.00000E+00
         0.00000E+00
         0.00000E+00
         0.00000E+00
         0.00000E+00
         0.00000E+00
         0.00000E+00
         0.00000E+00
         0.00000E+00
         0.00000E+00
         0.00000E+00
         0.00000E+00
         0.00000E+00
         0.00000E+00
         0.00000E+00
         0.00000E+00
         0.00000E+00
         0.00000E+00
         0.00000E+00
         0.00000E+00
         0.00000E+00
         0.00000E+00
         0.00000E+00
         0.00000E+00
         0.00000E+00
         0.00000E+00
         0.00000E+00
         0.00000E+00
         0.00000E+00
         0.00000E+00
         0.00000E+00
         0.00000E+00
         0.00000E+00
         0.00000E+00
         0.00000E+00
         0.00000E+00
         0.00000E+00
         0.00000E+00
         0.00000E+00
         0.00000E+00
         0.00000E+00
         0.00000E+00
         0.00000E+00
         0.00000E+00
         0.00000E+00
         0.00000E+00
         0.00000E+00
         0.00000E+00
         0.00000E+00
         0.00000E+00
         0.00000E+00
         0.00000E+00
         0.00000E+00
         0.00000E+00
         0.00000E+00
         0.00000E+00
         0.00000E+00
         0.00000E+00
         0.00000E+00
         0.00000E+00
         0.00000E+00
         0.00000E+00
         0.00000E+00
         0.00000E+00
         0.00000E+00
         0.00000E+00
         0.00000E+00
         0.00000E+00
         0.00000E+00
         0.00000E+00
         0.00000E+00
         0.00000E+00
         0.00000E+00
         0.00000E+00
         0.00000E+00
         0.00000E+00
         0.00000E+00
         0.00000E+00
         0.00000E+00
         0.00000E+00
         0.00000E+00
         0.00000E+00
         0.00000E+00
         0.00000E+00
         0.00000E+00
         0.00000E+00
         0.00000E+00
         0.00000E+00
         0.00000E+00
         0.00000E+00
         0.00000E+00
         0.00000E+00
         0.00000E+00
         0.00000E+00
         0.00000E+00
         0.00000E+00
         0.00000E+00
         0.00000E+00
         0.00000E+00
         0.00000E+00
         0.00000E+00
         0.00000E+00
         0.00000E+00
         0.00000E+00
         0.00000E+00
         0.00000E+00
         0.00000E+00
         0.00000E+00
         0.00000E+00
         0.00000E+00
         0.00000E+00
         0.00000E+00
         0.00000E+00
         0.00000E+00
         0.00000E+00
         0.00000E+00
         0.00000E+00
         0.00000E+00
         0.00000E+00
         0.00000E+00
         0.00000E+00
         0.00000E+00
         0.00000E+00
         0.00000E+00
         0.00000E+00
         0.00000E+00
         0.00000E+00
         0.00000E+00
         0.00000E+00
         0.00000E+00
         0.00000E+00
         0.00000E+00
         0.00000E+00
         0.00000E+00
         0.00000E+00
         0.00000E+00
         0.00000E+00
         0.00000E+00
         0.00000E+00
         0.00000E+00
         0.00000E+00
         0.00000E+00
         0.00000E+00
         0.00000E+00
         0.00000E+00
         0.00000E+00
         0.00000E+00
         0.00000E+00
         0.00000E+00
         0.00000E+00
         0.00000E+00
         0.00000E+00
         0.00000E+00
         0.00000E+00
         0.00000E+00
         0.00000E+00
         0.00000E+00
         0.00000E+00
         0.00000E+00
         0.00000E+00
         0.00000E+00
         0.00000E+00
         0.00000E+00
         0.00000E+00
         0.00000E+00
         0.00000E+00
         0.00000E+00
         0.00000E+00
         0.00000E+00
         0.00000E+00
         0.00000E+00
         0.00000E+00
         0.00000E+00
         0.00000E+00
         0.00000E+00
         0.00000E+00
         0.00000E+00
         0.00000E+00
         0.00000E+00
         0.00000E+00
         0.00000E+00
         0.00000E+00
         0.00000E+00
         0.00000E+00
         0.00000E+00
         0.00000E+00
         0.00000E+00
         0.00000E+00
         0.00000E+00
         0.00000E+00
         0.00000E+00
         0.00000E+00
         0.00000E+00
         0.00000E+00
         0.00000E+00
         0.00000E+00
         0.00000E+00
         0.00000E+00
         0.00000E+00
         0.00000E+00
         0.00000E+00
         0.00000E+00
         0.00000E+00
         0.00000E+00
         0.00000E+00
         0.00000E+00
         0.00000E+00
         0.00000E+00
         0.00000E+00
         0.00000E+00
         0.00000E+00
         0.00000E+00
         0.00000E+00
         0.00000E+00
         0.00000E+00
         0.00000E+00
         0.00000E+00
         0.00000E+00
         0.00000E+00
         0.00000E+00
         0.00000E+00
         0.00000E+00
         0.00000E+00
         0.00000E+00
         0.00000E+00
         0.00000E+00
         0.00000E+00
         0.00000E+00
         0.00000E+00
         0.00000E+00
         0.00000E+00
         0.00000E+00
         0.00000E+00
         0.00000E+00
         0.00000E+00
         0.00000E+00
         0.00000E+00
         0.00000E+00
         0.00000E+00
         0.00000E+00
         0.00000E+00
         0.00000E+00
         0.00000E+00
         0.00000E+00
         0.00000E+00
         0.00000E+00
         0.00000E+00
         0.00000E+00
         0.00000E+00
         0.00000E+00
         0.00000E+00
         0.00000E+00
         0.00000E+00
         0.00000E+00
         0.00000E+00
         0.00000E+00
         0.00000E+00
         0.00000E+00
         0.00000E+00
         0.00000E+00
         0.00000E+00
         0.00000E+00
         0.00000E+00
         0.00000E+00
         0.00000E+00
         0.00000E+00
         0.00000E+00
         0.00000E+00
         0.00000E+00
         0.00000E+00
         0.00000E+00
         0.00000E+00
         0.00000E+00
         0.00000E+00
         0.00000E+00
         0.00000E+00
         0.00000E+00
         0.00000E+00
         0.00000E+00
         0.00000E+00
         0.00000E+00
         0.00000E+00
         0.00000E+00
         0.00000E+00
         0.00000E+00
         0.00000E+00
         0.00000E+00
         0.00000E+00
         0.00000E+00
         0.00000E+00
         0.00000E+00
         0.00000E+00
         0.00000E+00
         0.00000E+00
         0.00000E+00
         0.00000E+00
         0.00000E+00
         0.00000E+00
         0.00000E+00
         0.00000E+00
         0.00000E+00
         0.00000E+00
         0.00000E+00
         0.00000E+00
         0.00000E+00
         0.00000E+00
         0.00000E+00
         0.00000E+00
         0.00000E+00
         0.00000E+00
         0.00000E+00
         0.00000E+00
         0.00000E+00
         0.00000E+00
         0.00000E+00
         0.00000E+00
         0.00000E+00
         0.00000E+00
         0.00000E+00
         0.00000E+00
         0.00000E+00
         0.00000E+00
         0.00000E+00
         0.00000E+00
         0.00000E+00
         0.00000E+00
         0.00000E+00
         0.00000E+00
         0.00000E+00
         0.00000E+00
         0.00000E+00
         0.00000E+00
         0.00000E+00
         0.00000E+00
         0.00000E+00
         0.00000E+00
         0.00000E+00
         0.00000E+00
         0.00000E+00
         0.00000E+00
         0.00000E+00
         0.00000E+00
         0.00000E+00
         0.00000E+00
         0.00000E+00
         0.00000E+00
         0.00000E+00
         0.00000E+00
         0.00000E+00
         0.00000E+00
         0.00000E+00
         0.00000E+00
         0.00000E+00
         0.00000E+00
         0.00000E+00
         0.00000E+00
         0.00000E+00
         0.00000E+00
         0.00000E+00
         0.00000E+00
         0.00000E+00
         0.00000E+00
         0.00000E+00
         0.00000E+00
         0.00000E+00
         0.00000E+00
         0.00000E+00
         0.00000E+00
         0.00000E+00
         0.00000E+00
         0.00000E+00
         0.00000E+00
         0.00000E+00
         0.00000E+00
         0.00000E+00
         0.00000E+00
         0.00000E+00
         0.00000E+00
         0.00000E+00
         0.00000E+00
         0.00000E+00
         0.00000E+00
         0.00000E+00
         0.00000E+00
         0.00000E+00
         0.00000E+00
         0.00000E+00
         0.00000E+00
         0.00000E+00
         0.00000E+00
         0.00000E+00
         0.00000E+00
         0.00000E+00
         0.00000E+00
         0.00000E+00
         0.00000E+00
         0.00000E+00
         0.00000E+00
         0.00000E+00
         0.00000E+00
         0.00000E+00
         0.00000E+00
         0.00000E+00
         0.00000E+00
         0.00000E+00
         0.00000E+00
         0.00000E+00
         0.00000E+00
         0.00000E+00
         0.00000E+00
         0.00000E+00
         0.00000E+00
         0.00000E+00
         0.00000E+00
         0.00000E+00
         0.00000E+00
         0.00000E+00
         0.00000E+00
         0.00000E+00
         0.00000E+00
         0.00000E+00
         0.00000E+00
         0.00000E+00
         0.00000E+00
         0.00000E+00
         0.00000E+00
         0.00000E+00
         0.00000E+00
         0.00000E+00
         0.00000E+00
         0.00000E+00
         0.00000E+00
         0.00000E+00
         0.00000E+00
         0.00000E+00
         0.00000E+00
         0.00000E+00
         0.00000E+00
         0.00000E+00
         0.00000E+00
         0.00000E+00
         0.00000E+00
         0.00000E+00
         0.00000E+00
         0.00000E+00
         0.00000E+00
         0.00000E+00
         0.00000E+00
         0.00000E+00
         0.00000E+00
         0.00000E+00
         0.00000E+00
         0.00000E+00
         0.00000E+00
         0.00000E+00
         0.00000E+00
         0.00000E+00
         0.00000E+00
         0.00000E+00
         0.00000E+00
         0.00000E+00
         0.00000E+00
         0.00000E+00
         0.00000E+00
         0.00000E+00
         0.00000E+00
         0.00000E+00
         0.00000E+00
         0.00000E+00
         0.00000E+00
         0.00000E+00
         0.00000E+00
         0.00000E+00
         0.00000E+00
         0.00000E+00
         0.00000E+00
         0.00000E+00
         0.00000E+00
         0.00000E+00
         0.00000E+00
         0.00000E+00
         0.00000E+00
         0.00000E+00
         0.00000E+00
         0.00000E+00
         0.00000E+00
         0.00000E+00
         0.00000E+00
         0.00000E+00
         0.00000E+00
         0.00000E+00
         0.00000E+00
         0.00000E+00
         0.00000E+00
         0.00000E+00
         0.00000E+00
         0.00000E+00
         0.00000E+00
         0.00000E+00
         0.00000E+00
         0.00000E+00
         0.00000E+00
         0.00000E+00
         0.00000E+00
         0.00000E+00
         0.00000E+00
         0.00000E+00
         0.00000E+00
         0.00000E+00
         0.00000E+00
         0.00000E+00
         0.00000E+00
         0.00000E+00
         0.00000E+00
         0.00000E+00
         0.00000E+00
         0.00000E+00
         0.00000E+00
         0.00000E+00
         0.00000E+00
         0.00000E+00
         0.00000E+00
         0.00000E+00
         0.00000E+00
         0.00000E+00
         0.00000E+00
         0.00000E+00
         0.00000E+00
         0.00000E+00
         0.00000E+00
         0.00000E+00
         0.00000E+00
         0.00000E+00
         0.00000E+00
         0.00000E+00
         0.00000E+00
         0.00000E+00
         0.00000E+00
         0.00000E+00
         0.00000E+00
         0.00000E+00
         0.00000E+00
         0.00000E+00
         0.00000E+00
         0.00000E+00
         0.00000E+00
         0.00000E+00
         0.00000E+00
         0.00000E+00
         0.00000E+00
         0.00000E+00
         0.00000E+00
         0.00000E+00
         0.00000E+00
         0.00000E+00
         0.00000E+00
         0.00000E+00
         0.00000E+00
         0.00000E+00
         0.00000E+00
         0.00000E+00
         0.00000E+00
         0.00000E+00
         0.00000E+00
         0.00000E+00
         0.00000E+00
         0.00000E+00
         0.00000E+00
         0.00000E+00
         0.00000E+00
         0.00000E+00
         0.00000E+00
         0.00000E+00
         0.00000E+00
         0.00000E+00
         0.00000E+00
         0.00000E+00
         0.00000E+00
         0.00000E+00
         0.00000E+00
         0.00000E+00
         0.00000E+00
         0.00000E+00
         0.00000E+00
         0.00000E+00
         0.00000E+00
         0.00000E+00
         0.00000E+00
         0.00000E+00
         0.00000E+00
         0.00000E+00
         0.00000E+00
         0.00000E+00
         0.00000E+00
         0.00000E+00
         0.00000E+00
         0.00000E+00
         0.00000E+00
         0.00000E+00
         0.00000E+00
         0.00000E+00
         0.00000E+00
         0.00000E+00
         0.00000E+00
         0.00000E+00
         0.00000E+00
         0.00000E+00
         0.00000E+00
         0.00000E+00
         0.00000E+00
         0.00000E+00
         0.00000E+00
         0.00000E+00
         0.00000E+00
         0.00000E+00
         0.00000E+00
         0.00000E+00
         0.00000E+00
         0.00000E+00
         0.00000E+00
         0.00000E+00
         0.00000E+00
         0.00000E+00
         0.00000E+00
         0.00000E+00
         0.00000E+00
         0.00000E+00
         0.00000E+00
         0.00000E+00
         0.00000E+00
         0.00000E+00
         0.00000E+00
         0.00000E+00
         0.00000E+00
         0.00000E+00
         0.00000E+00
         0.00000E+00
         0.00000E+00
         0.00000E+00
         0.00000E+00
         0.00000E+00
         0.00000E+00
         0.00000E+00
         0.00000E+00
         0.00000E+00
         0.00000E+00
         0.00000E+00
         0.00000E+00
         0.00000E+00
         0.00000E+00
         0.00000E+00
         0.00000E+00
         0.00000E+00
         0.00000E+00
         0.00000E+00
         0.00000E+00
         0.00000E+00
         0.00000E+00
         0.00000E+00
         0.00000E+00
         0.00000E+00
         0.00000E+00
         0.00000E+00
         0.00000E+00
         0.00000E+00
         0.00000E+00
         0.00000E+00
         0.00000E+00
         0.00000E+00
         0.00000E+00
         0.00000E+00
         0.00000E+00
         0.00000E+00
         0.00000E+00
         0.00000E+00
         0.00000E+00
         0.00000E+00
         0.00000E+00
         0.00000E+00
         0.00000E+00
         0.00000E+00
         0.00000E+00
         0.00000E+00
         0.00000E+00
         0.00000E+00
         0.00000E+00
         0.00000E+00
         0.00000E+00
         0.00000E+00
         0.00000E+00
         0.00000E+00
         0.00000E+00
         0.00000E+00
         0.00000E+00
         0.00000E+00
         0.00000E+00
         0.00000E+00
         0.00000E+00
         0.00000E+00
         0.00000E+00
         0.00000E+00
         0.00000E+00
         0.00000E+00
         0.00000E+00
         0.00000E+00
         0.00000E+00
         0.00000E+00
         0.00000E+00
         0.00000E+00
         0.00000E+00
         0.00000E+00
         0.00000E+00
         0.00000E+00
         0.00000E+00
         0.00000E+00
         0.00000E+00
         0.00000E+00
         0.00000E+00
         0.00000E+00
         0.00000E+00
         0.00000E+00
         0.00000E+00
         0.00000E+00
         0.00000E+00
         0.00000E+00
         0.00000E+00
         0.00000E+00
         0.00000E+00
         0.00000E+00
         0.00000E+00
         0.00000E+00
         0.00000E+00
         0.00000E+00
         0.00000E+00
         0.00000E+00
         0.00000E+00
         0.00000E+00
         0.00000E+00
         0.00000E+00
         0.00000E+00
         0.00000E+00
         0.00000E+00
         0.00000E+00
         0.00000E+00
         0.00000E+00
         0.00000E+00
         0.00000E+00
         0.00000E+00
         0.00000E+00
         0.00000E+00
         0.00000E+00
         0.00000E+00
         0.00000E+00
         0.00000E+00
         0.00000E+00
         0.00000E+00
         0.00000E+00
         0.00000E+00
         0.00000E+00
         0.00000E+00
         0.00000E+00
         0.00000E+00
         0.00000E+00
         0.00000E+00
         0.00000E+00
         0.00000E+00
         0.00000E+00
         0.00000E+00
         0.00000E+00
         0.00000E+00
         0.00000E+00
         0.00000E+00
         0.00000E+00
         0.00000E+00
         0.00000E+00
         0.00000E+00
         0.00000E+00
         0.00000E+00
         0.00000E+00
         0.00000E+00
         0.00000E+00
         0.00000E+00
         0.00000E+00
         0.00000E+00
         0.00000E+00
         0.00000E+00
         0.00000E+00
         0.00000E+00
         0.00000E+00
         0.00000E+00
         0.00000E+00
         0.00000E+00
         0.00000E+00
         0.00000E+00
         0.00000E+00
         0.00000E+00
         0.00000E+00
         0.00000E+00
         0.00000E+00
         0.00000E+00
         0.00000E+00
         0.00000E+00
         0.00000E+00
         0.00000E+00
         0.00000E+00
         0.00000E+00
         0.00000E+00
         0.00000E+00
         0.00000E+00
         0.00000E+00
         0.00000E+00
         0.00000E+00
         0.00000E+00
         0.00000E+00
         0.00000E+00
         0.00000E+00
         0.00000E+00
         0.00000E+00
         0.00000E+00
         0.00000E+00
         0.00000E+00
         0.00000E+00
         0.00000E+00
         0.00000E+00
         0.00000E+00
         0.00000E+00
         0.00000E+00
         0.00000E+00
         0.00000E+00
         0.00000E+00
         0.00000E+00
         0.00000E+00
         0.00000E+00
         0.00000E+00
         0.00000E+00
         0.00000E+00
         0.00000E+00
         0.00000E+00
         0.00000E+00
         0.00000E+00
         0.00000E+00
         0.00000E+00
         0.00000E+00
         0.00000E+00
         0.00000E+00
         0.00000E+00
         0.00000E+00
         0.00000E+00
         0.00000E+00
         0.00000E+00
         0.00000E+00
         0.00000E+00
         0.00000E+00
         0.00000E+00
         0.00000E+00
         0.00000E+00
         0.00000E+00
         0.00000E+00
         0.00000E+00
         0.00000E+00
         0.00000E+00
         0.00000E+00
         0.00000E+00
         0.00000E+00
         0.00000E+00
         0.00000E+00
         0.00000E+00
         0.00000E+00
         0.00000E+00
         0.00000E+00
         0.00000E+00
         0.00000E+00
         0.00000E+00
         0.00000E+00
         0.00000E+00
         0.00000E+00
         0.00000E+00
         0.00000E+00
         0.00000E+00
         0.00000E+00
         0.00000E+00
         0.00000E+00
         0.00000E+00
         0.00000E+00
         0.00000E+00
         0.00000E+00
         0.00000E+00
         0.00000E+00
         0.00000E+00
         0.00000E+00
         0.00000E+00
         0.00000E+00
         0.00000E+00
         0.00000E+00
         0.00000E+00
         0.00000E+00
         0.00000E+00
         0.00000E+00
         0.00000E+00
         0.00000E+00
         0.00000E+00
         0.00000E+00
         0.00000E+00
         0.00000E+00
         0.00000E+00
         0.00000E+00
         0.00000E+00
         0.00000E+00
         0.00000E+00
         0.00000E+00
         0.00000E+00
         0.00000E+00
         0.00000E+00
         0.00000E+00
         0.00000E+00
         0.00000E+00
         0.00000E+00
         0.00000E+00
         0.00000E+00
         0.00000E+00
         0.00000E+00
         0.00000E+00
         0.00000E+00
         0.00000E+00
         0.00000E+00
         0.00000E+00
         0.00000E+00
         0.00000E+00
         0.00000E+00
         0.00000E+00
         0.00000E+00
         0.00000E+00
         0.00000E+00
         0.00000E+00
         0.00000E+00
         0.00000E+00
         0.00000E+00
         0.00000E+00
         0.00000E+00
         0.00000E+00
         0.00000E+00
         0.00000E+00
         0.00000E+00
         0.00000E+00
         0.00000E+00
         0.00000E+00
         0.00000E+00
         0.00000E+00
         0.00000E+00
         0.00000E+00
         0.00000E+00
         0.00000E+00
         0.00000E+00
         0.00000E+00
         0.00000E+00
         0.00000E+00
         0.00000E+00
         0.00000E+00
         0.00000E+00
         0.00000E+00
         0.00000E+00
         0.00000E+00
         0.00000E+00
         0.00000E+00
         0.00000E+00
         0.00000E+00
         0.00000E+00
         0.00000E+00
         0.00000E+00
         0.00000E+00
         0.00000E+00
         0.00000E+00
         0.00000E+00
         0.00000E+00
         0.00000E+00
         0.00000E+00
         0.00000E+00
         0.00000E+00
         0.00000E+00
         0.00000E+00
         0.00000E+00
         0.00000E+00
         0.00000E+00
         0.00000E+00
         0.00000E+00
         0.00000E+00
         0.00000E+00
         0.00000E+00
         0.00000E+00
         0.00000E+00
         0.00000E+00
         0.00000E+00
         0.00000E+00
         0.00000E+00
         0.00000E+00
         0.00000E+00
         0.00000E+00
         0.00000E+00
         0.00000E+00
         0.00000E+00
         0.00000E+00
         0.00000E+00
         0.00000E+00
         0.00000E+00
         0.00000E+00
         0.00000E+00
         0.00000E+00
         0.00000E+00
         0.00000E+00
         0.00000E+00
         0.00000E+00
         0.00000E+00
         0.00000E+00
         0.00000E+00
         0.00000E+00
         0.00000E+00
         0.00000E+00
         0.00000E+00
         0.00000E+00
         0.00000E+00
         0.00000E+00
         0.00000E+00
         0.00000E+00
         0.00000E+00
         0.00000E+00
         0.00000E+00
         0.00000E+00
         0.00000E+00
         0.00000E+00
         0.00000E+00
         0.00000E+00
         0.00000E+00
         0.00000E+00
         0.00000E+00
         0.00000E+00
         0.00000E+00
         0.00000E+00
         0.00000E+00
         0.00000E+00
         0.00000E+00
         0.00000E+00
         0.00000E+00
         0.00000E+00
         0.00000E+00
         0.00000E+00
         0.00000E+00
         0.00000E+00
         0.00000E+00
         0.00000E+00
         0.00000E+00
         0.00000E+00
         0.00000E+00
         0.00000E+00
         0.00000E+00
         0.00000E+00
         0.00000E+00
         0.00000E+00
         0.00000E+00
         0.00000E+00
         0.00000E+00
         0.00000E+00
         0.00000E+00
         0.00000E+00
         0.00000E+00
         0.00000E+00
         0.00000E+00
         0.00000E+00
         0.00000E+00
         0.00000E+00
         0.00000E+00
         0.00000E+00
         0.00000E+00
         0.00000E+00
         0.00000E+00
         0.00000E+00
         0.00000E+00
         0.00000E+00
         0.00000E+00
         0.00000E+00
         0.00000E+00
         0.00000E+00
         0.00000E+00
         0.00000E+00
         0.00000E+00
         0.00000E+00
         0.00000E+00
         0.00000E+00
         0.00000E+00
         0.00000E+00
         0.00000E+00
         0.00000E+00
         0.00000E+00
         0.00000E+00
         0.00000E+00
         0.00000E+00
         0.00000E+00
         0.00000E+00
         0.00000E+00
         0.00000E+00
         0.00000E+00
         0.00000E+00
         0.00000E+00
         0.00000E+00
         0.00000E+00
         0.00000E+00
         0.00000E+00
         0.00000E+00
         0.00000E+00
         0.00000E+00
         0.00000E+00
         0.00000E+00
         0.00000E+00
         0.00000E+00
         0.00000E+00
         0.00000E+00
         0.00000E+00
         0.00000E+00
         0.00000E+00
         0.00000E+00
         0.00000E+00
         0.00000E+00
         0.00000E+00
         0.00000E+00
         0.00000E+00
         0.00000E+00
         0.00000E+00
         0.00000E+00
         0.00000E+00
         0.00000E+00
         0.00000E+00
         0.00000E+00
         0.00000E+00
         0.00000E+00
         0.00000E+00
         0.00000E+00
         0.00000E+00
         0.00000E+00
         0.00000E+00
         0.00000E+00
         0.00000E+00
         0.00000E+00
         0.00000E+00
         0.00000E+00
         0.00000E+00
         0.00000E+00
         0.00000E+00
         0.00000E+00
         0.00000E+00
         0.00000E+00
         0.00000E+00
         0.00000E+00
         0.00000E+00
         0.00000E+00
         0.00000E+00
         0.00000E+00
         0.00000E+00
         0.00000E+00
         0.00000E+00
         0.00000E+00
         0.00000E+00
         0.00000E+00
         0.00000E+00
         0.00000E+00
         0.00000E+00
         0.00000E+00
         0.00000E+00
         0.00000E+00
         0.00000E+00
         0.00000E+00
         0.00000E+00
         0.00000E+00
         0.00000E+00
         0.00000E+00
         0.00000E+00
         0.00000E+00
         0.00000E+00
         0.00000E+00
         0.00000E+00
         0.00000E+00
         0.00000E+00
         0.00000E+00
         0.00000E+00
         0.00000E+00
         0.00000E+00
         0.00000E+00
         0.00000E+00
         0.00000E+00
         0.00000E+00
         0.00000E+00
         0.00000E+00
         0.00000E+00
         0.00000E+00
         0.00000E+00
         0.00000E+00
         0.00000E+00
         0.00000E+00
         0.00000E+00
         0.00000E+00
         0.00000E+00
         0.00000E+00
         0.00000E+00
         0.00000E+00
         0.00000E+00
         0.00000E+00
         0.00000E+00
         0.00000E+00
         0.00000E+00
         0.00000E+00
         0.00000E+00
         0.00000E+00
         0.00000E+00
         0.00000E+00
         0.00000E+00
         0.00000E+00
         0.00000E+00
         0.00000E+00
         0.00000E+00
         0.00000E+00
         0.00000E+00
         0.00000E+00
         0.00000E+00
         0.00000E+00
         0.00000E+00
         0.00000E+00
         0.00000E+00
         0.00000E+00
         0.00000E+00
         0.00000E+00
         0.00000E+00
         0.00000E+00
         0.00000E+00
         0.00000E+00
         0.00000E+00
         0.00000E+00
         0.00000E+00
         0.00000E+00
         0.00000E+00
         0.00000E+00
         0.00000E+00
         0.00000E+00
         0.00000E+00
         0.00000E+00
         0.00000E+00
         0.00000E+00
         0.00000E+00
         0.00000E+00
         0.00000E+00
         0.00000E+00
         0.00000E+00
         0.00000E+00
         0.00000E+00
         0.00000E+00
         0.00000E+00
         0.00000E+00
         0.00000E+00
         0.00000E+00
         0.00000E+00
         0.00000E+00
         0.00000E+00
         0.00000E+00
         0.00000E+00
         0.00000E+00
         0.00000E+00
         0.00000E+00
         0.00000E+00
         0.00000E+00
         0.00000E+00
         0.00000E+00
         0.00000E+00
         0.00000E+00
         0.00000E+00
         0.00000E+00
         0.00000E+00
         0.00000E+00
         0.00000E+00
         0.00000E+00
         0.00000E+00
         0.00000E+00
         0.00000E+00
         0.00000E+00
         0.00000E+00
         0.00000E+00
         0.00000E+00
         0.00000E+00
         0.00000E+00
         0.00000E+00
         0.00000E+00
         0.00000E+00
         0.00000E+00
         0.00000E+00
         0.00000E+00
         0.00000E+00
         0.00000E+00
         0.00000E+00
         0.00000E+00
         0.00000E+00
         0.00000E+00
         0.00000E+00
         0.00000E+00
         0.00000E+00
         0.00000E+00
         0.00000E+00
         0.00000E+00
         0.00000E+00
         0.00000E+00
         0.00000E+00
         0.00000E+00
         0.00000E+00
         0.00000E+00
         0.00000E+00
         0.00000E+00
         0.00000E+00
         0.00000E+00
         0.00000E+00
         0.00000E+00
         0.00000E+00
         0.00000E+00
         0.00000E+00
         0.00000E+00
         0.00000E+00
         0.00000E+00
         0.00000E+00
         0.00000E+00
         0.00000E+00
         0.00000E+00
         0.00000E+00
         0.00000E+00
         0.00000E+00
         0.00000E+00
         0.00000E+00
         0.00000E+00
         0.00000E+00
         0.00000E+00
         0.00000E+00
         0.00000E+00
         0.00000E+00
         0.00000E+00
         0.00000E+00
         0.00000E+00
         0.00000E+00
         0.00000E+00
         0.00000E+00
         0.00000E+00
         0.00000E+00
         0.00000E+00
         0.00000E+00
         0.00000E+00
         0.00000E+00
         0.00000E+00
         0.00000E+00
         0.00000E+00
         0.00000E+00
         0.00000E+00
         0.00000E+00
         0.00000E+00
         0.00000E+00
         0.00000E+00
         0.00000E+00
         0.00000E+00
         0.00000E+00
         0.00000E+00
         0.00000E+00
         0.00000E+00
         0.00000E+00
         0.00000E+00
         0.00000E+00
         0.00000E+00
         0.00000E+00
         0.00000E+00
         0.00000E+00
         0.00000E+00
         0.00000E+00
         0.00000E+00
         0.00000E+00
         0.00000E+00
         0.00000E+00
         0.00000E+00
         0.00000E+00
         0.00000E+00
         0.00000E+00
         0.00000E+00
         0.00000E+00
         0.00000E+00
         0.00000E+00
         0.00000E+00
         0.00000E+00
         0.00000E+00
         0.00000E+00
         0.00000E+00
         0.00000E+00
         0.00000E+00
         0.00000E+00
         0.00000E+00
         0.00000E+00
         0.00000E+00
         0.00000E+00
         0.00000E+00
         0.00000E+00
         0.00000E+00
         0.00000E+00
         0.00000E+00
         0.00000E+00
         0.00000E+00
         0.00000E+00
         0.00000E+00
         0.00000E+00
         0.00000E+00
         0.00000E+00
         0.00000E+00
         0.00000E+00
         0.00000E+00
         0.00000E+00
         0.00000E+00
         0.00000E+00
         0.00000E+00
         0.00000E+00
         0.00000E+00
         0.00000E+00
         0.00000E+00
         0.00000E+00
         0.00000E+00
         0.00000E+00
         0.00000E+00
         0.00000E+00
         0.00000E+00
         0.00000E+00
         0.00000E+00
         0.00000E+00
         0.00000E+00
         0.00000E+00
         0.00000E+00
         0.00000E+00
         0.00000E+00
         0.00000E+00
         0.00000E+00
         0.00000E+00
         0.00000E+00
         0.00000E+00
         0.00000E+00
         0.00000E+00
         0.00000E+00
         0.00000E+00
         0.00000E+00
         0.00000E+00
         0.00000E+00
         0.00000E+00
         0.00000E+00
         0.00000E+00
         0.00000E+00
         0.00000E+00
         0.00000E+00
         0.00000E+00
         0.00000E+00
         0.00000E+00
         0.00000E+00
         0.00000E+00
         0.00000E+00
         0.00000E+00
         0.00000E+00
         0.00000E+00
         0.00000E+00
         0.00000E+00
         0.00000E+00
         0.00000E+00
         0.00000E+00
         0.00000E+00
         0.00000E+00
         0.00000E+00
         0.00000E+00
         0.00000E+00
         0.00000E+00
         0.00000E+00
         0.00000E+00
         0.00000E+00
         0.00000E+00
         0.00000E+00
         0.00000E+00
         0.00000E+00
         0.00000E+00
         0.00000E+00
         0.00000E+00
         0.00000E+00
         0.00000E+00
         0.00000E+00
         0.00000E+00
         0.00000E+00
         0.00000E+00
         0.00000E+00
         0.00000E+00
         0.00000E+00
         0.00000E+00
         0.00000E+00
         0.00000E+00
         0.00000E+00
         0.00000E+00
         0.00000E+00
         0.00000E+00
         0.00000E+00
         0.00000E+00
         0.00000E+00
         0.00000E+00
         0.00000E+00
         0.00000E+00
         0.00000E+00
         0.00000E+00
         0.00000E+00
         0.00000E+00
         0.00000E+00
         0.00000E+00
         0.00000E+00
         0.00000E+00
         0.00000E+00
         0.00000E+00
         0.00000E+00
         0.00000E+00
         0.00000E+00
         0.00000E+00
         0.00000E+00
         0.00000E+00
         0.00000E+00
         0.00000E+00
         0.00000E+00
         0.00000E+00
         0.00000E+00
         0.00000E+00
         0.00000E+00
         0.00000E+00
         0.00000E+00
         0.00000E+00
         0.00000E+00
         0.00000E+00
         0.00000E+00
         0.00000E+00
         0.00000E+00
         0.00000E+00
         0.00000E+00
         0.00000E+00
         0.00000E+00
         0.00000E+00
         0.00000E+00
         0.00000E+00
         0.00000E+00
         0.00000E+00
         0.00000E+00
         0.00000E+00
         0.00000E+00
         0.00000E+00
         0.00000E+00
         0.00000E+00
         0.00000E+00
         0.00000E+00
         0.00000E+00
         0.00000E+00
         0.00000E+00
         0.00000E+00
         0.00000E+00
         0.00000E+00
         0.00000E+00
         0.00000E+00
         0.00000E+00
         0.00000E+00
         0.00000E+00
         0.00000E+00
         0.00000E+00
         0.00000E+00
         0.00000E+00
         0.00000E+00
         0.00000E+00
         0.00000E+00
         0.00000E+00
         0.00000E+00
         0.00000E+00
         0.00000E+00
         0.00000E+00
         0.00000E+00
         0.00000E+00
         0.00000E+00
         0.00000E+00
         0.00000E+00
         0.00000E+00
         0.00000E+00
         0.00000E+00
         0.00000E+00
         0.00000E+00
         0.00000E+00
         0.00000E+00
         0.00000E+00
         0.00000E+00
         0.00000E+00
         0.00000E+00
         0.00000E+00
         0.00000E+00
         0.00000E+00
         0.00000E+00
         0.00000E+00
         0.00000E+00
         0.00000E+00
         0.00000E+00
         0.00000E+00
         0.00000E+00
         0.00000E+00
         0.00000E+00
         0.00000E+00
         0.00000E+00
         0.00000E+00
         0.00000E+00
         0.00000E+00
         0.00000E+00
         0.00000E+00
         0.00000E+00
         0.00000E+00
         0.00000E+00
         0.00000E+00
         0.00000E+00
         0.00000E+00
         0.00000E+00
         0.00000E+00
         0.00000E+00
         0.00000E+00
         0.00000E+00
         0.00000E+00
         0.00000E+00
         0.00000E+00
         0.00000E+00
         0.00000E+00
         0.00000E+00
         0.00000E+00
         0.00000E+00
         0.00000E+00
         0.00000E+00
         0.00000E+00
         0.00000E+00
         0.00000E+00
         0.00000E+00
         0.00000E+00
         0.00000E+00
         0.00000E+00
         0.00000E+00
         0.00000E+00
         0.00000E+00
         0.00000E+00
         0.00000E+00
         0.00000E+00
         0.00000E+00
         0.00000E+00
         0.00000E+00
         0.00000E+00
         0.00000E+00
         0.00000E+00
         0.00000E+00
         0.00000E+00
         0.00000E+00
         0.00000E+00
         0.00000E+00
         0.00000E+00
         0.00000E+00
         0.00000E+00
         0.00000E+00
         0.00000E+00
         0.00000E+00
         0.00000E+00
         0.00000E+00
         0.00000E+00
         0.00000E+00
         0.00000E+00
         0.00000E+00
         0.00000E+00
         0.00000E+00
         0.00000E+00
         0.00000E+00
         0.00000E+00
         0.00000E+00
         0.00000E+00
         0.00000E+00
         0.00000E+00
         0.00000E+00
         0.00000E+00
         0.00000E+00
         0.00000E+00
         0.00000E+00
         0.00000E+00
         0.00000E+00
         0.00000E+00
         0.00000E+00
         0.00000E+00
         0.00000E+00
         0.00000E+00
         0.00000E+00
         0.00000E+00
         0.00000E+00
         0.00000E+00
         0.00000E+00
         0.00000E+00
         0.00000E+00
         0.00000E+00
         0.00000E+00
         0.00000E+00
         0.00000E+00
         0.00000E+00
         0.00000E+00
         0.00000E+00
         0.00000E+00
         0.00000E+00
         0.00000E+00
         0.00000E+00
         0.00000E+00
         0.00000E+00
         0.00000E+00
         0.00000E+00
         0.00000E+00
         0.00000E+00
         0.00000E+00
         0.00000E+00
         0.00000E+00
         0.00000E+00
         0.00000E+00
         0.00000E+00
         0.00000E+00
         0.00000E+00
         0.00000E+00
         0.00000E+00
         0.00000E+00
         0.00000E+00
         0.00000E+00
         0.00000E+00
         0.00000E+00
         0.00000E+00
         0.00000E+00
         0.00000E+00
         0.00000E+00
         0.00000E+00
         0.00000E+00
         0.00000E+00
         0.00000E+00
         0.00000E+00
         0.00000E+00
         0.00000E+00
         0.00000E+00
         0.00000E+00
         0.00000E+00
         0.00000E+00
         0.00000E+00
         0.00000E+00
         0.00000E+00
         0.00000E+00
         0.00000E+00
         0.00000E+00
         0.00000E+00
         0.00000E+00
         0.00000E+00
         0.00000E+00
         0.00000E+00
         0.00000E+00
         0.00000E+00
         0.00000E+00
         0.00000E+00
         0.00000E+00
         0.00000E+00
         0.00000E+00
         0.00000E+00
         0.00000E+00
         0.00000E+00
         0.00000E+00
         0.00000E+00
         0.00000E+00
         0.00000E+00
         0.00000E+00
         0.00000E+00
         0.00000E+00
         0.00000E+00
         0.00000E+00
         0.00000E+00
         0.00000E+00
         0.00000E+00
         0.00000E+00
         0.00000E+00
         0.00000E+00
         0.00000E+00
         0.00000E+00
         0.00000E+00
         0.00000E+00
         0.00000E+00
         0.00000E+00
         0.00000E+00
         0.00000E+00
         0.00000E+00
         0.00000E+00
         0.00000E+00
         0.00000E+00
         0.00000E+00
         0.00000E+00
         0.00000E+00
         0.00000E+00
         0.00000E+00
         0.00000E+00
         0.00000E+00
         0.00000E+00
         0.00000E+00
         0.00000E+00
         0.00000E+00
         0.00000E+00
         0.00000E+00
         0.00000E+00
         0.00000E+00
         0.00000E+00
         0.00000E+00
         0.00000E+00
         0.00000E+00
         0.00000E+00
         0.00000E+00
         0.00000E+00
         0.00000E+00
         0.00000E+00
         0.00000E+00
         0.00000E+00
         0.00000E+00
         0.00000E+00
         0.00000E+00
         0.00000E+00
         0.00000E+00
         0.00000E+00
         0.00000E+00
         0.00000E+00
         0.00000E+00
         0.00000E+00
         0.00000E+00
         0.00000E+00
         0.00000E+00
         0.00000E+00
         0.00000E+00
         0.00000E+00
         0.00000E+00
         0.00000E+00
         0.00000E+00
         0.00000E+00
         0.00000E+00
         0.00000E+00
         0.00000E+00
         0.00000E+00
         0.00000E+00
         0.00000E+00
         0.00000E+00
         0.00000E+00
         0.00000E+00
         0.00000E+00
         0.00000E+00
         0.00000E+00
         0.00000E+00
         0.00000E+00
         0.00000E+00
         0.00000E+00
         0.00000E+00
         0.00000E+00
         0.00000E+00
         0.00000E+00
         0.00000E+00
         0.00000E+00
         0.00000E+00
         0.00000E+00
         0.00000E+00
         0.00000E+00
         0.00000E+00
         0.00000E+00
         0.00000E+00
         0.00000E+00
         0.00000E+00
         0.00000E+00
         0.00000E+00
         0.00000E+00
         0.00000E+00
         0.00000E+00
         0.00000E+00
         0.00000E+00
         0.00000E+00
         0.00000E+00
         0.00000E+00
         0.00000E+00
         0.00000E+00
         0.00000E+00
         0.00000E+00
         0.00000E+00
         0.00000E+00
         0.00000E+00
         0.00000E+00
         0.00000E+00
         0.00000E+00
         0.00000E+00
         0.00000E+00
         0.00000E+00
         0.00000E+00
         0.00000E+00
         0.00000E+00
         0.00000E+00
         0.00000E+00
         0.00000E+00
         0.00000E+00
         0.00000E+00
         0.00000E+00
         0.00000E+00
         0.00000E+00
         0.00000E+00
         0.00000E+00
         0.00000E+00
         0.00000E+00
         0.00000E+00
         0.00000E+00
         0.00000E+00
         0.00000E+00
         0.00000E+00
         0.00000E+00
         0.00000E+00
         0.00000E+00
         0.00000E+00
         0.00000E+00
         0.00000E+00
  
SCALARS               pre_disp_force_z  double 1
LOOKUP_TABLE default
         0.00000E+00
         0.00000E+00
         0.00000E+00
         0.00000E+00
         0.38823E+03
         0.92256E+03
         0.16234E+03
        -0.74428E+02
         0.00000E+00
         0.00000E+00
        -0.10911E+03
        -0.25794E+03
         0.00000E+00
         0.00000E+00
         0.80658E+03
         0.28499E+03
         0.00000E+00
         0.00000E+00
        -0.10073E+03
         0.24335E+03
         0.00000E+00
         0.00000E+00
         0.00000E+00
         0.75892E+03
         0.36967E+04
         0.22001E+04
         0.00000E+00
         0.00000E+00
         0.57631E+03
         0.12894E+04
         0.00000E+00
         0.00000E+00
         0.00000E+00
        -0.18184E+03
        -0.22788E+03
        -0.21652E+03
         0.00000E+00
         0.00000E+00
        -0.55450E+02
        -0.12687E+03
         0.00000E+00
         0.00000E+00
        -0.36828E+02
        -0.99016E+02
         0.00000E+00
         0.00000E+00
         0.42146E+02
         0.41865E+02
         0.00000E+00
        -0.10689E+03
         0.00000E+00
         0.33205E+03
         0.00000E+00
         0.10102E+04
         0.00000E+00
         0.24656E+04
         0.00000E+00
         0.00000E+00
         0.20278E+04
        -0.40623E+03
         0.00000E+00
         0.00000E+00
         0.38876E+03
         0.28323E+03
         0.00000E+00
         0.49028E+01
         0.00000E+00
        -0.10112E+03
         0.00000E+00
         0.00000E+00
         0.43458E+02
         0.52669E+03
         0.00000E+00
         0.10583E+04
         0.00000E+00
         0.12402E+05
         0.00000E+00
         0.25188E+05
         0.00000E+00
         0.20278E+05
         0.00000E+00
         0.00000E+00
         0.82677E+04
         0.14644E+04
         0.00000E+00
        -0.35921E+03
         0.00000E+00
         0.38718E+03
         0.00000E+00
        -0.96645E+01
         0.00000E+00
         0.00000E+00
        -0.19962E+03
        -0.68538E+02
         0.00000E+00
         0.28250E+02
         0.00000E+00
        -0.30870E+03
         0.00000E+00
        -0.30427E+03
         0.00000E+00
         0.00000E+00
        -0.21777E+03
        -0.22250E+03
         0.00000E+00
         0.00000E+00
         0.33912E+03
        -0.31158E+02
         0.00000E+00
         0.73331E+03
         0.00000E+00
         0.46619E+03
         0.00000E+00
        -0.14950E+04
         0.00000E+00
        -0.54560E+04
         0.00000E+00
        -0.11165E+05
         0.00000E+00
        -0.31230E+05
         0.00000E+00
        -0.60724E+05
         0.00000E+00
        -0.32922E+05
         0.00000E+00
         0.39927E+04
         0.00000E+00
         0.16853E+04
         0.00000E+00
         0.51155E+03
         0.00000E+00
         0.28581E+03
         0.00000E+00
        -0.19591E+03
         0.00000E+00
        -0.44672E+03
         0.00000E+00
        -0.42460E+03
         0.00000E+00
        -0.50063E+03
         0.00000E+00
        -0.55718E+03
         0.00000E+00
        -0.38908E+03
         0.00000E+00
        -0.28575E+03
         0.00000E+00
        -0.65986E+02
         0.00000E+00
         0.20018E+03
         0.00000E+00
        -0.21023E+03
         0.00000E+00
        -0.42331E+03
         0.00000E+00
        -0.16845E+03
         0.00000E+00
         0.00000E+00
         0.00000E+00
         0.00000E+00
         0.00000E+00
         0.00000E+00
         0.00000E+00
         0.00000E+00
         0.00000E+00
         0.00000E+00
         0.00000E+00
         0.00000E+00
         0.00000E+00
         0.00000E+00
         0.00000E+00
         0.00000E+00
         0.00000E+00
         0.00000E+00
         0.00000E+00
         0.00000E+00
         0.00000E+00
         0.00000E+00
         0.00000E+00
         0.00000E+00
         0.00000E+00
         0.00000E+00
         0.00000E+00
         0.00000E+00
         0.00000E+00
         0.00000E+00
         0.00000E+00
         0.00000E+00
         0.00000E+00
         0.00000E+00
         0.00000E+00
         0.00000E+00
         0.00000E+00
         0.00000E+00
         0.00000E+00
         0.00000E+00
         0.00000E+00
         0.00000E+00
         0.00000E+00
         0.00000E+00
         0.00000E+00
         0.00000E+00
         0.00000E+00
         0.00000E+00
         0.00000E+00
         0.00000E+00
         0.00000E+00
         0.00000E+00
         0.00000E+00
         0.00000E+00
         0.00000E+00
         0.00000E+00
         0.00000E+00
         0.00000E+00
         0.00000E+00
         0.00000E+00
         0.00000E+00
         0.00000E+00
         0.00000E+00
         0.00000E+00
         0.00000E+00
         0.00000E+00
         0.00000E+00
         0.00000E+00
         0.00000E+00
         0.00000E+00
         0.00000E+00
         0.00000E+00
         0.00000E+00
         0.00000E+00
         0.00000E+00
         0.00000E+00
         0.00000E+00
         0.00000E+00
         0.00000E+00
         0.00000E+00
         0.00000E+00
         0.00000E+00
         0.00000E+00
         0.00000E+00
         0.00000E+00
         0.00000E+00
         0.00000E+00
         0.00000E+00
         0.00000E+00
         0.00000E+00
         0.00000E+00
         0.00000E+00
         0.00000E+00
         0.00000E+00
         0.00000E+00
         0.00000E+00
         0.00000E+00
         0.00000E+00
         0.00000E+00
         0.00000E+00
         0.00000E+00
         0.00000E+00
         0.00000E+00
         0.00000E+00
         0.00000E+00
         0.00000E+00
         0.00000E+00
         0.00000E+00
         0.00000E+00
         0.00000E+00
         0.00000E+00
         0.00000E+00
         0.00000E+00
         0.00000E+00
         0.00000E+00
         0.00000E+00
         0.00000E+00
         0.00000E+00
         0.00000E+00
         0.00000E+00
         0.00000E+00
         0.00000E+00
         0.00000E+00
         0.00000E+00
         0.00000E+00
         0.00000E+00
         0.00000E+00
         0.00000E+00
         0.00000E+00
         0.00000E+00
         0.00000E+00
         0.00000E+00
         0.00000E+00
         0.00000E+00
         0.00000E+00
         0.00000E+00
         0.00000E+00
         0.00000E+00
         0.00000E+00
         0.00000E+00
         0.00000E+00
         0.00000E+00
         0.00000E+00
         0.00000E+00
         0.00000E+00
         0.00000E+00
         0.00000E+00
         0.00000E+00
         0.00000E+00
         0.00000E+00
         0.00000E+00
         0.00000E+00
         0.00000E+00
         0.00000E+00
         0.00000E+00
         0.00000E+00
         0.00000E+00
         0.00000E+00
         0.00000E+00
         0.00000E+00
         0.00000E+00
         0.00000E+00
         0.00000E+00
         0.00000E+00
         0.00000E+00
         0.00000E+00
         0.00000E+00
         0.00000E+00
         0.00000E+00
         0.00000E+00
         0.00000E+00
         0.00000E+00
         0.00000E+00
         0.00000E+00
         0.00000E+00
         0.00000E+00
         0.00000E+00
         0.00000E+00
         0.00000E+00
         0.00000E+00
         0.00000E+00
         0.00000E+00
         0.00000E+00
         0.00000E+00
         0.00000E+00
         0.00000E+00
         0.00000E+00
         0.00000E+00
         0.00000E+00
         0.00000E+00
         0.00000E+00
         0.00000E+00
         0.00000E+00
         0.00000E+00
         0.00000E+00
         0.00000E+00
         0.00000E+00
         0.00000E+00
         0.00000E+00
         0.00000E+00
         0.00000E+00
         0.00000E+00
         0.00000E+00
         0.00000E+00
         0.00000E+00
         0.00000E+00
         0.00000E+00
         0.00000E+00
         0.00000E+00
         0.00000E+00
         0.00000E+00
         0.00000E+00
         0.00000E+00
         0.00000E+00
         0.00000E+00
         0.00000E+00
         0.00000E+00
         0.00000E+00
         0.00000E+00
         0.00000E+00
         0.00000E+00
         0.00000E+00
         0.00000E+00
         0.00000E+00
         0.00000E+00
         0.00000E+00
         0.00000E+00
         0.00000E+00
         0.00000E+00
         0.00000E+00
         0.00000E+00
         0.00000E+00
         0.00000E+00
         0.00000E+00
         0.00000E+00
         0.00000E+00
         0.00000E+00
         0.00000E+00
         0.00000E+00
         0.00000E+00
         0.00000E+00
         0.00000E+00
         0.00000E+00
         0.00000E+00
         0.00000E+00
         0.00000E+00
         0.00000E+00
         0.00000E+00
         0.00000E+00
         0.00000E+00
         0.00000E+00
         0.00000E+00
         0.00000E+00
         0.00000E+00
         0.00000E+00
         0.00000E+00
         0.00000E+00
         0.00000E+00
         0.00000E+00
         0.00000E+00
         0.00000E+00
         0.00000E+00
         0.00000E+00
         0.00000E+00
         0.00000E+00
         0.00000E+00
         0.00000E+00
         0.00000E+00
         0.00000E+00
         0.00000E+00
         0.00000E+00
         0.00000E+00
         0.00000E+00
         0.00000E+00
         0.00000E+00
         0.00000E+00
         0.00000E+00
         0.00000E+00
         0.00000E+00
         0.00000E+00
         0.00000E+00
         0.00000E+00
         0.00000E+00
         0.00000E+00
         0.00000E+00
         0.00000E+00
         0.00000E+00
         0.00000E+00
         0.00000E+00
         0.00000E+00
         0.00000E+00
         0.00000E+00
         0.00000E+00
         0.00000E+00
         0.00000E+00
         0.00000E+00
         0.00000E+00
         0.00000E+00
         0.00000E+00
         0.00000E+00
         0.00000E+00
         0.00000E+00
         0.00000E+00
         0.00000E+00
         0.00000E+00
         0.00000E+00
         0.00000E+00
         0.00000E+00
         0.00000E+00
         0.00000E+00
         0.00000E+00
         0.00000E+00
         0.00000E+00
         0.00000E+00
         0.00000E+00
         0.00000E+00
         0.00000E+00
         0.00000E+00
         0.00000E+00
         0.00000E+00
         0.00000E+00
         0.00000E+00
         0.00000E+00
         0.00000E+00
         0.00000E+00
         0.00000E+00
         0.00000E+00
         0.00000E+00
         0.00000E+00
         0.00000E+00
         0.00000E+00
         0.00000E+00
         0.00000E+00
         0.00000E+00
         0.00000E+00
         0.00000E+00
         0.00000E+00
         0.00000E+00
         0.00000E+00
         0.00000E+00
         0.00000E+00
         0.00000E+00
         0.00000E+00
         0.00000E+00
         0.00000E+00
         0.00000E+00
         0.00000E+00
         0.00000E+00
         0.00000E+00
         0.00000E+00
         0.00000E+00
         0.00000E+00
         0.00000E+00
         0.00000E+00
         0.00000E+00
         0.00000E+00
         0.00000E+00
         0.00000E+00
         0.00000E+00
         0.00000E+00
         0.00000E+00
         0.00000E+00
         0.00000E+00
         0.00000E+00
         0.00000E+00
         0.00000E+00
         0.00000E+00
         0.00000E+00
         0.00000E+00
         0.00000E+00
         0.00000E+00
         0.00000E+00
         0.00000E+00
         0.00000E+00
         0.00000E+00
         0.00000E+00
         0.00000E+00
         0.00000E+00
         0.00000E+00
         0.00000E+00
         0.00000E+00
         0.00000E+00
         0.00000E+00
         0.00000E+00
         0.00000E+00
         0.00000E+00
         0.00000E+00
         0.00000E+00
         0.00000E+00
         0.00000E+00
         0.00000E+00
         0.00000E+00
         0.00000E+00
         0.00000E+00
         0.00000E+00
         0.00000E+00
         0.00000E+00
         0.00000E+00
         0.00000E+00
         0.00000E+00
         0.00000E+00
         0.00000E+00
         0.00000E+00
         0.00000E+00
         0.00000E+00
         0.00000E+00
         0.00000E+00
         0.00000E+00
         0.00000E+00
         0.00000E+00
         0.00000E+00
         0.00000E+00
         0.00000E+00
         0.00000E+00
         0.00000E+00
         0.00000E+00
         0.00000E+00
         0.00000E+00
         0.00000E+00
         0.00000E+00
         0.00000E+00
         0.00000E+00
         0.00000E+00
         0.00000E+00
         0.00000E+00
         0.00000E+00
         0.00000E+00
         0.00000E+00
         0.00000E+00
         0.00000E+00
         0.00000E+00
         0.00000E+00
         0.00000E+00
         0.00000E+00
         0.00000E+00
         0.00000E+00
         0.00000E+00
         0.00000E+00
         0.00000E+00
         0.00000E+00
         0.00000E+00
         0.00000E+00
         0.00000E+00
         0.00000E+00
         0.00000E+00
         0.00000E+00
         0.00000E+00
         0.00000E+00
         0.00000E+00
         0.00000E+00
         0.00000E+00
         0.00000E+00
         0.00000E+00
         0.00000E+00
         0.00000E+00
         0.00000E+00
         0.00000E+00
         0.00000E+00
         0.00000E+00
         0.00000E+00
         0.00000E+00
         0.00000E+00
         0.00000E+00
         0.00000E+00
         0.00000E+00
         0.00000E+00
         0.00000E+00
         0.00000E+00
         0.00000E+00
         0.00000E+00
         0.00000E+00
         0.00000E+00
         0.00000E+00
         0.00000E+00
         0.00000E+00
         0.00000E+00
         0.00000E+00
         0.00000E+00
         0.00000E+00
         0.00000E+00
         0.00000E+00
         0.00000E+00
         0.00000E+00
         0.00000E+00
         0.00000E+00
         0.00000E+00
         0.00000E+00
         0.00000E+00
         0.00000E+00
         0.00000E+00
         0.00000E+00
         0.00000E+00
         0.00000E+00
         0.00000E+00
         0.00000E+00
         0.00000E+00
         0.00000E+00
         0.00000E+00
         0.00000E+00
         0.00000E+00
         0.00000E+00
         0.00000E+00
         0.00000E+00
         0.00000E+00
         0.00000E+00
         0.00000E+00
         0.00000E+00
         0.00000E+00
         0.00000E+00
         0.00000E+00
         0.00000E+00
         0.00000E+00
         0.00000E+00
         0.00000E+00
         0.00000E+00
         0.00000E+00
         0.00000E+00
         0.00000E+00
         0.00000E+00
         0.00000E+00
         0.00000E+00
         0.00000E+00
         0.00000E+00
         0.00000E+00
         0.00000E+00
         0.00000E+00
         0.00000E+00
         0.00000E+00
         0.00000E+00
         0.00000E+00
         0.00000E+00
         0.00000E+00
         0.00000E+00
         0.00000E+00
         0.00000E+00
         0.00000E+00
         0.00000E+00
         0.00000E+00
         0.00000E+00
         0.00000E+00
         0.00000E+00
         0.00000E+00
         0.00000E+00
         0.00000E+00
         0.00000E+00
         0.00000E+00
         0.00000E+00
         0.00000E+00
         0.00000E+00
         0.00000E+00
         0.00000E+00
         0.00000E+00
         0.00000E+00
         0.00000E+00
         0.00000E+00
         0.00000E+00
         0.00000E+00
         0.00000E+00
         0.00000E+00
         0.00000E+00
         0.00000E+00
         0.00000E+00
         0.00000E+00
         0.00000E+00
         0.00000E+00
         0.00000E+00
         0.00000E+00
         0.00000E+00
         0.00000E+00
         0.00000E+00
         0.00000E+00
         0.00000E+00
         0.00000E+00
         0.00000E+00
         0.00000E+00
         0.00000E+00
         0.00000E+00
         0.00000E+00
         0.00000E+00
         0.00000E+00
         0.00000E+00
         0.00000E+00
         0.00000E+00
         0.00000E+00
         0.00000E+00
         0.00000E+00
         0.00000E+00
         0.00000E+00
         0.00000E+00
         0.00000E+00
         0.00000E+00
         0.00000E+00
         0.00000E+00
         0.00000E+00
         0.00000E+00
         0.00000E+00
         0.00000E+00
         0.00000E+00
         0.00000E+00
         0.00000E+00
         0.00000E+00
         0.00000E+00
         0.00000E+00
         0.00000E+00
         0.00000E+00
         0.00000E+00
         0.00000E+00
         0.00000E+00
         0.00000E+00
         0.00000E+00
         0.00000E+00
         0.00000E+00
         0.00000E+00
         0.00000E+00
         0.00000E+00
         0.00000E+00
         0.00000E+00
         0.00000E+00
         0.00000E+00
         0.00000E+00
         0.00000E+00
         0.00000E+00
         0.00000E+00
         0.00000E+00
         0.00000E+00
         0.00000E+00
         0.00000E+00
         0.00000E+00
         0.00000E+00
         0.00000E+00
         0.00000E+00
         0.00000E+00
         0.00000E+00
         0.00000E+00
         0.00000E+00
         0.00000E+00
         0.00000E+00
         0.00000E+00
         0.00000E+00
         0.00000E+00
         0.00000E+00
         0.00000E+00
         0.00000E+00
         0.00000E+00
         0.00000E+00
         0.00000E+00
         0.00000E+00
         0.00000E+00
         0.00000E+00
         0.00000E+00
         0.00000E+00
         0.00000E+00
         0.00000E+00
         0.00000E+00
         0.00000E+00
         0.00000E+00
         0.00000E+00
         0.00000E+00
         0.00000E+00
         0.00000E+00
         0.00000E+00
         0.00000E+00
         0.00000E+00
         0.00000E+00
         0.00000E+00
         0.00000E+00
         0.00000E+00
         0.00000E+00
         0.00000E+00
         0.00000E+00
         0.00000E+00
         0.00000E+00
         0.00000E+00
         0.00000E+00
         0.00000E+00
         0.00000E+00
         0.00000E+00
         0.00000E+00
         0.00000E+00
         0.00000E+00
         0.00000E+00
         0.00000E+00
         0.00000E+00
         0.00000E+00
         0.00000E+00
         0.00000E+00
         0.00000E+00
         0.00000E+00
         0.00000E+00
         0.00000E+00
         0.00000E+00
         0.00000E+00
         0.00000E+00
         0.00000E+00
         0.00000E+00
         0.00000E+00
         0.00000E+00
         0.00000E+00
         0.00000E+00
         0.00000E+00
         0.00000E+00
         0.00000E+00
         0.00000E+00
         0.00000E+00
         0.00000E+00
         0.00000E+00
         0.00000E+00
         0.00000E+00
         0.00000E+00
         0.00000E+00
         0.00000E+00
         0.00000E+00
         0.00000E+00
         0.00000E+00
         0.00000E+00
         0.00000E+00
         0.00000E+00
         0.00000E+00
         0.00000E+00
         0.00000E+00
         0.00000E+00
         0.00000E+00
         0.00000E+00
         0.00000E+00
         0.00000E+00
         0.00000E+00
         0.00000E+00
         0.00000E+00
         0.00000E+00
         0.00000E+00
         0.00000E+00
         0.00000E+00
         0.00000E+00
         0.00000E+00
         0.00000E+00
         0.00000E+00
         0.00000E+00
         0.00000E+00
         0.00000E+00
         0.00000E+00
         0.00000E+00
         0.00000E+00
         0.00000E+00
         0.00000E+00
         0.00000E+00
         0.00000E+00
         0.00000E+00
         0.00000E+00
         0.00000E+00
         0.00000E+00
         0.00000E+00
         0.00000E+00
         0.00000E+00
         0.00000E+00
         0.00000E+00
         0.00000E+00
         0.00000E+00
         0.00000E+00
         0.00000E+00
         0.00000E+00
         0.00000E+00
         0.00000E+00
         0.00000E+00
         0.00000E+00
         0.00000E+00
         0.00000E+00
         0.00000E+00
         0.00000E+00
         0.00000E+00
         0.00000E+00
         0.00000E+00
         0.00000E+00
         0.00000E+00
         0.00000E+00
         0.00000E+00
         0.00000E+00
         0.00000E+00
         0.00000E+00
         0.00000E+00
         0.00000E+00
         0.00000E+00
         0.00000E+00
         0.00000E+00
         0.00000E+00
         0.00000E+00
         0.00000E+00
         0.00000E+00
         0.00000E+00
         0.00000E+00
         0.00000E+00
         0.00000E+00
         0.00000E+00
         0.00000E+00
         0.00000E+00
         0.00000E+00
         0.00000E+00
         0.00000E+00
         0.00000E+00
         0.00000E+00
         0.00000E+00
         0.00000E+00
         0.00000E+00
         0.00000E+00
         0.00000E+00
         0.00000E+00
         0.00000E+00
         0.00000E+00
         0.00000E+00
         0.00000E+00
         0.00000E+00
         0.00000E+00
         0.00000E+00
         0.00000E+00
         0.00000E+00
         0.00000E+00
         0.00000E+00
         0.00000E+00
         0.00000E+00
         0.00000E+00
         0.00000E+00
         0.00000E+00
         0.00000E+00
         0.00000E+00
         0.00000E+00
         0.00000E+00
         0.00000E+00
         0.00000E+00
         0.00000E+00
         0.00000E+00
         0.00000E+00
         0.00000E+00
         0.00000E+00
         0.00000E+00
         0.00000E+00
         0.00000E+00
         0.00000E+00
         0.00000E+00
         0.00000E+00
         0.00000E+00
         0.00000E+00
         0.00000E+00
         0.00000E+00
         0.00000E+00
         0.00000E+00
         0.00000E+00
         0.00000E+00
         0.00000E+00
         0.00000E+00
         0.00000E+00
         0.00000E+00
         0.00000E+00
         0.00000E+00
         0.00000E+00
         0.00000E+00
         0.00000E+00
         0.00000E+00
         0.00000E+00
         0.00000E+00
         0.00000E+00
         0.00000E+00
         0.00000E+00
         0.00000E+00
         0.00000E+00
         0.00000E+00
         0.00000E+00
         0.00000E+00
         0.00000E+00
         0.00000E+00
         0.00000E+00
         0.00000E+00
         0.00000E+00
         0.00000E+00
         0.00000E+00
         0.00000E+00
         0.00000E+00
         0.00000E+00
         0.00000E+00
         0.00000E+00
         0.00000E+00
         0.00000E+00
         0.00000E+00
         0.00000E+00
         0.00000E+00
         0.00000E+00
         0.00000E+00
         0.00000E+00
         0.00000E+00
         0.00000E+00
         0.00000E+00
         0.00000E+00
         0.00000E+00
         0.00000E+00
         0.00000E+00
         0.00000E+00
         0.00000E+00
         0.00000E+00
         0.00000E+00
         0.00000E+00
         0.00000E+00
         0.00000E+00
         0.00000E+00
         0.00000E+00
         0.00000E+00
         0.00000E+00
         0.00000E+00
         0.00000E+00
         0.00000E+00
         0.00000E+00
         0.00000E+00
         0.00000E+00
         0.00000E+00
         0.00000E+00
         0.00000E+00
         0.00000E+00
         0.00000E+00
         0.00000E+00
         0.00000E+00
         0.00000E+00
         0.00000E+00
         0.00000E+00
         0.00000E+00
         0.00000E+00
         0.00000E+00
         0.00000E+00
         0.00000E+00
         0.00000E+00
         0.00000E+00
         0.00000E+00
         0.00000E+00
         0.00000E+00
         0.00000E+00
         0.00000E+00
         0.00000E+00
         0.00000E+00
         0.00000E+00
         0.00000E+00
         0.00000E+00
         0.00000E+00
         0.00000E+00
         0.00000E+00
         0.00000E+00
         0.00000E+00
         0.00000E+00
         0.00000E+00
         0.00000E+00
         0.00000E+00
         0.00000E+00
         0.00000E+00
         0.00000E+00
         0.00000E+00
         0.00000E+00
         0.00000E+00
         0.00000E+00
         0.00000E+00
         0.00000E+00
         0.00000E+00
         0.00000E+00
         0.00000E+00
         0.00000E+00
         0.00000E+00
         0.00000E+00
         0.00000E+00
         0.00000E+00
         0.00000E+00
         0.00000E+00
         0.00000E+00
         0.00000E+00
         0.00000E+00
         0.00000E+00
         0.00000E+00
         0.00000E+00
         0.00000E+00
         0.00000E+00
         0.00000E+00
         0.00000E+00
         0.00000E+00
         0.00000E+00
         0.00000E+00
         0.00000E+00
         0.00000E+00
         0.00000E+00
         0.00000E+00
         0.00000E+00
         0.00000E+00
         0.00000E+00
         0.00000E+00
         0.00000E+00
         0.00000E+00
         0.00000E+00
         0.00000E+00
         0.00000E+00
         0.00000E+00
         0.00000E+00
         0.00000E+00
         0.00000E+00
         0.00000E+00
         0.00000E+00
         0.00000E+00
         0.00000E+00
         0.00000E+00
         0.00000E+00
         0.00000E+00
         0.00000E+00
         0.00000E+00
         0.00000E+00
         0.00000E+00
         0.00000E+00
         0.00000E+00
         0.00000E+00
         0.00000E+00
         0.00000E+00
         0.00000E+00
         0.00000E+00
         0.00000E+00
         0.00000E+00
         0.00000E+00
         0.00000E+00
         0.00000E+00
         0.00000E+00
         0.00000E+00
         0.00000E+00
         0.00000E+00
         0.00000E+00
         0.00000E+00
         0.00000E+00
         0.00000E+00
         0.00000E+00
         0.00000E+00
         0.00000E+00
         0.00000E+00
         0.00000E+00
         0.00000E+00
         0.00000E+00
         0.00000E+00
         0.00000E+00
         0.00000E+00
         0.00000E+00
         0.00000E+00
         0.00000E+00
         0.00000E+00
         0.00000E+00
         0.00000E+00
         0.00000E+00
         0.00000E+00
         0.00000E+00
         0.00000E+00
         0.00000E+00
         0.00000E+00
         0.00000E+00
         0.00000E+00
         0.00000E+00
         0.00000E+00
         0.00000E+00
         0.00000E+00
         0.00000E+00
         0.00000E+00
         0.00000E+00
         0.00000E+00
         0.00000E+00
         0.00000E+00
         0.00000E+00
         0.00000E+00
         0.00000E+00
         0.00000E+00
         0.00000E+00
         0.00000E+00
         0.00000E+00
         0.00000E+00
         0.00000E+00
         0.00000E+00
         0.00000E+00
         0.00000E+00
         0.00000E+00
         0.00000E+00
         0.00000E+00
         0.00000E+00
         0.00000E+00
         0.00000E+00
         0.00000E+00
         0.00000E+00
         0.00000E+00
         0.00000E+00
         0.00000E+00
         0.00000E+00
         0.00000E+00
         0.00000E+00
         0.00000E+00
         0.00000E+00
         0.00000E+00
         0.00000E+00
         0.00000E+00
         0.00000E+00
         0.00000E+00
         0.00000E+00
         0.00000E+00
         0.00000E+00
         0.00000E+00
         0.00000E+00
         0.00000E+00
         0.00000E+00
         0.00000E+00
         0.00000E+00
         0.00000E+00
         0.00000E+00
         0.00000E+00
         0.00000E+00
         0.00000E+00
         0.00000E+00
         0.00000E+00
         0.00000E+00
         0.00000E+00
         0.00000E+00
         0.00000E+00
         0.00000E+00
         0.00000E+00
         0.00000E+00
         0.00000E+00
         0.00000E+00
         0.00000E+00
         0.00000E+00
         0.00000E+00
         0.00000E+00
         0.00000E+00
         0.00000E+00
         0.00000E+00
         0.00000E+00
         0.00000E+00
         0.00000E+00
         0.00000E+00
         0.00000E+00
         0.00000E+00
         0.00000E+00
         0.00000E+00
         0.00000E+00
         0.00000E+00
         0.00000E+00
         0.00000E+00
         0.00000E+00
         0.00000E+00
         0.00000E+00
         0.00000E+00
         0.00000E+00
         0.00000E+00
         0.00000E+00
         0.00000E+00
         0.00000E+00
         0.00000E+00
         0.00000E+00
         0.00000E+00
         0.00000E+00
         0.00000E+00
         0.00000E+00
         0.00000E+00
         0.00000E+00
         0.00000E+00
         0.00000E+00
         0.00000E+00
         0.00000E+00
         0.00000E+00
         0.00000E+00
         0.00000E+00
         0.00000E+00
         0.00000E+00
         0.00000E+00
         0.00000E+00
         0.00000E+00
         0.00000E+00
         0.00000E+00
         0.00000E+00
         0.00000E+00
         0.00000E+00
         0.00000E+00
         0.00000E+00
         0.00000E+00
         0.00000E+00
         0.00000E+00
         0.00000E+00
         0.00000E+00
         0.00000E+00
         0.00000E+00
         0.00000E+00
         0.00000E+00
         0.00000E+00
         0.00000E+00
         0.00000E+00
         0.00000E+00
         0.00000E+00
         0.00000E+00
         0.00000E+00
         0.00000E+00
         0.00000E+00
         0.00000E+00
         0.00000E+00
         0.00000E+00
         0.00000E+00
         0.00000E+00
         0.00000E+00
         0.00000E+00
         0.00000E+00
         0.00000E+00
         0.00000E+00
         0.00000E+00
         0.00000E+00
         0.00000E+00
         0.00000E+00
         0.00000E+00
         0.00000E+00
         0.00000E+00
         0.00000E+00
         0.00000E+00
         0.00000E+00
         0.00000E+00
         0.00000E+00
         0.00000E+00
         0.00000E+00
         0.00000E+00
         0.00000E+00
         0.00000E+00
         0.00000E+00
         0.00000E+00
         0.00000E+00
         0.00000E+00
         0.00000E+00
         0.00000E+00
         0.00000E+00
         0.00000E+00
         0.00000E+00
         0.00000E+00
         0.00000E+00
         0.00000E+00
         0.00000E+00
         0.00000E+00
         0.00000E+00
         0.00000E+00
         0.00000E+00
         0.00000E+00
         0.00000E+00
         0.00000E+00
         0.00000E+00
         0.00000E+00
         0.00000E+00
         0.00000E+00
         0.00000E+00
         0.00000E+00
         0.00000E+00
         0.00000E+00
         0.00000E+00
         0.00000E+00
         0.00000E+00
         0.00000E+00
         0.00000E+00
         0.00000E+00
         0.00000E+00
         0.00000E+00
         0.00000E+00
         0.00000E+00
         0.00000E+00
         0.00000E+00
         0.00000E+00
         0.00000E+00
         0.00000E+00
         0.00000E+00
         0.00000E+00
         0.00000E+00
         0.00000E+00
         0.00000E+00
         0.00000E+00
         0.00000E+00
         0.00000E+00
         0.00000E+00
         0.00000E+00
         0.00000E+00
         0.00000E+00
         0.00000E+00
         0.00000E+00
         0.00000E+00
         0.00000E+00
         0.00000E+00
         0.00000E+00
         0.00000E+00
         0.00000E+00
         0.00000E+00
         0.00000E+00
         0.00000E+00
         0.00000E+00
         0.00000E+00
         0.00000E+00
         0.00000E+00
         0.00000E+00
         0.00000E+00
         0.00000E+00
         0.00000E+00
         0.00000E+00
         0.00000E+00
         0.00000E+00
         0.00000E+00
         0.00000E+00
         0.00000E+00
         0.00000E+00
         0.00000E+00
         0.00000E+00
         0.00000E+00
         0.00000E+00
         0.00000E+00
         0.00000E+00
         0.00000E+00
         0.00000E+00
         0.00000E+00
         0.00000E+00
         0.00000E+00
         0.00000E+00
         0.00000E+00
         0.00000E+00
         0.00000E+00
         0.00000E+00
         0.00000E+00
         0.00000E+00
         0.00000E+00
         0.00000E+00
         0.00000E+00
         0.00000E+00
         0.00000E+00
         0.00000E+00
         0.00000E+00
         0.00000E+00
         0.00000E+00
         0.00000E+00
         0.00000E+00
         0.00000E+00
         0.00000E+00
         0.00000E+00
         0.00000E+00
         0.00000E+00
         0.00000E+00
         0.00000E+00
         0.00000E+00
         0.00000E+00
         0.00000E+00
         0.00000E+00
         0.00000E+00
         0.00000E+00
         0.00000E+00
         0.00000E+00
         0.00000E+00
         0.00000E+00
         0.00000E+00
         0.00000E+00
         0.00000E+00
         0.00000E+00
         0.00000E+00
         0.00000E+00
         0.00000E+00
         0.00000E+00
         0.00000E+00
         0.00000E+00
         0.00000E+00
         0.00000E+00
         0.00000E+00
         0.00000E+00
         0.00000E+00
         0.00000E+00
         0.00000E+00
         0.00000E+00
         0.00000E+00
         0.00000E+00
         0.00000E+00
         0.00000E+00
         0.00000E+00
         0.00000E+00
         0.00000E+00
         0.00000E+00
         0.00000E+00
         0.00000E+00
         0.00000E+00
         0.00000E+00
         0.00000E+00
         0.00000E+00
         0.00000E+00
         0.00000E+00
         0.00000E+00
         0.00000E+00
         0.00000E+00
         0.00000E+00
         0.00000E+00
         0.00000E+00
         0.00000E+00
         0.00000E+00
         0.00000E+00
         0.00000E+00
         0.00000E+00
         0.00000E+00
         0.00000E+00
         0.00000E+00
         0.00000E+00
         0.00000E+00
         0.00000E+00
         0.00000E+00
         0.00000E+00
         0.00000E+00
         0.00000E+00
         0.00000E+00
         0.00000E+00
         0.00000E+00
         0.00000E+00
         0.00000E+00
         0.00000E+00
         0.00000E+00
         0.00000E+00
         0.00000E+00
         0.00000E+00
         0.00000E+00
         0.00000E+00
         0.00000E+00
         0.00000E+00
         0.00000E+00
         0.00000E+00
         0.00000E+00
         0.00000E+00
         0.00000E+00
         0.00000E+00
         0.00000E+00
         0.00000E+00
         0.00000E+00
         0.00000E+00
         0.00000E+00
         0.00000E+00
         0.00000E+00
         0.00000E+00
         0.00000E+00
         0.00000E+00
         0.00000E+00
         0.00000E+00
         0.00000E+00
         0.00000E+00
         0.00000E+00
         0.00000E+00
         0.00000E+00
         0.00000E+00
         0.00000E+00
         0.00000E+00
         0.00000E+00
         0.00000E+00
         0.00000E+00
         0.00000E+00
         0.00000E+00
         0.00000E+00
         0.00000E+00
         0.00000E+00
         0.00000E+00
         0.00000E+00
         0.00000E+00
         0.00000E+00
         0.00000E+00
         0.00000E+00
         0.00000E+00
         0.00000E+00
         0.00000E+00
         0.00000E+00
         0.00000E+00
         0.00000E+00
         0.00000E+00
         0.00000E+00
         0.00000E+00
         0.00000E+00
         0.00000E+00
         0.00000E+00
         0.00000E+00
         0.00000E+00
         0.00000E+00
         0.00000E+00
         0.00000E+00
         0.00000E+00
         0.00000E+00
         0.00000E+00
         0.00000E+00
         0.00000E+00
         0.00000E+00
         0.00000E+00
         0.00000E+00
         0.00000E+00
         0.00000E+00
         0.00000E+00
         0.00000E+00
         0.00000E+00
         0.00000E+00
         0.00000E+00
         0.00000E+00
         0.00000E+00
         0.00000E+00
         0.00000E+00
         0.00000E+00
         0.00000E+00
         0.00000E+00
         0.00000E+00
         0.00000E+00
         0.00000E+00
         0.00000E+00
         0.00000E+00
         0.00000E+00
         0.00000E+00
         0.00000E+00
         0.00000E+00
         0.00000E+00
         0.00000E+00
         0.00000E+00
         0.00000E+00
         0.00000E+00
         0.00000E+00
         0.00000E+00
         0.00000E+00
         0.00000E+00
         0.00000E+00
         0.00000E+00
         0.00000E+00
         0.00000E+00
         0.00000E+00
         0.00000E+00
         0.00000E+00
         0.00000E+00
         0.00000E+00
         0.00000E+00
         0.00000E+00
         0.00000E+00
         0.00000E+00
         0.00000E+00
         0.00000E+00
         0.00000E+00
         0.00000E+00
         0.00000E+00
         0.00000E+00
         0.00000E+00
         0.00000E+00
         0.00000E+00
         0.00000E+00
         0.00000E+00
         0.00000E+00
         0.00000E+00
         0.00000E+00
         0.00000E+00
         0.00000E+00
         0.00000E+00
         0.00000E+00
         0.00000E+00
         0.00000E+00
         0.00000E+00
         0.00000E+00
         0.00000E+00
         0.00000E+00
         0.00000E+00
         0.00000E+00
         0.00000E+00
         0.00000E+00
         0.00000E+00
         0.00000E+00
         0.00000E+00
         0.00000E+00
         0.00000E+00
         0.00000E+00
         0.00000E+00
         0.00000E+00
         0.00000E+00
         0.00000E+00
         0.00000E+00
         0.00000E+00
         0.00000E+00
         0.00000E+00
         0.00000E+00
         0.00000E+00
         0.00000E+00
         0.00000E+00
         0.00000E+00
         0.00000E+00
         0.00000E+00
         0.00000E+00
         0.00000E+00
         0.00000E+00
         0.00000E+00
         0.00000E+00
         0.00000E+00
         0.00000E+00
         0.00000E+00
         0.00000E+00
         0.00000E+00
         0.00000E+00
         0.00000E+00
         0.00000E+00
         0.00000E+00
         0.00000E+00
         0.00000E+00
         0.00000E+00
         0.00000E+00
         0.00000E+00
         0.00000E+00
         0.00000E+00
         0.00000E+00
         0.00000E+00
         0.00000E+00
         0.00000E+00
         0.00000E+00
         0.00000E+00
         0.00000E+00
         0.00000E+00
         0.00000E+00
         0.00000E+00
         0.00000E+00
         0.00000E+00
         0.00000E+00
         0.00000E+00
         0.00000E+00
         0.00000E+00
         0.00000E+00
         0.00000E+00
         0.00000E+00
         0.00000E+00
         0.00000E+00
         0.00000E+00
         0.00000E+00
         0.00000E+00
         0.00000E+00
         0.00000E+00
         0.00000E+00
         0.00000E+00
         0.00000E+00
         0.00000E+00
         0.00000E+00
         0.00000E+00
         0.00000E+00
         0.00000E+00
         0.00000E+00
         0.00000E+00
         0.00000E+00
         0.00000E+00
         0.00000E+00
         0.00000E+00
         0.00000E+00
         0.00000E+00
         0.00000E+00
         0.00000E+00
         0.00000E+00
         0.00000E+00
         0.00000E+00
         0.00000E+00
         0.00000E+00
         0.00000E+00
         0.00000E+00
         0.00000E+00
         0.00000E+00
         0.00000E+00
         0.00000E+00
         0.00000E+00
         0.00000E+00
         0.00000E+00
         0.00000E+00
         0.00000E+00
         0.00000E+00
         0.00000E+00
         0.00000E+00
         0.00000E+00
         0.00000E+00
         0.00000E+00
         0.00000E+00
         0.00000E+00
         0.00000E+00
         0.00000E+00
         0.00000E+00
         0.00000E+00
         0.00000E+00
         0.00000E+00
         0.00000E+00
         0.00000E+00
         0.00000E+00
         0.00000E+00
         0.00000E+00
         0.00000E+00
         0.00000E+00
         0.00000E+00
         0.00000E+00
         0.00000E+00
         0.00000E+00
         0.00000E+00
         0.00000E+00
         0.00000E+00
         0.00000E+00
         0.00000E+00
         0.00000E+00
         0.00000E+00
         0.00000E+00
         0.00000E+00
         0.00000E+00
         0.00000E+00
         0.00000E+00
         0.00000E+00
         0.00000E+00
         0.00000E+00
         0.00000E+00
         0.00000E+00
         0.00000E+00
         0.00000E+00
         0.00000E+00
         0.00000E+00
         0.00000E+00
         0.00000E+00
         0.00000E+00
         0.00000E+00
         0.00000E+00
         0.00000E+00
         0.00000E+00
         0.00000E+00
         0.00000E+00
         0.00000E+00
         0.00000E+00
         0.00000E+00
         0.00000E+00
         0.00000E+00
         0.00000E+00
         0.00000E+00
         0.00000E+00
         0.00000E+00
         0.00000E+00
         0.00000E+00
         0.00000E+00
         0.00000E+00
         0.00000E+00
         0.00000E+00
         0.00000E+00
         0.00000E+00
         0.00000E+00
         0.00000E+00
         0.00000E+00
         0.00000E+00
         0.00000E+00
         0.00000E+00
         0.00000E+00
         0.00000E+00
         0.00000E+00
         0.00000E+00
         0.00000E+00
         0.00000E+00
         0.00000E+00
         0.00000E+00
         0.00000E+00
         0.00000E+00
         0.00000E+00
         0.00000E+00
         0.00000E+00
         0.00000E+00
         0.00000E+00
         0.00000E+00
         0.00000E+00
         0.00000E+00
         0.00000E+00
         0.00000E+00
         0.00000E+00
         0.00000E+00
         0.00000E+00
         0.00000E+00
         0.00000E+00
         0.00000E+00
         0.00000E+00
         0.00000E+00
         0.00000E+00
         0.00000E+00
         0.00000E+00
         0.00000E+00
         0.00000E+00
         0.00000E+00
         0.00000E+00
         0.00000E+00
         0.00000E+00
         0.00000E+00
         0.00000E+00
         0.00000E+00
         0.00000E+00
         0.00000E+00
         0.00000E+00
         0.00000E+00
         0.00000E+00
         0.00000E+00
         0.00000E+00
         0.00000E+00
         0.00000E+00
         0.00000E+00
         0.00000E+00
         0.00000E+00
         0.00000E+00
         0.00000E+00
         0.00000E+00
         0.00000E+00
         0.00000E+00
         0.00000E+00
         0.00000E+00
         0.00000E+00
         0.00000E+00
         0.00000E+00
  
SCALARS                      stress_xx  double 1
LOOKUP_TABLE default
        -0.15185E+11
        -0.11470E+11
        -0.13732E+11
        -0.17010E+11
        -0.30034E+02
        -0.11726E+02
        -0.32631E+01
        -0.31011E+02
        -0.16913E+11
        -0.18164E+11
         0.11151E+02
        -0.33532E+02
        -0.99179E+10
        -0.14542E+11
        -0.11182E+02
        -0.47809E+01
        -0.15899E+11
        -0.15299E+11
        -0.22002E+02
        -0.81282E+01
        -0.92334E+10
         0.27471E+09
         0.99060E+08
        -0.12766E+02
         0.14832E+02
         0.12347E+02
        -0.12724E+11
        -0.42886E+10
        -0.27788E+02
         0.54747E+01
        -0.15434E+11
        -0.15082E+11
        -0.15975E+11
        -0.13158E+02
        -0.97595E+01
        -0.20715E+02
        -0.13441E+11
        -0.14218E+11
        -0.95573E+01
        -0.75381E+01
        -0.11271E+11
        -0.14249E+11
        -0.21737E+01
        -0.67092E+01
        -0.10522E+11
        -0.12678E+11
        -0.73808E+01
        -0.10315E+02
        -0.14104E+11
        -0.53728E+01
        -0.14462E+11
        -0.16180E+02
        -0.12286E+11
        -0.19853E+02
        -0.11341E+11
        -0.55751E+00
        -0.10835E+11
        -0.14359E+11
         0.61780E+01
         0.96820E+01
        -0.15883E+11
        -0.16104E+11
        -0.37123E+01
        -0.22672E+02
        -0.17162E+11
        -0.13821E+02
        -0.19048E+11
        -0.31382E+02
        -0.13155E+11
        -0.97930E+10
         0.23485E+02
        -0.28619E+01
        -0.50639E+10
         0.25876E+02
        -0.23311E+10
        -0.16214E+02
         0.13482E+10
         0.35970E+01
        -0.85342E+08
         0.71915E+01
        -0.57505E+10
        -0.12049E+11
        -0.10747E+01
        -0.39799E+01
        -0.16048E+11
        -0.19176E+02
        -0.12702E+11
        -0.14611E+02
        -0.16236E+11
        -0.27899E+02
        -0.17891E+11
        -0.16702E+11
        -0.34095E+02
        -0.26987E+02
        -0.17001E+11
         0.10168E+02
        -0.19069E+11
        -0.59296E+01
        -0.20279E+11
        -0.16524E+02
        -0.20228E+11
        -0.19260E+11
        -0.15738E+02
        -0.50781E+02
        -0.14307E+11
        -0.16939E+11
         0.39320E+02
        -0.10714E+03
        -0.97763E+10
         0.26738E+02
        -0.10031E+10
         0.24192E+02
         0.11663E+11
         0.29831E+02
         0.21268E+11
         0.15731E+02
         0.25355E+11
         0.15040E+00
         0.34351E+11
        -0.22652E+01
         0.76870E+11
         0.94983E+01
         0.70321E+11
         0.65625E+00
        -0.10142E+11
        -0.12165E+02
        -0.27797E+11
        -0.22081E+02
        -0.27189E+11
        -0.21160E+02
        -0.19890E+11
        -0.10333E+02
        -0.14487E+11
        -0.12273E+02
        -0.12069E+11
        -0.16086E+02
        -0.14190E+11
        -0.12423E+02
        -0.20384E+11
        -0.14069E+02
        -0.21220E+11
        -0.18337E+02
        -0.19156E+11
         0.14983E+01
        -0.18686E+11
         0.83898E+01
        -0.20003E+11
        -0.36579E+01
        -0.20731E+11
        -0.41044E+01
        -0.20093E+11
        -0.44234E+00
        -0.18509E+11
         0.92281E+01
        -0.16426E+11
         0.14019E+02
        -0.32447E+10
        -0.14493E+10
        -0.11784E+09
        -0.17980E+10
         0.19363E+10
         0.31656E+10
        -0.29033E+10
        -0.39808E+10
        -0.42037E+10
        -0.38504E+10
        -0.30108E+10
        -0.16736E+10
        -0.15156E+10
        -0.35891E+10
        -0.17234E+10
        -0.49857E+10
        -0.32595E+10
        -0.43124E+10
        -0.13269E+10
        -0.22850E+10
        -0.33578E+09
        -0.47527E+10
         0.60784E+09
        -0.12104E+10
        -0.43401E+10
        -0.31174E+10
        -0.48955E+10
        -0.73892E+10
        -0.99276E+10
        -0.64727E+10
        -0.45179E+10
        -0.31789E+10
        -0.21467E+10
         0.20865E+10
         0.28687E+10
         0.16378E+10
         0.56972E+08
        -0.39855E+10
        -0.63816E+10
        -0.77097E+10
        -0.91063E+10
        -0.13252E+11
        -0.11035E+11
         0.42378E+09
         0.84419E+09
         0.17522E+10
        -0.13001E+09
         0.10971E+10
         0.64173E+10
         0.13295E+11
         0.18317E+11
         0.92206E+10
         0.49422E+10
         0.71050E+10
         0.15223E+10
         0.24180E+09
         0.58983E+09
         0.14572E+10
         0.39814E+10
         0.51241E+10
         0.10066E+11
         0.22608E+11
         0.89152E+10
        -0.18369E+11
        -0.20160E+11
        -0.13284E+11
        -0.65581E+10
        -0.77817E+09
         0.36030E+10
         0.71048E+10
         0.67279E+10
         0.74376E+10
         0.16393E+11
         0.30770E+11
         0.42552E+11
         0.41302E+11
         0.25868E+11
         0.12315E+11
         0.58311E+08
         0.37516E+09
         0.32356E+10
         0.20746E+10
         0.70926E+10
         0.92760E+10
        -0.88175E+09
         0.76255E+09
         0.47356E+09
         0.11686E+10
        -0.74282E+09
        -0.29993E+10
        -0.20003E+10
        -0.11054E+09
        -0.43521E+10
        -0.84142E+09
         0.14964E+10
        -0.31776E+09
         0.11566E+10
         0.84182E+09
        -0.93060E+09
        -0.46543E+10
        -0.68290E+08
         0.31020E+09
        -0.21378E+09
        -0.48618E+09
        -0.27873E+10
        -0.71906E+10
        -0.12553E+11
        -0.42191E+10
        -0.98936E+08
        -0.19544E+09
         0.31681E+10
         0.80419E+10
         0.68454E+10
         0.46102E+10
         0.10440E+10
        -0.94414E+10
        -0.15243E+11
        -0.21056E+11
        -0.25360E+11
        -0.20485E+11
        -0.12467E+11
         0.70554E+09
         0.16728E+10
         0.20276E+10
         0.12816E+10
         0.37345E+10
         0.10276E+11
         0.17511E+11
         0.21763E+11
         0.15287E+11
         0.81506E+10
         0.11819E+11
         0.50473E+10
         0.13643E+10
        -0.19279E+10
        -0.60813E+10
        -0.10399E+11
        -0.16223E+11
        -0.22952E+11
        -0.27857E+11
        -0.28338E+11
        -0.28721E+11
        -0.24953E+11
        -0.15706E+11
        -0.79985E+10
        -0.24779E+10
         0.20950E+10
         0.58399E+10
         0.47978E+10
         0.35377E+10
         0.79364E+10
         0.19292E+11
         0.29263E+11
         0.32598E+11
         0.28124E+11
         0.18821E+11
         0.21543E+09
        -0.28211E+09
        -0.85028E+08
         0.82168E+08
         0.75394E+09
         0.11077E+10
         0.17496E+09
         0.11423E+10
         0.96106E+09
         0.12415E+10
         0.59753E+09
        -0.73822E+09
        -0.60807E+09
         0.80763E+09
        -0.18925E+10
         0.71287E+09
         0.15247E+10
         0.39592E+09
         0.86826E+09
         0.59238E+09
        -0.13829E+10
        -0.32367E+10
        -0.10016E+10
         0.18963E+09
         0.24009E+09
         0.95972E+08
        -0.10706E+10
        -0.41630E+10
        -0.81279E+10
        -0.23490E+10
         0.17719E+08
        -0.56243E+09
         0.25046E+09
         0.23676E+09
         0.99364E+08
        -0.30176E+09
        -0.54094E+09
        -0.58605E+10
        -0.10944E+11
        -0.16222E+11
        -0.20083E+11
        -0.14198E+11
        -0.78575E+10
        -0.98512E+09
        -0.15120E+10
        -0.28727E+10
        -0.28480E+10
        -0.27664E+10
        -0.23658E+10
        -0.14866E+10
        -0.35142E+09
         0.79508E+09
         0.72195E+07
         0.22884E+10
        -0.72563E+09
        -0.82716E+09
        -0.13388E+10
        -0.36815E+10
        -0.72024E+10
        -0.12746E+11
        -0.20770E+11
        -0.26549E+11
        -0.27971E+11
        -0.25412E+11
        -0.18226E+11
        -0.11182E+11
        -0.59535E+10
        -0.33072E+10
        -0.27369E+10
        -0.33251E+10
        -0.51417E+10
        -0.75231E+10
        -0.93922E+10
        -0.92634E+10
        -0.62960E+10
        -0.70033E+09
         0.37752E+10
         0.42966E+10
         0.30855E+09
         0.61300E+08
        -0.46547E+09
        -0.37995E+09
        -0.10299E+10
        -0.17350E+10
         0.57955E+09
         0.77737E+09
         0.52529E+09
         0.60375E+09
         0.84341E+09
         0.42731E+09
         0.29276E+09
         0.72435E+09
        -0.37130E+09
         0.52030E+09
         0.75887E+09
         0.19476E+09
         0.39207E+09
         0.26496E+09
        -0.96056E+09
        -0.19334E+10
        -0.58678E+09
         0.61298E+08
        -0.22249E+08
         0.78795E+08
        -0.51197E+09
        -0.24344E+10
        -0.48084E+10
        -0.13487E+10
        -0.24098E+09
        -0.35832E+09
        -0.95378E+09
        -0.21669E+10
        -0.10687E+10
        -0.74494E+09
        -0.20995E+09
        -0.30906E+10
        -0.67047E+10
        -0.10397E+11
        -0.13064E+11
        -0.86175E+10
        -0.45722E+10
        -0.61962E+09
        -0.10193E+10
        -0.17750E+10
        -0.18519E+10
        -0.27439E+10
        -0.43332E+10
        -0.56017E+10
        -0.59881E+10
        -0.36713E+10
        -0.13922E+10
        -0.13330E+10
        -0.11526E+10
        -0.49649E+09
        -0.28219E+09
        -0.12063E+10
        -0.33696E+10
        -0.75990E+10
        -0.14373E+11
        -0.19991E+11
        -0.21413E+11
        -0.17682E+11
        -0.11681E+11
        -0.66656E+10
        -0.31639E+10
        -0.14967E+10
        -0.15981E+10
        -0.24811E+10
        -0.33195E+10
        -0.48481E+10
        -0.77422E+10
        -0.10875E+11
        -0.11578E+11
        -0.90305E+10
        -0.50674E+10
        -0.22933E+10
         0.31391E+09
         0.27245E+09
         0.22430E+07
        -0.73984E+08
        -0.48464E+09
        -0.94926E+09
         0.49373E+09
         0.54209E+09
         0.31751E+09
         0.42693E+09
         0.58226E+09
         0.44710E+09
         0.32035E+09
         0.47832E+09
        -0.42773E+08
         0.15076E+09
         0.38558E+09
         0.54528E+08
         0.96585E+08
         0.13794E+09
        -0.57760E+09
        -0.10825E+10
        -0.28579E+09
        -0.68103E+08
         0.96311E+08
        -0.67264E+08
        -0.20388E+09
        -0.13343E+10
        -0.29187E+10
        -0.71461E+09
        -0.18367E+09
        -0.93190E+08
        -0.43064E+09
        -0.88661E+09
        -0.29748E+09
        -0.75200E+08
         0.10198E+09
        -0.18193E+10
        -0.43346E+10
        -0.69698E+10
        -0.89696E+10
        -0.56867E+10
        -0.28008E+10
        -0.14969E+09
        -0.67363E+08
        -0.54060E+07
        -0.10895E+09
        -0.51673E+09
        -0.12264E+10
        -0.19553E+10
        -0.24426E+10
        -0.17202E+10
        -0.45070E+09
        -0.10040E+10
        -0.25991E+09
        -0.16809E+09
        -0.35733E+08
        -0.28349E+09
        -0.16953E+10
        -0.50877E+10
        -0.10527E+11
        -0.14969E+11
        -0.15941E+11
        -0.12718E+11
        -0.75164E+10
        -0.35633E+10
        -0.14361E+10
        -0.32974E+09
        -0.43791E+08
        -0.45924E+08
         0.59758E+08
        -0.10205E+09
        -0.10315E+10
        -0.25471E+10
        -0.36639E+10
        -0.37955E+10
        -0.29642E+10
        -0.18697E+10
         0.15864E+09
         0.12824E+09
         0.92617E+08
         0.62677E+08
        -0.13371E+09
        -0.26369E+09
         0.18878E+09
         0.24628E+09
         0.12800E+09
         0.19979E+09
         0.25454E+09
         0.21795E+09
         0.70779E+08
         0.23104E+09
        -0.34369E+07
         0.34711E+07
         0.11115E+09
         0.34919E+08
        -0.31899E+08
         0.53744E+07
        -0.24462E+09
        -0.44204E+09
        -0.44241E+08
        -0.46223E+08
         0.57451E+08
        -0.32968E+08
        -0.52730E+08
        -0.56211E+09
        -0.13665E+10
        -0.33124E+09
        -0.38728E+08
         0.18422E+08
        -0.16725E+08
        -0.38240E+08
         0.33482E+08
         0.95491E+08
        -0.10863E+07
        -0.88494E+09
        -0.21672E+10
        -0.35612E+10
        -0.46412E+10
        -0.27641E+10
        -0.12258E+10
         0.10198E+09
         0.22066E+09
         0.32673E+09
         0.22106E+09
         0.12148E+09
         0.50282E+08
        -0.56464E+08
        -0.22757E+09
        -0.29470E+09
         0.15089E+08
        -0.45475E+09
         0.77556E+08
        -0.15962E+09
        -0.11115E+09
         0.50317E+07
        -0.71753E+09
        -0.29147E+10
        -0.62276E+10
        -0.87446E+10
        -0.89206E+10
        -0.63797E+10
        -0.31553E+10
        -0.11939E+10
        -0.35446E+09
         0.90239E+08
         0.30647E+09
         0.45737E+09
         0.60565E+09
         0.69381E+09
         0.67027E+09
         0.54045E+09
         0.25464E+09
        -0.28022E+09
        -0.64733E+09
        -0.68647E+09
         0.63152E+08
         0.40502E+07
        -0.11787E+08
         0.12178E+08
        -0.18066E+09
        -0.22247E+09
         0.64129E+07
         0.55573E+08
         0.35897E+08
         0.53893E+07
         0.28816E+08
         0.25806E+07
        -0.12702E+09
         0.39465E+08
         0.18278E+08
        -0.64669E+07
        -0.21272E+08
         0.21397E+08
        -0.25494E+07
        -0.78749E+08
         0.33902E+08
        -0.85127E+08
         0.13316E+09
         0.44413E+08
        -0.59425E+08
         0.16692E+08
        -0.37100E+08
        -0.20299E+09
        -0.49086E+09
        -0.17140E+09
        -0.29665E+08
         0.23327E+08
        -0.15311E+08
        -0.38627E+08
        -0.74007E+08
        -0.29533E+08
        -0.13681E+09
        -0.25683E+09
        -0.68809E+09
        -0.11496E+10
        -0.14687E+10
        -0.85347E+09
        -0.34333E+09
         0.16694E+09
         0.20025E+09
         0.21517E+09
         0.95956E+08
         0.12222E+08
        -0.17892E+08
        -0.52359E+08
        -0.13136E+09
        -0.19003E+09
        -0.87642E+08
        -0.42801E+09
        -0.57166E+08
        -0.26075E+09
        -0.24204E+09
        -0.38028E+08
        -0.12640E+09
        -0.94329E+09
        -0.22221E+10
        -0.30969E+10
        -0.29159E+10
        -0.16434E+10
        -0.40955E+09
         0.10648E+09
         0.22157E+09
         0.27346E+09
         0.29176E+09
         0.33554E+09
         0.34354E+09
         0.30272E+09
         0.21138E+09
         0.16402E+09
         0.98991E+08
        -0.12625E+09
        -0.33671E+09
        -0.47874E+09
         0.26729E+08
        -0.40230E+08
        -0.68984E+08
        -0.19301E+08
        -0.25702E+09
        -0.29394E+09
        -0.61418E+08
        -0.13732E+08
         0.23668E+07
        -0.26647E+08
        -0.48448E+08
        -0.74982E+08
        -0.18519E+09
        -0.65449E+07
         0.37257E+08
        -0.94873E+07
        -0.41947E+08
         0.15383E+08
         0.98470E+07
        -0.32399E+08
         0.13644E+09
         0.13290E+09
         0.15064E+09
         0.54797E+08
        -0.60208E+08
         0.24781E+08
        -0.41278E+07
        -0.42645E+08
        -0.53996E+08
        -0.66984E+08
        -0.35702E+08
         0.12236E+08
        -0.59138E+08
        -0.13334E+09
        -0.18407E+09
        -0.11857E+09
        -0.18505E+09
         0.49464E+08
        -0.67435E+07
        -0.51015E+08
         0.54747E+06
         0.71278E+08
         0.14306E+09
         0.16124E+09
         0.15322E+09
         0.12529E+09
        -0.47265E+07
        -0.11395E+09
        -0.19833E+09
        -0.28628E+09
        -0.38030E+09
        -0.32934E+09
        -0.22234E+09
        -0.50376E+09
        -0.14557E+09
        -0.30162E+09
        -0.30012E+09
        -0.93921E+08
         0.96944E+08
         0.34932E+07
        -0.23177E+09
        -0.27848E+09
         0.77773E+08
         0.60118E+09
         0.80100E+09
         0.59967E+09
         0.36756E+09
         0.26328E+09
         0.22900E+09
         0.21795E+09
         0.15902E+09
         0.44525E+08
        -0.16300E+09
        -0.35033E+09
        -0.46183E+09
        -0.54928E+09
        -0.55156E+09
        -0.56826E+09
         0.20185E+08
        -0.47620E+08
        -0.75828E+08
        -0.13237E+08
        -0.28813E+09
        -0.34256E+09
        -0.84646E+08
        -0.36078E+08
        -0.49697E+07
        -0.29635E+08
        -0.73544E+08
        -0.94070E+08
        -0.20082E+09
        -0.12674E+08
         0.64056E+08
        -0.16446E+07
        -0.43774E+08
         0.29904E+08
         0.28826E+08
        -0.82892E+07
         0.17382E+09
         0.20192E+09
         0.17999E+09
         0.84819E+08
        -0.30945E+08
         0.49404E+08
         0.44672E+08
         0.77103E+08
         0.15697E+09
         0.86424E+07
        -0.15518E+08
         0.42529E+08
        -0.48922E+08
        -0.14953E+09
        -0.20904E+09
        -0.13065E+09
        -0.18935E+09
         0.18491E+09
         0.28749E+09
         0.41245E+09
         0.58133E+09
         0.42242E+09
         0.30410E+09
         0.18739E+09
         0.19827E+09
         0.17300E+09
         0.22792E+08
        -0.11801E+09
        -0.24294E+09
        -0.38172E+09
        -0.52368E+09
        -0.42063E+09
        -0.25448E+09
        -0.58499E+09
        -0.15178E+09
        -0.28148E+09
        -0.27661E+09
        -0.81946E+08
         0.17021E+09
         0.27289E+09
         0.44770E+09
         0.76922E+09
         0.11799E+10
         0.13604E+10
         0.11403E+10
         0.73267E+09
         0.43660E+09
         0.32641E+09
         0.27987E+09
         0.26815E+09
         0.21837E+09
         0.61621E+08
        -0.22238E+09
        -0.49464E+09
        -0.70240E+09
        -0.83038E+09
        -0.79334E+09
        -0.72743E+09
         0.21042E+08
        -0.53055E+08
        -0.78804E+08
        -0.25641E+07
        -0.31660E+09
        -0.35706E+09
        -0.10449E+09
        -0.51281E+08
        -0.54918E+07
        -0.39250E+08
        -0.10084E+09
        -0.13037E+09
        -0.23056E+09
        -0.32382E+08
         0.48860E+08
         0.77689E+07
        -0.45878E+08
         0.43509E+08
         0.46228E+08
        -0.69562E+07
         0.19922E+09
         0.21758E+09
         0.20545E+09
         0.12256E+09
        -0.33916E+08
         0.79938E+08
         0.42117E+08
         0.91349E+08
         0.17134E+09
         0.35412E+07
         0.91298E+06
         0.79429E+08
        -0.33870E+08
        -0.13721E+09
        -0.22313E+09
        -0.13806E+09
        -0.20620E+09
         0.19932E+09
         0.32463E+09
         0.45444E+09
         0.62022E+09
         0.43141E+09
         0.31333E+09
         0.20873E+09
         0.23169E+09
         0.21331E+09
         0.76280E+08
        -0.10028E+09
        -0.24403E+09
        -0.37797E+09
        -0.50989E+09
        -0.41282E+09
        -0.29052E+09
        -0.67784E+09
        -0.14480E+09
        -0.27839E+09
        -0.27886E+09
        -0.10309E+09
         0.13667E+09
         0.28245E+09
         0.53263E+09
         0.86191E+09
         0.12740E+10
         0.14041E+10
         0.12249E+10
         0.88295E+09
         0.54944E+09
         0.39678E+09
         0.31928E+09
         0.32433E+09
         0.29347E+09
         0.12345E+09
        -0.18597E+09
        -0.48073E+09
        -0.68066E+09
        -0.79899E+09
        -0.78797E+09
        -0.78735E+09
         0.20526E+08
        -0.59375E+08
        -0.81054E+08
        -0.99855E+06
        -0.31920E+09
        -0.35076E+09
        -0.12105E+09
        -0.64871E+08
        -0.97112E+07
        -0.54960E+08
        -0.12608E+09
        -0.16704E+09
        -0.26259E+09
        -0.57421E+08
         0.22428E+08
         0.12551E+08
        -0.57957E+08
         0.45658E+08
         0.43864E+08
        -0.23596E+08
         0.19852E+09
         0.22115E+09
         0.21088E+09
         0.13587E+09
        -0.49922E+08
         0.93983E+08
         0.19494E+08
         0.92586E+08
         0.22024E+09
        -0.93067E+06
         0.22474E+07
         0.85183E+08
        -0.34974E+08
        -0.13503E+09
        -0.21744E+09
        -0.13879E+09
        -0.22244E+09
         0.18216E+09
         0.34851E+09
         0.56029E+09
         0.82968E+09
         0.58601E+09
         0.38477E+09
         0.20802E+09
         0.21462E+09
         0.17670E+09
         0.47092E+08
        -0.11612E+09
        -0.24586E+09
        -0.35691E+09
        -0.46384E+09
        -0.38572E+09
        -0.27893E+09
        -0.68261E+09
        -0.12734E+09
        -0.30825E+09
        -0.34692E+09
        -0.15946E+09
         0.10779E+09
         0.30246E+09
         0.64558E+09
         0.11207E+10
         0.17295E+10
         0.19072E+10
         0.15324E+10
         0.10165E+10
         0.60532E+09
         0.41091E+09
         0.30463E+09
         0.28014E+09
         0.23271E+09
         0.86989E+08
        -0.17564E+09
        -0.43050E+09
        -0.58938E+09
        -0.68738E+09
        -0.70102E+09
        -0.75753E+09
         0.24053E+08
        -0.56543E+08
        -0.82428E+08
        -0.42042E+07
        -0.31871E+09
        -0.36433E+09
        -0.11387E+09
        -0.62129E+08
        -0.88328E+07
        -0.51885E+08
        -0.11767E+09
        -0.14778E+09
        -0.25356E+09
        -0.51899E+08
         0.33835E+08
         0.17903E+08
        -0.60988E+08
         0.47537E+08
         0.45434E+08
        -0.19015E+08
         0.20299E+09
         0.24466E+09
         0.22140E+09
         0.14216E+09
        -0.35720E+08
         0.99273E+08
         0.44596E+08
         0.17197E+09
         0.39533E+09
         0.55332E+08
        -0.20756E+07
         0.74461E+08
        -0.34577E+08
        -0.13998E+09
        -0.20693E+09
        -0.13738E+09
        -0.22383E+09
         0.25339E+09
         0.56400E+09
         0.96725E+09
         0.13978E+10
         0.92092E+09
         0.51435E+09
         0.21226E+09
         0.19289E+09
         0.12876E+09
         0.58275E+07
        -0.13438E+09
        -0.23788E+09
        -0.34553E+09
        -0.46718E+09
        -0.40173E+09
        -0.25302E+09
        -0.66278E+09
        -0.14076E+09
        -0.34993E+09
        -0.37014E+09
        -0.13313E+09
         0.12669E+09
         0.40773E+09
         0.11031E+10
         0.20420E+10
         0.28661E+10
         0.26438E+10
         0.18010E+10
         0.10675E+10
         0.60945E+09
         0.42055E+09
         0.30410E+09
         0.23697E+09
         0.15682E+09
         0.24021E+08
        -0.18586E+09
        -0.37305E+09
        -0.53374E+09
        -0.68491E+09
        -0.72653E+09
        -0.77219E+09
         0.27005E+08
        -0.51034E+08
        -0.78726E+08
        -0.34678E+07
        -0.31741E+09
        -0.36070E+09
        -0.99772E+08
        -0.53749E+08
        -0.38479E+07
        -0.43084E+08
        -0.97397E+08
        -0.11171E+09
        -0.22565E+09
        -0.36448E+08
         0.64772E+08
         0.18713E+08
        -0.56787E+08
         0.49002E+08
         0.45295E+08
        -0.32604E+07
         0.21000E+09
         0.28554E+09
         0.22020E+09
         0.13519E+09
        -0.19067E+08
         0.91969E+08
         0.69941E+08
         0.21286E+09
         0.46356E+09
         0.10295E+09
        -0.77457E+07
         0.59698E+08
        -0.32069E+08
        -0.12995E+09
        -0.20514E+09
        -0.13104E+09
        -0.21302E+09
         0.33130E+09
         0.70944E+09
         0.11665E+10
         0.16198E+10
         0.10359E+10
         0.58535E+09
         0.20465E+09
         0.17541E+09
         0.10486E+09
        -0.15273E+08
        -0.14696E+09
        -0.23044E+09
        -0.31814E+09
        -0.43294E+09
        -0.38386E+09
        -0.26099E+09
        -0.66206E+09
        -0.16731E+09
        -0.35665E+09
        -0.33502E+09
        -0.77709E+08
         0.17869E+09
         0.60509E+09
         0.15358E+10
         0.26139E+10
         0.33245E+10
         0.28549E+10
         0.19671E+10
         0.11322E+10
         0.60342E+09
         0.41111E+09
         0.28302E+09
         0.20374E+09
         0.12818E+09
        -0.58856E+07
        -0.21213E+09
        -0.35959E+09
        -0.47926E+09
        -0.62947E+09
        -0.69452E+09
        -0.76084E+09
         0.25249E+08
        -0.40414E+08
        -0.53571E+08
         0.83632E+07
        -0.27906E+09
        -0.31068E+09
        -0.92672E+08
        -0.55351E+08
        -0.69113E+07
        -0.48758E+08
        -0.85010E+08
        -0.85508E+08
        -0.20056E+09
        -0.28161E+08
         0.10971E+09
         0.19383E+08
        -0.59286E+08
         0.49005E+08
         0.42866E+08
        -0.84252E+07
         0.21047E+09
         0.27281E+09
         0.22433E+09
         0.13137E+09
        -0.23253E+08
         0.85737E+08
         0.70881E+08
         0.19763E+09
         0.41761E+09
         0.95301E+08
        -0.14193E+08
         0.41863E+08
        -0.30954E+08
        -0.10754E+09
        -0.17152E+09
        -0.91847E+08
        -0.17888E+09
         0.37313E+09
         0.69965E+09
         0.10682E+10
         0.14427E+10
         0.93065E+09
         0.54241E+09
         0.20068E+09
         0.15295E+09
         0.69010E+08
        -0.43537E+08
        -0.16069E+09
        -0.22772E+09
        -0.28742E+09
        -0.36777E+09
        -0.32059E+09
        -0.24021E+09
        -0.61454E+09
        -0.12761E+09
        -0.29699E+09
        -0.28175E+09
        -0.30173E+08
         0.31109E+09
         0.83422E+09
         0.16950E+10
         0.25040E+10
         0.29543E+10
         0.26081E+10
         0.18787E+10
         0.11043E+10
         0.58821E+09
         0.40264E+09
         0.27314E+09
         0.16446E+09
         0.79148E+08
        -0.42805E+08
        -0.23257E+09
        -0.36250E+09
        -0.43446E+09
        -0.52283E+09
        -0.55837E+09
        -0.65521E+09
         0.14474E+08
        -0.44036E+08
        -0.47676E+08
         0.36501E+07
        -0.24960E+09
        -0.27916E+09
        -0.10424E+09
        -0.67923E+08
        -0.14785E+08
        -0.58809E+08
        -0.96050E+08
        -0.94592E+08
        -0.20712E+09
        -0.35596E+08
         0.11622E+09
         0.13294E+08
        -0.62919E+08
         0.39960E+08
         0.29838E+08
        -0.29938E+08
         0.17360E+09
         0.21937E+09
         0.19779E+09
         0.11228E+09
        -0.38591E+08
         0.67992E+08
         0.56390E+08
         0.16040E+09
         0.34478E+09
         0.50436E+08
        -0.27933E+08
         0.20658E+08
        -0.38266E+08
        -0.10415E+09
        -0.15277E+09
        -0.79172E+08
        -0.16826E+09
         0.34534E+09
         0.60054E+09
         0.89869E+09
         0.12286E+10
         0.80722E+09
         0.46997E+09
         0.17815E+09
         0.12714E+09
         0.46038E+08
        -0.58278E+08
        -0.15986E+09
        -0.21448E+09
        -0.26557E+09
        -0.33511E+09
        -0.29067E+09
        -0.21682E+09
        -0.54021E+09
        -0.10513E+09
        -0.27063E+09
        -0.28831E+09
        -0.41510E+08
         0.36108E+09
         0.82624E+09
         0.14439E+10
         0.20766E+10
         0.25360E+10
         0.23834E+10
         0.17375E+10
         0.98142E+09
         0.50969E+09
         0.35563E+09
         0.24890E+09
         0.13910E+09
         0.61661E+08
        -0.29409E+08
        -0.18761E+09
        -0.30396E+09
        -0.37609E+09
        -0.46274E+09
        -0.47544E+09
        -0.55512E+09
         0.50557E+07
        -0.57768E+08
        -0.62208E+08
        -0.11142E+08
        -0.24990E+09
        -0.28649E+09
        -0.11739E+09
        -0.72377E+08
        -0.17072E+08
        -0.51116E+08
        -0.11147E+09
        -0.11851E+09
        -0.22524E+09
        -0.43571E+08
         0.82526E+08
         0.14984E+06
        -0.57824E+08
         0.26827E+08
         0.22726E+08
        -0.23387E+08
         0.15215E+09
         0.21167E+09
         0.17147E+09
         0.96193E+08
        -0.28172E+08
         0.56139E+08
         0.56120E+08
         0.15941E+09
         0.34659E+09
         0.52542E+08
        -0.32083E+08
         0.26909E+08
        -0.44777E+08
        -0.11029E+09
        -0.15502E+09
        -0.93187E+08
        -0.18260E+09
         0.28872E+09
         0.53474E+09
         0.85832E+09
         0.12256E+10
         0.82110E+09
         0.47459E+09
         0.16844E+09
         0.14663E+09
         0.92405E+08
        -0.18275E+08
        -0.12665E+09
        -0.18909E+09
        -0.24902E+09
        -0.32835E+09
        -0.29806E+09
        -0.19937E+09
        -0.50885E+09
        -0.11838E+09
        -0.29695E+09
        -0.32817E+09
        -0.86101E+08
         0.28818E+09
         0.62304E+09
         0.11158E+10
         0.18519E+10
         0.25295E+10
         0.24323E+10
         0.17232E+10
         0.93268E+09
         0.48815E+09
         0.33997E+09
         0.26229E+09
         0.20219E+09
         0.14311E+09
         0.55419E+08
        -0.10291E+09
        -0.23351E+09
        -0.32848E+09
        -0.44507E+09
        -0.48753E+09
        -0.55736E+09
         0.15031E+08
        -0.46465E+08
        -0.60288E+08
        -0.57662E+07
        -0.24732E+09
        -0.27943E+09
        -0.92566E+08
        -0.51085E+08
        -0.96481E+07
        -0.31272E+08
        -0.89203E+08
        -0.10218E+09
        -0.19844E+09
        -0.26742E+08
         0.79150E+08
        -0.13271E+06
        -0.47800E+08
         0.27980E+08
         0.42651E+08
         0.58748E+07
         0.19566E+09
         0.25384E+09
         0.20658E+09
         0.12242E+09
        -0.25487E+07
         0.75659E+08
         0.82543E+08
         0.20602E+09
         0.42389E+09
         0.97014E+08
        -0.18509E+08
         0.51878E+08
        -0.30498E+08
        -0.86341E+08
        -0.15330E+09
        -0.93653E+08
        -0.17348E+09
         0.32776E+09
         0.65529E+09
         0.10515E+10
         0.14482E+10
         0.93039E+09
         0.52221E+09
         0.19997E+09
         0.18581E+09
         0.13903E+09
         0.24634E+08
        -0.88023E+08
        -0.14607E+09
        -0.19465E+09
        -0.26999E+09
        -0.26903E+09
        -0.19317E+09
        -0.50188E+09
        -0.13847E+09
        -0.31948E+09
        -0.32016E+09
        -0.97114E+08
         0.25381E+09
         0.69485E+09
         0.14496E+10
         0.23835E+10
         0.29831E+10
         0.26341E+10
         0.17741E+10
         0.10036E+10
         0.58859E+09
         0.41044E+09
         0.31266E+09
         0.26432E+09
         0.20147E+09
         0.10292E+09
        -0.58728E+08
        -0.17541E+09
        -0.23874E+09
        -0.35319E+09
        -0.44542E+09
        -0.55532E+09
         0.20118E+08
        -0.29111E+08
        -0.48980E+08
         0.44419E+06
        -0.23404E+09
        -0.25834E+09
        -0.62277E+08
        -0.34986E+08
        -0.12909E+08
        -0.27861E+08
        -0.57815E+08
        -0.63228E+08
        -0.15097E+09
        -0.94863E+07
         0.84595E+08
         0.13191E+07
        -0.52602E+08
         0.26595E+08
         0.58301E+08
         0.21518E+08
         0.24224E+09
         0.30733E+09
         0.23300E+09
         0.14137E+09
        -0.72644E+07
         0.92361E+08
         0.89616E+08
         0.19912E+09
         0.39950E+09
         0.10741E+09
        -0.71565E+07
         0.67407E+08
        -0.16493E+08
        -0.61355E+08
        -0.14672E+09
        -0.83428E+08
        -0.14834E+09
         0.33175E+09
         0.65923E+09
         0.10420E+10
         0.14126E+10
         0.89102E+09
         0.52979E+09
         0.21929E+09
         0.20252E+09
         0.15744E+09
         0.48770E+08
        -0.59304E+08
        -0.99049E+08
        -0.12742E+09
        -0.19088E+09
        -0.22197E+09
        -0.19783E+09
        -0.47931E+09
        -0.15748E+09
        -0.31880E+09
        -0.27299E+09
        -0.65983E+08
         0.24091E+09
         0.72871E+09
         0.15746E+10
         0.25084E+10
         0.29629E+10
         0.25278E+10
         0.17786E+10
         0.10918E+10
         0.63570E+09
         0.41911E+09
         0.30701E+09
         0.25915E+09
         0.21084E+09
         0.13149E+09
        -0.12555E+08
        -0.10879E+09
        -0.12974E+09
        -0.22503E+09
        -0.35313E+09
        -0.50257E+09
         0.26196E+08
        -0.17028E+08
        -0.78910E+07
         0.25205E+08
        -0.17104E+09
        -0.20745E+09
        -0.54600E+08
        -0.20819E+08
        -0.11434E+08
        -0.11442E+08
        -0.38430E+08
        -0.39966E+08
        -0.14388E+09
         0.18874E+08
         0.11516E+09
        -0.21390E+07
        -0.46972E+08
         0.30812E+08
         0.57619E+08
         0.41950E+08
         0.25103E+09
         0.36015E+09
         0.21700E+09
         0.12411E+09
         0.14471E+08
         0.85506E+08
         0.12136E+09
         0.22521E+09
         0.40356E+09
         0.13828E+09
         0.10728E+08
         0.80126E+08
         0.20496E+08
        -0.65735E+06
        -0.60264E+08
        -0.18891E+08
        -0.12885E+09
         0.35034E+09
         0.63225E+09
         0.96428E+09
         0.12923E+10
         0.85679E+09
         0.57366E+09
         0.21609E+09
         0.22270E+09
         0.20626E+09
         0.10153E+09
         0.11902E+08
        -0.24777E+07
        -0.64773E+07
        -0.74225E+08
        -0.14876E+09
        -0.91401E+08
        -0.41981E+09
        -0.43157E+08
        -0.28296E+09
        -0.25103E+09
        -0.22751E+08
         0.26079E+09
         0.69609E+09
         0.14360E+10
         0.22487E+10
         0.26544E+10
         0.23352E+10
         0.18293E+10
         0.11366E+10
         0.56575E+09
         0.34579E+09
         0.28589E+09
         0.29067E+09
         0.28658E+09
         0.24505E+09
         0.13542E+09
         0.58933E+08
         0.51104E+08
        -0.53492E+08
        -0.24087E+09
        -0.43602E+09
         0.53427E+08
         0.31067E+08
         0.12833E+09
         0.12058E+09
         0.45874E+08
         0.62592E+07
        -0.31322E+08
         0.13565E+08
         0.94834E+07
         0.28424E+08
         0.13951E+08
         0.38855E+08
        -0.10340E+09
         0.91602E+08
         0.25137E+09
        -0.75292E+07
        -0.32252E+08
         0.67334E+08
         0.20625E+08
         0.35224E+08
         0.17066E+09
         0.31210E+09
         0.12638E+09
         0.51681E+08
         0.62797E+08
         0.34239E+08
         0.20798E+09
         0.32545E+09
         0.51939E+09
         0.18677E+09
         0.55769E+08
         0.73658E+08
         0.14702E+09
         0.21009E+09
         0.19186E+09
         0.20306E+09
        -0.23384E+08
         0.50394E+09
         0.81434E+09
         0.11688E+10
         0.14828E+10
         0.95942E+09
         0.59183E+09
         0.13001E+09
         0.17501E+09
         0.23668E+09
         0.18619E+09
         0.19286E+09
         0.28023E+09
         0.35319E+09
         0.33518E+09
         0.14998E+09
         0.20448E+09
        -0.19697E+09
         0.31160E+09
        -0.62645E+08
        -0.13191E+09
         0.15514E+09
         0.49558E+09
         0.98668E+09
         0.18395E+10
         0.27121E+10
         0.29499E+10
         0.24057E+10
         0.17532E+10
         0.99718E+09
         0.43117E+09
         0.23281E+09
         0.18905E+09
         0.28187E+09
         0.42404E+09
         0.54174E+09
         0.57904E+09
         0.61817E+09
         0.65187E+09
         0.52436E+09
         0.22974E+09
        -0.12638E+09
         0.48602E+08
         0.68731E+08
         0.28664E+09
         0.20547E+09
         0.34636E+09
         0.33321E+09
        -0.31419E+08
         0.30199E+08
         0.30688E+07
         0.40336E+08
         0.46683E+08
         0.96083E+08
        -0.60010E+08
         0.15257E+09
         0.32672E+09
        -0.80957E+08
        -0.60372E+08
         0.63779E+08
        -0.10115E+09
        -0.75706E+08
        -0.34515E+08
         0.65358E+08
        -0.88516E+08
        -0.12285E+09
         0.26290E+08
        -0.13594E+09
         0.23101E+09
         0.25771E+09
         0.27629E+09
         0.59121E+08
         0.20049E+08
        -0.44309E+08
         0.23072E+09
         0.41489E+09
         0.47998E+09
         0.42566E+09
         0.13800E+09
         0.51625E+09
         0.65793E+09
         0.70722E+09
         0.68676E+09
         0.36712E+09
         0.20931E+09
        -0.96744E+08
         0.19256E+08
         0.23163E+09
         0.24097E+09
         0.34595E+09
         0.54845E+09
         0.73808E+09
         0.81856E+09
         0.54902E+09
         0.57799E+09
         0.25995E+09
         0.68139E+09
         0.26441E+09
         0.35972E+08
         0.24306E+09
         0.57531E+09
         0.97489E+09
         0.14857E+10
         0.16829E+10
         0.13526E+10
         0.99537E+09
         0.83993E+09
         0.56082E+09
         0.28358E+09
         0.14203E+09
         0.73090E+08
         0.28632E+09
         0.65481E+09
         0.99169E+09
         0.11404E+10
         0.12269E+10
         0.13114E+10
         0.12246E+10
         0.90531E+09
         0.45522E+09
        -0.89295E+08
        -0.11160E+09
        -0.97271E+08
        -0.95028E+08
         0.16972E+09
         0.29857E+09
        -0.70451E+08
        -0.41355E+08
         0.76492E+07
         0.66372E+08
        -0.32975E+08
         0.97607E+07
        -0.18806E+08
         0.19901E+08
         0.55503E+08
        -0.77970E+08
         0.86665E+08
        -0.10872E+09
         0.16268E+09
         0.32623E+09
         0.70639E+09
         0.89774E+09
         0.38384E+09
         0.57567E+08
         0.17745E+09
        -0.15043E+09
         0.12937E+09
         0.14338E+09
        -0.19005E+08
         0.33534E+09
        -0.11866E+09
        -0.85239E+08
        -0.50889E+08
         0.12211E+09
         0.79226E+08
        -0.55503E+08
        -0.53641E+08
         0.87234E+08
        -0.11606E+09
        -0.54790E+09
        -0.91832E+09
        -0.26537E+09
         0.57594E+09
         0.91101E+08
         0.16639E+09
         0.55485E+09
         0.47355E+09
         0.43596E+09
         0.45234E+09
         0.57796E+09
         0.75304E+09
         0.49511E+09
         0.26020E+09
         0.64808E+09
         0.10741E+09
         0.59297E+08
        -0.52628E+08
        -0.50066E+08
         0.30902E+07
        -0.77673E+08
        -0.61197E+09
        -0.15829E+10
        -0.19089E+10
        -0.35663E+09
         0.16663E+10
         0.24509E+10
         0.21305E+10
         0.14377E+10
         0.84961E+09
         0.88006E+09
         0.14763E+10
         0.19628E+10
         0.18105E+10
         0.14545E+10
         0.13738E+10
         0.13688E+10
         0.11994E+10
         0.95407E+09
        -0.16538E+09
        -0.33228E+09
        -0.83144E+09
        -0.61914E+09
        -0.35467E+09
        -0.61534E+08
         0.33222E+08
        -0.56373E+08
         0.20869E+09
         0.30532E+09
        -0.85286E+08
        -0.21384E+07
         0.16144E+09
        -0.20644E+09
        -0.36084E+09
         0.26718E+09
         0.60845E+09
        -0.25535E+09
         0.10609E+10
         0.15918E+10
         0.31145E+10
         0.41079E+10
         0.19676E+10
         0.95297E+09
         0.98663E+09
         0.36442E+09
         0.18104E+09
         0.81388E+09
         0.11259E+10
         0.19330E+10
        -0.79469E+08
         0.26627E+09
        -0.56311E+09
        -0.61478E+09
        -0.87269E+09
        -0.11659E+10
        -0.49763E+09
        -0.25806E+09
        -0.18744E+09
        -0.31426E+09
        -0.16829E+09
         0.15592E+10
         0.36490E+10
         0.10044E+10
         0.75160E+09
         0.11587E+10
         0.92459E+09
         0.44491E+09
        -0.11238E+09
        -0.17361E+09
         0.13315E+09
        -0.90424E+07
        -0.52559E+09
         0.10102E+10
        -0.13489E+10
        -0.64914E+09
        -0.10523E+09
        -0.12587E+09
        -0.47758E+09
        -0.92472E+09
        -0.17969E+10
        -0.23831E+10
        -0.11564E+10
         0.32104E+10
         0.79293E+10
         0.91604E+10
         0.71494E+10
         0.43832E+10
         0.24134E+10
         0.16878E+10
         0.23747E+10
         0.29593E+10
         0.20552E+10
         0.94876E+09
         0.74773E+09
         0.98955E+09
         0.11887E+10
         0.13738E+10
  
SCALARS                      stress_yy  double 1
LOOKUP_TABLE default
        -0.15090E+11
        -0.11422E+11
        -0.13742E+11
        -0.17024E+11
        -0.83295E+01
         0.65219E+01
         0.39732E+01
        -0.20136E+02
        -0.16949E+11
        -0.18283E+11
         0.92257E+00
        -0.36413E+02
        -0.98479E+10
        -0.14430E+11
         0.86826E+01
         0.50417E+01
        -0.15816E+11
        -0.15253E+11
        -0.11776E+02
        -0.45328E+01
        -0.91537E+10
         0.26356E+09
         0.38037E+08
         0.83288E+01
         0.19946E+02
         0.22844E+02
        -0.12609E+11
        -0.41706E+10
        -0.88372E+01
         0.49611E+01
        -0.15392E+11
        -0.15068E+11
        -0.15960E+11
        -0.11499E+02
        -0.86224E+01
        -0.12990E+02
        -0.13416E+11
        -0.14274E+11
        -0.68937E+01
        -0.73205E+01
        -0.11300E+11
        -0.14430E+11
         0.39326E+01
        -0.37447E+01
        -0.10448E+11
        -0.12612E+11
         0.44029E+01
        -0.32892E+01
        -0.14205E+11
        -0.68286E+01
        -0.14390E+11
        -0.80660E+01
        -0.12305E+11
        -0.11711E+02
        -0.11569E+11
        -0.90898E+01
        -0.11204E+11
        -0.14586E+11
        -0.16867E+02
        -0.49478E+01
        -0.15978E+11
        -0.16088E+11
        -0.87470E+01
        -0.14448E+02
        -0.17297E+11
        -0.14856E+02
        -0.19215E+11
        -0.34849E+02
        -0.13191E+11
        -0.98544E+10
         0.97698E+01
         0.36533E+01
        -0.51182E+10
         0.23880E+02
        -0.21785E+10
        -0.87336E+01
         0.12764E+10
        -0.51977E+01
        -0.34655E+09
        -0.11136E+02
        -0.60616E+10
        -0.12397E+11
        -0.23904E+02
        -0.32979E+02
        -0.16396E+11
        -0.27466E+02
        -0.12571E+11
         0.40814E+01
        -0.16108E+11
        -0.63789E+01
        -0.17796E+11
        -0.16757E+11
        -0.22549E+02
        -0.19420E+02
        -0.17261E+11
        -0.18949E+01
        -0.19403E+11
        -0.17799E+02
        -0.20528E+11
        -0.30852E+02
        -0.20395E+11
        -0.19440E+11
        -0.41149E+02
        -0.54052E+02
        -0.14325E+11
        -0.16909E+11
         0.21431E+02
        -0.66863E+02
        -0.99240E+10
         0.17808E+02
        -0.12127E+10
         0.22094E+02
         0.11423E+11
         0.34771E+02
         0.21112E+11
         0.21272E+02
         0.25476E+11
         0.69409E+01
         0.34577E+11
         0.67945E+00
         0.77191E+11
         0.10126E+02
         0.70651E+11
        -0.18339E+02
        -0.10465E+11
        -0.50242E+02
        -0.28136E+11
        -0.34037E+02
        -0.27512E+11
        -0.28980E+02
        -0.20157E+11
        -0.16170E+02
        -0.14583E+11
        -0.84206E+01
        -0.12050E+11
         0.14046E+01
        -0.14127E+11
         0.17420E+02
        -0.20344E+11
         0.38754E+02
        -0.21204E+11
         0.15225E+02
        -0.19269E+11
         0.22578E+01
        -0.18921E+11
         0.99285E+00
        -0.20161E+11
        -0.28580E+02
        -0.20800E+11
        -0.43689E+02
        -0.20125E+11
        -0.58747E+02
        -0.18546E+11
        -0.39311E+02
        -0.16466E+11
        -0.29432E+02
        -0.32224E+10
        -0.14668E+10
        -0.27883E+09
        -0.20004E+10
         0.17694E+10
         0.30691E+10
        -0.28401E+10
        -0.39165E+10
        -0.41305E+10
        -0.38303E+10
        -0.29583E+10
        -0.16255E+10
        -0.14686E+10
        -0.35899E+10
        -0.17809E+10
        -0.48863E+10
        -0.31886E+10
        -0.44147E+10
        -0.12451E+10
        -0.23398E+10
        -0.34601E+09
        -0.49194E+10
         0.65327E+09
        -0.11312E+10
        -0.44299E+10
        -0.30614E+10
        -0.49907E+10
        -0.75837E+10
        -0.10210E+11
        -0.67268E+10
        -0.46562E+10
        -0.32235E+10
        -0.24015E+10
         0.18828E+10
         0.26869E+10
         0.14604E+10
        -0.17222E+08
        -0.41370E+10
        -0.65925E+10
        -0.79661E+10
        -0.93914E+10
        -0.13564E+11
        -0.11334E+11
         0.45870E+09
         0.83062E+09
         0.17091E+10
        -0.22450E+09
         0.94075E+09
         0.62674E+10
         0.13202E+11
         0.18291E+11
         0.91940E+10
         0.47847E+10
         0.70666E+10
         0.13171E+10
         0.85960E+08
         0.54419E+09
         0.14659E+10
         0.39433E+10
         0.50555E+10
         0.10017E+11
         0.22491E+11
         0.86564E+10
        -0.18698E+11
        -0.20495E+11
        -0.13513E+11
        -0.66141E+10
        -0.75382E+09
         0.36211E+10
         0.70844E+10
         0.67028E+10
         0.73598E+10
         0.16242E+11
         0.30619E+11
         0.42471E+11
         0.41319E+11
         0.25975E+11
         0.12431E+11
         0.33085E+08
         0.37111E+09
         0.31421E+10
         0.20152E+10
         0.71171E+10
         0.94042E+10
        -0.74938E+09
         0.78219E+09
         0.50960E+09
         0.11836E+10
        -0.66571E+09
        -0.28892E+10
        -0.18306E+10
        -0.14328E+09
        -0.43795E+10
        -0.75300E+09
         0.16351E+10
        -0.38439E+09
         0.14340E+10
         0.93257E+09
        -0.84572E+09
        -0.47145E+10
         0.24385E+08
         0.48953E+09
        -0.27427E+09
        -0.42453E+09
        -0.28609E+10
        -0.73149E+10
        -0.12729E+11
        -0.43711E+10
        -0.14732E+09
        -0.22649E+09
         0.31346E+10
         0.81221E+10
         0.67982E+10
         0.45278E+10
         0.10462E+10
        -0.95325E+10
        -0.15382E+11
        -0.21238E+11
        -0.25568E+11
        -0.20687E+11
        -0.12635E+11
         0.68753E+09
         0.16098E+10
         0.19459E+10
         0.11915E+10
         0.36575E+10
         0.10274E+11
         0.17595E+11
         0.21897E+11
         0.15441E+11
         0.81266E+10
         0.11921E+11
         0.49824E+10
         0.13354E+10
        -0.18358E+10
        -0.59840E+10
        -0.10426E+11
        -0.16348E+11
        -0.23135E+11
        -0.28063E+11
        -0.28307E+11
        -0.28959E+11
        -0.25165E+11
        -0.15844E+11
        -0.80474E+10
        -0.25066E+10
         0.19965E+10
         0.57362E+10
         0.47018E+10
         0.34165E+10
         0.78178E+10
         0.19244E+11
         0.29314E+11
         0.32733E+11
         0.28313E+11
         0.19017E+11
         0.24080E+09
        -0.17780E+09
         0.48022E+08
         0.22734E+09
         0.10024E+10
         0.14537E+10
         0.32962E+09
         0.12072E+10
         0.10103E+10
         0.13493E+10
         0.74093E+09
        -0.55545E+09
        -0.34509E+09
         0.85955E+09
        -0.18640E+10
         0.78893E+09
         0.16682E+10
         0.42389E+09
         0.11014E+10
         0.74476E+09
        -0.12671E+10
        -0.32448E+10
        -0.91804E+09
         0.34765E+09
         0.32123E+09
         0.15799E+09
        -0.10682E+10
        -0.42444E+10
        -0.82800E+10
        -0.24355E+10
         0.56344E+08
        -0.57033E+09
         0.40807E+09
         0.56245E+09
         0.29480E+09
        -0.12776E+09
        -0.33504E+09
        -0.59031E+10
        -0.11047E+11
        -0.16383E+11
        -0.20277E+11
        -0.14383E+11
        -0.79911E+10
        -0.10002E+10
        -0.15710E+10
        -0.29514E+10
        -0.29013E+10
        -0.27357E+10
        -0.21604E+10
        -0.11259E+10
         0.54529E+08
         0.11946E+10
         0.21334E+09
         0.25745E+10
        -0.50501E+09
        -0.57205E+09
        -0.10393E+10
        -0.34794E+10
        -0.71715E+10
        -0.12799E+11
        -0.20889E+11
        -0.26723E+11
        -0.28185E+11
        -0.25636E+11
        -0.18409E+11
        -0.11294E+11
        -0.59965E+10
        -0.33722E+10
        -0.28677E+10
        -0.34277E+10
        -0.52350E+10
        -0.75977E+10
        -0.93928E+10
        -0.91037E+10
        -0.59587E+10
        -0.29411E+09
         0.41864E+10
         0.46719E+10
         0.42682E+09
         0.26443E+09
        -0.21969E+09
        -0.18178E+09
        -0.76734E+09
        -0.14772E+10
         0.83641E+09
         0.98318E+09
         0.70465E+09
         0.84927E+09
         0.11345E+10
         0.67725E+09
         0.63036E+09
         0.96371E+09
        -0.27888E+09
         0.67525E+09
         0.97214E+09
         0.31553E+09
         0.63303E+09
         0.43906E+09
        -0.80132E+09
        -0.19056E+10
        -0.43091E+09
         0.28284E+09
         0.19309E+09
         0.23759E+09
        -0.35998E+09
        -0.24252E+10
        -0.49079E+10
        -0.13444E+10
        -0.12811E+09
        -0.29382E+09
        -0.76307E+09
        -0.19061E+10
        -0.80747E+09
        -0.46200E+09
         0.10598E+09
        -0.30773E+10
        -0.67641E+10
        -0.10527E+11
        -0.13238E+11
        -0.87827E+10
        -0.46876E+10
        -0.52997E+09
        -0.10056E+10
        -0.18012E+10
        -0.18492E+10
        -0.26594E+10
        -0.41482E+10
        -0.53586E+10
        -0.57402E+10
        -0.34165E+10
        -0.11462E+10
        -0.11054E+10
        -0.86213E+09
        -0.15809E+09
         0.85245E+08
        -0.97715E+09
        -0.32986E+10
        -0.76015E+10
        -0.14451E+11
        -0.20144E+11
        -0.21619E+11
        -0.17909E+11
        -0.11871E+11
        -0.67470E+10
        -0.31465E+10
        -0.14755E+10
        -0.16248E+10
        -0.25146E+10
        -0.33650E+10
        -0.48705E+10
        -0.76868E+10
        -0.10736E+11
        -0.11383E+11
        -0.88102E+10
        -0.48514E+10
        -0.20816E+10
         0.41272E+09
         0.38108E+09
         0.80238E+08
        -0.21449E+08
        -0.42011E+09
        -0.92054E+09
         0.67229E+09
         0.69973E+09
         0.48691E+09
         0.63225E+09
         0.87149E+09
         0.74820E+09
         0.61731E+09
         0.76920E+09
         0.14184E+09
         0.31227E+09
         0.58154E+09
         0.19698E+09
         0.29731E+09
         0.30426E+09
        -0.40673E+09
        -0.10254E+10
        -0.13700E+09
         0.11328E+09
         0.29752E+09
         0.75644E+08
         0.40225E+08
        -0.12396E+10
        -0.29483E+10
        -0.65168E+09
        -0.51233E+08
        -0.51193E+08
        -0.33084E+09
        -0.85115E+09
        -0.19629E+09
         0.70793E+08
         0.32400E+09
        -0.17350E+10
        -0.43372E+10
        -0.70430E+10
        -0.90877E+10
        -0.58001E+10
        -0.28759E+10
        -0.10501E+09
        -0.10585E+09
        -0.68011E+08
        -0.15222E+09
        -0.52287E+09
        -0.12180E+10
        -0.19522E+10
        -0.24455E+10
        -0.17124E+10
        -0.35160E+09
        -0.94715E+09
        -0.93654E+08
         0.11821E+09
         0.29449E+09
        -0.61335E+08
        -0.15765E+10
        -0.50379E+10
        -0.10560E+11
        -0.15071E+11
        -0.16095E+11
        -0.12901E+11
        -0.76799E+10
        -0.36132E+10
        -0.13833E+10
        -0.27873E+09
        -0.80444E+08
        -0.13189E+09
        -0.20686E+08
        -0.16538E+09
        -0.10384E+10
        -0.25318E+10
        -0.36603E+10
        -0.38068E+10
        -0.29738E+10
        -0.18541E+10
         0.22315E+09
         0.22089E+09
         0.82121E+08
         0.87396E+07
        -0.19582E+09
        -0.39562E+09
         0.34707E+09
         0.35529E+09
         0.26560E+09
         0.35666E+09
         0.48126E+09
         0.51170E+09
         0.35847E+09
         0.45595E+09
         0.26843E+09
         0.16043E+09
         0.28461E+09
         0.12884E+09
         0.12197E+09
         0.15626E+09
        -0.15018E+09
        -0.36194E+09
        -0.98856E+08
         0.76300E+07
         0.22557E+09
        -0.14980E+08
         0.17822E+09
        -0.41081E+09
        -0.13240E+10
        -0.22900E+09
        -0.16205E+08
        -0.55155E+08
        -0.83019E+08
        -0.26521E+09
         0.13287E+08
         0.18903E+09
         0.25163E+09
        -0.70849E+09
        -0.21001E+10
        -0.35683E+10
        -0.46947E+10
        -0.28123E+10
        -0.12377E+10
        -0.11783E+09
        -0.90642E+08
         0.45069E+08
         0.20672E+08
        -0.10773E+08
        -0.10642E+09
        -0.25656E+09
        -0.44606E+09
        -0.49816E+09
        -0.15906E+08
        -0.50764E+09
         0.23271E+09
         0.14770E+09
         0.22226E+09
         0.26243E+09
        -0.54659E+09
        -0.28168E+10
        -0.62083E+10
        -0.87850E+10
        -0.90092E+10
        -0.64979E+10
        -0.32568E+10
        -0.12085E+10
        -0.33032E+09
         0.56633E+07
         0.68604E+08
         0.16084E+09
         0.34152E+09
         0.51986E+09
         0.56324E+09
         0.41467E+09
         0.78399E+08
        -0.50420E+09
        -0.87786E+09
        -0.82607E+09
         0.71477E+08
         0.78706E+08
         0.88712E+07
        -0.18104E+08
        -0.20238E+09
        -0.27143E+09
         0.11360E+09
         0.94527E+08
         0.84654E+08
         0.96440E+08
         0.19949E+09
         0.28844E+09
         0.16214E+09
         0.20540E+09
         0.27711E+09
         0.54271E+08
         0.67870E+08
         0.56101E+08
         0.50663E+07
         0.24772E+08
        -0.50197E+08
        -0.58646E+07
        -0.88672E+08
        -0.47916E+08
         0.73855E+08
        -0.50384E+08
         0.15817E+09
         0.10390E+08
        -0.26787E+09
        -0.21065E+08
        -0.27062E+08
        -0.70334E+08
        -0.52381E+08
        -0.14580E+09
        -0.41794E+08
         0.10851E+09
         0.12545E+09
         0.22838E+08
        -0.41594E+09
        -0.94044E+09
        -0.13315E+10
        -0.66389E+09
        -0.17475E+09
        -0.11721E+09
        -0.10990E+09
        -0.81649E+08
        -0.91546E+08
        -0.94430E+08
        -0.11323E+09
        -0.16014E+09
        -0.23735E+09
        -0.27797E+09
        -0.62703E+08
        -0.44442E+09
         0.20797E+09
         0.43144E+08
         0.71514E+08
         0.25771E+09
         0.98286E+08
        -0.75990E+09
        -0.20867E+10
        -0.30070E+10
        -0.28702E+10
        -0.16167E+10
        -0.33287E+09
         0.17312E+09
         0.14778E+09
         0.38628E+08
        -0.23051E+07
         0.31911E+08
         0.52683E+08
         0.81472E+08
         0.10338E+09
         0.82098E+08
         0.36271E+07
        -0.23656E+09
        -0.43736E+09
        -0.52349E+09
         0.17546E+08
         0.24357E+08
        -0.30730E+08
        -0.39078E+08
        -0.24901E+09
        -0.31134E+09
         0.99863E+07
        -0.21259E+08
         0.64139E+07
        -0.32244E+08
         0.51471E+08
         0.13616E+09
         0.50267E+08
         0.63084E+08
         0.23143E+09
         0.12146E+08
        -0.41940E+08
         0.32362E+08
        -0.63111E+08
        -0.47956E+08
        -0.25952E+08
         0.15744E+09
        -0.10396E+09
        -0.81762E+08
        -0.13372E+08
        -0.60070E+08
         0.11270E+09
         0.17550E+09
         0.19762E+09
         0.84349E+08
        -0.34601E+08
        -0.68105E+08
        -0.78138E+08
        -0.19814E+09
        -0.10346E+09
         0.49267E+08
         0.61385E+08
         0.25106E+09
         0.23541E+09
         0.22746E+09
         0.28575E+09
         0.33201E+09
         0.33391E+09
        -0.13248E+09
        -0.11969E+09
        -0.13549E+09
        -0.13851E+09
        -0.17610E+09
        -0.26113E+09
        -0.35899E+09
        -0.44852E+09
        -0.37789E+09
        -0.14852E+09
        -0.49837E+09
         0.94137E+08
        -0.17860E+08
        -0.18084E+08
         0.15502E+09
         0.27662E+09
         0.20243E+09
         0.12780E+08
        -0.40504E+07
         0.36032E+09
         0.87679E+09
         0.10438E+10
         0.73431E+09
         0.27139E+09
         0.11021E+08
        -0.61340E+08
        -0.63680E+08
        -0.99089E+08
        -0.15043E+09
        -0.24607E+09
        -0.39747E+09
        -0.52615E+09
        -0.62525E+09
        -0.60947E+09
        -0.58307E+09
         0.10952E+08
         0.20751E+08
        -0.33512E+08
        -0.33957E+08
        -0.28763E+09
        -0.37900E+09
        -0.15377E+08
        -0.54514E+08
        -0.10089E+08
        -0.64832E+08
         0.11264E+08
         0.96772E+08
         0.32732E+08
         0.27153E+08
         0.21793E+09
         0.13339E+08
        -0.66979E+08
         0.46477E+08
        -0.75168E+08
        -0.62860E+08
         0.16335E+08
         0.19653E+09
        -0.58095E+08
        -0.82939E+08
        -0.23294E+08
        -0.53255E+08
         0.11755E+09
         0.25002E+09
         0.35117E+09
         0.13280E+09
        -0.18568E+08
        -0.44967E+08
        -0.78314E+08
        -0.24104E+09
        -0.12968E+09
         0.47005E+08
         0.64434E+08
         0.33480E+09
         0.46902E+09
         0.62026E+09
         0.79411E+09
         0.61757E+09
         0.44884E+09
        -0.93960E+08
        -0.85866E+08
        -0.92288E+08
        -0.11433E+09
        -0.18903E+09
        -0.32073E+09
        -0.47661E+09
        -0.62036E+09
        -0.49581E+09
        -0.19305E+09
        -0.59271E+09
         0.77450E+08
        -0.35792E+06
        -0.98730E+07
         0.14551E+09
         0.31050E+09
         0.42354E+09
         0.63925E+09
         0.98682E+09
         0.14060E+10
         0.15833E+10
         0.13387E+10
         0.83938E+09
         0.36744E+09
         0.12750E+09
         0.18964E+08
         0.57295E+07
        -0.31056E+08
        -0.13150E+09
        -0.29816E+09
        -0.55051E+09
        -0.78890E+09
        -0.93854E+09
        -0.88683E+09
        -0.77169E+09
         0.16178E+08
         0.32828E+08
        -0.28693E+08
        -0.24155E+08
        -0.32606E+09
        -0.40788E+09
        -0.17126E+08
        -0.71560E+08
        -0.10374E+08
        -0.86690E+08
        -0.41096E+06
         0.92837E+08
         0.47738E+08
         0.58629E+07
         0.19491E+09
         0.21804E+08
        -0.73030E+08
         0.65761E+08
        -0.83093E+08
        -0.73208E+08
         0.49703E+08
         0.21590E+09
        -0.36511E+08
        -0.10152E+09
        -0.32023E+08
        -0.72062E+08
         0.10600E+09
         0.25132E+09
         0.36101E+09
         0.14424E+09
        -0.17642E+08
        -0.61014E+08
        -0.80050E+08
        -0.24490E+09
        -0.15453E+09
         0.65259E+08
         0.92192E+08
         0.32989E+09
         0.48611E+09
         0.64874E+09
         0.82640E+09
         0.62117E+09
         0.44861E+09
        -0.83211E+08
        -0.73238E+08
        -0.70450E+08
        -0.13687E+09
        -0.21092E+09
        -0.34356E+09
        -0.49623E+09
        -0.63212E+09
        -0.50990E+09
        -0.24018E+09
        -0.70158E+09
         0.90535E+08
         0.10087E+08
        -0.41204E+07
         0.13054E+09
         0.26602E+09
         0.40966E+09
         0.69789E+09
         0.10615E+10
         0.14955E+10
         0.16202E+10
         0.14046E+10
         0.98783E+09
         0.48790E+09
         0.19519E+09
         0.45786E+08
         0.41151E+08
         0.21898E+08
        -0.87658E+08
        -0.28620E+09
        -0.56343E+09
        -0.79537E+09
        -0.93674E+09
        -0.90914E+09
        -0.85530E+09
         0.11339E+08
         0.28848E+08
        -0.26889E+08
        -0.26201E+08
        -0.32885E+09
        -0.40563E+09
        -0.35181E+08
        -0.95071E+08
        -0.21290E+08
        -0.11531E+09
        -0.27668E+08
         0.63050E+08
         0.25901E+08
        -0.26429E+08
         0.15474E+09
         0.21740E+08
        -0.97342E+08
         0.66875E+08
        -0.99528E+08
        -0.10070E+09
         0.50626E+08
         0.23467E+09
        -0.41047E+08
        -0.11251E+09
        -0.54380E+08
        -0.84382E+08
         0.82714E+08
         0.24838E+09
         0.41105E+09
         0.16275E+09
        -0.30662E+08
        -0.92225E+08
        -0.93923E+08
        -0.24801E+09
        -0.14988E+09
         0.72889E+08
         0.86388E+08
         0.30312E+09
         0.50223E+09
         0.74973E+09
         0.10367E+10
         0.78417E+09
         0.53547E+09
        -0.98536E+08
        -0.10863E+09
        -0.12524E+09
        -0.18062E+09
        -0.23832E+09
        -0.35588E+09
        -0.48551E+09
        -0.59489E+09
        -0.48896E+09
        -0.23039E+09
        -0.70938E+09
         0.10376E+09
        -0.16657E+08
        -0.63115E+08
         0.61387E+08
         0.22175E+09
         0.41731E+09
         0.80043E+09
         0.13127E+10
         0.19519E+10
         0.21339E+10
         0.17281E+10
         0.11422E+10
         0.54967E+09
         0.19232E+09
         0.71013E+07
        -0.33606E+08
        -0.66279E+08
        -0.14274E+09
        -0.29451E+09
        -0.53132E+09
        -0.72000E+09
        -0.83489E+09
        -0.82752E+09
        -0.83131E+09
         0.42582E+07
         0.13349E+08
        -0.42097E+08
        -0.40556E+08
        -0.33623E+09
        -0.42466E+09
        -0.53327E+08
        -0.10758E+09
        -0.30084E+08
        -0.12780E+09
        -0.48762E+08
         0.36411E+08
        -0.59366E+07
        -0.39969E+08
         0.14708E+09
         0.24523E+08
        -0.11789E+09
         0.62844E+08
        -0.10488E+09
        -0.12091E+09
         0.48694E+08
         0.25352E+09
        -0.34012E+08
        -0.10279E+09
        -0.65593E+08
        -0.78485E+08
         0.97212E+08
         0.31516E+09
         0.56814E+09
         0.18910E+09
        -0.43609E+08
        -0.11246E+09
        -0.10583E+09
        -0.26041E+09
        -0.15785E+09
         0.43946E+08
         0.49287E+08
         0.36719E+09
         0.70910E+09
         0.11412E+10
         0.15859E+10
         0.11024E+10
         0.65554E+09
        -0.98637E+08
        -0.13711E+09
        -0.17954E+09
        -0.22719E+09
        -0.26464E+09
        -0.35595E+09
        -0.48059E+09
        -0.60195E+09
        -0.50871E+09
        -0.22156E+09
        -0.69289E+09
         0.66835E+08
        -0.70011E+08
        -0.10105E+09
         0.57318E+08
         0.22110E+09
         0.51639E+09
         0.12520E+10
         0.22194E+10
         0.30686E+10
         0.28547E+10
         0.19938E+10
         0.11945E+10
         0.54701E+09
         0.19815E+09
         0.10646E+07
        -0.87040E+08
        -0.15294E+09
        -0.21931E+09
        -0.31693E+09
        -0.48468E+09
        -0.67228E+09
        -0.83405E+09
        -0.85125E+09
        -0.84643E+09
         0.33127E+07
         0.28451E+07
        -0.59122E+08
        -0.46164E+08
        -0.35590E+09
        -0.42890E+09
        -0.60114E+08
        -0.10891E+09
        -0.28136E+08
        -0.12806E+09
        -0.53194E+08
         0.30819E+08
        -0.19550E+08
        -0.38479E+08
         0.16585E+09
         0.25463E+08
        -0.11995E+09
         0.62424E+08
        -0.10486E+09
        -0.12166E+09
         0.50707E+08
         0.27929E+09
        -0.33968E+08
        -0.95298E+08
        -0.70158E+08
        -0.73447E+08
         0.10782E+09
         0.34129E+09
         0.61044E+09
         0.18605E+09
        -0.51357E+08
        -0.11985E+09
        -0.10786E+09
        -0.25232E+09
        -0.19382E+09
         0.31725E+07
         0.20588E+08
         0.43970E+09
         0.84441E+09
         0.13220E+10
         0.17813E+10
         0.11850E+10
         0.69647E+09
        -0.10485E+09
        -0.15715E+09
        -0.20768E+09
        -0.25312E+09
        -0.28372E+09
        -0.35230E+09
        -0.45294E+09
        -0.56529E+09
        -0.49092E+09
        -0.26815E+09
        -0.71253E+09
         0.66457E+07
        -0.94844E+08
        -0.91105E+08
         0.77686E+08
         0.26058E+09
         0.71098E+09
         0.16771E+10
         0.27750E+10
         0.34998E+10
         0.30325E+10
         0.21354E+10
         0.12450E+10
         0.53690E+09
         0.19603E+09
        -0.16011E+08
        -0.12278E+09
        -0.18756E+09
        -0.25743E+09
        -0.35089E+09
        -0.47316E+09
        -0.61456E+09
        -0.77335E+09
        -0.81631E+09
        -0.84233E+09
         0.53725E+07
         0.73612E+07
        -0.44508E+08
        -0.28745E+08
        -0.32865E+09
        -0.37892E+09
        -0.58639E+08
        -0.11001E+09
        -0.26512E+08
        -0.13004E+09
        -0.47094E+08
         0.44321E+08
        -0.12981E+08
        -0.33349E+08
         0.20156E+09
         0.31945E+08
        -0.11563E+09
         0.66744E+08
        -0.92483E+08
        -0.11763E+09
         0.58710E+08
         0.27175E+09
        -0.24363E+08
        -0.75185E+08
        -0.71912E+08
        -0.62234E+08
         0.99943E+08
         0.31172E+09
         0.54821E+09
         0.16674E+09
        -0.55103E+08
        -0.12578E+09
        -0.10195E+09
        -0.22836E+09
        -0.18573E+09
         0.94908E+07
         0.29935E+08
         0.47070E+09
         0.81971E+09
         0.12079E+10
         0.15887E+10
         0.10649E+10
         0.64638E+09
        -0.10501E+09
        -0.17832E+09
        -0.24025E+09
        -0.27681E+09
        -0.29791E+09
        -0.35062E+09
        -0.42038E+09
        -0.49652E+09
        -0.42383E+09
        -0.27415E+09
        -0.67454E+09
         0.14421E+08
        -0.53701E+08
        -0.60683E+08
         0.10785E+09
         0.38448E+09
         0.92946E+09
         0.18174E+10
         0.26470E+10
         0.31144E+10
         0.27735E+10
         0.20438E+10
         0.12228E+10
         0.53259E+09
         0.19301E+09
        -0.21484E+08
        -0.15769E+09
        -0.23075E+09
        -0.28872E+09
        -0.37400E+09
        -0.47757E+09
        -0.56691E+09
        -0.66274E+09
        -0.67753E+09
        -0.73712E+09
        -0.25765E+07
         0.34893E+07
        -0.34460E+08
        -0.26775E+08
        -0.28497E+09
        -0.33694E+09
        -0.64636E+08
        -0.11646E+09
        -0.28781E+08
        -0.13064E+09
        -0.50935E+08
         0.43800E+08
        -0.14903E+08
        -0.37891E+08
         0.20333E+09
         0.33307E+08
        -0.10902E+09
         0.60216E+08
        -0.85912E+08
        -0.11791E+09
         0.39035E+08
         0.23510E+09
        -0.43716E+08
        -0.75630E+08
        -0.70282E+08
        -0.70672E+08
         0.88155E+08
         0.28151E+09
         0.48764E+09
         0.15396E+09
        -0.67492E+08
        -0.14344E+09
        -0.10482E+09
        -0.22227E+09
        -0.15546E+09
         0.19976E+08
         0.34586E+08
         0.43808E+09
         0.72085E+09
         0.10449E+10
         0.13857E+10
         0.95743E+09
         0.59340E+09
        -0.12684E+09
        -0.20122E+09
        -0.25806E+09
        -0.28673E+09
        -0.29727E+09
        -0.33843E+09
        -0.39808E+09
        -0.46278E+09
        -0.39009E+09
        -0.23916E+09
        -0.58032E+09
         0.30585E+08
        -0.32285E+08
        -0.67524E+08
         0.96976E+08
         0.42821E+09
         0.91212E+09
         0.15627E+10
         0.22246E+10
         0.27073E+10
         0.25657E+10
         0.19181E+10
         0.11133E+10
         0.47677E+09
         0.14800E+09
        -0.47785E+08
        -0.17946E+09
        -0.24372E+09
        -0.27220E+09
        -0.33230E+09
        -0.42450E+09
        -0.51086E+09
        -0.60378E+09
        -0.59333E+09
        -0.62169E+09
        -0.17389E+08
        -0.17189E+08
        -0.50146E+08
        -0.44887E+08
        -0.27299E+09
        -0.33427E+09
        -0.81628E+08
        -0.12087E+09
        -0.33308E+08
        -0.12118E+09
        -0.69972E+08
         0.14336E+08
        -0.41119E+08
        -0.50721E+08
         0.16269E+09
         0.14164E+08
        -0.10103E+09
         0.39387E+08
        -0.94215E+08
        -0.10449E+09
         0.28762E+08
         0.22750E+09
        -0.60976E+08
        -0.10272E+09
        -0.53535E+08
        -0.94162E+08
         0.84888E+08
         0.29015E+09
         0.50722E+09
         0.17551E+09
        -0.73877E+08
        -0.14366E+09
        -0.10730E+09
        -0.22286E+09
        -0.14434E+09
         0.41421E+07
         0.81612E+07
         0.37965E+09
         0.66442E+09
         0.10239E+10
         0.14055E+10
         0.98956E+09
         0.60596E+09
        -0.13213E+09
        -0.17685E+09
        -0.21134E+09
        -0.24835E+09
        -0.26154E+09
        -0.30602E+09
        -0.37359E+09
        -0.44675E+09
        -0.38789E+09
        -0.20521E+09
        -0.53129E+09
         0.18753E+08
        -0.61365E+08
        -0.10753E+09
         0.49086E+08
         0.35044E+09
         0.70525E+09
         0.12442E+10
         0.20237E+10
         0.27273E+10
         0.26321E+10
         0.19053E+10
         0.10584E+10
         0.46693E+09
         0.14682E+09
        -0.26828E+08
        -0.11317E+09
        -0.16388E+09
        -0.18776E+09
        -0.24193E+09
        -0.34468E+09
        -0.45427E+09
        -0.57669E+09
        -0.59344E+09
        -0.60796E+09
        -0.15820E+08
        -0.19602E+08
        -0.57729E+08
        -0.44923E+08
        -0.26878E+09
        -0.31667E+09
        -0.73196E+08
        -0.10611E+09
        -0.35422E+08
        -0.11087E+09
        -0.68236E+08
        -0.20273E+07
        -0.47283E+08
        -0.50337E+08
         0.14887E+09
        -0.39648E+07
        -0.10202E+09
         0.29512E+08
        -0.98174E+08
        -0.93694E+08
         0.59591E+08
         0.25325E+09
        -0.32768E+08
        -0.10801E+09
        -0.45250E+08
        -0.97239E+08
         0.85996E+08
         0.32135E+09
         0.57586E+09
         0.19023E+09
        -0.63090E+08
        -0.12666E+09
        -0.85903E+08
        -0.19391E+09
        -0.14630E+09
        -0.12392E+08
        -0.92385E+07
         0.40881E+09
         0.77678E+09
         0.12126E+10
         0.16278E+10
         0.10947E+10
         0.63939E+09
        -0.10147E+09
        -0.13866E+09
        -0.16936E+09
        -0.21587E+09
        -0.22492E+09
        -0.25333E+09
        -0.30553E+09
        -0.37147E+09
        -0.34213E+09
        -0.19684E+09
        -0.51633E+09
        -0.84303E+07
        -0.93928E+08
        -0.11458E+09
         0.33256E+08
         0.31194E+09
         0.77154E+09
         0.15725E+10
         0.25531E+10
         0.31844E+10
         0.28356E+10
         0.19459E+10
         0.11134E+10
         0.54921E+09
         0.21234E+09
         0.24097E+08
        -0.52617E+08
        -0.10656E+09
        -0.14283E+09
        -0.19398E+09
        -0.26892E+09
        -0.34501E+09
        -0.46499E+09
        -0.52705E+09
        -0.58778E+09
        -0.15589E+08
        -0.16447E+08
        -0.56888E+08
        -0.37115E+08
        -0.25503E+09
        -0.27456E+09
        -0.57398E+08
        -0.92095E+08
        -0.44484E+08
        -0.11057E+09
        -0.52265E+08
         0.62519E+07
        -0.35192E+08
        -0.42053E+08
         0.14294E+09
        -0.14609E+08
        -0.11377E+09
         0.21435E+08
        -0.95842E+08
        -0.90852E+08
         0.74149E+08
         0.28825E+09
        -0.28339E+08
        -0.10070E+09
        -0.66792E+08
        -0.87619E+08
         0.69642E+08
         0.28641E+09
         0.52160E+09
         0.15429E+09
        -0.53196E+08
        -0.11101E+09
        -0.64084E+08
        -0.14356E+09
        -0.15876E+09
        -0.29026E+08
        -0.14631E+08
         0.39943E+09
         0.76172E+09
         0.11792E+10
         0.15672E+10
         0.10304E+10
         0.62604E+09
        -0.89264E+08
        -0.12660E+09
        -0.15751E+09
        -0.19651E+09
        -0.18775E+09
        -0.20778E+09
        -0.22939E+09
        -0.27028E+09
        -0.26875E+09
        -0.21837E+09
        -0.48643E+09
        -0.43295E+08
        -0.94085E+08
        -0.77792E+08
         0.59630E+08
         0.29612E+09
         0.79148E+09
         0.16778E+10
         0.26539E+10
         0.31402E+10
         0.27122E+10
         0.19385E+10
         0.11822E+10
         0.55296E+09
         0.19027E+09
         0.92271E+07
        -0.60427E+08
        -0.96016E+08
        -0.11542E+09
        -0.15254E+09
        -0.19237E+09
        -0.21861E+09
        -0.30851E+09
        -0.39139E+09
        -0.49957E+09
        -0.21664E+08
        -0.12391E+08
        -0.31436E+08
        -0.17642E+08
        -0.21039E+09
        -0.20425E+09
        -0.48951E+08
        -0.84128E+08
        -0.51675E+08
        -0.98632E+08
        -0.24190E+08
         0.47967E+08
        -0.15317E+08
        -0.82246E+07
         0.19048E+09
        -0.16950E+08
        -0.10564E+09
         0.15905E+08
        -0.76416E+08
        -0.52750E+08
         0.73379E+08
         0.35511E+09
        -0.55150E+08
        -0.89782E+08
        -0.47940E+08
        -0.75880E+08
         0.97813E+08
         0.29358E+09
         0.50817E+09
         0.18415E+09
        -0.31828E+08
        -0.82262E+08
        -0.23797E+08
        -0.63804E+08
        -0.10226E+09
         0.20386E+08
         0.85772E+07
         0.41918E+09
         0.72584E+09
         0.10842E+10
         0.14280E+10
         0.98670E+09
         0.67845E+09
        -0.93864E+08
        -0.10047E+09
        -0.95929E+08
        -0.11585E+09
        -0.90563E+08
        -0.86391E+08
        -0.10180E+09
        -0.12413E+09
        -0.15679E+09
        -0.14105E+09
        -0.43643E+09
         0.56672E+08
        -0.42750E+08
        -0.33043E+08
         0.11929E+09
         0.33232E+09
         0.75988E+09
         0.15306E+10
         0.23755E+10
         0.28104E+10
         0.25160E+10
         0.20060E+10
         0.12363E+10
         0.46590E+09
         0.99972E+08
        -0.14315E+08
        -0.20301E+08
         0.42094E+07
         0.40713E+08
         0.29603E+08
         0.11198E+07
        -0.59258E+07
        -0.82055E+08
        -0.20768E+09
        -0.39452E+09
        -0.24047E+08
         0.60253E+07
         0.46120E+08
         0.54055E+08
        -0.53481E+08
         0.14864E+08
        -0.29373E+08
        -0.70704E+08
        -0.51760E+08
        -0.75665E+08
         0.43503E+08
         0.16777E+09
         0.41152E+08
         0.70689E+08
         0.33048E+09
        -0.10086E+08
        -0.90308E+08
         0.33548E+08
        -0.67434E+08
        -0.35130E+08
         0.52964E+08
         0.33698E+09
        -0.91086E+08
        -0.88916E+08
        -0.52427E+07
        -0.79289E+08
         0.18370E+09
         0.37222E+09
         0.60319E+09
         0.22978E+09
         0.23152E+08
        -0.57475E+08
         0.99078E+08
         0.15736E+09
         0.75545E+08
         0.15481E+09
         0.78712E+08
         0.57094E+09
         0.89504E+09
         0.12661E+10
         0.15908E+10
         0.10684E+10
         0.69316E+09
        -0.13505E+09
        -0.85924E+08
         0.21497E+08
         0.51374E+08
         0.13648E+09
         0.23954E+09
         0.32514E+09
         0.35603E+09
         0.19413E+09
         0.96292E+08
        -0.25018E+09
         0.29963E+09
         0.97044E+08
         0.77982E+08
         0.28339E+09
         0.57090E+09
         0.10582E+10
         0.19231E+10
         0.28123E+10
         0.30710E+10
         0.25582E+10
         0.19212E+10
         0.11179E+10
         0.41098E+09
         0.56445E+08
        -0.73710E+08
         0.17389E+08
         0.22294E+09
         0.43323E+09
         0.53766E+09
         0.60033E+09
         0.64658E+09
         0.56141E+09
         0.30597E+09
        -0.75860E+08
        -0.62075E+08
        -0.70515E+07
         0.11547E+09
         0.10744E+09
         0.19963E+09
         0.32491E+09
        -0.38520E+08
        -0.76881E+08
        -0.74524E+08
        -0.69445E+08
         0.88696E+08
         0.22429E+09
         0.71338E+08
         0.13504E+09
         0.40677E+09
        -0.57453E+08
        -0.91829E+08
         0.15683E+08
        -0.12284E+09
        -0.68528E+08
        -0.32052E+08
         0.14261E+09
        -0.17528E+09
        -0.21306E+09
        -0.34703E+07
        -0.23641E+09
         0.22713E+09
         0.31377E+09
         0.35492E+09
         0.13519E+09
        -0.15195E+07
        -0.19694E+09
         0.19409E+09
         0.38729E+09
         0.30350E+09
         0.29069E+09
         0.13447E+09
         0.58685E+09
         0.73239E+09
         0.78645E+09
         0.76520E+09
         0.45217E+09
         0.30989E+09
        -0.28576E+09
        -0.19213E+09
         0.63776E+08
         0.14350E+09
         0.33018E+09
         0.55714E+09
         0.76065E+09
         0.87947E+09
         0.60625E+09
         0.41230E+09
         0.17865E+09
         0.57992E+09
         0.26061E+09
         0.14277E+09
         0.34269E+09
         0.65292E+09
         0.10525E+10
         0.15586E+10
         0.17561E+10
         0.14318E+10
         0.11018E+10
         0.98310E+09
         0.70295E+09
         0.36766E+09
         0.13099E+09
        -0.70132E+08
         0.83836E+08
         0.50061E+09
         0.92654E+09
         0.11374E+10
         0.12490E+10
         0.13498E+10
         0.13034E+10
         0.99789E+09
         0.50119E+09
        -0.15108E+09
        -0.16422E+09
        -0.11322E+09
        -0.10262E+09
         0.19402E+09
         0.34934E+09
        -0.11676E+09
        -0.10220E+09
        -0.60744E+08
        -0.10944E+08
        -0.24416E+08
         0.90560E+08
        -0.51189E+08
         0.37447E+08
         0.20696E+09
        -0.14436E+09
         0.17664E+08
        -0.13475E+09
         0.43748E+08
         0.23380E+09
         0.60967E+09
         0.85523E+09
         0.25570E+09
        -0.77845E+08
         0.14115E+09
        -0.29194E+09
         0.17205E+09
         0.22288E+09
         0.53112E+08
         0.35966E+09
        -0.16593E+09
        -0.22407E+09
        -0.11170E+08
         0.19074E+09
         0.84827E+08
        -0.76204E+08
        -0.10653E+09
         0.20364E+09
        -0.27447E+08
        -0.47267E+09
        -0.85730E+09
        -0.21261E+09
         0.60396E+09
        -0.70763E+08
        -0.10030E+08
         0.39717E+09
         0.37237E+09
         0.43868E+09
         0.53722E+09
         0.69052E+09
         0.86534E+09
         0.58369E+09
         0.27294E+09
         0.69027E+09
         0.77188E+08
        -0.16309E+08
        -0.66966E+08
         0.16112E+08
         0.10610E+09
         0.36490E+08
        -0.51328E+09
        -0.15043E+10
        -0.18450E+10
        -0.28831E+09
         0.17361E+10
         0.24679E+10
         0.20926E+10
         0.13540E+10
         0.71264E+09
         0.70651E+09
         0.13252E+10
         0.18945E+10
         0.18333E+10
         0.15386E+10
         0.14820E+10
         0.14806E+10
         0.12927E+10
         0.10267E+10
        -0.21101E+09
        -0.38203E+09
        -0.75942E+09
        -0.58071E+09
        -0.21313E+09
         0.50011E+08
        -0.64404E+08
        -0.10296E+09
         0.12486E+09
         0.21465E+09
        -0.13289E+09
        -0.71811E+08
         0.90830E+07
        -0.18751E+09
        -0.24071E+09
         0.11395E+09
         0.46048E+09
        -0.28748E+09
         0.83572E+09
         0.13732E+10
         0.28990E+10
         0.39320E+10
         0.17432E+10
         0.72410E+09
         0.85235E+09
         0.14363E+09
         0.17580E+09
         0.77605E+09
         0.11057E+10
         0.18032E+10
        -0.17713E+09
         0.64393E+08
        -0.50035E+09
        -0.50921E+09
        -0.74007E+09
        -0.10942E+10
        -0.55564E+09
        -0.13816E+09
        -0.13443E+09
        -0.28320E+09
        -0.15491E+09
         0.15320E+10
         0.35479E+10
         0.76737E+09
         0.51649E+09
         0.95278E+09
         0.78104E+09
         0.43980E+09
         0.73167E+07
        -0.23737E+08
         0.26927E+09
         0.98964E+08
        -0.38253E+09
         0.11600E+10
        -0.12821E+10
        -0.70590E+09
        -0.23428E+09
        -0.15460E+09
        -0.33791E+09
        -0.76859E+09
        -0.16830E+10
        -0.23148E+10
        -0.11186E+10
         0.32204E+10
         0.79022E+10
         0.90713E+10
         0.70085E+10
         0.42092E+10
         0.22038E+10
         0.14595E+10
         0.21787E+10
         0.28611E+10
         0.20901E+10
         0.10769E+10
         0.90251E+09
         0.11218E+10
         0.12766E+10
         0.14841E+10
  
SCALARS                      stress_zz  double 1
LOOKUP_TABLE default
        -0.15285E+11
        -0.11579E+11
        -0.13875E+11
        -0.17189E+11
        -0.22504E+02
        -0.12644E+02
        -0.10882E+02
        -0.26696E+02
        -0.17027E+11
        -0.18400E+11
        -0.72523E+01
        -0.33391E+02
        -0.10008E+11
        -0.14613E+11
        -0.11858E+02
        -0.11501E+02
        -0.16078E+11
        -0.15463E+11
        -0.20449E+02
        -0.14773E+02
        -0.92798E+10
         0.21869E+09
        -0.61398E+08
        -0.11488E+02
         0.31083E+01
         0.20578E+01
        -0.12745E+11
        -0.42046E+10
        -0.21159E+02
        -0.29631E+01
        -0.15706E+11
        -0.15357E+11
        -0.16237E+11
        -0.18370E+02
        -0.16350E+02
        -0.20244E+02
        -0.13751E+11
        -0.14551E+11
        -0.17053E+02
        -0.16052E+02
        -0.11626E+11
        -0.14619E+11
        -0.10653E+02
        -0.13126E+02
        -0.10835E+11
        -0.12962E+11
        -0.13192E+02
        -0.16944E+02
        -0.14401E+11
        -0.14797E+02
        -0.14723E+11
        -0.20552E+02
        -0.12435E+11
        -0.18803E+02
        -0.11572E+11
        -0.11499E+02
        -0.10998E+11
        -0.14673E+11
        -0.10578E+02
        -0.95841E+01
        -0.16234E+11
        -0.16384E+11
        -0.15641E+02
        -0.25755E+02
        -0.17540E+11
        -0.20482E+02
        -0.19422E+11
        -0.33898E+02
        -0.13250E+11
        -0.99344E+10
         0.41508E+00
        -0.92199E+01
        -0.52290E+10
         0.59462E+01
        -0.21911E+10
        -0.11895E+02
         0.14220E+10
        -0.33860E+01
        -0.81120E+08
        -0.26220E+01
        -0.57809E+10
        -0.12117E+11
        -0.80480E+01
        -0.15571E+02
        -0.16255E+11
        -0.22326E+02
        -0.12967E+11
        -0.16841E+02
        -0.16487E+11
        -0.25899E+02
        -0.18168E+11
        -0.17035E+11
        -0.33595E+02
        -0.29952E+02
        -0.17408E+11
        -0.11473E+02
        -0.19477E+11
        -0.21257E+02
        -0.20610E+11
        -0.30154E+02
        -0.20497E+11
        -0.19575E+11
        -0.33258E+02
        -0.46390E+02
        -0.14319E+11
        -0.16959E+11
         0.11469E+02
        -0.60010E+02
        -0.98652E+10
         0.78672E+01
        -0.11831E+10
         0.91313E+01
         0.11432E+11
         0.15208E+02
         0.21204E+11
         0.81896E+01
         0.25587E+11
         0.83546E+00
         0.34560E+11
        -0.41640E+00
         0.77015E+11
         0.75397E+01
         0.70458E+11
        -0.21968E+01
        -0.10233E+11
        -0.16175E+02
        -0.27900E+11
        -0.17647E+02
        -0.27282E+11
        -0.19344E+02
        -0.20147E+11
        -0.14213E+02
        -0.14870E+11
        -0.13741E+02
        -0.12424E+11
        -0.13142E+02
        -0.14476E+11
        -0.84339E+01
        -0.20616E+11
        -0.46229E+01
        -0.21441E+11
        -0.15003E+02
        -0.19372E+11
        -0.11991E+02
        -0.18805E+11
        -0.88162E+01
        -0.20060E+11
        -0.21554E+02
        -0.20818E+11
        -0.27365E+02
        -0.20230E+11
        -0.31226E+02
        -0.18682E+11
        -0.20541E+02
        -0.16605E+11
        -0.13724E+02
        -0.33581E+10
        -0.16362E+10
        -0.38898E+09
        -0.20642E+10
         0.16586E+10
         0.29363E+10
        -0.30375E+10
        -0.40959E+10
        -0.42640E+10
        -0.39984E+10
        -0.31632E+10
        -0.18420E+10
        -0.17053E+10
        -0.37747E+10
        -0.19179E+10
        -0.50592E+10
        -0.33557E+10
        -0.44885E+10
        -0.14528E+10
        -0.24696E+10
        -0.47270E+09
        -0.48940E+10
         0.51664E+09
        -0.13121E+10
        -0.45316E+10
        -0.31864E+10
        -0.51008E+10
        -0.75744E+10
        -0.10071E+11
        -0.66622E+10
        -0.46308E+10
        -0.31567E+10
        -0.23702E+10
         0.18679E+10
         0.25796E+10
         0.13223E+10
        -0.22541E+09
        -0.41406E+10
        -0.64999E+10
        -0.78070E+10
        -0.91937E+10
        -0.13348E+11
        -0.11143E+11
         0.40434E+09
         0.95269E+09
         0.19604E+10
         0.35873E+08
         0.11877E+10
         0.64197E+10
         0.13232E+11
         0.18242E+11
         0.91107E+10
         0.46806E+10
         0.69343E+10
         0.11708E+10
        -0.13769E+09
         0.28216E+09
         0.13294E+10
         0.39989E+10
         0.52168E+10
         0.10147E+11
         0.22617E+11
         0.88498E+10
        -0.18454E+11
        -0.20230E+11
        -0.13384E+11
        -0.66671E+10
        -0.83536E+09
         0.36450E+10
         0.73008E+10
         0.70146E+10
         0.76917E+10
         0.16568E+11
         0.30837E+11
         0.42525E+11
         0.41240E+11
         0.25835E+11
         0.12259E+11
        -0.47990E+06
         0.22919E+09
         0.30951E+10
         0.20822E+10
         0.70353E+10
         0.93265E+10
        -0.10136E+10
         0.57309E+09
         0.51731E+09
         0.10283E+10
        -0.94702E+09
        -0.31773E+10
        -0.21283E+10
        -0.35188E+09
        -0.45701E+10
        -0.73016E+09
         0.15876E+10
        -0.24773E+09
         0.13079E+10
         0.97490E+09
        -0.76215E+09
        -0.45942E+10
         0.20492E+09
         0.49053E+09
        -0.25093E+09
        -0.31772E+09
        -0.29572E+10
        -0.72977E+10
        -0.12647E+11
        -0.42505E+10
         0.82061E+08
         0.20338E+08
         0.32801E+10
         0.81263E+10
         0.67147E+10
         0.44298E+10
         0.85634E+09
        -0.96213E+10
        -0.15395E+11
        -0.21198E+11
        -0.25498E+11
        -0.20581E+11
        -0.12499E+11
         0.96616E+09
         0.18999E+10
         0.22378E+10
         0.14588E+10
         0.38308E+10
         0.10323E+11
         0.17558E+11
         0.21820E+11
         0.15364E+11
         0.80327E+10
         0.11796E+11
         0.48656E+10
         0.11403E+10
        -0.21371E+10
        -0.62843E+10
        -0.10631E+11
        -0.16446E+11
        -0.23167E+11
        -0.28063E+11
        -0.28300E+11
        -0.28849E+11
        -0.25013E+11
        -0.15672E+11
        -0.78449E+10
        -0.21977E+10
         0.24050E+10
         0.60720E+10
         0.50009E+10
         0.36688E+10
         0.79691E+10
         0.19292E+11
         0.29272E+11
         0.32632E+11
         0.28183E+11
         0.18876E+11
         0.30635E+09
        -0.16801E+09
         0.84142E+08
         0.33339E+09
         0.97795E+09
         0.13779E+10
         0.25573E+09
         0.11838E+10
         0.10682E+10
         0.13532E+10
         0.59212E+09
        -0.77478E+09
        -0.50888E+09
         0.76008E+09
        -0.20061E+10
         0.90137E+09
         0.16812E+10
         0.59540E+09
         0.11358E+10
         0.83223E+09
        -0.10926E+10
        -0.30946E+10
        -0.65935E+09
         0.48018E+09
         0.45020E+09
         0.32247E+09
        -0.10679E+10
        -0.41490E+10
        -0.81469E+10
        -0.22630E+10
         0.23862E+09
        -0.40441E+09
         0.51325E+09
         0.53051E+09
         0.28851E+09
        -0.13387E+09
        -0.39290E+09
        -0.59525E+10
        -0.11020E+11
        -0.16303E+11
        -0.20173E+11
        -0.14250E+11
        -0.78387E+10
        -0.76695E+09
        -0.14418E+10
        -0.29091E+10
        -0.28692E+10
        -0.27723E+10
        -0.23031E+10
        -0.13223E+10
        -0.15429E+09
         0.10466E+10
         0.20072E+09
         0.25036E+10
        -0.53244E+09
        -0.65951E+09
        -0.12721E+10
        -0.37708E+10
        -0.73790E+10
        -0.12911E+11
        -0.20916E+11
        -0.26696E+11
        -0.28105E+11
        -0.25512E+11
        -0.18259E+11
        -0.11094E+11
        -0.57247E+10
        -0.30349E+10
        -0.26037E+10
        -0.33738E+10
        -0.52882E+10
        -0.77265E+10
        -0.96098E+10
        -0.94066E+10
        -0.62709E+10
        -0.56762E+09
         0.39477E+10
         0.45003E+10
         0.53647E+09
         0.35049E+09
        -0.11298E+09
        -0.42707E+08
        -0.73208E+09
        -0.14965E+10
         0.83930E+09
         0.10335E+10
         0.75512E+09
         0.88668E+09
         0.10375E+10
         0.48363E+09
         0.51558E+09
         0.92407E+09
        -0.40723E+09
         0.78387E+09
         0.98695E+09
         0.47730E+09
         0.68322E+09
         0.52141E+09
        -0.64888E+09
        -0.17410E+10
        -0.25060E+09
         0.40083E+09
         0.30511E+09
         0.39588E+09
        -0.30262E+09
        -0.22883E+10
        -0.47434E+10
        -0.11559E+10
        -0.30620E+06
        -0.19932E+09
        -0.69932E+09
        -0.19292E+10
        -0.75376E+09
        -0.40458E+09
         0.11103E+09
        -0.31178E+10
        -0.67221E+10
        -0.10421E+11
        -0.13101E+11
        -0.86169E+10
        -0.45051E+10
        -0.37006E+09
        -0.98666E+09
        -0.18976E+10
        -0.19454E+10
        -0.27892E+10
        -0.43153E+10
        -0.55195E+10
        -0.58873E+10
        -0.35045E+10
        -0.10989E+10
        -0.11008E+10
        -0.81830E+09
        -0.16855E+09
        -0.96724E+08
        -0.12324E+10
        -0.34958E+10
        -0.77217E+10
        -0.14474E+11
        -0.20090E+11
        -0.21498E+11
        -0.17740E+11
        -0.11684E+11
        -0.65326E+10
        -0.28988E+10
        -0.12209E+10
        -0.14697E+10
        -0.25866E+10
        -0.35489E+10
        -0.50970E+10
        -0.79561E+10
        -0.11019E+11
        -0.11632E+11
        -0.90006E+10
        -0.49841E+10
        -0.21511E+10
         0.45395E+09
         0.41700E+09
         0.13256E+09
         0.60589E+08
        -0.36388E+09
        -0.85978E+09
         0.68928E+09
         0.74849E+09
         0.50274E+09
         0.68219E+09
         0.81860E+09
         0.53357E+09
         0.51047E+09
         0.76717E+09
        -0.36171E+08
         0.31124E+09
         0.60148E+09
         0.22240E+09
         0.34346E+09
         0.39079E+09
        -0.25040E+09
        -0.85433E+09
         0.48395E+08
         0.19923E+09
         0.39852E+09
         0.17205E+09
         0.10858E+09
        -0.11172E+10
        -0.28164E+10
        -0.48748E+09
         0.20186E+08
         0.45057E+08
        -0.26131E+09
        -0.79126E+09
        -0.15295E+09
         0.96640E+08
         0.30317E+09
        -0.18238E+10
        -0.43429E+10
        -0.69876E+10
        -0.90033E+10
        -0.56729E+10
        -0.27054E+10
         0.10972E+09
         0.82390E+07
        -0.18432E+08
        -0.11364E+09
        -0.49540E+09
        -0.12006E+10
        -0.19310E+10
        -0.24190E+10
        -0.16668E+10
        -0.30848E+09
        -0.90143E+09
        -0.64952E+08
         0.80835E+08
         0.10387E+09
        -0.32335E+09
        -0.18145E+10
        -0.52180E+10
        -0.10648E+11
        -0.15082E+11
        -0.16034E+11
        -0.12775E+11
        -0.75015E+10
        -0.33968E+10
        -0.11493E+10
        -0.35535E+08
         0.15541E+09
        -0.10416E+08
         0.25344E+08
        -0.12434E+09
        -0.10348E+10
        -0.25687E+10
        -0.36907E+10
        -0.38019E+10
        -0.29431E+10
        -0.18128E+10
         0.19645E+09
         0.18630E+09
         0.60275E+08
        -0.22615E+08
        -0.13239E+09
        -0.25558E+09
         0.34558E+09
         0.40441E+09
         0.24560E+09
         0.42707E+09
         0.44466E+09
         0.34324E+09
         0.26887E+09
         0.46317E+09
         0.49669E+08
         0.35871E+08
         0.30657E+09
        -0.28940E+07
         0.17207E+09
         0.25458E+09
         0.58166E+08
        -0.17169E+09
         0.10835E+09
         0.72464E+08
         0.33159E+09
        -0.23545E+08
         0.24038E+09
        -0.31344E+09
        -0.12279E+10
        -0.84959E+08
        -0.89631E+08
        -0.19366E+08
        -0.96867E+08
        -0.11017E+09
         0.30469E+08
         0.13671E+09
         0.17134E+09
        -0.87794E+09
        -0.21782E+10
        -0.35790E+10
        -0.46730E+10
        -0.27305E+10
        -0.10850E+10
         0.81138E+08
         0.13858E+09
         0.29546E+09
         0.23668E+09
         0.16854E+09
         0.85282E+08
        -0.43317E+08
        -0.21213E+09
        -0.28874E+09
         0.14134E+08
        -0.42123E+09
         0.19144E+09
         0.84048E+08
         0.10293E+09
         0.25071E+08
        -0.83295E+09
        -0.30730E+10
        -0.63826E+10
        -0.88791E+10
        -0.90232E+10
        -0.64311E+10
        -0.31088E+10
        -0.98471E+09
        -0.75017E+08
         0.27507E+09
         0.32288E+09
         0.42802E+09
         0.63610E+09
         0.81057E+09
         0.82903E+09
         0.67215E+09
         0.33881E+09
        -0.23054E+09
        -0.60608E+09
        -0.63120E+09
         0.37691E+08
         0.29266E+08
        -0.18225E+08
        -0.51343E+08
        -0.13482E+09
        -0.17799E+09
         0.89027E+08
         0.12857E+09
         0.57859E+08
         0.18509E+09
         0.15911E+09
         0.14881E+09
         0.64348E+08
         0.20513E+09
         0.96058E+08
        -0.28585E+08
         0.95422E+08
        -0.38331E+08
         0.52229E+08
         0.16022E+09
         0.14102E+09
         0.19437E+09
         0.53386E+08
        -0.19741E+06
         0.18761E+09
        -0.55691E+08
         0.18958E+09
         0.45303E+08
        -0.25400E+09
         0.94304E+08
        -0.86009E+08
        -0.59388E+08
        -0.81054E+08
        -0.78030E+08
        -0.25785E+08
         0.35450E+08
         0.22333E+08
        -0.21369E+09
        -0.65833E+09
        -0.11220E+10
        -0.14673E+10
        -0.72295E+09
        -0.59436E+08
         0.27640E+07
         0.21677E+08
         0.82310E+08
         0.37856E+08
         0.12329E+08
        -0.31340E+07
        -0.32921E+08
        -0.96986E+08
        -0.15626E+09
        -0.27886E+08
        -0.34975E+09
         0.98081E+08
        -0.38924E+08
        -0.15912E+08
         0.75246E+08
        -0.19023E+09
        -0.10992E+10
        -0.23926E+10
        -0.32374E+10
        -0.30199E+10
        -0.16910E+10
        -0.29328E+09
         0.34717E+09
         0.36119E+09
         0.22436E+09
         0.14606E+09
         0.18483E+09
         0.24464E+09
         0.29996E+09
         0.29490E+09
         0.24962E+09
         0.16722E+09
        -0.66209E+08
        -0.26616E+09
        -0.38275E+09
         0.61254E+07
        -0.13867E+08
        -0.42619E+08
        -0.36337E+08
        -0.17083E+09
        -0.22335E+09
        -0.12034E+08
         0.62781E+07
         0.74033E+07
         0.27441E+08
         0.14274E+08
         0.19626E+08
        -0.41092E+08
         0.43875E+08
         0.66390E+08
        -0.12363E+08
         0.49558E+07
        -0.45436E+07
         0.32358E+07
         0.44573E+08
         0.76983E+08
         0.18002E+09
         0.17235E+08
        -0.11409E+08
         0.59979E+08
        -0.32036E+08
         0.75950E+08
         0.86801E+08
         0.74915E+08
         0.10435E+09
        -0.52796E+08
        -0.51499E+08
        -0.73625E+08
        -0.13367E+09
        -0.89470E+08
        -0.27193E+08
        -0.43790E+08
         0.59940E+08
         0.17617E+08
        -0.26327E+06
         0.56145E+08
         0.16503E+09
         0.24046E+09
        -0.16261E+08
        -0.29690E+08
        -0.48515E+08
        -0.88430E+08
        -0.14044E+09
        -0.20727E+09
        -0.28605E+09
        -0.36445E+09
        -0.29049E+09
        -0.12386E+09
        -0.40044E+09
        -0.14325E+08
        -0.12121E+09
        -0.11787E+09
         0.70791E+06
         0.68895E+08
        -0.56783E+08
        -0.29817E+09
        -0.32612E+09
         0.64046E+08
         0.62394E+09
         0.86277E+09
         0.64140E+09
         0.31143E+09
         0.12491E+09
         0.52385E+08
         0.32758E+08
        -0.98756E+07
        -0.84314E+08
        -0.22014E+09
        -0.37274E+09
        -0.47441E+09
        -0.53874E+09
        -0.50419E+09
        -0.47214E+09
         0.14945E+08
        -0.35767E+07
        -0.28976E+08
        -0.72626E+07
        -0.20363E+09
        -0.28813E+09
        -0.22173E+08
        -0.15598E+08
         0.83080E+07
        -0.32950E+06
        -0.68740E+07
         0.14232E+08
        -0.33463E+08
         0.20186E+08
         0.83831E+08
         0.15854E+08
        -0.47392E+07
         0.34356E+08
         0.12153E+08
         0.25007E+08
         0.87607E+08
         0.16924E+09
         0.63151E+08
         0.20101E+08
         0.34641E+08
         0.10328E+08
         0.75208E+08
         0.13973E+09
         0.23074E+09
         0.10610E+09
        -0.69940E+07
         0.34833E+06
        -0.39375E+08
        -0.14623E+09
        -0.10340E+09
        -0.17575E+08
        -0.25480E+08
         0.18753E+09
         0.30909E+09
         0.46031E+09
         0.64066E+09
         0.48705E+09
         0.34128E+09
         0.47125E+08
         0.38711E+08
         0.12521E+08
        -0.49529E+08
        -0.13204E+09
        -0.25258E+09
        -0.40431E+09
        -0.54896E+09
        -0.41470E+09
        -0.16473E+09
        -0.50094E+09
        -0.14069E+08
        -0.89559E+08
        -0.78791E+08
         0.37117E+08
         0.15712E+09
         0.25161E+09
         0.44329E+09
         0.79121E+09
         0.12259E+10
         0.14060E+10
         0.11533E+10
         0.69576E+09
         0.35483E+09
         0.21553E+09
         0.14864E+09
         0.12066E+09
         0.57366E+08
        -0.79368E+08
        -0.29205E+09
        -0.54630E+09
        -0.76439E+09
        -0.88452E+09
        -0.81332E+09
        -0.67991E+09
         0.24109E+08
         0.72199E+07
        -0.19579E+08
         0.76032E+07
        -0.23817E+09
        -0.30662E+09
        -0.20976E+08
        -0.18418E+08
         0.13473E+08
        -0.65335E+07
        -0.12566E+08
         0.34525E+07
        -0.32107E+08
         0.12950E+08
         0.75001E+08
         0.25157E+08
        -0.56237E+07
         0.50629E+08
         0.13861E+08
         0.18634E+08
         0.11640E+09
         0.19496E+09
         0.82672E+08
         0.25385E+08
         0.25879E+08
         0.17763E+08
         0.69362E+08
         0.13355E+09
         0.22412E+09
         0.90368E+08
         0.53554E+07
         0.17609E+08
        -0.25686E+08
        -0.13226E+09
        -0.12473E+09
        -0.63674E+07
        -0.13509E+08
         0.19915E+09
         0.33433E+09
         0.48412E+09
         0.66114E+09
         0.47908E+09
         0.34341E+09
         0.63482E+08
         0.71811E+08
         0.60783E+08
        -0.19139E+08
        -0.11854E+09
        -0.24942E+09
        -0.39319E+09
        -0.52831E+09
        -0.40644E+09
        -0.20864E+09
        -0.60496E+09
        -0.39539E+07
        -0.83532E+08
        -0.81509E+08
         0.17238E+08
         0.13138E+09
         0.26494E+09
         0.52333E+09
         0.87153E+09
         0.13056E+10
         0.14389E+10
         0.12376E+10
         0.86289E+09
         0.47530E+09
         0.27923E+09
         0.18183E+09
         0.17461E+09
         0.13700E+09
        -0.43787E+07
        -0.24171E+09
        -0.51511E+09
        -0.72151E+09
        -0.83749E+09
        -0.80345E+09
        -0.74799E+09
         0.21061E+08
         0.68591E+06
        -0.22878E+08
         0.33682E+07
        -0.24214E+09
        -0.29604E+09
        -0.36476E+08
        -0.33461E+08
         0.32757E+07
        -0.31404E+08
        -0.37912E+08
        -0.37699E+08
        -0.70752E+08
        -0.17075E+08
         0.45876E+08
         0.19099E+08
        -0.30734E+08
         0.45474E+08
        -0.84310E+07
        -0.14796E+08
         0.11185E+09
         0.20624E+09
         0.75359E+08
         0.14180E+08
        -0.21151E+07
         0.11656E+08
         0.32838E+08
         0.12409E+09
         0.26773E+09
         0.78526E+08
         0.21761E+07
         0.84609E+07
        -0.31357E+08
        -0.12985E+09
        -0.12844E+09
        -0.13480E+08
        -0.36509E+08
         0.18443E+09
         0.35977E+09
         0.58717E+09
         0.86419E+09
         0.63014E+09
         0.41992E+09
         0.47423E+08
         0.43314E+08
         0.20492E+08
        -0.41927E+08
        -0.12627E+09
        -0.24374E+09
        -0.36302E+09
        -0.46857E+09
        -0.36911E+09
        -0.20681E+09
        -0.60770E+09
        -0.54046E+07
        -0.12846E+09
        -0.16736E+09
        -0.61139E+08
         0.11289E+09
         0.30173E+09
         0.64953E+09
         0.11333E+10
         0.17531E+10
         0.19382E+10
         0.15594E+10
         0.10154E+10
         0.53258E+09
         0.27744E+09
         0.14172E+09
         0.10397E+09
         0.62582E+08
        -0.33792E+08
        -0.21342E+09
        -0.44373E+09
        -0.60726E+09
        -0.70114E+09
        -0.69067E+09
        -0.70163E+09
         0.15020E+08
        -0.73835E+07
        -0.37809E+08
        -0.11833E+08
        -0.25386E+09
        -0.31993E+09
        -0.41168E+08
        -0.41386E+08
        -0.74771E+07
        -0.44540E+08
        -0.41289E+08
        -0.31928E+08
        -0.73322E+08
        -0.18523E+08
         0.59548E+08
         0.19503E+08
        -0.50635E+08
         0.40711E+08
        -0.15404E+08
        -0.33614E+08
         0.10715E+09
         0.21677E+09
         0.81018E+08
         0.18057E+08
        -0.14248E+08
         0.15849E+08
         0.55669E+08
         0.20268E+09
         0.43881E+09
         0.10038E+09
        -0.91596E+06
        -0.27386E+07
        -0.33628E+08
        -0.14365E+09
        -0.13570E+09
        -0.30730E+08
        -0.51054E+08
         0.26865E+09
         0.59149E+09
         0.10058E+10
         0.14366E+10
         0.95753E+09
         0.53470E+09
         0.49641E+08
         0.20617E+08
        -0.27774E+08
        -0.78044E+08
        -0.13507E+09
        -0.23066E+09
        -0.35412E+09
        -0.47728E+09
        -0.39300E+09
        -0.19688E+09
        -0.59676E+09
        -0.31119E+08
        -0.16550E+09
        -0.18024E+09
        -0.37455E+08
         0.13444E+09
         0.41985E+09
         0.11285E+10
         0.20769E+10
         0.28993E+10
         0.26639E+10
         0.18144E+10
         0.10560E+10
         0.52491E+09
         0.28231E+09
         0.13993E+09
         0.57681E+08
        -0.18798E+08
        -0.95945E+08
        -0.20645E+09
        -0.37149E+09
        -0.54913E+09
        -0.70335E+09
        -0.72296E+09
        -0.72488E+09
         0.55769E+07
        -0.16008E+08
        -0.49544E+08
        -0.21070E+08
        -0.26343E+09
        -0.32078E+09
        -0.44677E+08
        -0.48007E+08
        -0.13834E+08
        -0.52168E+08
        -0.40668E+08
        -0.20036E+08
        -0.62368E+08
        -0.16915E+08
         0.83178E+08
         0.14029E+08
        -0.61071E+08
         0.33676E+08
        -0.22549E+08
        -0.48950E+08
         0.10171E+09
         0.23289E+09
         0.71090E+08
         0.10601E+08
        -0.34879E+08
         0.74843E+07
         0.66137E+08
         0.21838E+09
         0.47551E+09
         0.73698E+08
        -0.13356E+08
        -0.17856E+08
        -0.36787E+08
        -0.13324E+09
        -0.14934E+09
        -0.44089E+08
        -0.53291E+08
         0.34903E+09
         0.73577E+09
         0.11960E+10
         0.16432E+10
         0.10424E+10
         0.56937E+09
         0.36667E+08
         0.26146E+07
        -0.47499E+08
        -0.97420E+08
        -0.14917E+09
        -0.22196E+09
        -0.32086E+09
        -0.43543E+09
        -0.37186E+09
        -0.21849E+09
        -0.60230E+09
        -0.59517E+08
        -0.16247E+09
        -0.13813E+09
         0.28520E+07
         0.18417E+09
         0.62891E+09
         0.15707E+10
         0.26525E+10
         0.33515E+10
         0.28510E+10
         0.19543E+10
         0.11048E+10
         0.50701E+09
         0.26308E+09
         0.11543E+09
         0.30488E+08
        -0.38030E+08
        -0.12076E+09
        -0.23014E+09
        -0.35284E+09
        -0.48505E+09
        -0.63707E+09
        -0.68593E+09
        -0.71491E+09
         0.66590E+06
        -0.15741E+08
        -0.37989E+08
        -0.12007E+08
        -0.22887E+09
        -0.25999E+09
        -0.46598E+08
        -0.55103E+08
        -0.19313E+08
        -0.65086E+08
        -0.36712E+08
         0.67827E+06
        -0.55305E+08
        -0.18792E+08
         0.12764E+09
         0.98158E+07
        -0.65618E+08
         0.27223E+08
        -0.23758E+08
        -0.58741E+08
         0.94816E+08
         0.21474E+09
         0.65566E+08
         0.99800E+07
        -0.52847E+08
         0.12501E+07
         0.43858E+08
         0.17301E+09
         0.40548E+09
         0.45644E+08
        -0.26867E+08
        -0.33732E+08
        -0.40622E+08
        -0.10297E+09
        -0.13166E+09
        -0.32245E+08
        -0.43231E+08
         0.38358E+09
         0.70914E+09
         0.10758E+10
         0.14474E+10
         0.92434E+09
         0.52093E+09
         0.24585E+08
        -0.18703E+08
        -0.69921E+08
        -0.11395E+09
        -0.16206E+09
        -0.21736E+09
        -0.27951E+09
        -0.35301E+09
        -0.29083E+09
        -0.21338E+09
        -0.55474E+09
        -0.43642E+08
        -0.12242E+09
        -0.10474E+09
         0.53905E+08
         0.33387E+09
         0.86994E+09
         0.17274E+10
         0.25269E+10
         0.29653E+10
         0.26040E+10
         0.18702E+10
         0.10721E+10
         0.47944E+09
         0.23766E+09
         0.92638E+08
        -0.33620E+07
        -0.65098E+08
        -0.13535E+09
        -0.24592E+09
        -0.35281E+09
        -0.42743E+09
        -0.50882E+09
        -0.52336E+09
        -0.58993E+09
        -0.82093E+07
        -0.25998E+08
        -0.45207E+08
        -0.27670E+08
        -0.20555E+09
        -0.22967E+09
        -0.62079E+08
        -0.67008E+08
        -0.21443E+08
        -0.72018E+08
        -0.53271E+08
        -0.17553E+08
        -0.79966E+08
        -0.33194E+08
         0.13051E+09
         0.70436E+07
        -0.57359E+08
         0.12939E+08
        -0.17864E+08
        -0.52936E+08
         0.75517E+08
         0.17829E+09
         0.50017E+08
         0.73904E+07
        -0.52635E+08
        -0.99498E+07
         0.22418E+08
         0.14208E+09
         0.34783E+09
         0.39944E+08
        -0.45603E+08
        -0.52615E+08
        -0.59338E+08
        -0.10963E+09
        -0.12486E+09
        -0.40492E+08
        -0.56738E+08
         0.35047E+09
         0.60552E+09
         0.90967E+09
         0.12438E+10
         0.81825E+09
         0.46780E+09
         0.62705E+07
        -0.39956E+08
        -0.82874E+08
        -0.11612E+09
        -0.15333E+09
        -0.20172E+09
        -0.25735E+09
        -0.31834E+09
        -0.25971E+09
        -0.19540E+09
        -0.47773E+09
        -0.48978E+08
        -0.12828E+09
        -0.14316E+09
         0.28417E+08
         0.39012E+09
         0.86050E+09
         0.14681E+10
         0.20978E+10
         0.25560E+10
         0.23952E+10
         0.17390E+10
         0.95744E+09
         0.41745E+09
         0.19871E+09
         0.69439E+08
        -0.25458E+08
        -0.68835E+08
        -0.93402E+08
        -0.17531E+09
        -0.28082E+09
        -0.36229E+09
        -0.44351E+09
        -0.43120E+09
        -0.47957E+09
        -0.17640E+08
        -0.44406E+08
        -0.58181E+08
        -0.42846E+08
        -0.19907E+09
        -0.23537E+09
        -0.87093E+08
        -0.76467E+08
        -0.22897E+08
        -0.64373E+08
        -0.86690E+08
        -0.70887E+08
        -0.12229E+09
        -0.54096E+08
         0.76831E+08
        -0.48913E+07
        -0.51442E+08
        -0.14870E+07
        -0.19991E+08
        -0.41812E+08
         0.73416E+08
         0.17876E+09
         0.46000E+08
        -0.12921E+07
        -0.34122E+08
        -0.16996E+08
         0.22379E+08
         0.15724E+09
         0.37183E+09
         0.63247E+08
        -0.47004E+08
        -0.38862E+08
        -0.66112E+08
        -0.11865E+09
        -0.12002E+09
        -0.56175E+08
        -0.86098E+08
         0.28923E+09
         0.54846E+09
         0.88754E+09
         0.12623E+10
         0.85253E+09
         0.48377E+09
         0.13872E+08
        -0.58320E+07
        -0.24411E+08
        -0.62978E+08
        -0.10548E+09
        -0.16374E+09
        -0.23351E+09
        -0.30754E+09
        -0.26688E+09
        -0.16887E+09
        -0.43541E+09
        -0.65370E+08
        -0.16611E+09
        -0.20477E+09
        -0.44572E+08
         0.29841E+09
         0.64332E+09
         0.11383E+10
         0.18843E+10
         0.25690E+10
         0.24604E+10
         0.17289E+10
         0.91734E+09
         0.42546E+09
         0.21728E+09
         0.10664E+09
         0.50496E+08
         0.24709E+08
         0.11056E+08
        -0.61866E+08
        -0.18283E+09
        -0.29691E+09
        -0.41972E+09
        -0.44429E+09
        -0.47738E+09
        -0.77890E+07
        -0.33836E+08
        -0.48205E+08
        -0.26558E+08
        -0.17890E+09
        -0.20536E+09
        -0.67413E+08
        -0.57745E+08
        -0.19120E+08
        -0.49307E+08
        -0.68987E+08
        -0.60940E+08
        -0.10566E+09
        -0.37559E+08
         0.72324E+08
        -0.12227E+08
        -0.52000E+08
         0.34785E+07
        -0.23473E+08
        -0.36051E+08
         0.10369E+09
         0.21203E+09
         0.68124E+08
        -0.22179E+07
        -0.17472E+08
        -0.15152E+08
         0.52578E+08
         0.20945E+09
         0.45408E+09
         0.89972E+08
        -0.32269E+08
        -0.23573E+08
        -0.38450E+08
        -0.72959E+08
        -0.10588E+09
        -0.53406E+08
        -0.82586E+08
         0.33607E+09
         0.68513E+09
         0.10946E+10
         0.14955E+10
         0.96809E+09
         0.52915E+09
         0.35688E+08
         0.24426E+08
         0.11932E+08
        -0.32768E+08
        -0.63373E+08
        -0.99235E+08
        -0.15189E+09
        -0.22095E+09
        -0.21156E+09
        -0.15368E+09
        -0.41241E+09
        -0.80332E+08
        -0.18586E+09
        -0.19561E+09
        -0.51691E+08
         0.26099E+09
         0.72694E+09
         0.14969E+10
         0.24364E+10
         0.30345E+10
         0.26743E+10
         0.17877E+10
         0.99053E+09
         0.51817E+09
         0.27997E+09
         0.15227E+09
         0.10849E+09
         0.78617E+08
         0.45369E+08
        -0.15363E+08
        -0.93584E+08
        -0.16997E+09
        -0.29520E+09
        -0.37352E+09
        -0.45101E+09
        -0.89611E+07
        -0.22035E+08
        -0.42608E+08
        -0.27681E+08
        -0.15984E+09
        -0.16832E+09
        -0.39939E+08
        -0.44730E+08
        -0.31990E+08
        -0.58082E+08
        -0.35191E+08
        -0.19072E+08
        -0.65411E+08
        -0.18809E+08
         0.84683E+08
        -0.25184E+08
        -0.73226E+08
        -0.67001E+07
        -0.31928E+08
        -0.52830E+08
         0.11901E+09
         0.23628E+09
         0.69838E+08
        -0.69315E+07
        -0.53315E+08
        -0.20044E+08
         0.42434E+08
         0.15855E+09
         0.38715E+09
         0.40851E+08
        -0.36052E+08
        -0.28134E+08
        -0.35700E+08
        -0.52443E+08
        -0.93976E+08
        -0.44444E+08
        -0.62287E+08
         0.32702E+09
         0.66709E+09
         0.10551E+10
         0.14271E+10
         0.89344E+09
         0.50590E+09
         0.33953E+08
         0.19218E+08
         0.10005E+08
        -0.29813E+08
        -0.49870E+08
        -0.49830E+08
        -0.69342E+08
        -0.11217E+09
        -0.13815E+09
        -0.14871E+09
        -0.37811E+09
        -0.75063E+08
        -0.16558E+09
        -0.14025E+09
        -0.94260E+07
         0.24479E+09
         0.75448E+09
         0.16130E+10
         0.25427E+10
         0.29865E+10
         0.25434E+10
         0.17755E+10
         0.10588E+10
         0.53753E+09
         0.26510E+09
         0.12816E+09
         0.87992E+08
         0.77850E+08
         0.63711E+08
         0.26941E+08
        -0.98472E+07
        -0.30603E+08
        -0.12468E+09
        -0.23519E+09
        -0.36970E+09
        -0.10483E+08
        -0.14839E+08
        -0.24180E+08
        -0.27896E+08
        -0.11011E+09
        -0.11505E+09
        -0.25984E+08
        -0.29041E+08
        -0.34680E+08
        -0.38939E+08
        -0.83604E+07
         0.12398E+08
        -0.44793E+08
         0.11903E+08
         0.10641E+09
        -0.34635E+08
        -0.61172E+08
        -0.23128E+08
        -0.13629E+08
        -0.10885E+08
         0.12938E+09
         0.28948E+09
         0.63384E+08
         0.46616E+06
        -0.26555E+08
        -0.20614E+08
         0.65142E+08
         0.15846E+09
         0.36765E+09
         0.80273E+08
        -0.43196E+08
        -0.21786E+08
        -0.36265E+08
        -0.29826E+08
        -0.41007E+08
        -0.25807E+07
        -0.41078E+08
         0.31961E+09
         0.60881E+09
         0.94475E+09
         0.12749E+10
         0.83503E+09
         0.54137E+09
         0.37827E+08
         0.42481E+08
         0.68370E+08
         0.30394E+08
         0.10682E+08
         0.20560E+08
         0.43095E+08
         0.37075E+08
        -0.43881E+08
        -0.62490E+08
        -0.31123E+09
         0.81889E+07
        -0.12245E+09
        -0.10091E+09
         0.29963E+08
         0.23780E+09
         0.69023E+09
         0.14451E+10
         0.22487E+10
         0.26436E+10
         0.23219E+10
         0.18093E+10
         0.10879E+10
         0.46441E+09
         0.20761E+09
         0.12538E+09
         0.13649E+09
         0.18393E+09
         0.22619E+09
         0.21088E+09
         0.18043E+09
         0.17403E+09
         0.88736E+08
        -0.68410E+08
        -0.26776E+09
         0.99570E+07
         0.13303E+08
         0.41574E+08
         0.17924E+08
         0.13703E+08
         0.46050E+08
         0.21682E+06
         0.79538E+06
        -0.56260E+07
         0.10164E+07
         0.38545E+08
         0.86951E+08
        -0.17832E+06
         0.61620E+08
         0.21854E+09
        -0.28325E+08
        -0.14548E+08
        -0.13723E+08
         0.18069E+08
         0.42634E+08
         0.13021E+09
         0.28215E+09
         0.64726E+08
         0.11667E+08
         0.35488E+08
        -0.25047E+08
         0.11706E+09
         0.25142E+09
         0.47915E+09
         0.15905E+09
        -0.23293E+08
         0.33137E+07
         0.29866E+08
         0.11470E+09
         0.97404E+08
         0.10347E+09
         0.14050E+08
         0.45226E+09
         0.77485E+09
         0.11423E+10
         0.14626E+10
         0.93417E+09
         0.56617E+09
         0.36315E+08
         0.90912E+08
         0.21620E+09
         0.20247E+09
         0.22388E+09
         0.29155E+09
         0.36920E+09
         0.39915E+09
         0.20998E+09
         0.13070E+09
        -0.13665E+09
         0.22967E+09
        -0.68769E+07
        -0.35607E+07
         0.17848E+09
         0.45585E+09
         0.97155E+09
         0.18445E+10
         0.27142E+10
         0.29421E+10
         0.23857E+10
         0.17257E+10
         0.96786E+09
         0.41211E+09
         0.20989E+09
         0.14123E+09
         0.24549E+09
         0.45934E+09
         0.65225E+09
         0.72644E+09
         0.75589E+09
         0.76709E+09
         0.63956E+09
         0.35841E+09
         0.75594E+07
        -0.18817E+08
        -0.21351E+08
         0.50350E+08
         0.31999E+08
         0.15317E+09
         0.26399E+09
        -0.43604E+08
        -0.13367E+08
        -0.55499E+07
         0.15055E+08
         0.11148E+08
         0.68910E+08
        -0.42650E+08
         0.58895E+08
         0.25558E+09
        -0.79754E+08
         0.77116E+07
        -0.40618E+08
        -0.36131E+07
         0.34254E+08
         0.44797E+08
         0.94727E+08
        -0.11806E+08
        -0.50815E+08
         0.40908E+08
        -0.11736E+09
         0.11600E+09
         0.18079E+09
         0.21582E+09
         0.57853E+08
        -0.40389E+08
        -0.12738E+08
         0.84821E+08
         0.28507E+09
         0.23266E+09
         0.18977E+09
         0.76735E+07
         0.44039E+09
         0.59008E+09
         0.64536E+09
         0.62494E+09
         0.30900E+09
         0.17923E+09
        -0.49452E+08
         0.77577E+08
         0.34196E+09
         0.36809E+09
         0.45788E+09
         0.60510E+09
         0.76499E+09
         0.86791E+09
         0.55630E+09
         0.33855E+09
         0.18983E+09
         0.46202E+09
         0.13614E+09
         0.19269E+08
         0.20623E+09
         0.52988E+09
         0.95270E+09
         0.14657E+10
         0.16463E+10
         0.12943E+10
         0.92677E+09
         0.78834E+09
         0.58029E+09
         0.38876E+09
         0.27715E+09
         0.19177E+09
         0.39632E+09
         0.80947E+09
         0.11869E+10
         0.13404E+10
         0.14004E+10
         0.14412E+10
         0.13269E+10
         0.98485E+09
         0.50118E+09
        -0.15374E+09
        -0.21543E+09
        -0.21675E+09
        -0.17249E+09
         0.38782E+08
         0.22728E+09
        -0.15754E+09
        -0.84026E+08
        -0.19377E+08
         0.57289E+08
        -0.12324E+09
        -0.19015E+09
        -0.19545E+09
        -0.49083E+08
        -0.94313E+08
        -0.13371E+09
         0.10178E+09
        -0.17116E+09
         0.13002E+09
         0.31336E+09
         0.67841E+09
         0.83760E+09
         0.36052E+09
         0.14816E+08
         0.18792E+09
        -0.20006E+09
         0.40340E+08
         0.17767E+08
        -0.17072E+09
         0.24569E+09
        -0.14141E+09
        -0.98610E+08
        -0.53639E+08
         0.13077E+09
        -0.72590E+08
        -0.20684E+09
        -0.21666E+09
        -0.36074E+07
        -0.22344E+09
        -0.68988E+09
        -0.10823E+10
        -0.43315E+09
         0.44342E+09
         0.69296E+08
         0.17110E+09
         0.60999E+09
         0.55213E+09
         0.53993E+09
         0.56241E+09
         0.67303E+09
         0.82948E+09
         0.51464E+09
         0.95077E+08
         0.51034E+09
        -0.78060E+08
        -0.15449E+09
        -0.24803E+09
        -0.19818E+09
        -0.59676E+08
        -0.90066E+08
        -0.65499E+09
        -0.16941E+10
        -0.20745E+10
        -0.53518E+09
         0.15231E+10
         0.23923E+10
         0.21263E+10
         0.14497E+10
         0.87009E+09
         0.92764E+09
         0.15749E+10
         0.21127E+10
         0.19840E+10
         0.16277E+10
         0.15179E+10
         0.14637E+10
         0.12283E+10
         0.90374E+09
        -0.23440E+09
        -0.42267E+09
        -0.85634E+09
        -0.63670E+09
        -0.39170E+09
        -0.83616E+08
        -0.87286E+08
        -0.10290E+09
         0.13610E+09
         0.25430E+09
        -0.15853E+09
        -0.13476E+09
        -0.25334E+08
        -0.19730E+09
        -0.34942E+09
         0.14578E+09
         0.52106E+09
        -0.30879E+09
         0.91879E+09
         0.14383E+10
         0.29611E+10
         0.39311E+10
         0.18362E+10
         0.81438E+09
         0.87658E+09
         0.23813E+09
         0.15755E+09
         0.62654E+09
         0.88127E+09
         0.17243E+10
        -0.14017E+09
         0.18261E+09
        -0.52630E+09
        -0.54789E+09
        -0.89436E+09
        -0.11835E+10
        -0.59560E+09
        -0.26902E+09
        -0.30632E+09
        -0.51314E+09
        -0.39804E+09
         0.13105E+10
         0.34272E+10
         0.89221E+09
         0.67536E+09
         0.11337E+10
         0.93137E+09
         0.51354E+09
         0.91317E+07
        -0.50371E+08
         0.23262E+09
         0.40382E+08
        -0.56064E+09
         0.92370E+09
        -0.13620E+10
        -0.73297E+09
        -0.28617E+09
        -0.31645E+09
        -0.49636E+09
        -0.87974E+09
        -0.18216E+10
        -0.25136E+10
        -0.13631E+10
         0.29777E+10
         0.77224E+10
         0.90069E+10
         0.70279E+10
         0.42848E+10
         0.23368E+10
         0.16484E+10
         0.23873E+10
         0.30329E+10
         0.21921E+10
         0.11167E+10
         0.89805E+09
         0.10868E+10
         0.11998E+10
         0.12953E+10
  
SCALARS                      stress_yz  double 1
LOOKUP_TABLE default
         0.31626E+08
         0.20964E+08
        -0.58642E+07
         0.38938E+08
         0.14962E+01
         0.16927E+01
         0.25938E+01
         0.17918E+01
        -0.11394E+09
        -0.12505E+09
         0.17333E+01
         0.12199E+01
         0.18024E+08
         0.19922E+08
         0.14821E+01
        -0.34321E+00
         0.15035E+08
         0.40854E+08
        -0.46103E+00
         0.52041E+00
         0.15345E+08
         0.17973E+08
         0.21582E+08
         0.51739E+00
         0.13512E+01
         0.13568E+01
         0.38963E+08
         0.23883E+08
         0.18381E+01
         0.22368E+01
        -0.57422E+07
         0.78264E+07
         0.41190E+08
         0.17631E+00
         0.80289E+00
        -0.45427E+00
        -0.23175E+08
        -0.26959E+07
         0.49877E+00
         0.83037E+00
        -0.80166E+07
        -0.13869E+08
        -0.93479E+00
        -0.16921E+01
         0.39389E+08
         0.10876E+07
        -0.68739E+00
         0.58979E-01
         0.64476E+08
         0.80454E+00
         0.21561E+08
        -0.50825E+00
         0.11736E+09
         0.17968E+01
         0.15515E+09
         0.15920E+01
         0.10817E+09
         0.45138E+08
         0.19426E-01
        -0.23030E+00
         0.55167E+08
         0.46630E+08
         0.21538E+00
        -0.17805E+01
         0.71689E+08
         0.21983E+01
        -0.14801E+08
         0.14143E+01
        -0.12339E+09
        -0.66079E+08
        -0.68484E-01
         0.12829E+01
        -0.35413E+07
         0.17023E+01
         0.11990E+09
         0.22578E+01
         0.21582E+09
         0.20057E+01
         0.96899E+08
        -0.93978E-01
         0.63596E+08
         0.47035E+08
        -0.30557E+00
        -0.10526E+01
         0.32171E+08
        -0.20922E+01
         0.89764E+08
        -0.49562E-02
         0.11319E+09
        -0.81442E+00
         0.12814E+09
         0.93551E+08
        -0.31627E+01
        -0.19192E+01
         0.83895E+08
         0.11040E+01
        -0.11249E+08
         0.14222E+01
        -0.12803E+09
         0.92802E+00
        -0.17149E+09
        -0.16689E+09
        -0.12537E+01
         0.11363E+01
        -0.17265E+09
        -0.19809E+09
        -0.62882E+01
        -0.52979E+01
        -0.12620E+09
        -0.98762E+00
        -0.36074E+08
         0.26354E+00
         0.62379E+08
        -0.16450E+00
         0.55775E+08
         0.20472E+00
        -0.55838E+08
         0.26116E+00
        -0.12546E+09
         0.55512E+00
        -0.12887E+09
        -0.50990E-01
        -0.61630E+08
         0.32941E+01
         0.73524E+08
         0.96294E+01
         0.79466E+08
         0.80517E+01
         0.10074E+09
         0.43430E+01
         0.96256E+08
         0.25832E+01
         0.85841E+08
         0.22271E+01
         0.11566E+09
         0.20916E+01
         0.16289E+09
         0.26384E+01
         0.18849E+09
         0.43817E+01
         0.18124E+09
         0.25100E+00
         0.16883E+09
        -0.18622E+01
         0.49965E+08
        -0.17191E+01
        -0.12440E+09
        -0.43258E+01
        -0.17319E+09
        -0.63279E+01
        -0.18033E+09
        -0.90142E+01
        -0.19635E+09
        -0.77159E+01
        -0.21994E+09
        -0.58083E+01
         0.45975E+08
         0.32306E+08
         0.44369E+07
         0.72608E+08
        -0.11445E+09
        -0.14465E+09
         0.40025E+08
         0.45227E+08
         0.33027E+08
         0.73862E+08
         0.75080E+08
         0.11758E+09
         0.57761E+08
         0.11476E+09
         0.18862E+09
         0.47348E+08
         0.18025E+07
         0.96411E+08
        -0.11908E+08
         0.45978E+07
         0.96924E+07
         0.19990E+08
         0.60618E+08
         0.46578E+08
         0.10616E+09
         0.90467E+08
         0.17045E+09
         0.19269E+09
         0.16661E+09
         0.12168E+09
         0.55221E+08
         0.74475E+08
        -0.17676E+07
        -0.87588E+08
        -0.10815E+09
        -0.46640E+08
         0.13365E+08
         0.20926E+09
         0.18845E+09
         0.14794E+09
         0.11805E+09
         0.11602E+09
         0.86840E+08
         0.11285E+09
         0.97996E+08
         0.26477E+08
        -0.28386E+08
        -0.10137E+09
        -0.16399E+09
        -0.18321E+09
        -0.18332E+09
        -0.16137E+09
        -0.16572E+09
        -0.20613E+09
        -0.10208E+09
        -0.14799E+08
         0.90834E+08
         0.17317E+09
         0.15881E+09
         0.92034E+08
         0.46825E+08
         0.62894E+08
         0.84858E+08
         0.84416E+08
         0.63457E+08
         0.20733E+08
         0.19203E+08
         0.72098E+08
         0.13225E+09
         0.11030E+09
         0.88507E+07
        -0.64537E+08
        -0.13005E+09
        -0.18842E+09
        -0.21474E+09
        -0.20035E+09
        -0.18154E+09
        -0.20820E+09
         0.32369E+08
        -0.22712E+07
        -0.18400E+08
         0.14063E+08
        -0.65260E+08
        -0.80092E+08
         0.26726E+08
         0.33045E+08
         0.39203E+08
         0.72632E+08
         0.95816E+08
         0.12232E+09
         0.42036E+08
         0.13135E+09
         0.17355E+09
         0.79474E+08
        -0.26990E+08
         0.70122E+08
         0.37203E+08
         0.15154E+07
         0.91670E+08
         0.81026E+08
         0.14214E+09
         0.12537E+09
         0.11970E+09
         0.87781E+08
         0.17244E+09
         0.18018E+09
         0.16086E+09
         0.11460E+09
        -0.51923E+08
        -0.30467E+08
        -0.11807E+09
        -0.11224E+09
        -0.64785E+08
        -0.42488E+08
        -0.14003E+08
         0.19398E+09
         0.18910E+09
         0.17476E+09
         0.16539E+09
         0.15122E+09
         0.12039E+09
         0.74695E+08
        -0.37966E+08
        -0.11447E+09
        -0.15824E+09
        -0.20210E+09
        -0.20518E+09
        -0.17114E+09
        -0.14248E+09
        -0.10940E+09
        -0.83930E+08
        -0.98128E+08
        -0.55488E+08
        -0.17942E+08
         0.48646E+08
         0.13061E+09
         0.18316E+09
         0.19186E+09
         0.16836E+09
         0.15712E+09
        -0.47504E+07
         0.15681E+09
         0.13584E+09
         0.11726E+09
         0.10654E+09
         0.10253E+09
         0.41395E+08
        -0.62001E+08
        -0.13563E+09
        -0.19737E+09
        -0.21977E+09
        -0.21332E+09
        -0.18601E+09
        -0.14910E+09
        -0.11151E+09
        -0.92991E+08
        -0.34249E+08
        -0.34459E+08
        -0.11459E+08
        -0.26802E+08
         0.13630E+08
        -0.92130E+06
        -0.18906E+08
        -0.34309E+08
        -0.42386E+08
        -0.35401E+08
         0.62392E+08
         0.11020E+09
         0.15470E+08
         0.10398E+09
         0.16723E+09
         0.55794E+07
        -0.85450E+08
        -0.19617E+08
        -0.31602E+08
        -0.65949E+08
         0.40716E+08
         0.62717E+08
         0.53193E+07
         0.12283E+08
        -0.42332E+07
        -0.57514E+07
         0.14947E+09
         0.15571E+09
         0.14029E+09
         0.63634E+08
        -0.95280E+08
        -0.94134E+08
        -0.11966E+09
        -0.75704E+08
         0.61267E+07
        -0.76918E+07
        -0.17381E+08
         0.18331E+09
         0.17997E+09
         0.16944E+09
         0.16113E+09
         0.13812E+09
         0.10370E+09
        -0.66841E+08
        -0.12913E+09
        -0.16950E+09
        -0.18412E+09
        -0.20142E+09
        -0.18644E+09
        -0.11416E+09
        -0.56621E+08
        -0.24903E+08
         0.13356E+08
         0.36102E+08
         0.42013E+07
         0.14625E+07
         0.31947E+08
         0.11481E+09
         0.16749E+09
         0.18111E+09
         0.17393E+09
         0.17089E+09
         0.17035E+09
         0.15845E+09
         0.14140E+09
         0.12620E+09
         0.80640E+08
        -0.10261E+08
        -0.13302E+09
        -0.17556E+09
        -0.18351E+09
        -0.19117E+09
        -0.17975E+09
        -0.15575E+09
        -0.10237E+09
        -0.41787E+08
         0.10270E+08
         0.41043E+08
        -0.11692E+09
        -0.85931E+08
        -0.82369E+07
        -0.58546E+08
         0.70951E+08
         0.57990E+08
        -0.75493E+08
        -0.11134E+09
        -0.12074E+09
        -0.99777E+08
         0.31188E+08
         0.90966E+08
        -0.75853E+07
         0.78824E+08
         0.15037E+09
        -0.91444E+08
        -0.13272E+09
        -0.97342E+08
        -0.10035E+09
        -0.10222E+09
        -0.36512E+07
         0.30132E+08
        -0.30655E+08
        -0.63835E+08
        -0.74522E+08
        -0.72363E+08
         0.12269E+09
         0.13020E+09
         0.11820E+09
         0.10528E+08
        -0.10024E+09
        -0.94073E+08
        -0.88679E+08
        -0.15839E+08
         0.60896E+08
         0.23574E+08
        -0.20335E+08
         0.16901E+09
         0.17033E+09
         0.16020E+09
         0.14886E+09
         0.11998E+09
         0.81583E+08
        -0.78224E+08
        -0.98258E+08
        -0.87238E+08
        -0.87174E+08
        -0.82010E+08
        -0.45761E+08
         0.77826E+07
         0.47060E+08
         0.52763E+08
         0.80108E+08
         0.11540E+09
         0.45663E+08
         0.11095E+08
         0.10120E+08
         0.79929E+08
         0.13056E+09
         0.15792E+09
         0.16737E+09
         0.16895E+09
         0.16154E+09
         0.14361E+09
         0.13449E+09
         0.12024E+09
         0.67570E+08
        -0.67593E+07
        -0.94130E+08
        -0.11148E+09
        -0.80140E+08
        -0.67268E+08
        -0.44216E+08
        -0.70975E+07
         0.35934E+08
         0.73195E+08
         0.97433E+08
         0.11148E+09
        -0.12805E+09
        -0.11400E+09
        -0.63064E+08
        -0.89986E+08
         0.21168E+08
         0.30020E+08
        -0.11859E+09
        -0.12364E+09
        -0.12411E+09
        -0.11274E+09
        -0.79199E+08
         0.97120E+07
        -0.70054E+08
        -0.50204E+08
         0.96672E+08
        -0.12474E+09
        -0.13328E+09
        -0.12197E+09
        -0.12047E+09
        -0.10625E+09
        -0.25637E+08
         0.15180E+08
        -0.50122E+08
        -0.10401E+09
        -0.93741E+08
        -0.11824E+09
         0.23096E+08
         0.75213E+08
         0.97161E+08
        -0.15335E+08
        -0.76795E+08
        -0.44569E+08
        -0.51956E+08
         0.15606E+07
         0.14184E+08
        -0.23742E+08
        -0.64709E+08
         0.13798E+09
         0.15212E+09
         0.15192E+09
         0.14926E+09
         0.12199E+09
         0.80107E+08
        -0.71974E+08
         0.14161E+07
         0.68548E+08
         0.79678E+08
         0.75443E+08
         0.59020E+08
         0.50549E+08
         0.52277E+08
         0.41423E+08
         0.35002E+08
         0.61191E+08
         0.63088E+07
        -0.27255E+08
        -0.37346E+08
         0.20938E+08
         0.80409E+08
         0.12645E+09
         0.15612E+09
         0.16912E+09
         0.16826E+09
         0.15616E+09
         0.14166E+09
         0.11726E+09
         0.67217E+08
         0.21058E+08
        -0.95464E+07
         0.31099E+08
         0.88851E+08
         0.11020E+09
         0.98296E+08
         0.70067E+08
         0.60321E+08
         0.63082E+08
         0.63622E+08
         0.64747E+08
        -0.13561E+09
        -0.11830E+09
        -0.91387E+08
        -0.51994E+08
        -0.46687E+08
        -0.18059E+08
        -0.13292E+09
        -0.13867E+09
        -0.13217E+09
        -0.12560E+09
        -0.11427E+09
        -0.64455E+08
        -0.83883E+08
        -0.10733E+09
        -0.49320E+07
        -0.10621E+09
        -0.13273E+09
        -0.70031E+08
        -0.12748E+09
        -0.10312E+09
        -0.54551E+08
        -0.56029E+06
        -0.85658E+08
        -0.11772E+09
        -0.10097E+09
        -0.79271E+08
        -0.59766E+08
         0.11727E+08
         0.71381E+08
        -0.35290E+08
         0.26067E+08
         0.12801E+08
         0.35607E+08
         0.20797E+08
        -0.62721E+08
        -0.96041E+08
        -0.87667E+08
         0.78909E+08
         0.12346E+09
         0.13893E+09
         0.14605E+09
         0.12091E+09
         0.74644E+08
        -0.77740E+08
        -0.11400E+08
         0.53657E+08
         0.97667E+08
         0.10897E+09
         0.75027E+08
         0.37388E+08
         0.14529E+08
         0.27672E+07
        -0.49042E+08
        -0.28378E+08
        -0.54390E+08
        -0.29421E+08
        -0.28418E+08
        -0.25362E+08
         0.15760E+08
         0.83400E+08
         0.13529E+09
         0.16161E+09
         0.16906E+09
         0.16320E+09
         0.14680E+09
         0.10490E+09
         0.36935E+08
        -0.18947E+08
        -0.31656E+08
         0.73754E+07
         0.57048E+08
         0.82051E+08
         0.74162E+08
         0.41989E+08
         0.14177E+08
        -0.40169E+05
        -0.11550E+08
        -0.20968E+08
        -0.54441E+08
        -0.43074E+08
        -0.25768E+08
         0.25855E+07
        -0.13998E+07
         0.27637E+08
        -0.57760E+08
        -0.85921E+08
        -0.58837E+08
        -0.11131E+09
        -0.76639E+08
        -0.60066E+08
        -0.27810E+08
        -0.10885E+09
        -0.79130E+08
        -0.15046E+08
        -0.66746E+08
        -0.62901E+07
        -0.39350E+08
        -0.83135E+08
        -0.53780E+08
        -0.42729E+08
        -0.56077E+08
        -0.39056E+08
        -0.97783E+08
        -0.17985E+08
        -0.10810E+09
        -0.70684E+08
        -0.13526E+08
        -0.69868E+08
         0.41423E+08
         0.17022E+08
         0.56240E+08
         0.61156E+08
        -0.14333E+08
        -0.20273E+08
        -0.18516E+08
        -0.53992E+08
         0.17969E+08
         0.86277E+08
         0.12540E+09
         0.90341E+08
         0.11178E+08
        -0.50122E+08
        -0.26707E+08
        -0.66623E+07
         0.45097E+08
         0.85252E+08
         0.67364E+08
         0.48201E+08
         0.37129E+08
         0.38938E+08
         0.33556E+06
         0.68519E+07
         0.27885E+08
         0.29752E+08
         0.32671E+08
        -0.40099E+07
        -0.40789E+08
         0.69967E+07
         0.80142E+08
         0.13256E+09
         0.15692E+09
         0.16612E+09
         0.15122E+09
         0.36048E+08
        -0.33538E+08
        -0.60798E+08
        -0.62874E+08
        -0.52761E+08
        -0.39437E+08
        -0.17403E+08
         0.15524E+08
         0.20047E+08
         0.17582E+08
         0.19400E+08
         0.21138E+08
         0.17274E+08
        -0.27350E+08
        -0.17612E+08
        -0.49454E+07
         0.99879E+07
         0.31727E+08
         0.55285E+08
        -0.16426E+08
        -0.31620E+08
        -0.16420E+08
        -0.35168E+08
        -0.28786E+08
        -0.22295E+08
         0.10399E+08
        -0.59395E+08
        -0.88721E+08
         0.46886E+07
        -0.67849E+06
         0.19638E+07
         0.88179E+07
        -0.78454E+07
        -0.39852E+07
        -0.33008E+08
        -0.24093E+08
        -0.93120E+07
        -0.47845E+08
        -0.88637E+07
        -0.10353E+09
        -0.12724E+09
        -0.10337E+09
        -0.85040E+08
         0.28090E+08
         0.32734E+07
         0.46807E+08
         0.76687E+08
         0.30724E+08
         0.12816E+08
         0.11363E+08
        -0.11192E+09
        -0.10483E+09
        -0.83218E+08
        -0.63137E+08
        -0.70791E+08
        -0.72615E+08
        -0.43660E+08
        -0.39463E+08
        -0.37278E+08
         0.92374E+07
         0.57776E+08
         0.81669E+08
         0.80643E+08
         0.80746E+08
         0.75596E+08
         0.52923E+08
         0.42346E+08
         0.59736E+08
         0.54608E+08
         0.65201E+08
         0.34280E+08
        -0.54493E+08
        -0.87503E+08
        -0.70233E+08
        -0.38863E+08
        -0.30881E+08
        -0.35038E+08
        -0.34347E+08
        -0.26565E+08
        -0.13448E+08
        -0.34309E+08
        -0.64947E+08
        -0.78954E+08
        -0.84065E+08
        -0.70235E+08
        -0.87818E+07
         0.38721E+08
         0.63682E+08
         0.79142E+08
         0.77731E+08
         0.58482E+08
        -0.27603E+08
        -0.14059E+08
         0.12603E+07
         0.35125E+07
         0.56177E+08
         0.74458E+08
        -0.67383E+07
        -0.21569E+08
        -0.97926E+07
        -0.17595E+08
        -0.17201E+08
        -0.53042E+07
         0.30333E+08
        -0.52655E+08
        -0.91964E+08
        -0.23650E+07
         0.15421E+08
        -0.83820E+07
         0.22481E+08
         0.18418E+08
         0.32358E+08
         0.46723E+07
         0.11156E+08
         0.16980E+07
        -0.26078E+08
        -0.10560E+08
        -0.10664E+09
        -0.13410E+09
        -0.10755E+09
        -0.76471E+08
         0.16048E+08
         0.30356E+05
         0.38924E+08
         0.85012E+08
         0.64909E+08
         0.35181E+08
         0.28882E+08
        -0.12247E+09
        -0.12332E+09
        -0.11262E+09
        -0.10170E+09
        -0.88835E+08
        -0.61082E+08
        -0.12723E+08
        -0.17063E+08
        -0.15789E+08
         0.17047E+08
         0.65159E+08
         0.89061E+08
         0.93608E+08
         0.99258E+08
         0.92693E+08
         0.84809E+08
         0.78116E+08
         0.88920E+08
         0.77272E+08
         0.88459E+08
         0.57562E+08
        -0.56936E+08
        -0.10610E+09
        -0.10989E+09
        -0.10218E+09
        -0.99827E+08
        -0.86535E+08
        -0.46845E+08
         0.56244E+07
         0.45950E+08
         0.32326E+08
        -0.44631E+07
        -0.31412E+08
        -0.50556E+08
        -0.45841E+08
         0.17219E+08
         0.65259E+08
         0.91237E+08
         0.10793E+09
         0.11190E+09
         0.98986E+08
        -0.31822E+08
        -0.16273E+08
        -0.10217E+07
        -0.83357E+05
         0.51536E+08
         0.69649E+08
        -0.61034E+07
        -0.21295E+08
        -0.88024E+07
        -0.13147E+08
        -0.18356E+08
        -0.60105E+07
         0.37502E+08
        -0.59376E+08
        -0.99451E+08
         0.34159E+07
         0.26420E+08
        -0.11426E+08
         0.36992E+08
         0.36062E+08
         0.24998E+08
         0.40384E+07
         0.98205E+07
         0.11742E+08
        -0.18843E+08
        -0.17390E+07
        -0.12202E+09
        -0.13278E+09
        -0.10216E+09
        -0.69369E+08
         0.23984E+08
         0.11676E+08
         0.47358E+08
         0.80729E+08
         0.58241E+08
         0.39639E+08
         0.35233E+08
        -0.12871E+09
        -0.12666E+09
        -0.11306E+09
        -0.99580E+08
        -0.81463E+08
        -0.49825E+08
        -0.48389E+07
        -0.15296E+07
         0.81424E+07
         0.43620E+08
         0.84822E+08
         0.91325E+08
         0.91469E+08
         0.93421E+08
         0.86307E+08
         0.77038E+08
         0.76240E+08
         0.88056E+08
         0.76297E+08
         0.87022E+08
         0.49153E+08
        -0.69216E+08
        -0.11380E+09
        -0.11668E+09
        -0.10713E+09
        -0.99764E+08
        -0.80871E+08
        -0.44076E+08
        -0.12313E+08
         0.17794E+08
         0.15733E+08
        -0.22458E+07
        -0.10683E+08
        -0.10589E+08
         0.34161E+07
         0.46360E+08
         0.75014E+08
         0.90062E+08
         0.10041E+09
         0.10489E+09
         0.97068E+08
        -0.31228E+08
        -0.22065E+08
        -0.90616E+07
         0.28642E+07
         0.35929E+08
         0.58005E+08
        -0.11304E+08
        -0.18890E+08
        -0.25692E+07
        -0.68266E+07
        -0.27134E+08
        -0.29444E+08
         0.17524E+08
        -0.66167E+08
        -0.11030E+09
         0.16918E+08
         0.43247E+08
        -0.43268E+07
         0.53878E+08
         0.55988E+08
         0.16204E+08
        -0.49537E+07
         0.25993E+06
         0.18574E+08
        -0.12606E+08
         0.59470E+07
        -0.13607E+09
        -0.13515E+09
        -0.10710E+09
        -0.71845E+08
         0.39219E+08
         0.20374E+08
         0.64115E+08
         0.82165E+08
         0.38123E+08
         0.22131E+08
         0.16534E+08
        -0.13327E+09
        -0.13117E+09
        -0.11919E+09
        -0.10677E+09
        -0.87674E+08
        -0.56067E+08
        -0.13152E+08
        -0.66791E+07
         0.86090E+07
         0.48494E+08
         0.87427E+08
         0.93484E+08
         0.90398E+08
         0.87459E+08
         0.78002E+08
         0.56112E+08
         0.54685E+08
         0.65140E+08
         0.52274E+08
         0.58949E+08
         0.13501E+08
        -0.84189E+08
        -0.11884E+09
        -0.12180E+09
        -0.11493E+09
        -0.10830E+09
        -0.88633E+08
        -0.58890E+08
        -0.40998E+08
        -0.16448E+08
        -0.14948E+08
        -0.28177E+08
        -0.26437E+08
        -0.97731E+07
         0.17903E+08
         0.56717E+08
         0.76934E+08
         0.86319E+08
         0.90392E+08
         0.87149E+08
         0.72947E+08
        -0.25044E+08
        -0.19402E+08
        -0.71821E+07
         0.99545E+07
         0.38741E+08
         0.63362E+08
        -0.55800E+07
        -0.92164E+07
         0.38363E+07
         0.35183E+07
        -0.22443E+08
        -0.31883E+08
         0.12998E+08
        -0.62185E+08
        -0.11550E+09
         0.17364E+08
         0.51973E+08
        -0.10805E+07
         0.53155E+08
         0.64268E+08
         0.11732E+08
        -0.80021E+07
        -0.53502E+07
         0.13826E+08
        -0.26468E+07
         0.37557E+07
        -0.13973E+09
        -0.14237E+09
        -0.11753E+09
        -0.72910E+08
         0.42193E+08
         0.22141E+08
         0.68929E+08
         0.85369E+08
         0.34476E+08
         0.13060E+08
         0.67290E+07
        -0.13853E+09
        -0.14006E+09
        -0.13216E+09
        -0.12179E+09
        -0.99653E+08
        -0.62119E+08
        -0.17617E+08
        -0.70095E+07
         0.10725E+08
         0.49584E+08
         0.85752E+08
         0.91097E+08
         0.90321E+08
         0.89975E+08
         0.82411E+08
         0.50683E+08
         0.56961E+08
         0.52055E+08
         0.37923E+08
         0.49968E+08
         0.97721E+07
        -0.88083E+08
        -0.12192E+09
        -0.13010E+09
        -0.13008E+09
        -0.12661E+09
        -0.10261E+09
        -0.66503E+08
        -0.47310E+08
        -0.22291E+08
        -0.21451E+08
        -0.34600E+08
        -0.27536E+08
        -0.82447E+07
         0.18372E+08
         0.54601E+08
         0.72370E+08
         0.84091E+08
         0.92978E+08
         0.91549E+08
         0.77108E+08
        -0.15757E+08
        -0.51746E+07
         0.26476E+07
         0.15734E+08
         0.40870E+08
         0.63379E+08
         0.90984E+07
         0.15428E+07
         0.73387E+07
         0.13822E+08
        -0.11013E+08
        -0.19751E+08
         0.32715E+08
        -0.54528E+08
        -0.11830E+09
         0.12783E+08
         0.53698E+08
        -0.49091E+06
         0.49239E+08
         0.69033E+08
         0.10926E+08
        -0.55755E+07
        -0.11909E+08
         0.62154E+07
         0.12220E+08
        -0.21725E+07
        -0.13003E+09
        -0.14198E+09
        -0.11496E+09
        -0.56375E+08
         0.40147E+08
         0.20992E+08
         0.65739E+08
         0.80813E+08
         0.35383E+08
         0.20459E+08
         0.23488E+08
        -0.14369E+09
        -0.14577E+09
        -0.13700E+09
        -0.12486E+09
        -0.98835E+08
        -0.59371E+08
        -0.24684E+08
        -0.84486E+07
         0.13550E+08
         0.54259E+08
         0.86730E+08
         0.87124E+08
         0.83859E+08
         0.83592E+08
         0.78314E+08
         0.45673E+08
         0.56529E+08
         0.55975E+08
         0.52336E+08
         0.73278E+08
         0.26235E+08
        -0.90656E+08
        -0.13040E+09
        -0.14130E+09
        -0.14080E+09
        -0.13292E+09
        -0.10659E+09
        -0.70731E+08
        -0.45475E+08
        -0.23703E+08
        -0.29987E+08
        -0.43829E+08
        -0.30367E+08
        -0.64671E+07
         0.19600E+08
         0.52118E+08
         0.65188E+08
         0.75030E+08
         0.85548E+08
         0.87451E+08
         0.76912E+08
        -0.14743E+08
         0.11463E+07
         0.51768E+07
         0.12308E+08
         0.34575E+08
         0.51392E+08
         0.14956E+08
         0.29682E+07
         0.58584E+07
         0.14034E+08
        -0.67785E+07
        -0.12469E+08
         0.48556E+08
        -0.52458E+08
        -0.11886E+09
         0.71004E+07
         0.48321E+08
        -0.23305E+07
         0.43688E+08
         0.61044E+08
         0.13934E+08
        -0.65139E+07
        -0.11597E+08
         0.16399E+07
         0.10587E+08
        -0.68800E+07
        -0.12404E+09
        -0.13464E+09
        -0.10496E+09
        -0.53849E+08
         0.38286E+08
         0.20233E+08
         0.61793E+08
         0.75794E+08
         0.39027E+08
         0.33928E+08
         0.41890E+08
        -0.14478E+09
        -0.14445E+09
        -0.13121E+09
        -0.11566E+09
        -0.90264E+08
        -0.57673E+08
        -0.25601E+08
        -0.71936E+07
         0.17683E+08
         0.59277E+08
         0.89499E+08
         0.87364E+08
         0.79366E+08
         0.74215E+08
         0.66436E+08
         0.48837E+08
         0.45644E+08
         0.84714E+08
         0.81484E+08
         0.99623E+08
         0.37994E+08
        -0.94689E+08
        -0.13690E+09
        -0.14529E+09
        -0.13917E+09
        -0.12416E+09
        -0.10043E+09
        -0.72434E+08
        -0.42049E+08
        -0.16389E+08
        -0.24119E+08
        -0.39318E+08
        -0.27132E+08
        -0.20992E+07
         0.25933E+08
         0.57147E+08
         0.65979E+08
         0.70080E+08
         0.73754E+08
         0.68343E+08
         0.56699E+08
        -0.16399E+08
         0.10110E+06
         0.92227E+07
         0.15700E+08
         0.37407E+08
         0.53021E+08
         0.11917E+08
        -0.33852E+06
         0.26213E+07
         0.83149E+07
        -0.65007E+07
        -0.93561E+07
         0.46079E+08
        -0.49165E+08
        -0.11020E+09
         0.51042E+07
         0.39385E+08
         0.25096E+06
         0.34812E+08
         0.45695E+08
         0.14890E+08
        -0.12925E+08
        -0.32486E+07
         0.26457E+07
        -0.37557E+06
        -0.21136E+07
        -0.11924E+09
        -0.12914E+09
        -0.10259E+09
        -0.66872E+08
         0.42291E+08
         0.26350E+08
         0.65448E+08
         0.83261E+08
         0.48984E+08
         0.43435E+08
         0.43512E+08
        -0.13753E+09
        -0.13565E+09
        -0.12264E+09
        -0.10947E+09
        -0.90089E+08
        -0.63829E+08
        -0.13716E+08
         0.23753E+07
         0.20136E+08
         0.57097E+08
         0.86856E+08
         0.88316E+08
         0.82517E+08
         0.77147E+08
         0.69496E+08
         0.59367E+08
         0.42810E+08
         0.10356E+09
         0.89591E+08
         0.10029E+09
         0.38852E+08
        -0.88840E+08
        -0.13056E+09
        -0.13399E+09
        -0.12626E+09
        -0.11541E+09
        -0.99395E+08
        -0.76998E+08
        -0.41133E+08
        -0.43866E+07
        -0.60407E+07
        -0.20462E+08
        -0.15368E+08
        -0.15827E+07
         0.18904E+08
         0.50419E+08
         0.64485E+08
         0.71562E+08
         0.74909E+08
         0.65916E+08
         0.49971E+08
        -0.16080E+08
        -0.66348E+07
         0.24016E+07
         0.16663E+08
         0.31798E+08
         0.53282E+08
         0.55806E+07
        -0.27038E+07
         0.53560E+07
         0.51723E+07
        -0.82142E+07
        -0.12275E+08
         0.30529E+08
        -0.46577E+08
        -0.10352E+09
         0.17704E+08
         0.42156E+08
         0.85916E+07
         0.45075E+08
         0.51241E+08
         0.22759E+08
        -0.65078E+07
         0.97441E+07
         0.19176E+08
        -0.18914E+07
         0.14311E+08
        -0.11838E+09
        -0.13123E+09
        -0.10601E+09
        -0.66844E+08
         0.46863E+08
         0.33641E+08
         0.63039E+08
         0.81466E+08
         0.37445E+08
         0.27727E+08
         0.26583E+08
        -0.13171E+09
        -0.13300E+09
        -0.12342E+09
        -0.11190E+09
        -0.93717E+08
        -0.64301E+08
        -0.12404E+06
         0.87968E+07
         0.15365E+08
         0.45721E+08
         0.73787E+08
         0.77092E+08
         0.75212E+08
         0.73588E+08
         0.69992E+08
         0.50140E+08
         0.37934E+08
         0.88266E+08
         0.74702E+08
         0.81168E+08
         0.29869E+08
        -0.78211E+08
        -0.11812E+09
        -0.12607E+09
        -0.12396E+09
        -0.11630E+09
        -0.10327E+09
        -0.78361E+08
        -0.35155E+08
         0.48420E+07
         0.45964E+07
        -0.11299E+08
        -0.12144E+08
        -0.10660E+08
        -0.46353E+07
         0.23849E+08
         0.45263E+08
         0.59178E+08
         0.70163E+08
         0.68243E+08
         0.51383E+08
        -0.12654E+08
        -0.85762E+07
        -0.32870E+07
         0.12938E+08
         0.23727E+08
         0.42918E+08
         0.36138E+07
        -0.21130E+07
         0.11618E+08
         0.78771E+07
        -0.75595E+07
        -0.10093E+08
         0.22905E+08
        -0.42747E+08
        -0.11155E+09
         0.31651E+08
         0.52473E+08
         0.13449E+08
         0.60148E+08
         0.64214E+08
         0.20386E+08
        -0.66464E+07
         0.10189E+08
         0.32610E+08
         0.58046E+07
         0.24237E+08
        -0.11263E+09
        -0.13826E+09
        -0.10995E+09
        -0.55978E+08
         0.41716E+08
         0.29789E+08
         0.48195E+08
         0.66560E+08
         0.24734E+08
         0.12207E+08
         0.14571E+08
        -0.13656E+09
        -0.13995E+09
        -0.13143E+09
        -0.11909E+09
        -0.96688E+08
        -0.62395E+08
        -0.48010E+06
         0.20955E+07
         0.23324E+07
         0.28997E+08
         0.56058E+08
         0.55821E+08
         0.53530E+08
         0.53677E+08
         0.55295E+08
         0.38566E+08
         0.32533E+08
         0.63829E+08
         0.58418E+08
         0.72882E+08
         0.38449E+08
        -0.72578E+08
        -0.11913E+09
        -0.13361E+09
        -0.13499E+09
        -0.12537E+09
        -0.10773E+09
        -0.80478E+08
        -0.46216E+08
        -0.11654E+08
        -0.73475E+07
        -0.19724E+08
        -0.21444E+08
        -0.24710E+08
        -0.28203E+08
        -0.79028E+07
         0.12411E+08
         0.27265E+08
         0.44756E+08
         0.50626E+08
         0.41024E+08
        -0.70785E+07
        -0.18977E+07
         0.40319E+07
         0.16912E+08
         0.24682E+08
         0.39564E+08
         0.47148E+07
        -0.18799E+07
         0.15765E+08
         0.11827E+08
        -0.65474E+07
        -0.38725E+07
         0.27985E+08
        -0.36449E+08
        -0.11410E+09
         0.33515E+08
         0.56483E+08
         0.17501E+08
         0.56993E+08
         0.65488E+08
         0.77287E+07
        -0.15809E+08
         0.42926E+06
         0.26751E+08
         0.18872E+08
         0.18768E+08
        -0.90665E+08
        -0.13081E+09
        -0.97840E+08
        -0.33799E+08
         0.33974E+08
         0.17384E+08
         0.38749E+08
         0.49674E+08
         0.25784E+08
         0.17403E+08
         0.22955E+08
        -0.13707E+09
        -0.13685E+09
        -0.12625E+09
        -0.11317E+09
        -0.87715E+08
        -0.57296E+08
        -0.10388E+08
        -0.13844E+08
        -0.20161E+08
         0.48266E+07
         0.32377E+08
         0.39412E+08
         0.33563E+08
         0.31800E+08
         0.43985E+08
         0.32122E+08
         0.25321E+08
         0.71045E+08
         0.77218E+08
         0.10009E+09
         0.73944E+08
        -0.62421E+08
        -0.11967E+09
        -0.13401E+09
        -0.13372E+09
        -0.12276E+09
        -0.10184E+09
        -0.81880E+08
        -0.68133E+08
        -0.38874E+08
        -0.23670E+08
        -0.32780E+08
        -0.41763E+08
        -0.50961E+08
        -0.58260E+08
        -0.44056E+08
        -0.26574E+08
        -0.13951E+08
         0.80245E+07
         0.25767E+08
         0.28207E+08
        -0.99999E+07
        -0.71574E+07
        -0.94482E+07
         0.84231E+07
        -0.14318E+08
         0.15584E+07
        -0.28158E+07
        -0.97174E+07
         0.11526E+08
         0.32798E+07
        -0.14179E+08
        -0.57615E+07
         0.23275E+08
        -0.41264E+08
        -0.10016E+09
         0.23370E+08
         0.42659E+08
         0.15364E+08
         0.35479E+08
         0.37307E+08
        -0.42175E+07
        -0.30819E+08
        -0.15994E+08
         0.51125E+07
         0.46882E+07
        -0.22314E+07
        -0.86754E+08
        -0.11998E+09
        -0.89834E+08
        -0.52413E+08
         0.12668E+08
        -0.12671E+08
         0.16002E+08
         0.11460E+08
        -0.20751E+08
        -0.51165E+07
         0.15979E+08
        -0.12734E+09
        -0.12612E+09
        -0.11396E+09
        -0.10164E+09
        -0.81156E+08
        -0.61972E+08
        -0.33159E+08
        -0.46527E+08
        -0.64605E+08
        -0.51377E+08
        -0.27094E+08
        -0.26371E+08
        -0.37657E+08
        -0.44406E+08
        -0.83206E+07
        -0.23033E+08
        -0.24184E+08
         0.27335E+08
         0.73712E+08
         0.10977E+09
         0.90411E+08
        -0.43456E+08
        -0.11168E+09
        -0.12500E+09
        -0.12131E+09
        -0.11046E+09
        -0.91484E+08
        -0.78524E+08
        -0.69034E+08
        -0.39584E+08
        -0.35499E+08
        -0.55006E+08
        -0.73124E+08
        -0.92375E+08
        -0.10668E+09
        -0.10738E+09
        -0.10364E+09
        -0.10278E+09
        -0.84649E+08
        -0.51187E+08
        -0.29290E+08
        -0.35105E+08
        -0.40821E+08
        -0.59210E+08
        -0.26238E+08
        -0.10919E+09
        -0.11522E+09
        -0.35371E+08
        -0.41709E+08
        -0.13156E+08
        -0.30812E+08
        -0.46804E+08
        -0.35534E+08
        -0.12901E+08
        -0.73085E+08
        -0.84403E+08
        -0.11875E+07
         0.10079E+08
        -0.36855E+07
         0.21919E+07
        -0.77008E+07
        -0.12252E+08
        -0.41067E+08
        -0.36472E+08
        -0.26938E+08
        -0.39278E+08
        -0.37703E+08
        -0.11716E+09
        -0.12132E+09
        -0.99457E+08
        -0.88748E+08
        -0.36085E+08
        -0.68175E+08
        -0.40378E+08
        -0.75891E+08
        -0.91762E+08
        -0.73801E+08
        -0.34195E+08
        -0.11608E+09
        -0.12231E+09
        -0.11585E+09
        -0.10846E+09
        -0.92626E+08
        -0.74740E+08
        -0.65290E+08
        -0.86012E+08
        -0.10649E+09
        -0.11859E+09
        -0.12607E+09
        -0.13544E+09
        -0.14194E+09
        -0.14576E+09
        -0.13474E+09
        -0.92210E+08
        -0.11371E+09
        -0.52784E+08
         0.57308E+07
         0.67428E+08
         0.42096E+08
        -0.50236E+08
        -0.10674E+09
        -0.12356E+09
        -0.12480E+09
        -0.11924E+09
        -0.10345E+09
        -0.80507E+08
        -0.43778E+08
        -0.70396E+07
        -0.31132E+08
        -0.71398E+08
        -0.90946E+08
        -0.11075E+09
        -0.12360E+09
        -0.13223E+09
        -0.14103E+09
        -0.15221E+09
        -0.15607E+09
        -0.14894E+09
        -0.13686E+09
        -0.19825E+08
        -0.23091E+08
        -0.28854E+08
         0.24190E+07
        -0.75962E+08
        -0.95237E+08
        -0.28926E+08
        -0.43630E+08
        -0.68034E+07
        -0.50462E+08
        -0.48557E+08
        -0.30673E+08
        -0.51253E+07
        -0.85839E+08
        -0.72613E+08
         0.12513E+08
        -0.64605E+07
         0.23640E+08
         0.62700E+07
        -0.39137E+08
         0.34284E+08
        -0.77893E+07
         0.34173E+08
         0.79893E+07
        -0.84518E+08
        -0.14609E+08
        -0.12931E+09
        -0.11534E+09
        -0.92972E+08
        -0.95230E+08
        -0.47333E+08
        -0.78563E+08
        -0.41688E+08
        -0.64442E+08
        -0.43947E+08
        -0.22678E+08
        -0.11541E+08
        -0.10240E+09
        -0.10941E+09
        -0.10261E+09
        -0.92074E+08
        -0.76745E+08
        -0.54413E+08
         0.43133E+07
        -0.42009E+08
        -0.82633E+08
        -0.12141E+09
        -0.14908E+09
        -0.15399E+09
        -0.14374E+09
        -0.13802E+09
        -0.11167E+09
        -0.49216E+08
        -0.12235E+09
        -0.11497E+08
         0.16938E+08
         0.47260E+08
         0.97725E+07
        -0.53612E+08
        -0.95375E+08
        -0.11174E+09
        -0.11107E+09
        -0.99024E+08
        -0.75155E+08
        -0.33999E+08
         0.30733E+08
         0.77089E+08
         0.80890E+08
         0.46185E+08
        -0.15303E+08
        -0.74060E+08
        -0.11169E+09
        -0.13078E+09
        -0.14384E+09
        -0.15409E+09
        -0.15422E+09
        -0.14787E+09
        -0.14073E+09
         0.10507E+09
         0.10930E+09
         0.11467E+09
         0.11594E+09
         0.87453E+08
         0.60096E+08
         0.86795E+08
         0.69431E+08
         0.89719E+08
         0.29748E+08
         0.59928E+08
         0.54801E+08
         0.10717E+09
         0.12684E+08
        -0.58186E+08
         0.71843E+08
         0.38036E+08
         0.11044E+09
         0.37019E+08
        -0.90528E+07
         0.41994E+08
         0.17008E+08
         0.44553E+08
         0.39297E+08
        -0.57556E+08
         0.35502E+08
        -0.10457E+09
        -0.13743E+09
        -0.98446E+08
        -0.10183E+09
         0.19568E+08
         0.12355E+07
         0.41996E+08
         0.50470E+08
         0.99849E+08
         0.11521E+09
         0.12092E+09
        -0.10227E+09
        -0.96376E+08
        -0.77403E+08
        -0.57220E+08
        -0.51760E+08
        -0.28233E+08
         0.33011E+08
         0.46262E+07
        -0.33601E+08
        -0.64427E+08
        -0.84775E+08
        -0.68450E+08
        -0.39893E+08
        -0.29914E+08
         0.13823E+08
         0.94361E+08
         0.42770E+08
         0.12574E+09
         0.13914E+09
         0.11053E+09
         0.30696E+08
        -0.41188E+08
        -0.73211E+08
        -0.75166E+08
        -0.60423E+08
        -0.42571E+08
        -0.20157E+08
         0.18395E+08
         0.56818E+08
         0.69899E+08
         0.67348E+08
         0.53277E+08
         0.17667E+08
        -0.36653E+08
        -0.82513E+08
        -0.99340E+08
        -0.92353E+08
        -0.78847E+08
        -0.65153E+08
        -0.52498E+08
        -0.28731E+08
         0.12350E+09
         0.12782E+09
         0.12930E+09
         0.11812E+09
         0.10880E+09
         0.87938E+08
         0.10511E+09
         0.94072E+08
         0.10040E+09
         0.51279E+08
         0.80887E+08
         0.66336E+08
         0.10137E+09
         0.50368E+08
        -0.11667E+08
         0.64185E+08
         0.45133E+08
         0.10523E+09
         0.33195E+08
        -0.83162E+07
         0.22911E+08
        -0.72825E+07
         0.28804E+08
         0.31676E+08
        -0.41515E+08
         0.28250E+08
        -0.35717E+08
        -0.13579E+09
        -0.12158E+09
        -0.10015E+09
         0.15007E+08
        -0.38190E+07
         0.37250E+08
         0.51785E+08
         0.11834E+09
         0.12912E+09
         0.12788E+09
        -0.81162E+08
        -0.86233E+08
        -0.78374E+08
        -0.68341E+08
        -0.75688E+08
        -0.53477E+08
         0.19703E+08
        -0.61472E+07
        -0.42569E+08
        -0.66840E+08
        -0.80160E+08
        -0.52877E+08
        -0.19057E+08
        -0.25039E+07
         0.39972E+08
         0.11323E+09
         0.76658E+08
         0.13227E+09
         0.13728E+09
         0.11603E+09
         0.61098E+08
        -0.22530E+08
        -0.45769E+08
        -0.47718E+08
        -0.45054E+08
        -0.49983E+08
        -0.50316E+08
        -0.28542E+08
         0.60657E+07
         0.31341E+08
         0.38678E+08
         0.29392E+08
        -0.25060E+07
        -0.53710E+08
        -0.95488E+08
        -0.10352E+09
        -0.83509E+08
        -0.57941E+08
        -0.31865E+08
         0.23609E+05
         0.47121E+08
  
SCALARS                      stress_xz  double 1
LOOKUP_TABLE default
         0.20728E+09
         0.22264E+09
         0.21432E+09
         0.20381E+09
        -0.10261E+01
         0.92155E+01
         0.51691E+01
         0.40441E+01
         0.15806E+09
         0.14006E+09
        -0.12668E+01
         0.55017E+01
         0.22165E+09
         0.21301E+09
        -0.17638E+01
         0.38562E+01
         0.18360E+09
         0.19743E+09
        -0.98862E+00
         0.26348E+01
         0.22544E+09
         0.23495E+09
         0.22518E+09
        -0.18060E+01
         0.58990E+01
         0.51521E+01
         0.21599E+09
         0.22305E+09
        -0.22696E+01
         0.54552E+01
         0.14758E+09
         0.15599E+09
         0.15923E+09
        -0.62872E+00
        -0.15778E+00
         0.76230E+00
         0.13087E+09
         0.14254E+09
        -0.11003E+01
        -0.11122E+01
         0.91305E+08
         0.73384E+08
        -0.18684E+01
        -0.22778E+01
         0.83277E+08
         0.12313E+09
        -0.24881E+01
        -0.11643E+01
         0.15798E+09
        -0.15710E+01
         0.13486E+09
        -0.88237E+00
         0.17799E+09
        -0.16154E+01
         0.10572E+09
        -0.14651E+01
         0.32059E+08
         0.15878E+09
        -0.38137E+01
         0.48762E+01
         0.12657E+09
         0.15199E+09
        -0.57898E+00
         0.21669E+01
         0.96324E+08
        -0.13513E+01
         0.12537E+09
        -0.19785E+01
         0.13401E+09
         0.18106E+09
        -0.76847E+00
         0.55516E+01
         0.21591E+09
        -0.55405E+00
         0.15498E+09
        -0.19597E+01
        -0.53982E+08
        -0.23183E+01
        -0.97257E+08
        -0.24495E+01
        -0.87536E+08
        -0.46094E+08
        -0.18187E+01
         0.16941E+01
         0.15026E+08
        -0.23514E+01
         0.61081E+08
        -0.30513E+01
         0.57265E+08
        -0.37962E+01
         0.49723E+08
         0.11725E+09
        -0.33347E+01
         0.50675E+01
         0.45760E+08
        -0.17685E+01
        -0.55712E+08
        -0.28850E+01
        -0.75029E+08
        -0.40249E+01
        -0.78432E+08
         0.30048E+08
        -0.38186E+01
         0.50194E+01
         0.89856E+08
         0.12481E+09
        -0.15375E+01
         0.89167E+01
         0.88133E+08
        -0.48929E+00
         0.15165E+09
        -0.17448E+00
         0.18178E+09
        -0.56474E+00
         0.21184E+09
        -0.31059E+00
         0.18064E+09
         0.50573E-01
         0.19683E+08
        -0.69629E+00
        -0.49111E+08
        -0.10098E+01
        -0.19793E+09
        -0.84072E+00
        -0.11137E+09
        -0.58229E-01
        -0.75924E+08
        -0.13844E+01
        -0.49756E+08
        -0.28175E+01
         0.41782E+06
        -0.30109E+01
         0.28771E+08
        -0.39468E+01
         0.86460E+07
        -0.50859E+01
        -0.20684E+08
        -0.57557E+01
        -0.50874E+08
        -0.73592E+01
        -0.80142E+08
        -0.75788E+01
        -0.12916E+09
        -0.53493E+01
        -0.19608E+09
        -0.48602E+01
        -0.18203E+09
        -0.59742E+01
        -0.15407E+09
        -0.65907E+01
        -0.14004E+09
        -0.51784E+01
        -0.10894E+09
        -0.20305E+01
        -0.30214E+08
        -0.65746E+00
         0.19674E+09
         0.19595E+09
         0.17513E+09
         0.14737E+09
         0.14344E+09
         0.95870E+08
         0.20131E+09
         0.19857E+09
         0.19619E+09
         0.18394E+09
         0.18754E+09
         0.14675E+09
         0.17928E+09
         0.16201E+09
         0.61769E+08
         0.18389E+09
         0.19178E+09
         0.15976E+09
         0.18772E+09
         0.18965E+09
         0.18865E+09
         0.12266E+09
         0.20370E+09
         0.19166E+09
         0.16221E+09
         0.18752E+09
         0.99939E+08
         0.44871E+08
        -0.22618E+08
         0.96468E+08
         0.19082E+09
         0.20500E+09
         0.15267E+09
         0.10103E+09
         0.14477E+09
         0.16198E+09
         0.17744E+09
        -0.37925E+08
        -0.99004E+08
        -0.13432E+09
        -0.14563E+09
        -0.84933E+08
         0.46786E+06
         0.19859E+09
         0.19810E+09
         0.19050E+09
         0.18538E+09
         0.15357E+09
         0.98859E+08
         0.49935E+08
         0.18193E+08
         0.33530E+08
         0.11723E+09
         0.94401E+08
         0.12835E+09
         0.13075E+09
         0.82452E+08
        -0.51183E+08
        -0.15603E+09
        -0.20534E+09
        -0.23939E+09
        -0.24644E+09
        -0.20771E+09
        -0.14741E+09
        -0.72268E+08
         0.82138E+08
         0.19743E+09
         0.22197E+09
         0.20123E+09
         0.17666E+09
         0.17249E+09
         0.15842E+09
         0.12139E+09
         0.69309E+08
         0.16502E+08
        -0.17906E+08
        -0.27073E+08
         0.13740E+08
        -0.16457E+09
        -0.18371E+09
        -0.20040E+09
        -0.20081E+09
        -0.20797E+09
        -0.18278E+09
        -0.15177E+09
        -0.14935E+09
        -0.17723E+09
        -0.16022E+09
        -0.12115E+09
        -0.10238E+09
        -0.14239E+09
        -0.10493E+09
        -0.80075E+08
        -0.17621E+09
        -0.16742E+09
        -0.16519E+09
        -0.13452E+09
        -0.13176E+09
         0.55559E+08
        -0.10205E+08
         0.10337E+08
        -0.12084E+09
        -0.14825E+09
        -0.16805E+09
        -0.94433E+08
        -0.90632E+08
        -0.88464E+08
        -0.86242E+08
        -0.15453E+09
        -0.16234E+09
        -0.15494E+09
        -0.15763E+09
        -0.20795E+09
        -0.19690E+09
        -0.18145E+09
        -0.85500E+08
        -0.10138E+09
        -0.10918E+09
        -0.10869E+09
        -0.89605E+08
        -0.61963E+08
        -0.12493E+09
        -0.15561E+09
        -0.12818E+09
        -0.83918E+08
        -0.42505E+08
        -0.67344E+08
        -0.11527E+09
        -0.14403E+09
        -0.15933E+09
        -0.21256E+09
        -0.20443E+09
        -0.20328E+09
        -0.18102E+09
        -0.13639E+09
        -0.90338E+08
        -0.67638E+08
        -0.93431E+08
        -0.13397E+09
        -0.14349E+09
         0.18410E+08
        -0.97870E+08
        -0.68358E+08
        -0.11040E+07
         0.77633E+08
         0.69507E+08
        -0.60243E+08
        -0.13534E+09
        -0.12031E+09
        -0.41382E+08
        -0.90174E+07
        -0.53198E+08
        -0.11704E+09
        -0.15759E+09
        -0.17838E+09
        -0.18867E+09
        -0.19041E+09
        -0.18916E+09
        -0.18052E+09
        -0.15599E+09
        -0.15394E+09
        -0.10932E+09
        -0.18498E+09
        -0.19386E+09
        -0.18408E+09
        -0.17939E+09
        -0.17371E+09
        -0.13057E+09
        -0.15521E+09
        -0.16761E+09
        -0.10852E+09
        -0.17495E+09
        -0.14544E+09
        -0.16154E+09
        -0.12901E+09
        -0.95276E+08
        -0.36439E+07
        -0.26326E+08
        -0.50910E+08
        -0.13578E+09
        -0.15891E+09
        -0.16215E+09
        -0.13759E+09
        -0.10301E+09
        -0.83778E+08
        -0.87931E+08
        -0.10551E+09
        -0.13171E+09
        -0.85589E+08
        -0.79924E+08
        -0.16607E+09
        -0.17305E+09
        -0.17315E+09
        -0.10182E+09
        -0.98917E+08
        -0.93126E+08
        -0.88901E+08
        -0.77914E+08
        -0.58658E+08
        -0.13226E+09
        -0.13687E+09
        -0.99191E+08
        -0.54936E+08
        -0.27910E+07
        -0.22901E+07
        -0.40207E+08
        -0.65311E+08
        -0.77296E+08
        -0.16303E+09
        -0.14960E+09
        -0.16786E+09
        -0.16347E+09
        -0.13504E+09
        -0.10289E+09
        -0.93840E+08
        -0.10860E+09
        -0.12290E+09
        -0.11580E+09
        -0.96802E+08
        -0.78444E+08
        -0.56028E+08
        -0.11876E+08
         0.25865E+08
         0.96536E+07
        -0.68978E+08
        -0.11110E+09
        -0.83635E+08
        -0.10743E+08
         0.41950E+08
         0.36587E+08
        -0.35818E+08
        -0.83675E+08
        -0.10063E+09
        -0.11543E+09
        -0.73881E+08
        -0.54619E+08
        -0.60643E+07
         0.12690E+06
         0.73638E+08
         0.11069E+09
        -0.52783E+08
        -0.42073E+08
        -0.43166E+08
        -0.51002E+07
        -0.88068E+08
        -0.88981E+08
        -0.38685E+08
        -0.10113E+09
        -0.10358E+09
        -0.68730E+08
        -0.63637E+07
        -0.59589E+08
        -0.37423E+07
         0.27273E+07
         0.27123E+08
        -0.26636E+07
         0.27942E+08
        -0.10845E+08
        -0.93985E+07
        -0.38681E+08
        -0.79587E+08
        -0.66146E+08
        -0.61054E+08
        -0.36082E+08
         0.20144E+08
         0.27857E+08
         0.60808E+08
         0.11326E+09
         0.61058E+08
         0.34106E+08
        -0.21661E+07
        -0.98938E+08
        -0.89325E+08
        -0.79706E+08
        -0.74469E+08
        -0.59479E+08
        -0.35834E+08
         0.22835E+08
         0.60871E+08
         0.91526E+08
         0.10133E+09
         0.12422E+09
         0.14483E+09
         0.15329E+09
         0.15511E+09
         0.14067E+09
         0.83040E+08
         0.10183E+09
         0.66341E+08
         0.22360E+08
        -0.48094E+08
        -0.11369E+09
        -0.12859E+09
        -0.12613E+09
        -0.12054E+09
        -0.10495E+09
        -0.84915E+08
        -0.60780E+08
        -0.33549E+08
        -0.19439E+07
         0.22333E+08
         0.34880E+08
         0.54557E+08
         0.87006E+08
         0.10304E+09
         0.11679E+09
         0.13863E+09
         0.15654E+09
         0.16691E+09
         0.16411E+09
         0.15176E+09
         0.12950E+09
         0.89125E+08
         0.99499E+08
         0.13653E+09
         0.12639E+09
         0.14783E+09
         0.15161E+09
         0.62624E+08
         0.65840E+08
         0.59907E+08
         0.45291E+08
         0.77635E+06
        -0.83523E+08
         0.97973E+07
        -0.15230E+08
        -0.11530E+09
         0.13398E+08
         0.26671E+08
         0.51951E+08
         0.10029E+08
        -0.45324E+07
        -0.23417E+07
        -0.19786E+08
        -0.10342E+08
        -0.21093E+07
        -0.51926E+07
         0.78645E+07
        -0.50904E+08
        -0.76314E+08
        -0.75636E+08
        -0.50958E+08
         0.94411E+08
         0.11385E+09
         0.12111E+09
         0.15052E+09
         0.15397E+09
         0.13783E+09
         0.82744E+08
        -0.10950E+09
        -0.96527E+08
        -0.84237E+08
        -0.75011E+08
        -0.63595E+08
        -0.44550E+08
         0.18946E+08
         0.11932E+09
         0.13919E+09
         0.13102E+09
         0.12597E+09
         0.13826E+09
         0.15601E+09
         0.16758E+09
         0.16354E+09
         0.16441E+09
         0.15514E+09
         0.14755E+09
         0.68456E+08
        -0.48526E+08
        -0.12411E+09
        -0.14028E+09
        -0.13143E+09
        -0.11561E+09
        -0.96750E+08
        -0.76803E+08
        -0.51465E+08
        -0.28714E+08
        -0.17604E+08
        -0.18281E+08
        -0.21769E+08
         0.15086E+08
         0.12088E+09
         0.14792E+09
         0.13691E+09
         0.13904E+09
         0.15476E+09
         0.17224E+09
         0.18005E+09
         0.17910E+09
         0.16675E+09
         0.85408E+08
         0.70225E+08
         0.54842E+08
         0.31600E+08
         0.25567E+08
        -0.73060E+06
         0.48970E+08
         0.53212E+08
         0.62867E+08
         0.33029E+08
         0.82934E+07
        -0.46644E+08
         0.74182E+07
        -0.42196E+07
        -0.99565E+08
         0.21446E+08
         0.23891E+08
         0.36785E+08
        -0.77276E+07
        -0.16619E+08
        -0.54766E+08
        -0.44663E+08
        -0.82944E+08
        -0.42500E+08
        -0.13326E+08
        -0.33387E+08
        -0.39871E+08
        -0.75468E+08
        -0.81490E+08
        -0.54845E+08
        -0.21118E+08
        -0.19833E+08
        -0.45388E+08
        -0.55327E+08
         0.51400E+08
         0.69461E+08
         0.44198E+08
        -0.11469E+09
        -0.97568E+08
        -0.81077E+08
        -0.70334E+08
        -0.66045E+08
        -0.55810E+08
        -0.81367E+08
        -0.39707E+08
        -0.16297E+08
        -0.20458E+08
        -0.49553E+08
        -0.69892E+08
        -0.64180E+08
        -0.48559E+08
        -0.28460E+08
         0.71721E+08
         0.36771E+08
         0.12390E+09
         0.38328E+08
        -0.24920E+08
        -0.91118E+08
        -0.12031E+09
        -0.11774E+09
        -0.99740E+08
        -0.80285E+08
        -0.64954E+08
        -0.47692E+08
        -0.35619E+08
        -0.47494E+08
        -0.78489E+08
        -0.10874E+09
        -0.94435E+08
        -0.58220E+08
        -0.30441E+08
        -0.37985E+08
        -0.63576E+08
        -0.82359E+08
        -0.74195E+08
        -0.43653E+08
         0.10132E+07
         0.33992E+08
         0.13492E+08
         0.17014E+08
        -0.88332E+07
        -0.29094E+08
        -0.44537E+08
        -0.86411E+08
         0.16204E+08
         0.73294E+07
         0.16036E+08
        -0.33883E+07
         0.41707E+07
         0.10380E+07
         0.27982E+08
        -0.15450E+08
        -0.36397E+08
         0.14194E+08
         0.55468E+07
         0.16073E+07
        -0.20096E+08
        -0.33028E+08
        -0.80130E+08
        -0.71407E+08
        -0.72613E+08
        -0.38181E+08
        -0.21957E+08
        -0.22870E+08
        -0.35644E+08
        -0.45610E+08
        -0.62175E+08
        -0.44059E+08
        -0.20525E+08
        -0.25304E+08
        -0.67173E+08
        -0.12412E+09
        -0.15627E+08
         0.11666E+08
         0.32321E+08
        -0.65133E+08
        -0.73777E+08
        -0.64676E+08
        -0.56005E+08
        -0.75474E+08
        -0.80839E+08
        -0.62659E+08
        -0.55871E+08
        -0.53608E+08
        -0.52465E+08
        -0.83190E+08
        -0.11120E+09
        -0.12093E+09
        -0.12061E+09
        -0.11315E+09
         0.26411E+08
        -0.23533E+08
         0.95938E+08
         0.61726E+08
         0.40908E+08
         0.16129E+07
        -0.49025E+08
        -0.73076E+08
        -0.69516E+08
        -0.51383E+08
        -0.41316E+08
        -0.42896E+08
        -0.73582E+08
        -0.10775E+09
        -0.11907E+09
        -0.98169E+08
        -0.70546E+08
        -0.66265E+08
        -0.66490E+08
        -0.69681E+08
        -0.93542E+08
        -0.11863E+09
        -0.12644E+09
        -0.11994E+09
        -0.10137E+09
        -0.65114E+08
        -0.70336E+07
         0.78798E+07
        -0.41066E+07
        -0.23603E+08
        -0.23573E+08
        -0.53461E+08
         0.79166E+06
        -0.22199E+08
        -0.10548E+08
        -0.35043E+08
        -0.61138E+07
         0.18442E+08
         0.29954E+08
        -0.24351E+08
         0.13485E+08
         0.11896E+08
        -0.14384E+08
        -0.22859E+07
        -0.27247E+08
        -0.29610E+08
        -0.67812E+08
        -0.34403E+08
        -0.61512E+08
        -0.32393E+08
        -0.25140E+08
        -0.88423E+07
        -0.25443E+08
         0.11726E+08
         0.38592E+08
        -0.21471E+06
         0.27320E+07
         0.63686E+06
        -0.35540E+08
        -0.77717E+08
         0.16051E+08
         0.30397E+08
         0.38166E+08
         0.22217E+08
         0.35277E+08
         0.51759E+08
         0.64880E+08
         0.52126E+08
         0.19020E+08
        -0.47681E+08
        -0.30902E+08
        -0.23255E+08
        -0.72525E+07
        -0.28517E+08
        -0.73162E+08
        -0.80564E+08
        -0.74469E+08
        -0.68684E+08
         0.65963E+08
         0.44870E+07
         0.10330E+09
         0.76158E+08
         0.63010E+08
         0.56543E+08
         0.49394E+08
         0.44456E+08
         0.47651E+08
         0.65566E+08
         0.76181E+08
         0.55337E+08
         0.74849E+07
        -0.54254E+08
        -0.93902E+08
        -0.79800E+08
        -0.58482E+08
        -0.53845E+08
        -0.39975E+08
        -0.20682E+08
        -0.45187E+08
        -0.77871E+08
        -0.80306E+08
        -0.63752E+08
        -0.42695E+08
        -0.22659E+08
        -0.11341E+08
         0.46201E+07
        -0.20238E+07
        -0.20712E+08
        -0.15881E+08
        -0.42273E+08
        -0.60198E+07
        -0.31323E+08
        -0.18538E+08
        -0.44803E+08
        -0.11625E+08
         0.16886E+08
         0.19587E+08
        -0.25585E+08
         0.34505E+08
         0.11098E+08
        -0.22537E+08
        -0.41887E+06
        -0.32119E+08
        -0.24765E+08
        -0.50529E+08
         0.20035E+07
        -0.67385E+08
        -0.41182E+08
        -0.21644E+08
        -0.15082E+08
        -0.11870E+08
         0.44891E+08
         0.68191E+08
         0.36760E+08
         0.46290E+07
        -0.91053E+07
        -0.30263E+08
        -0.69805E+08
         0.23242E+08
         0.31144E+08
         0.29040E+08
         0.52072E+08
         0.65953E+08
         0.77725E+08
         0.84176E+08
         0.75387E+08
         0.52599E+08
        -0.70778E+08
        -0.70665E+08
        -0.69504E+08
        -0.34037E+08
        -0.42457E+08
        -0.68629E+08
        -0.67399E+08
        -0.57720E+08
        -0.52732E+08
         0.58744E+08
         0.57484E+07
         0.86284E+08
         0.53906E+08
         0.44216E+08
         0.59155E+08
         0.81788E+08
         0.85241E+08
         0.89464E+08
         0.97149E+08
         0.92923E+08
         0.73396E+08
         0.45805E+08
        -0.21471E+07
        -0.58076E+08
        -0.87223E+08
        -0.99048E+08
        -0.10737E+09
        -0.92536E+08
        -0.70220E+08
        -0.74983E+08
        -0.79219E+08
        -0.67194E+08
        -0.45350E+08
        -0.24396E+08
        -0.12387E+08
        -0.10198E+08
         0.89711E+07
        -0.88729E+06
        -0.22562E+08
        -0.19074E+08
        -0.48086E+08
        -0.29733E+07
        -0.34974E+08
        -0.22623E+08
        -0.52357E+08
        -0.79637E+07
         0.31405E+08
         0.27796E+08
        -0.24255E+08
         0.50916E+08
         0.81214E+07
        -0.30394E+08
         0.11784E+07
        -0.37641E+08
        -0.24793E+08
        -0.34811E+08
         0.17666E+08
        -0.56767E+08
        -0.48758E+08
        -0.23327E+08
        -0.23617E+08
        -0.31532E+07
         0.56705E+08
         0.76716E+08
         0.53433E+08
        -0.21999E+07
        -0.23634E+08
        -0.39283E+08
        -0.76533E+08
         0.17973E+08
         0.34679E+08
         0.35597E+08
         0.65501E+08
         0.77647E+08
         0.86233E+08
         0.90049E+08
         0.82670E+08
         0.62267E+08
        -0.64729E+08
        -0.73542E+08
        -0.80527E+08
        -0.70810E+08
        -0.70868E+08
        -0.78922E+08
        -0.76834E+08
        -0.69214E+08
        -0.62977E+08
         0.46046E+08
        -0.44833E+07
         0.80550E+08
         0.48669E+08
         0.43146E+08
         0.75077E+08
         0.10261E+09
         0.10103E+09
         0.10276E+09
         0.10537E+09
         0.96918E+08
         0.79057E+08
         0.57954E+08
         0.20001E+08
        -0.33315E+08
        -0.70505E+08
        -0.88513E+08
        -0.10184E+09
        -0.10051E+09
        -0.99332E+08
        -0.10180E+09
        -0.96011E+08
        -0.81831E+08
        -0.61654E+08
        -0.41601E+08
        -0.25511E+08
        -0.94960E+07
         0.14704E+08
         0.17606E+07
        -0.24420E+08
        -0.21008E+08
        -0.53980E+08
         0.17755E+07
        -0.37974E+08
        -0.26316E+08
        -0.60506E+08
        -0.71921E+06
         0.56740E+08
         0.48621E+08
        -0.20811E+08
         0.66270E+08
         0.68511E+07
        -0.37385E+08
         0.52714E+06
        -0.40989E+08
        -0.33476E+08
        -0.33547E+08
         0.12597E+08
        -0.48337E+08
        -0.46910E+08
        -0.32253E+08
        -0.20745E+08
         0.18783E+07
         0.55127E+08
         0.69095E+08
         0.45652E+08
        -0.63407E+07
        -0.20759E+08
        -0.47382E+08
        -0.79941E+08
         0.19001E+08
         0.45840E+08
         0.54017E+08
         0.74726E+08
         0.81881E+08
         0.83725E+08
         0.80798E+08
         0.69754E+08
         0.50266E+08
        -0.49582E+08
        -0.53435E+08
        -0.59853E+08
        -0.59054E+08
        -0.68574E+08
        -0.79616E+08
        -0.79836E+08
        -0.75654E+08
        -0.70482E+08
         0.45637E+08
        -0.92365E+07
         0.96926E+08
         0.72695E+08
         0.74529E+08
         0.10895E+09
         0.11874E+09
         0.11274E+09
         0.11086E+09
         0.10532E+09
         0.85931E+08
         0.61162E+08
         0.45037E+08
         0.14714E+08
        -0.30547E+08
        -0.56878E+08
        -0.65184E+08
        -0.74579E+08
        -0.76049E+08
        -0.86404E+08
        -0.99503E+08
        -0.97848E+08
        -0.85939E+08
        -0.71090E+08
        -0.55917E+08
        -0.37160E+08
        -0.81084E+07
         0.15556E+08
         0.27001E+07
        -0.24873E+08
        -0.21915E+08
        -0.55389E+08
        -0.13600E+06
        -0.40048E+08
        -0.25867E+08
        -0.65965E+08
        -0.30202E+07
         0.57176E+08
         0.49344E+08
        -0.22671E+08
         0.70304E+08
         0.91193E+07
        -0.39469E+08
         0.11459E+07
        -0.41055E+08
        -0.40986E+08
        -0.38470E+08
         0.14556E+07
        -0.47859E+08
        -0.43796E+08
        -0.43081E+08
        -0.15634E+08
        -0.30121E+07
         0.46079E+08
         0.57286E+08
         0.28080E+08
        -0.44156E+07
        -0.12357E+08
        -0.48709E+08
        -0.78518E+08
         0.19318E+08
         0.49129E+08
         0.57198E+08
         0.75180E+08
         0.77694E+08
         0.75418E+08
         0.68995E+08
         0.54605E+08
         0.34248E+08
        -0.44028E+08
        -0.41593E+08
        -0.42303E+08
        -0.40574E+08
        -0.56804E+08
        -0.74483E+08
        -0.77883E+08
        -0.74849E+08
        -0.70565E+08
         0.43870E+08
        -0.11673E+08
         0.10878E+09
         0.86874E+08
         0.88687E+08
         0.12295E+09
         0.12447E+09
         0.11554E+09
         0.10950E+09
         0.99487E+08
         0.74092E+08
         0.43100E+08
         0.25356E+08
        -0.13258E+06
        -0.37920E+08
        -0.55975E+08
        -0.58583E+08
        -0.62362E+08
        -0.55898E+08
        -0.62332E+08
        -0.83099E+08
        -0.90561E+08
        -0.83268E+08
        -0.70321E+08
        -0.55955E+08
        -0.39409E+08
        -0.11444E+08
         0.89627E+07
        -0.32909E+07
        -0.30200E+08
        -0.23937E+08
        -0.57991E+08
        -0.67900E+07
        -0.44502E+08
        -0.25143E+08
        -0.67944E+08
        -0.10657E+08
         0.48813E+08
         0.38992E+08
        -0.31565E+08
         0.63397E+08
         0.12634E+08
        -0.36422E+08
         0.11291E+07
        -0.38424E+08
        -0.37461E+08
        -0.38984E+08
         0.28651E+07
        -0.48022E+08
        -0.39552E+08
        -0.41346E+08
        -0.95907E+07
        -0.13861E+08
         0.43701E+08
         0.59752E+08
         0.34107E+08
         0.17256E+07
        -0.22182E+07
        -0.47203E+08
        -0.81469E+08
         0.18139E+08
         0.44276E+08
         0.48730E+08
         0.66693E+08
         0.70227E+08
         0.71508E+08
         0.69876E+08
         0.59270E+08
         0.38237E+08
        -0.40901E+08
        -0.33289E+08
        -0.29630E+08
        -0.24908E+08
        -0.45668E+08
        -0.72268E+08
        -0.80960E+08
        -0.79534E+08
        -0.74387E+08
         0.45025E+08
        -0.12839E+08
         0.12209E+09
         0.89999E+08
         0.84166E+08
         0.12602E+09
         0.12281E+09
         0.10777E+09
         0.99076E+08
         0.91019E+08
         0.74185E+08
         0.50734E+08
         0.29466E+08
         0.11702E+07
        -0.37203E+08
        -0.56294E+08
        -0.56520E+08
        -0.55961E+08
        -0.43105E+08
        -0.43116E+08
        -0.68030E+08
        -0.87040E+08
        -0.87381E+08
        -0.76394E+08
        -0.60770E+08
        -0.42098E+08
        -0.14713E+08
         0.38775E+07
        -0.84179E+07
        -0.31762E+08
        -0.26958E+08
        -0.59583E+08
        -0.10340E+08
        -0.45619E+08
        -0.24343E+08
        -0.63305E+08
        -0.13047E+08
         0.44577E+08
         0.31102E+08
        -0.32993E+08
         0.57741E+08
         0.16722E+08
        -0.30057E+08
         0.15798E+07
        -0.31616E+08
        -0.25243E+08
        -0.33373E+08
         0.14198E+08
        -0.44841E+08
        -0.31790E+08
        -0.27668E+08
        -0.31989E+07
        -0.11974E+08
         0.51865E+08
         0.71442E+08
         0.55758E+08
         0.54492E+07
         0.11030E+07
        -0.42565E+08
        -0.82848E+08
         0.13692E+08
         0.35876E+08
         0.40222E+08
         0.61891E+08
         0.69998E+08
         0.76678E+08
         0.80526E+08
         0.74074E+08
         0.53264E+08
        -0.38820E+08
        -0.34314E+08
        -0.33735E+08
        -0.26810E+08
        -0.43950E+08
        -0.70273E+08
        -0.80321E+08
        -0.79999E+08
        -0.75670E+08
         0.42392E+08
        -0.14041E+08
         0.12162E+09
         0.83725E+08
         0.72174E+08
         0.12157E+09
         0.11756E+09
         0.10022E+09
         0.95109E+08
         0.91786E+08
         0.84888E+08
         0.69998E+08
         0.46622E+08
         0.15396E+08
        -0.27515E+08
        -0.54251E+08
        -0.58994E+08
        -0.62012E+08
        -0.51073E+08
        -0.48050E+08
        -0.66811E+08
        -0.85293E+08
        -0.86481E+08
        -0.76487E+08
        -0.62016E+08
        -0.42301E+08
        -0.12643E+08
         0.51772E+07
        -0.10920E+08
        -0.30020E+08
        -0.32298E+08
        -0.61890E+08
        -0.56054E+07
        -0.39409E+08
        -0.21731E+08
        -0.55477E+08
        -0.56586E+07
         0.51110E+08
         0.35948E+08
        -0.22836E+08
         0.63430E+08
         0.16354E+08
        -0.26495E+08
         0.72610E+06
        -0.26709E+08
        -0.20903E+08
        -0.27627E+08
         0.16040E+08
        -0.39542E+08
        -0.26779E+08
        -0.19547E+08
        -0.38840E+07
         0.17455E+07
         0.62088E+08
         0.78862E+08
         0.63003E+08
         0.26771E+07
        -0.39195E+07
        -0.41653E+08
        -0.83138E+08
         0.43809E+07
         0.27426E+08
         0.39498E+08
         0.69816E+08
         0.80992E+08
         0.88130E+08
         0.90560E+08
         0.80315E+08
         0.55797E+08
        -0.39858E+08
        -0.41134E+08
        -0.39924E+08
        -0.29325E+08
        -0.42074E+08
        -0.67462E+08
        -0.77713E+08
        -0.77425E+08
        -0.75024E+08
         0.35326E+08
        -0.15764E+08
         0.10906E+09
         0.82700E+08
         0.76281E+08
         0.12095E+09
         0.11845E+09
         0.10510E+09
         0.10672E+09
         0.10689E+09
         0.97610E+08
         0.76166E+08
         0.45491E+08
         0.15821E+08
        -0.18469E+08
        -0.47171E+08
        -0.60787E+08
        -0.70221E+08
        -0.56774E+08
        -0.47094E+08
        -0.61984E+08
        -0.81091E+08
        -0.82585E+08
        -0.72121E+08
        -0.58025E+08
        -0.41232E+08
        -0.11515E+08
         0.10009E+08
        -0.75410E+07
        -0.29342E+08
        -0.30012E+08
        -0.61927E+08
         0.16997E+07
        -0.35374E+08
        -0.24249E+08
        -0.55235E+08
         0.27158E+07
         0.63749E+08
         0.50179E+08
        -0.15622E+08
         0.76820E+08
         0.60711E+07
        -0.32256E+08
        -0.52341E+07
        -0.38050E+08
        -0.31976E+08
        -0.36764E+08
         0.60158E+07
        -0.51403E+08
        -0.42806E+08
        -0.25872E+08
        -0.19530E+08
         0.67463E+07
         0.59721E+08
         0.72704E+08
         0.49597E+08
        -0.55336E+07
        -0.16104E+08
        -0.44660E+08
        -0.85125E+08
         0.97494E+07
         0.32351E+08
         0.48723E+08
         0.80188E+08
         0.84189E+08
         0.84415E+08
         0.84252E+08
         0.73548E+08
         0.47879E+08
        -0.52627E+08
        -0.50246E+08
        -0.43568E+08
        -0.31503E+08
        -0.42477E+08
        -0.69091E+08
        -0.80019E+08
        -0.78914E+08
        -0.75578E+08
         0.44567E+08
        -0.10800E+08
         0.11903E+09
         0.98061E+08
         0.98873E+08
         0.13205E+09
         0.13026E+09
         0.11952E+09
         0.11344E+09
         0.10381E+09
         0.90637E+08
         0.69416E+08
         0.38853E+08
         0.58991E+07
        -0.33234E+08
        -0.62904E+08
        -0.72833E+08
        -0.75225E+08
        -0.56084E+08
        -0.42315E+08
        -0.57841E+08
        -0.79909E+08
        -0.84449E+08
        -0.73545E+08
        -0.57041E+08
        -0.39962E+08
        -0.17915E+08
         0.59268E+07
        -0.79554E+07
        -0.30539E+08
        -0.26287E+08
        -0.59424E+08
        -0.31497E+07
        -0.41944E+08
        -0.30396E+08
        -0.61818E+08
        -0.51696E+07
         0.54313E+08
         0.50148E+08
        -0.26740E+08
         0.77553E+08
        -0.32632E+07
        -0.37546E+08
        -0.10654E+08
        -0.49921E+08
        -0.38934E+08
        -0.47250E+08
        -0.25167E+07
        -0.60848E+08
        -0.58056E+08
        -0.33122E+08
        -0.30836E+08
        -0.74373E+07
         0.50603E+08
         0.62235E+08
         0.38085E+08
        -0.71897E+07
        -0.20346E+08
        -0.40168E+08
        -0.85123E+08
         0.16593E+08
         0.35376E+08
         0.50226E+08
         0.77875E+08
         0.76523E+08
         0.71213E+08
         0.68940E+08
         0.61764E+08
         0.39591E+08
        -0.57106E+08
        -0.50407E+08
        -0.42260E+08
        -0.30042E+08
        -0.39420E+08
        -0.66843E+08
        -0.78407E+08
        -0.77104E+08
        -0.73471E+08
         0.54610E+08
        -0.47508E+07
         0.13534E+09
         0.11273E+09
         0.11285E+09
         0.13733E+09
         0.13638E+09
         0.12127E+09
         0.10686E+09
         0.88059E+08
         0.71637E+08
         0.55260E+08
         0.30854E+08
        -0.62503E+07
        -0.51837E+08
        -0.75552E+08
        -0.74877E+08
        -0.71551E+08
        -0.53388E+08
        -0.38456E+08
        -0.50694E+08
        -0.71922E+08
        -0.79134E+08
        -0.70141E+08
        -0.52591E+08
        -0.34180E+08
        -0.19865E+08
        -0.27622E+06
        -0.72963E+07
        -0.25967E+08
        -0.18061E+08
        -0.52232E+08
        -0.10239E+08
        -0.41935E+08
        -0.29134E+08
        -0.58567E+08
        -0.14865E+08
         0.27321E+08
         0.28687E+08
        -0.33820E+08
         0.57565E+08
         0.12177E+07
        -0.31212E+08
        -0.85038E+07
        -0.41570E+08
        -0.29878E+08
        -0.45435E+08
        -0.13160E+07
        -0.52330E+08
        -0.46706E+08
        -0.27516E+08
        -0.20315E+08
        -0.17616E+08
         0.51921E+08
         0.65126E+08
         0.43282E+08
         0.45517E+07
        -0.65491E+07
        -0.24174E+08
        -0.61386E+08
         0.25455E+08
         0.30695E+08
         0.33789E+08
         0.69717E+08
         0.74284E+08
         0.71674E+08
         0.69304E+08
         0.62632E+08
         0.41358E+08
        -0.45386E+08
        -0.36882E+08
        -0.26067E+08
        -0.65338E+07
        -0.10073E+08
        -0.48603E+08
        -0.65947E+08
        -0.65964E+08
        -0.65923E+08
         0.68003E+08
         0.78886E+07
         0.13802E+09
         0.97569E+08
         0.91433E+08
         0.11569E+09
         0.12764E+09
         0.11493E+09
         0.10198E+09
         0.86453E+08
         0.70343E+08
         0.53638E+08
         0.30952E+08
        -0.97099E+07
        -0.50031E+08
        -0.63035E+08
        -0.59801E+08
        -0.56432E+08
        -0.35884E+08
        -0.12593E+08
        -0.15968E+08
        -0.39515E+08
        -0.54379E+08
        -0.52185E+08
        -0.37606E+08
        -0.20242E+08
        -0.10393E+08
         0.90711E+07
         0.16941E+08
        -0.36342E+07
         0.28278E+08
        -0.85020E+07
        -0.72302E+07
        -0.32689E+08
        -0.21682E+08
        -0.48228E+08
        -0.17817E+08
         0.35979E+07
         0.13603E+08
        -0.33281E+08
         0.23136E+08
         0.10184E+08
        -0.23728E+08
         0.12872E+07
        -0.31496E+08
        -0.23913E+08
        -0.43508E+08
         0.61789E+05
        -0.41200E+08
        -0.29528E+08
        -0.18625E+08
        -0.17398E+06
        -0.17615E+08
         0.52868E+08
         0.66721E+08
         0.44569E+08
         0.30945E+08
         0.25827E+08
         0.11004E+08
        -0.51109E+07
         0.77850E+08
         0.59430E+08
         0.35220E+08
         0.54311E+08
         0.71996E+08
         0.75944E+08
         0.73874E+08
         0.63854E+08
         0.41914E+08
        -0.24107E+08
        -0.31355E+07
         0.19967E+08
         0.52733E+08
         0.54079E+08
         0.27037E+08
         0.31682E+07
        -0.38788E+07
        -0.12574E+08
         0.12805E+09
         0.50705E+08
         0.15101E+09
         0.84445E+08
         0.52137E+08
         0.54973E+08
         0.86265E+08
         0.99880E+08
         0.98069E+08
         0.91363E+08
         0.76484E+08
         0.54999E+08
         0.32330E+08
        -0.65082E+07
        -0.42448E+08
        -0.46108E+08
        -0.35889E+08
        -0.23645E+08
         0.10069E+08
         0.46952E+08
         0.58068E+08
         0.42167E+08
         0.21504E+08
         0.16329E+08
         0.22213E+08
         0.25696E+08
         0.79267E+07
         0.35386E+08
         0.64304E+08
         0.31813E+08
         0.11183E+09
         0.90015E+08
         0.15067E+08
        -0.10168E+08
        -0.75205E+07
        -0.28215E+08
         0.27739E+07
         0.15410E+08
         0.32484E+08
        -0.13642E+08
         0.15189E+08
         0.26013E+08
        -0.89799E+07
         0.17237E+08
        -0.67393E+07
         0.13515E+07
        -0.82817E+07
         0.28370E+08
        -0.56405E+07
         0.32046E+07
         0.16401E+07
         0.30558E+08
        -0.28899E+07
         0.51880E+08
         0.66889E+08
         0.59348E+08
         0.65468E+08
         0.65960E+08
         0.58650E+08
         0.75448E+08
         0.12853E+09
         0.12087E+09
         0.73433E+08
         0.38369E+08
         0.60527E+08
         0.71256E+08
         0.72637E+08
         0.65386E+08
         0.51724E+08
         0.14942E+08
         0.38387E+08
         0.58164E+08
         0.87022E+08
         0.10068E+09
         0.93228E+08
         0.86856E+08
         0.82588E+08
         0.93852E+08
         0.13820E+09
         0.10532E+09
         0.12533E+09
         0.11303E+09
         0.63233E+08
         0.38006E+08
         0.49026E+08
         0.69656E+08
         0.80220E+08
         0.83068E+08
         0.74764E+08
         0.56737E+08
         0.41412E+08
         0.27913E+08
         0.74400E+07
        -0.33668E+07
         0.34481E+07
         0.16996E+08
         0.46093E+08
         0.62001E+08
         0.62106E+08
         0.65656E+08
         0.64036E+08
         0.63837E+08
         0.70826E+08
         0.83180E+08
         0.28295E+07
         0.28316E+08
         0.44938E+08
         0.10630E+08
         0.75735E+08
         0.51044E+08
         0.24045E+08
        -0.38308E+06
        -0.59732E+07
        -0.10887E+08
         0.34706E+08
         0.62541E+08
         0.64795E+08
         0.23650E+08
         0.53921E+08
         0.64774E+07
        -0.46426E+07
         0.12831E+07
        -0.34971E+08
         0.15598E+08
        -0.35496E+08
         0.30532E+08
        -0.69155E+08
        -0.64469E+08
         0.36602E+08
        -0.40638E+08
         0.40754E+08
         0.80205E+08
         0.96564E+08
         0.90103E+08
         0.33042E+07
        -0.43553E+08
        -0.12839E+07
         0.18785E+07
         0.69116E+08
         0.62136E+08
         0.78785E+08
         0.65531E+08
         0.86440E+08
         0.10216E+09
         0.10761E+09
         0.98003E+08
         0.75964E+08
        -0.79517E+08
        -0.70055E+08
        -0.50603E+08
        -0.30640E+08
        -0.19457E+08
        -0.23115E+08
        -0.17214E+08
        -0.53073E+07
         0.17151E+08
         0.85343E+08
         0.10324E+09
         0.71166E+08
         0.96132E+08
         0.93233E+08
         0.88311E+08
         0.88520E+08
         0.92461E+08
         0.10579E+09
         0.11662E+09
         0.11427E+09
         0.94848E+08
         0.63814E+08
         0.20087E+08
        -0.31307E+08
        -0.73722E+08
        -0.92382E+08
        -0.74813E+08
        -0.47218E+08
        -0.33771E+08
        -0.38452E+08
        -0.36471E+08
        -0.28467E+08
        -0.12725E+08
         0.14982E+08
         0.57451E+08
        -0.12986E+09
        -0.12377E+09
        -0.11750E+09
        -0.12411E+09
        -0.11774E+09
        -0.14163E+09
        -0.14199E+09
        -0.15339E+09
        -0.13766E+09
        -0.15662E+09
        -0.15045E+09
        -0.66204E+08
        -0.94033E+08
        -0.16278E+09
         0.30510E+08
        -0.15155E+09
        -0.15252E+09
        -0.12402E+09
        -0.16549E+09
        -0.16341E+09
        -0.15256E+09
        -0.11213E+09
        -0.16607E+09
        -0.16633E+09
        -0.15313E+09
        -0.16663E+09
        -0.11104E+09
         0.19340E+08
         0.71211E+08
        -0.72619E+08
        -0.17041E+09
        -0.16856E+09
        -0.16417E+09
        -0.16787E+09
        -0.11705E+09
        -0.10965E+09
        -0.93757E+08
         0.10015E+09
         0.12506E+09
         0.13129E+09
         0.12582E+09
         0.80400E+08
        -0.13787E+08
        -0.16722E+09
        -0.16392E+09
        -0.15744E+09
        -0.15527E+09
        -0.15427E+09
        -0.16058E+09
        -0.17192E+09
        -0.17528E+09
        -0.17127E+09
        -0.11399E+09
        -0.99970E+08
        -0.86058E+08
        -0.26791E+07
         0.73848E+08
         0.12682E+09
         0.14870E+09
         0.15824E+09
         0.17021E+09
         0.17026E+09
         0.14598E+09
         0.86389E+08
        -0.21484E+08
        -0.12333E+09
        -0.16161E+09
        -0.17292E+09
        -0.17231E+09
        -0.16367E+09
        -0.15274E+09
        -0.14410E+09
        -0.14552E+09
        -0.15297E+09
        -0.16413E+09
        -0.17052E+09
        -0.16449E+09
        -0.12695E+09
        -0.12877E+09
        -0.11901E+09
        -0.11812E+09
        -0.11697E+09
        -0.12540E+09
        -0.14646E+09
        -0.13363E+09
        -0.15425E+09
        -0.13873E+09
        -0.15652E+09
        -0.14232E+09
        -0.95016E+08
        -0.84653E+08
        -0.14776E+09
        -0.48202E+08
        -0.14402E+09
        -0.15130E+09
        -0.11888E+09
        -0.15787E+09
        -0.15154E+09
        -0.15598E+09
        -0.12351E+09
        -0.16895E+09
        -0.16321E+09
        -0.15040E+09
        -0.16260E+09
        -0.10658E+09
        -0.58837E+07
         0.49651E+08
        -0.95351E+08
        -0.16124E+09
        -0.16782E+09
        -0.13850E+09
        -0.14211E+09
        -0.12691E+09
        -0.11268E+09
        -0.90250E+08
         0.86147E+08
         0.14088E+09
         0.14263E+09
         0.12302E+09
         0.50250E+08
        -0.54959E+08
        -0.16960E+09
        -0.16950E+09
        -0.16915E+09
        -0.16798E+09
        -0.16152E+09
        -0.14963E+09
        -0.15570E+09
        -0.16875E+09
        -0.16665E+09
        -0.12948E+09
        -0.11067E+09
        -0.10101E+09
        -0.41737E+08
         0.11099E+08
         0.66859E+08
         0.13558E+09
         0.16532E+09
         0.18801E+09
         0.18839E+09
         0.14745E+09
         0.52300E+08
        -0.72571E+08
        -0.15119E+09
        -0.17650E+09
        -0.18279E+09
        -0.18064E+09
        -0.17565E+09
        -0.16989E+09
        -0.16726E+09
        -0.16541E+09
        -0.16046E+09
        -0.16532E+09
        -0.17874E+09
        -0.18592E+09
        -0.15745E+09
  
SCALARS                      stress_xy  double 1
LOOKUP_TABLE default
        -0.21759E+08
         0.64460E+07
         0.58214E+08
         0.12543E+08
        -0.56527E+01
         0.27309E+01
         0.73176E+01
        -0.30886E+00
         0.12503E+09
         0.77740E+08
         0.11147E+02
         0.13104E+02
        -0.19241E+08
        -0.15435E+08
         0.22684E+01
        -0.39572E+01
        -0.16981E+08
        -0.20780E+08
        -0.44033E+01
        -0.36117E+01
        -0.25421E+08
        -0.28808E+08
        -0.13718E+08
         0.64034E-01
        -0.81130E+01
        -0.15754E+01
        -0.14932E+08
        -0.30934E+08
         0.15435E+01
        -0.60849E+01
         0.14657E+08
        -0.39090E+08
        -0.80997E+07
         0.21648E+00
        -0.19040E+01
        -0.37787E+01
         0.19611E+08
        -0.35038E+08
         0.13335E+01
        -0.31559E+01
         0.92096E+08
         0.12096E+09
         0.32685E+01
         0.28114E+01
         0.77928E+08
         0.63744E+08
         0.45763E+01
         0.40808E+01
        -0.40584E+08
        -0.22982E+01
         0.59524E+08
         0.51953E+01
        -0.19437E+08
         0.14324E+01
         0.10286E+07
         0.49527E+00
         0.85577E+08
        -0.46645E+06
         0.51128E+01
        -0.24783E+01
        -0.22831E+07
         0.28236E+08
        -0.17805E+01
         0.58954E+01
        -0.11151E+08
        -0.34899E+01
         0.11169E+08
        -0.74054E-01
         0.15298E+09
         0.12473E+09
         0.18210E+02
         0.11624E+02
         0.60997E+08
         0.13268E+02
        -0.80848E+08
         0.31302E+01
         0.29888E+07
         0.34835E+01
         0.13565E+09
         0.98252E+01
         0.15655E+09
         0.14768E+09
         0.14140E+02
         0.12394E+02
         0.15234E+09
         0.34360E+01
         0.67493E+08
         0.66326E+01
         0.59726E+08
         0.57244E+01
         0.26409E+08
        -0.28926E+08
         0.12217E+01
         0.87050E+01
        -0.40697E+08
        -0.47218E+01
        -0.30957E+08
        -0.89700E+00
        -0.16115E+08
         0.21304E+01
        -0.14790E+08
         0.20557E+08
         0.38020E+01
         0.66944E+01
         0.15678E+09
         0.82916E+08
         0.38792E+02
         0.32880E+02
         0.17265E+09
         0.17507E+02
         0.13704E+09
         0.11813E+02
         0.87565E+07
         0.11592E+02
        -0.34728E+08
         0.82705E+01
        -0.83973E+08
         0.49687E+01
        -0.16826E+09
         0.31241E+01
        -0.15543E+09
         0.35074E+01
        -0.60330E+08
         0.10372E+02
         0.17280E+09
         0.27011E+02
         0.16037E+09
         0.22982E+02
         0.14942E+09
         0.11966E+02
         0.16443E+09
         0.93908E+01
         0.10606E+09
         0.94499E+01
         0.54196E+08
         0.86889E+01
         0.27403E+08
         0.82105E+01
         0.47449E+08
         0.94406E+01
         0.53162E+08
        -0.77850E+01
         0.25731E+08
        -0.12122E+02
         0.33795E+08
        -0.75550E+01
         0.10902E+08
        -0.48925E+01
        -0.19381E+08
        -0.17322E+01
        -0.28809E+08
         0.12822E+02
        -0.11600E+08
         0.20387E+02
         0.25556E+08
         0.17313E+02
         0.40418E+08
         0.29432E+08
         0.42173E+08
        -0.35869E+07
         0.28402E+08
        -0.87319E+08
         0.32678E+07
         0.18252E+08
         0.35003E+08
        -0.31998E+07
        -0.22328E+08
        -0.69522E+08
        -0.42911E+08
        -0.21992E+08
        -0.63527E+08
         0.12126E+08
        -0.33100E+08
         0.29103E+08
         0.20741E+08
         0.30299E+08
         0.10384E+09
         0.16907E+09
         0.56075E+08
         0.41252E+08
        -0.16419E+08
         0.21958E+08
        -0.30845E+08
         0.40538E+07
         0.75399E+08
         0.82547E+08
         0.51256E+07
         0.17910E+07
        -0.45107E+08
        -0.11949E+09
         0.50784E+08
         0.36224E+08
        -0.15307E+07
        -0.38493E+08
         0.76338E+07
         0.57723E+08
         0.84143E+08
         0.11681E+09
         0.15847E+09
         0.11417E+08
        -0.17940E+08
        -0.10837E+08
        -0.16961E+07
        -0.26546E+08
        -0.80982E+08
        -0.12421E+09
        -0.14451E+09
        -0.14826E+09
         0.45255E+08
         0.23929E+08
         0.12661E+08
        -0.35079E+08
        -0.10196E+09
        -0.12235E+09
        -0.71903E+08
        -0.39321E+08
        -0.14102E+08
         0.21749E+08
         0.60333E+08
         0.95320E+08
         0.14754E+09
         0.19572E+09
         0.12682E+09
         0.48145E+08
        -0.19032E+08
        -0.40788E+08
        -0.24541E+07
         0.70910E+07
        -0.35746E+08
        -0.97640E+08
        -0.13067E+09
        -0.14943E+09
        -0.14793E+09
        -0.86760E+08
         0.99691E+08
         0.38073E+08
        -0.15258E+08
        -0.19513E+08
        -0.44431E+08
        -0.85008E+08
         0.38916E+08
         0.62921E+08
         0.61329E+08
         0.78659E+07
        -0.47261E+07
        -0.38602E+08
        -0.35044E+08
        -0.59983E+07
        -0.19769E+08
         0.68609E+07
        -0.67238E+08
         0.55000E+08
        -0.15941E+08
         0.13046E+09
         0.15985E+09
         0.19670E+09
         0.62747E+08
         0.35185E+07
         0.46479E+08
         0.35146E+07
         0.32317E+07
         0.57671E+08
         0.10897E+09
         0.13984E+09
         0.45182E+08
         0.23651E+08
        -0.23907E+08
        -0.97215E+08
        -0.37281E+08
        -0.41450E+08
        -0.37732E+08
         0.10493E+08
         0.48664E+08
         0.82621E+08
         0.10081E+09
         0.13155E+09
         0.16813E+09
        -0.22747E+08
        -0.24862E+08
        -0.73499E+07
         0.11646E+08
        -0.17913E+08
        -0.77386E+08
        -0.11485E+09
        -0.12184E+09
        -0.11206E+09
        -0.39236E+08
        -0.37968E+08
        -0.54165E+08
        -0.60275E+08
        -0.69092E+08
        -0.52776E+08
        -0.26137E+08
         0.34873E+07
         0.33620E+08
         0.51303E+08
         0.17665E+08
         0.11405E+09
         0.15857E+09
         0.18545E+09
         0.15553E+09
         0.78033E+08
        -0.31305E+08
        -0.58157E+08
        -0.20324E+08
        -0.12061E+08
        -0.63012E+08
        -0.11921E+09
        -0.13650E+09
        -0.12748E+09
        -0.10327E+09
        -0.69031E+08
         0.13866E+08
        -0.97136E+07
        -0.45509E+08
         0.96240E+07
        -0.57131E+08
        -0.27891E+08
         0.16082E+08
        -0.27570E+07
        -0.10240E+08
        -0.32732E+08
         0.15185E+08
         0.20588E+08
         0.50151E+07
         0.43018E+07
         0.29314E+08
        -0.77839E+06
        -0.47309E+08
         0.40640E+08
         0.31242E+07
         0.10546E+09
         0.13991E+09
         0.18553E+09
         0.82688E+08
         0.12385E+08
         0.46440E+08
         0.32541E+08
         0.29313E+08
         0.87021E+08
         0.12630E+09
         0.15572E+09
         0.85350E+08
         0.88942E+08
         0.51252E+08
        -0.80856E+07
        -0.86832E+08
        -0.76124E+08
        -0.37257E+08
         0.55520E+08
         0.84697E+08
         0.10669E+09
         0.11866E+09
         0.14289E+09
         0.17197E+09
         0.58645E+08
         0.72547E+08
         0.81890E+08
         0.90276E+08
         0.64692E+08
         0.11041E+08
        -0.35557E+08
        -0.45844E+08
        -0.33672E+08
        -0.10346E+09
        -0.60647E+08
        -0.80570E+08
        -0.46187E+08
        -0.14757E+08
         0.21223E+08
         0.39585E+08
         0.59697E+08
         0.84491E+08
         0.93226E+08
         0.10168E+09
         0.12764E+09
         0.15789E+09
         0.16568E+09
         0.14524E+09
         0.11880E+09
         0.77320E+08
         0.49412E+08
         0.60110E+08
         0.52155E+08
         0.12063E+08
        -0.45303E+08
        -0.77042E+08
        -0.56560E+08
        -0.22631E+08
        -0.50572E+07
        -0.19201E+08
         0.10584E+08
        -0.23547E+08
         0.34030E+08
        -0.22649E+07
         0.47771E+08
         0.44304E+08
        -0.16053E+08
        -0.45840E+08
        -0.26134E+08
         0.49656E+08
         0.54470E+08
         0.58714E+08
         0.23057E+08
         0.47194E+08
        -0.46190E+08
        -0.25679E+08
        -0.39020E+07
         0.92108E+07
         0.95900E+08
         0.11641E+09
         0.17336E+09
         0.79338E+08
         0.63330E+07
         0.50883E+08
         0.36994E+08
         0.53609E+08
         0.10950E+09
         0.14211E+09
         0.16158E+09
         0.95885E+08
         0.13576E+09
         0.77584E+08
         0.59796E+08
        -0.46988E+08
        -0.35114E+08
         0.18196E+08
         0.71079E+08
         0.97877E+08
         0.11881E+09
         0.13105E+09
         0.15156E+09
         0.17169E+09
         0.11180E+09
         0.15034E+09
         0.13514E+09
         0.13045E+09
         0.10758E+09
         0.77593E+08
         0.55152E+08
         0.47134E+08
         0.50861E+08
        -0.58345E+08
        -0.43551E+06
        -0.26497E+08
         0.10671E+08
         0.34075E+08
         0.41171E+08
         0.50201E+08
         0.71879E+08
         0.98264E+08
         0.10932E+09
         0.11803E+09
         0.13521E+09
         0.14753E+09
         0.14923E+09
         0.13281E+09
         0.12765E+09
         0.14320E+09
         0.13057E+09
         0.99636E+08
         0.76881E+08
         0.51508E+08
         0.33669E+08
         0.30036E+08
         0.39661E+08
         0.52528E+08
         0.56382E+08
        -0.27514E+08
         0.36212E+08
         0.55395E+08
         0.30207E+08
         0.80859E+08
         0.88295E+08
         0.25408E+08
        -0.16794E+08
        -0.44141E+08
        -0.13346E+08
         0.13911E+08
         0.20877E+08
         0.54453E+08
         0.27301E+07
         0.30180E+08
        -0.76857E+08
        -0.10735E+08
        -0.63117E+08
        -0.53570E+07
         0.80936E+08
         0.81628E+08
         0.14952E+09
         0.35425E+08
        -0.36349E+08
         0.46742E+08
        -0.27470E+08
         0.52613E+08
         0.11396E+09
         0.14350E+09
         0.14213E+09
         0.56477E+08
         0.95719E+08
         0.71484E+08
         0.85829E+08
         0.57794E+08
         0.57245E+08
         0.67836E+08
         0.70903E+08
         0.10021E+09
         0.12024E+09
         0.13035E+09
         0.14688E+09
         0.15959E+09
         0.74268E+08
         0.11592E+09
         0.87537E+08
         0.90075E+08
         0.10215E+09
         0.10439E+09
         0.94099E+08
         0.82092E+08
         0.82441E+08
         0.43958E+08
         0.74887E+08
         0.37803E+08
         0.53713E+08
         0.36039E+08
         0.42827E+07
         0.25591E+08
         0.63861E+08
         0.93173E+08
         0.10647E+09
         0.11729E+09
         0.12721E+09
         0.12956E+09
         0.12479E+09
         0.10387E+09
         0.10084E+09
         0.13244E+09
         0.12054E+09
         0.60876E+08
         0.59227E+08
         0.83673E+08
         0.93879E+08
         0.81676E+08
         0.69737E+08
         0.63973E+08
         0.72779E+08
        -0.36715E+08
         0.23281E+08
         0.91198E+08
         0.96989E+07
         0.15872E+09
         0.15057E+09
        -0.84542E+07
        -0.23554E+08
        -0.42701E+08
        -0.29459E+07
        -0.31066E+08
        -0.38403E+08
         0.24748E+07
        -0.21180E+08
        -0.10514E+08
        -0.89006E+08
         0.31297E+07
        -0.79521E+08
        -0.34030E+08
         0.64955E+08
         0.66212E+07
         0.10417E+09
        -0.57335E+08
        -0.95159E+08
         0.47224E+08
        -0.73121E+08
         0.39450E+08
         0.10474E+09
         0.13554E+09
         0.11551E+09
        -0.18767E+08
        -0.27919E+07
         0.13462E+08
         0.10562E+09
         0.15025E+09
         0.10893E+09
         0.44326E+08
         0.62107E+08
         0.99380E+08
         0.11642E+09
         0.12125E+09
         0.13420E+09
         0.13866E+09
        -0.32297E+08
         0.23207E+08
         0.44753E+08
         0.64270E+08
         0.77751E+08
         0.94563E+08
         0.10551E+09
         0.10930E+09
         0.12330E+09
         0.15084E+09
         0.16625E+09
         0.63467E+08
         0.31443E+08
        -0.25914E+07
        -0.46432E+08
        -0.31576E+07
         0.49931E+08
         0.82061E+08
         0.97050E+08
         0.10643E+09
         0.11160E+09
         0.10813E+09
         0.84003E+08
         0.46511E+08
         0.27463E+08
         0.33368E+08
         0.28873E+08
         0.20328E+08
         0.38416E+08
         0.66990E+08
         0.89871E+08
         0.10317E+09
         0.10332E+09
         0.10458E+09
         0.14028E+09
        -0.15766E+08
         0.90254E+07
         0.62750E+08
         0.17799E+08
         0.15926E+09
         0.13570E+09
        -0.11244E+08
        -0.99973E+07
        -0.15792E+08
         0.24245E+08
        -0.37502E+08
        -0.64677E+08
        -0.17825E+08
        -0.28708E+08
        -0.61812E+08
        -0.33381E+08
         0.23997E+08
        -0.34708E+08
        -0.39096E+08
         0.43250E+08
        -0.98519E+08
        -0.28707E+08
        -0.86422E+08
        -0.73774E+08
         0.58858E+08
        -0.38719E+08
         0.23995E+08
         0.65952E+08
         0.91066E+08
         0.69272E+08
         0.56840E+07
         0.11543E+08
         0.22319E+08
         0.78125E+08
         0.16112E+09
         0.53265E+08
         0.65378E+07
        -0.87552E+07
         0.52721E+08
         0.87013E+08
         0.89979E+08
         0.84431E+08
         0.44152E+08
        -0.40073E+08
         0.12498E+08
         0.57829E+08
         0.84910E+08
         0.10058E+09
         0.92962E+08
         0.92487E+08
         0.97862E+08
         0.10756E+09
         0.16512E+09
         0.16558E+09
         0.85561E+07
         0.78822E+06
        -0.21219E+08
        -0.84417E+08
        -0.65165E+08
        -0.15933E+07
         0.47458E+08
         0.70903E+08
         0.79098E+08
         0.69001E+08
         0.58384E+07
        -0.50658E+08
        -0.60063E+08
        -0.44375E+08
        -0.10395E+08
         0.13310E+08
         0.44220E+08
         0.88969E+08
         0.10752E+09
         0.98747E+08
         0.96233E+08
         0.10057E+09
         0.11467E+09
         0.14394E+09
        -0.28193E+07
         0.12088E+08
         0.57455E+08
         0.29514E+08
         0.15660E+09
         0.14373E+09
        -0.72145E+06
         0.87710E+07
         0.40683E+07
         0.39009E+08
        -0.26081E+08
        -0.65082E+08
        -0.14184E+08
        -0.21203E+08
        -0.97245E+08
        -0.10967E+08
         0.34478E+08
        -0.16613E+08
        -0.29229E+08
        -0.67729E+06
        -0.12982E+09
        -0.15952E+09
        -0.88276E+08
        -0.54085E+08
         0.53179E+08
        -0.23533E+08
         0.51679E+07
         0.77014E+06
        -0.40655E+08
        -0.18878E+08
         0.16097E+08
         0.15535E+08
         0.36557E+08
         0.99072E+08
         0.13715E+09
         0.43969E+08
         0.48713E+07
        -0.63861E+08
        -0.37648E+08
        -0.35794E+08
        -0.54759E+08
        -0.81959E+08
        -0.12252E+09
        -0.44817E+08
         0.92701E+07
         0.64746E+08
         0.86370E+08
         0.10824E+09
         0.12368E+09
         0.12136E+09
         0.12688E+09
         0.13083E+09
         0.13819E+09
         0.15848E+09
         0.85310E+07
        -0.22929E+06
        -0.21850E+08
        -0.93657E+08
        -0.11124E+09
        -0.72717E+08
        -0.42421E+08
        -0.38412E+08
        -0.55958E+08
        -0.92369E+08
        -0.12891E+09
        -0.15172E+09
        -0.13737E+09
        -0.81281E+08
        -0.30084E+08
         0.88439E+07
         0.58395E+08
         0.11592E+09
         0.15730E+09
         0.14747E+09
         0.13863E+09
         0.13670E+09
         0.14201E+09
         0.15103E+09
         0.24748E+07
         0.16223E+08
         0.64033E+08
         0.34726E+08
         0.15135E+09
         0.14038E+09
         0.52714E+07
         0.18049E+08
         0.12932E+08
         0.46967E+08
        -0.22106E+08
        -0.66362E+08
        -0.11883E+08
        -0.19843E+08
        -0.10888E+09
        -0.18954E+07
         0.43355E+08
        -0.13658E+08
        -0.34686E+08
        -0.22341E+08
        -0.13847E+09
        -0.17018E+09
        -0.10028E+09
        -0.61893E+08
         0.47436E+08
        -0.24454E+08
        -0.66763E+07
        -0.30755E+08
        -0.69641E+08
        -0.68818E+08
         0.13949E+08
         0.95202E+07
         0.39326E+08
         0.11423E+09
         0.14285E+09
         0.52066E+08
         0.80760E+07
        -0.74013E+08
        -0.56284E+08
        -0.62848E+08
        -0.81129E+08
        -0.10130E+09
        -0.13783E+09
        -0.58504E+08
        -0.63427E+07
         0.53437E+08
         0.78373E+08
         0.10671E+09
         0.11982E+09
         0.11942E+09
         0.12307E+09
         0.12874E+09
         0.12937E+09
         0.14869E+09
         0.18191E+08
         0.33489E+07
        -0.18656E+08
        -0.96030E+08
        -0.11648E+09
        -0.83094E+08
        -0.68577E+08
        -0.72482E+08
        -0.85691E+08
        -0.10879E+09
        -0.13801E+09
        -0.16520E+09
        -0.15530E+09
        -0.11115E+09
        -0.59240E+08
        -0.10895E+08
         0.47927E+08
         0.10827E+09
         0.14603E+09
         0.13799E+09
         0.13028E+09
         0.12509E+09
         0.12727E+09
         0.13780E+09
         0.39823E+07
         0.21328E+08
         0.80520E+08
         0.39940E+08
         0.15450E+09
         0.14129E+09
         0.96721E+07
         0.24511E+08
         0.17541E+08
         0.55952E+08
        -0.19296E+08
        -0.67974E+08
        -0.95937E+07
        -0.16872E+08
        -0.10169E+09
         0.16442E+07
         0.52438E+08
        -0.15701E+08
        -0.49001E+08
        -0.37640E+08
        -0.14935E+09
        -0.17250E+09
        -0.10807E+09
        -0.80810E+08
         0.52579E+08
        -0.28675E+08
        -0.80535E+07
        -0.36014E+08
        -0.73745E+08
        -0.90575E+08
         0.16148E+08
         0.12062E+08
         0.42508E+08
         0.10975E+09
         0.14971E+09
         0.71124E+08
         0.14368E+08
        -0.68891E+08
        -0.57395E+08
        -0.66891E+08
        -0.85172E+08
        -0.10670E+09
        -0.14357E+09
        -0.60347E+08
        -0.86542E+07
         0.45641E+08
         0.93253E+08
         0.11205E+09
         0.10866E+09
         0.11138E+09
         0.11757E+09
         0.12611E+09
         0.14236E+09
         0.15228E+09
         0.32222E+08
         0.98556E+07
        -0.14516E+08
        -0.87785E+08
        -0.10180E+09
        -0.77406E+08
        -0.70917E+08
        -0.76801E+08
        -0.89006E+08
        -0.11553E+09
        -0.14661E+09
        -0.17056E+09
        -0.17172E+09
        -0.12775E+09
        -0.68870E+08
        -0.17628E+08
         0.39203E+08
         0.92224E+08
         0.12282E+09
         0.12288E+09
         0.12126E+09
         0.11980E+09
         0.12455E+09
         0.13706E+09
         0.44451E+07
         0.26916E+08
         0.90850E+08
         0.41709E+08
         0.15937E+09
         0.14349E+09
         0.15388E+08
         0.29332E+08
         0.18790E+08
         0.62854E+08
        -0.13548E+08
        -0.61527E+08
        -0.15536E+07
        -0.11649E+08
        -0.87775E+08
        -0.52854E+06
         0.54635E+08
        -0.18233E+08
        -0.54967E+08
        -0.45150E+08
        -0.15164E+09
        -0.17368E+09
        -0.10756E+09
        -0.86545E+08
         0.54718E+08
        -0.29974E+08
        -0.45285E+07
        -0.37083E+08
        -0.76947E+08
        -0.10941E+09
         0.21356E+08
         0.19196E+08
         0.47785E+08
         0.10552E+09
         0.15780E+09
         0.88935E+08
         0.25389E+08
        -0.61151E+08
        -0.56078E+08
        -0.70432E+08
        -0.89938E+08
        -0.10996E+09
        -0.14389E+09
        -0.57052E+08
        -0.18001E+07
         0.52282E+08
         0.97241E+08
         0.10905E+09
         0.10410E+09
         0.10692E+09
         0.11459E+09
         0.12517E+09
         0.15371E+09
         0.16079E+09
         0.48574E+08
         0.17514E+08
        -0.95480E+07
        -0.73720E+08
        -0.82713E+08
        -0.70404E+08
        -0.70952E+08
        -0.81565E+08
        -0.94662E+08
        -0.11846E+09
        -0.14474E+09
        -0.16552E+09
        -0.17304E+09
        -0.12767E+09
        -0.64965E+08
        -0.93862E+07
         0.47946E+08
         0.95962E+08
         0.11839E+09
         0.11773E+09
         0.11651E+09
         0.11739E+09
         0.12757E+09
         0.14488E+09
         0.28071E+07
         0.27544E+08
         0.94300E+08
         0.42082E+08
         0.15997E+09
         0.14173E+09
         0.16010E+08
         0.28724E+08
         0.16807E+08
         0.64618E+08
        -0.11367E+08
        -0.56145E+08
         0.28518E+07
        -0.10013E+08
        -0.86377E+08
        -0.40223E+07
         0.51628E+08
        -0.19563E+08
        -0.55027E+08
        -0.51581E+08
        -0.14886E+09
        -0.17382E+09
        -0.10499E+09
        -0.83862E+08
         0.53073E+08
        -0.29649E+08
        -0.14564E+07
        -0.38760E+08
        -0.84309E+08
        -0.12868E+09
         0.24641E+08
         0.23228E+08
         0.52753E+08
         0.10349E+09
         0.16147E+09
         0.98364E+08
         0.30287E+08
        -0.58369E+08
        -0.55859E+08
        -0.74901E+08
        -0.96971E+08
        -0.11743E+09
        -0.14844E+09
        -0.53719E+08
         0.48070E+07
         0.59792E+08
         0.10270E+09
         0.11297E+09
         0.10658E+09
         0.10675E+09
         0.11293E+09
         0.12279E+09
         0.15827E+09
         0.16126E+09
         0.61726E+08
         0.22175E+08
        -0.60114E+07
        -0.72238E+08
        -0.79271E+08
        -0.69011E+08
        -0.71471E+08
        -0.85982E+08
        -0.10204E+09
        -0.12459E+09
        -0.14657E+09
        -0.16302E+09
        -0.16923E+09
        -0.12480E+09
        -0.60763E+08
        -0.30931E+06
         0.57770E+08
         0.10571E+09
         0.12641E+09
         0.12158E+09
         0.11712E+09
         0.11595E+09
         0.12634E+09
         0.14400E+09
         0.19107E+07
         0.23557E+08
         0.92733E+08
         0.43965E+08
         0.15857E+09
         0.14034E+09
         0.12582E+08
         0.26305E+08
         0.15137E+08
         0.61559E+08
        -0.13620E+08
        -0.59305E+08
        -0.26812E+07
        -0.12546E+08
        -0.91224E+08
        -0.57241E+07
         0.48347E+08
        -0.19269E+08
        -0.52005E+08
        -0.55618E+08
        -0.14664E+09
        -0.17282E+09
        -0.10370E+09
        -0.78485E+08
         0.48332E+08
        -0.29839E+08
        -0.46871E+07
        -0.44414E+08
        -0.92774E+08
        -0.13975E+09
         0.22207E+08
         0.19116E+08
         0.53086E+08
         0.10425E+09
         0.16273E+09
         0.91237E+08
         0.21524E+08
        -0.59842E+08
        -0.57378E+08
        -0.78528E+08
        -0.10268E+09
        -0.12440E+09
        -0.15243E+09
        -0.53174E+08
         0.43774E+07
         0.59837E+08
         0.10152E+09
         0.11442E+09
         0.10906E+09
         0.10846E+09
         0.11426E+09
         0.12297E+09
         0.15959E+09
         0.15991E+09
         0.55427E+08
         0.14571E+08
        -0.11455E+08
        -0.81559E+08
        -0.83332E+08
        -0.70122E+08
        -0.71747E+08
        -0.87520E+08
        -0.10691E+09
        -0.12985E+09
        -0.14938E+09
        -0.16498E+09
        -0.16748E+09
        -0.12411E+09
        -0.59336E+08
         0.15399E+07
         0.59628E+08
         0.10890E+09
         0.13224E+09
         0.12558E+09
         0.11937E+09
         0.11802E+09
         0.12752E+09
         0.14266E+09
         0.29710E+07
         0.20477E+08
         0.83698E+08
         0.38908E+08
         0.15807E+09
         0.14189E+09
         0.12169E+08
         0.26219E+08
         0.15667E+08
         0.57392E+08
        -0.15706E+08
        -0.64346E+08
        -0.80464E+07
        -0.17742E+08
        -0.96999E+08
        -0.76202E+07
         0.46816E+08
        -0.20009E+08
        -0.50550E+08
        -0.55789E+08
        -0.14824E+09
        -0.17126E+09
        -0.10620E+09
        -0.76952E+08
         0.41949E+08
        -0.32303E+08
        -0.15844E+08
        -0.54333E+08
        -0.98094E+08
        -0.13589E+09
         0.19621E+08
         0.15133E+08
         0.48568E+08
         0.10503E+09
         0.16199E+09
         0.76283E+08
         0.10991E+08
        -0.65700E+08
        -0.64597E+08
        -0.85704E+08
        -0.10797E+09
        -0.12608E+09
        -0.14977E+09
        -0.56584E+08
         0.22460E+07
         0.59106E+08
         0.99340E+08
         0.11240E+09
         0.10867E+09
         0.10972E+09
         0.11707E+09
         0.12585E+09
         0.15808E+09
         0.16113E+09
         0.39527E+08
         0.18493E+07
        -0.20585E+08
        -0.90371E+08
        -0.89898E+08
        -0.73340E+08
        -0.76730E+08
        -0.93740E+08
        -0.11195E+09
        -0.13088E+09
        -0.14632E+09
        -0.16243E+09
        -0.16782E+09
        -0.12474E+09
        -0.61134E+08
         0.13091E+07
         0.60045E+08
         0.10726E+09
         0.12904E+09
         0.12457E+09
         0.12057E+09
         0.12186E+09
         0.13279E+09
         0.14687E+09
         0.58718E+07
         0.22192E+08
         0.77972E+08
         0.33181E+08
         0.15835E+09
         0.14124E+09
         0.14030E+08
         0.26910E+08
         0.18161E+08
         0.56066E+08
        -0.17591E+08
        -0.68341E+08
        -0.95367E+07
        -0.23264E+08
        -0.10413E+09
        -0.58579E+07
         0.49109E+08
        -0.17545E+08
        -0.51103E+08
        -0.50937E+08
        -0.15372E+09
        -0.17109E+09
        -0.11295E+09
        -0.79870E+08
         0.42809E+08
        -0.32655E+08
        -0.23402E+08
        -0.55617E+08
        -0.93821E+08
        -0.12585E+09
         0.22692E+08
         0.18095E+08
         0.46644E+08
         0.10095E+09
         0.16083E+09
         0.72063E+08
         0.94843E+07
        -0.72946E+08
        -0.68801E+08
        -0.85376E+08
        -0.10449E+09
        -0.12008E+09
        -0.14393E+09
        -0.60540E+08
         0.25562E+07
         0.60514E+08
         0.10112E+09
         0.11340E+09
         0.10814E+09
         0.10809E+09
         0.11511E+09
         0.12374E+09
         0.15696E+09
         0.16312E+09
         0.36218E+08
        -0.46710E+07
        -0.27207E+08
        -0.91761E+08
        -0.95296E+08
        -0.78872E+08
        -0.80992E+08
        -0.93527E+08
        -0.10843E+09
        -0.12458E+09
        -0.13974E+09
        -0.16007E+09
        -0.17160E+09
        -0.13063E+09
        -0.65245E+08
        -0.18313E+06
         0.60099E+08
         0.10747E+09
         0.12834E+09
         0.12297E+09
         0.11875E+09
         0.12019E+09
         0.13175E+09
         0.14875E+09
         0.98361E+07
         0.25598E+08
         0.77324E+08
         0.35066E+08
         0.15976E+09
         0.14166E+09
         0.16454E+08
         0.28107E+08
         0.22224E+08
         0.56745E+08
        -0.14136E+08
        -0.60066E+08
        -0.44819E+07
        -0.19837E+08
        -0.10066E+09
         0.14778E+07
         0.50800E+08
        -0.92120E+07
        -0.55089E+08
        -0.54591E+08
        -0.15473E+09
        -0.17303E+09
        -0.11443E+09
        -0.83507E+08
         0.43497E+08
        -0.29135E+08
        -0.19758E+08
        -0.52531E+08
        -0.90181E+08
        -0.12868E+09
         0.28631E+08
         0.22657E+08
         0.50013E+08
         0.10249E+09
         0.16310E+09
         0.74459E+08
         0.15083E+08
        -0.71992E+08
        -0.66582E+08
        -0.80814E+08
        -0.99354E+08
        -0.11669E+09
        -0.14520E+09
        -0.60183E+08
         0.17168E+07
         0.58253E+08
         0.10211E+09
         0.11902E+09
         0.11391E+09
         0.11162E+09
         0.11727E+09
         0.12453E+09
         0.15750E+09
         0.16403E+09
         0.41603E+08
        -0.13890E+07
        -0.23300E+08
        -0.79329E+08
        -0.88408E+08
        -0.77158E+08
        -0.79794E+08
        -0.89792E+08
        -0.10309E+09
        -0.11936E+09
        -0.14030E+09
        -0.16554E+09
        -0.17374E+09
        -0.13330E+09
        -0.67215E+08
        -0.42239E+07
         0.55830E+08
         0.10618E+09
         0.13191E+09
         0.12711E+09
         0.12162E+09
         0.12241E+09
         0.13338E+09
         0.14948E+09
         0.10179E+08
         0.23181E+08
         0.71453E+08
         0.33354E+08
         0.15886E+09
         0.14276E+09
         0.16464E+08
         0.29746E+08
         0.23295E+08
         0.57710E+08
        -0.46712E+07
        -0.40354E+08
         0.26557E+06
        -0.50505E+07
        -0.91058E+08
         0.42844E+07
         0.47510E+08
        -0.66204E+07
        -0.57997E+08
        -0.64599E+08
        -0.14973E+09
        -0.17352E+09
        -0.10646E+09
        -0.81478E+08
         0.38504E+08
        -0.26126E+08
        -0.68840E+07
        -0.55748E+08
        -0.97214E+08
        -0.14260E+09
         0.27288E+08
         0.22239E+08
         0.46207E+08
         0.10741E+09
         0.16342E+09
         0.69486E+08
         0.15506E+08
        -0.67880E+08
        -0.67650E+08
        -0.84837E+08
        -0.10365E+09
        -0.12261E+09
        -0.15164E+09
        -0.55887E+08
         0.58823E+06
         0.55970E+08
         0.10331E+09
         0.12617E+09
         0.12293E+09
         0.12067E+09
         0.12562E+09
         0.13016E+09
         0.15638E+09
         0.16288E+09
         0.40842E+08
         0.22628E+07
        -0.14483E+08
        -0.65598E+08
        -0.80903E+08
        -0.72395E+08
        -0.80789E+08
        -0.94533E+08
        -0.10691E+09
        -0.12309E+09
        -0.14586E+09
        -0.16711E+09
        -0.16851E+09
        -0.12505E+09
        -0.64559E+08
        -0.64448E+07
         0.52830E+08
         0.10424E+09
         0.13578E+09
         0.13344E+09
         0.13015E+09
         0.13209E+09
         0.14105E+09
         0.15071E+09
         0.10688E+08
         0.20310E+08
         0.62300E+08
         0.26264E+08
         0.15821E+09
         0.14497E+09
         0.16643E+08
         0.31011E+08
         0.21971E+08
         0.55414E+08
         0.14126E+06
        -0.31764E+08
         0.10207E+06
         0.31141E+07
        -0.88478E+08
         0.11989E+07
         0.40616E+08
        -0.93053E+07
        -0.51726E+08
        -0.65286E+08
        -0.14103E+09
        -0.16982E+09
        -0.96152E+08
        -0.71391E+08
         0.29341E+08
        -0.26042E+08
         0.39705E+06
        -0.67231E+08
        -0.11031E+09
        -0.14777E+09
         0.18671E+08
         0.15483E+08
         0.33485E+08
         0.85263E+08
         0.15965E+09
         0.55367E+08
         0.92981E+07
        -0.72360E+08
        -0.75693E+08
        -0.95039E+08
        -0.11376E+09
        -0.13159E+09
        -0.15347E+09
        -0.52708E+08
        -0.18855E+07
         0.53437E+08
         0.97187E+08
         0.11313E+09
         0.13323E+09
         0.13025E+09
         0.13422E+09
         0.13550E+09
         0.14951E+09
         0.16192E+09
         0.21845E+08
        -0.56033E+07
        -0.15291E+08
        -0.73866E+08
        -0.95426E+08
        -0.77119E+08
        -0.86714E+08
        -0.10240E+09
        -0.11565E+09
        -0.13075E+09
        -0.14537E+09
        -0.15932E+09
        -0.15884E+09
        -0.11460E+09
        -0.61483E+08
        -0.76248E+07
         0.50990E+08
         0.98322E+08
         0.13466E+09
         0.13910E+09
         0.13700E+09
         0.14008E+09
         0.14731E+09
         0.15281E+09
         0.12422E+08
         0.15232E+08
         0.40606E+08
         0.99794E+07
         0.14578E+09
         0.13266E+09
         0.13188E+08
         0.29644E+08
         0.20933E+08
         0.49041E+08
        -0.12200E+08
        -0.54876E+08
        -0.13583E+08
        -0.10690E+08
        -0.11774E+09
        -0.18330E+07
         0.34794E+08
        -0.14812E+08
        -0.42400E+08
        -0.61018E+08
        -0.13756E+09
        -0.16599E+09
        -0.91654E+08
        -0.60122E+08
         0.17253E+08
        -0.27376E+08
        -0.15619E+08
        -0.82868E+08
        -0.11738E+09
        -0.14446E+09
         0.10563E+07
        -0.10793E+06
         0.73007E+07
         0.41698E+08
         0.10394E+09
         0.11884E+08
        -0.12416E+08
        -0.91937E+08
        -0.89133E+08
        -0.10573E+09
        -0.12244E+09
        -0.13440E+09
        -0.14805E+09
        -0.53699E+08
        -0.12303E+08
         0.34129E+08
         0.60849E+08
         0.67073E+08
         0.83686E+08
         0.11468E+09
         0.13948E+09
         0.13000E+09
         0.10295E+09
         0.14985E+09
        -0.49359E+08
        -0.34472E+08
        -0.34847E+08
        -0.10882E+09
        -0.13444E+09
        -0.98664E+08
        -0.99499E+08
        -0.11278E+09
        -0.12556E+09
        -0.13355E+09
        -0.13616E+09
        -0.15184E+09
        -0.15681E+09
        -0.11015E+09
        -0.59916E+08
        -0.14609E+08
         0.32287E+08
         0.58288E+08
         0.78768E+08
         0.93680E+08
         0.10319E+09
         0.11912E+09
         0.13453E+09
         0.14334E+09
         0.14372E+08
        -0.90296E+06
        -0.13403E+08
        -0.34444E+08
         0.34557E+08
         0.45540E+07
        -0.17207E+06
         0.24347E+08
         0.22941E+08
         0.40606E+08
        -0.46856E+08
        -0.11663E+09
        -0.55081E+08
        -0.49567E+08
        -0.13557E+09
        -0.66049E+07
         0.36544E+08
        -0.28503E+08
        -0.43486E+08
        -0.59373E+08
        -0.15843E+09
        -0.16447E+09
        -0.12096E+09
        -0.70215E+08
         0.84094E+07
        -0.43772E+08
        -0.56756E+08
        -0.90345E+08
        -0.11772E+09
        -0.12725E+09
        -0.37937E+08
        -0.39658E+08
        -0.52400E+08
        -0.60556E+08
        -0.10321E+08
        -0.75394E+08
        -0.68786E+08
        -0.11124E+09
        -0.10426E+09
        -0.11507E+09
        -0.12835E+09
        -0.13476E+09
        -0.14321E+09
        -0.77237E+08
        -0.46124E+08
        -0.21236E+08
        -0.15939E+08
        -0.22379E+08
        -0.29243E+08
        -0.30873E+08
        -0.24221E+08
        -0.25794E+08
        -0.79636E+07
         0.59343E+08
        -0.10093E+09
        -0.99034E+08
        -0.93705E+08
        -0.14545E+09
        -0.15050E+09
        -0.12527E+09
        -0.11826E+09
        -0.12443E+09
        -0.13362E+09
        -0.13773E+09
        -0.13742E+09
        -0.15785E+09
        -0.17604E+09
        -0.14093E+09
        -0.72823E+08
        -0.36579E+08
        -0.17157E+08
        -0.15708E+08
        -0.16993E+08
        -0.19285E+08
        -0.20252E+08
        -0.16749E+08
        -0.58794E+07
         0.21945E+08
         0.26000E+08
        -0.83981E+07
        -0.70791E+08
        -0.77776E+08
        -0.84097E+08
        -0.12531E+09
        -0.44438E+07
         0.25879E+08
         0.33418E+08
         0.37920E+08
        -0.73315E+08
        -0.13005E+09
        -0.90500E+08
        -0.81405E+08
        -0.12740E+09
        -0.70084E+06
         0.54087E+08
        -0.28036E+08
        -0.72023E+08
        -0.65635E+08
        -0.16143E+09
        -0.17029E+09
        -0.13217E+09
        -0.12362E+09
         0.15954E+08
        -0.66147E+08
        -0.75553E+08
        -0.77436E+08
        -0.10151E+09
        -0.10260E+09
        -0.52594E+08
        -0.65886E+08
        -0.88451E+08
        -0.13969E+09
        -0.82268E+08
        -0.10436E+09
        -0.11530E+09
        -0.10800E+09
        -0.97805E+08
        -0.10379E+09
        -0.11839E+09
        -0.12794E+09
        -0.14461E+09
        -0.87948E+08
        -0.57574E+08
        -0.45616E+08
        -0.44001E+08
        -0.48029E+08
        -0.66671E+08
        -0.94148E+08
        -0.10297E+09
        -0.12650E+09
        -0.80343E+08
        -0.56650E+08
        -0.12104E+09
        -0.12418E+09
        -0.11840E+09
        -0.13252E+09
        -0.13392E+09
        -0.12188E+09
        -0.11189E+09
        -0.11252E+09
        -0.12563E+09
        -0.14262E+09
        -0.15612E+09
        -0.17017E+09
        -0.15615E+09
        -0.12030E+09
        -0.67303E+08
        -0.42995E+08
        -0.43004E+08
        -0.44720E+08
        -0.43163E+08
        -0.51253E+08
        -0.66443E+08
        -0.79404E+08
        -0.88967E+08
        -0.88882E+08
         0.29108E+08
         0.20531E+08
        -0.76620E+07
         0.80907E+07
        -0.59398E+08
        -0.63995E+08
         0.21250E+08
         0.27197E+08
         0.41922E+08
         0.51700E+08
         0.10723E+08
        -0.18577E+08
         0.11911E+08
         0.12968E+08
        -0.49291E+08
         0.42848E+08
         0.61947E+08
         0.42480E+08
        -0.26174E+08
        -0.48329E+08
        -0.10045E+09
        -0.15160E+09
        -0.62514E+08
        -0.31820E+08
         0.47923E+08
        -0.18894E+06
         0.28548E+08
        -0.25116E+08
        -0.81427E+08
        -0.10842E+09
         0.42781E+08
         0.12330E+08
         0.46832E+08
         0.97291E+07
        -0.35844E+08
        -0.71586E+07
         0.11995E+08
        -0.31991E+08
        -0.32791E+08
        -0.59455E+08
        -0.94841E+08
        -0.13084E+09
        -0.17017E+09
        -0.31798E+08
        -0.11763E+08
        -0.55641E+07
         0.67410E+07
         0.24475E+08
         0.32804E+08
         0.14174E+08
        -0.12082E+08
        -0.37171E+08
        -0.46551E+08
        -0.10643E+09
        -0.10746E+08
        -0.95609E+07
        -0.27191E+08
        -0.47126E+08
        -0.54839E+08
        -0.45390E+08
        -0.37767E+08
        -0.55025E+08
        -0.97162E+08
        -0.14907E+09
        -0.17851E+09
        -0.15317E+09
        -0.10889E+09
        -0.73524E+08
        -0.41482E+08
        -0.18746E+08
        -0.14295E+08
        -0.15068E+08
        -0.25726E+07
         0.90461E+07
         0.37399E+07
        -0.16213E+08
        -0.49646E+08
        -0.10482E+09
         0.30022E+08
         0.44645E+08
         0.48388E+08
         0.79711E+08
        -0.42202E+07
         0.37457E+08
         0.36267E+08
         0.28279E+08
         0.49717E+08
         0.68838E+08
         0.74695E+08
         0.12242E+09
         0.81517E+08
         0.94684E+08
         0.15866E+09
         0.69309E+08
         0.67764E+08
         0.91947E+08
        -0.43716E+07
        -0.39307E+08
        -0.82473E+08
        -0.13326E+09
        -0.46818E+08
        -0.82259E+07
         0.66583E+08
         0.20028E+08
         0.14071E+09
         0.70794E+08
        -0.51317E+08
        -0.77284E+08
         0.88612E+08
         0.36277E+08
         0.12129E+09
         0.10701E+09
         0.20478E+08
         0.72017E+08
         0.90202E+08
         0.12178E+09
         0.57918E+08
        -0.18074E+08
        -0.83735E+08
        -0.13148E+09
        -0.15833E+09
        -0.21064E+08
         0.18839E+07
         0.14753E+08
         0.37503E+08
         0.73918E+08
         0.99419E+08
         0.95950E+08
         0.80793E+08
         0.73984E+08
        -0.17246E+07
        -0.68781E+08
         0.92933E+08
         0.11323E+09
         0.10218E+09
         0.11297E+09
         0.87537E+08
         0.57890E+08
         0.32980E+08
        -0.14992E+08
        -0.92926E+08
        -0.16358E+09
        -0.17781E+09
        -0.14604E+09
        -0.10842E+09
        -0.77531E+08
        -0.48782E+08
        -0.16680E+08
         0.22446E+07
         0.69743E+07
         0.30830E+08
         0.60281E+08
         0.70639E+08
         0.63823E+08
         0.46062E+08
        -0.43535E+07
  
SCALARS                      strain_xx  double 1
LOOKUP_TABLE default
        -0.19828E-01
         0.25307E-01
         0.17871E-01
        -0.99586E-02
        -0.26578E-09
        -0.12646E-09
        -0.15222E-10
        -0.21690E-09
        -0.23590E-01
        -0.76759E-02
         0.16688E-09
        -0.16101E-09
         0.21529E-01
        -0.21697E-01
        -0.13081E-09
        -0.36357E-10
        -0.22075E-01
        -0.76816E-02
        -0.15773E-09
        -0.29879E-10
         0.13581E-01
         0.92049E-01
         0.11541E+00
        -0.15113E-09
         0.10122E-09
         0.62364E-10
        -0.19728E-01
         0.11668E-01
        -0.24028E-09
         0.62344E-10
        -0.13198E-01
         0.20786E-02
        -0.13379E-01
        -0.53669E-10
        -0.29001E-10
        -0.13740E-09
         0.12915E-01
         0.31294E-01
        -0.30350E-10
        -0.67323E-11
         0.47669E-01
         0.45712E-01
        -0.20141E-11
        -0.21074E-10
         0.20684E-01
         0.83708E-02
        -0.60665E-10
        -0.54280E-10
         0.40927E-01
         0.14256E-10
        -0.65501E-02
        -0.97118E-10
         0.15772E-01
        -0.13682E-09
         0.63529E-01
         0.71854E-10
         0.88278E-01
         0.61490E-01
         0.18429E-09
         0.17956E-09
         0.11486E-01
        -0.10760E-02
         0.46088E-10
        -0.13569E-09
        -0.16995E-02
        -0.41172E-10
        -0.17902E-01
        -0.13757E-09
        -0.13889E-01
         0.32296E-01
         0.26125E-09
        -0.15242E-10
         0.70625E-01
         0.21648E-09
         0.32339E-01
        -0.12821E-09
         0.95113E-01
         0.78927E-10
         0.79335E-01
         0.14474E-09
        -0.61279E-01
         0.20998E-01
         0.10884E-09
         0.13536E-09
         0.31675E-01
        -0.54203E-10
        -0.14102E-01
        -0.13789E-09
        -0.35036E-01
        -0.23293E-09
        -0.31652E-01
         0.12815E-01
        -0.22061E-09
        -0.15569E-09
         0.26194E-01
         0.18130E-09
        -0.75696E-03
         0.74006E-10
        -0.17190E-01
         0.22728E-10
        -0.19162E-01
        -0.11185E-01
         0.84193E-10
        -0.26404E-09
        -0.63187E-01
        -0.30309E-01
         0.37660E-09
        -0.88341E-09
        -0.82032E-02
         0.24342E-09
         0.45545E-01
         0.18958E-09
         0.13205E+00
         0.18973E-09
         0.15214E+00
         0.88138E-10
         0.67408E-01
        -0.27909E-10
         0.76924E-01
        -0.29975E-10
         0.15470E+00
         0.53690E-10
        -0.34379E+00
         0.87174E-10
        -0.71493E+00
         0.99233E-10
        -0.22519E+00
        -0.84097E-10
        -0.61121E-01
        -0.85200E-10
         0.24937E-01
        -0.15577E-10
         0.56054E-01
        -0.71921E-10
         0.40491E-01
        -0.16068E-09
         0.41861E-02
        -0.19334E-09
        -0.42917E-01
        -0.31085E-09
        -0.35728E-01
        -0.23534E-09
         0.10199E-01
         0.56501E-10
         0.18095E-01
         0.13730E-09
        -0.10430E-01
         0.14556E-09
        -0.30708E-01
         0.22010E-09
        -0.31118E-01
         0.33951E-09
        -0.19219E-01
         0.34762E-09
        -0.20268E-01
         0.34483E-09
         0.51490E-02
         0.40245E-01
         0.80276E-01
         0.46347E-01
         0.11784E+00
         0.83997E-01
         0.18936E-01
         0.26175E-02
        -0.15563E-01
         0.46216E-02
         0.25877E-01
         0.33727E-01
         0.31347E-01
         0.30820E-01
         0.55798E-01
        -0.19027E-01
        -0.73275E-02
         0.47350E-02
         0.68041E-02
         0.19709E-01
         0.21834E-01
         0.20363E-01
         0.10156E-01
         0.37035E-02
         0.18293E-01
        -0.68501E-02
         0.36432E-01
         0.38692E-01
         0.35642E-01
         0.30377E-01
         0.29074E-02
        -0.71901E-02
         0.37168E-01
         0.75826E-01
         0.16288E+00
         0.13056E+00
         0.73675E-01
         0.59573E-01
         0.52479E-01
         0.22260E-01
        -0.43155E-01
        -0.94317E-02
         0.93580E-02
         0.74683E-03
        -0.70077E-02
        -0.22367E-01
        -0.14697E-01
         0.18913E-01
         0.76445E-01
         0.13388E+00
         0.15345E+00
         0.10273E+00
         0.23437E+00
         0.18077E+00
         0.19498E+00
         0.11486E+00
         0.56411E-01
         0.43350E-01
         0.66392E-01
         0.65184E-01
        -0.10195E-01
        -0.21471E+00
        -0.33203E+00
        -0.15215E+00
        -0.66440E-01
        -0.30341E-01
        -0.14011E-01
        -0.78379E-02
        -0.30740E-02
        -0.92960E-02
        -0.49813E-01
        -0.53811E-01
         0.35509E-01
         0.17056E+00
         0.26885E+00
         0.24598E+00
         0.13905E+00
         0.11385E+00
         0.54899E-02
         0.19841E-01
         0.67408E-01
         0.30306E-01
         0.10785E+00
         0.72476E-01
        -0.17588E-02
         0.15145E-01
        -0.10247E-02
         0.95738E-02
         0.11234E-01
        -0.29531E-02
        -0.83280E-02
         0.29273E-01
         0.19175E-01
        -0.15061E-01
        -0.18209E-02
         0.12389E-02
        -0.10967E-01
        -0.84700E-02
        -0.42764E-01
        -0.54271E-01
        -0.34922E-01
        -0.18749E-01
        -0.29618E-02
        -0.21214E-01
         0.67484E-02
        -0.20775E-01
        -0.40906E-01
        -0.16967E-01
        -0.78743E-02
        -0.25054E-01
         0.26570E-01
         0.55638E-01
         0.14587E+00
         0.11340E+00
         0.45593E-01
        -0.69334E-02
        -0.44615E-01
        -0.78790E-01
        -0.10314E+00
        -0.84375E-01
        -0.66243E-01
        -0.27743E-01
        -0.27502E-01
        -0.32107E-01
        -0.23071E-01
         0.15667E-01
         0.72524E-01
         0.11317E+00
         0.12660E+00
         0.82050E-01
         0.20704E+00
         0.16452E+00
         0.18036E+00
         0.92010E-01
         0.19833E-01
        -0.11270E-01
        -0.82298E-02
        -0.31338E-01
        -0.91194E-01
        -0.12112E+00
        -0.98944E-01
        -0.10857E+00
        -0.13421E+00
        -0.13487E+00
        -0.11598E+00
        -0.80839E-01
        -0.42592E-01
        -0.15123E-01
        -0.27142E-01
        -0.19375E-01
         0.55459E-01
         0.17074E+00
         0.24593E+00
         0.23866E+00
         0.15868E+00
         0.12435E+00
         0.18612E-03
        -0.52930E-02
        -0.48159E-02
        -0.11773E-01
        -0.13065E-01
        -0.34909E-01
        -0.41564E-02
         0.67890E-02
         0.26783E-02
         0.12910E-02
         0.25775E-02
        -0.63931E-02
        -0.14913E-01
         0.84593E-02
         0.26774E-02
        -0.51191E-02
        -0.10742E-02
        -0.44254E-02
        -0.12374E-01
        -0.14497E-01
        -0.38718E-01
        -0.45803E-01
        -0.25469E-01
        -0.14966E-01
        -0.96628E-02
        -0.11657E-01
        -0.73077E-02
        -0.23829E-01
        -0.35348E-01
        -0.21007E-01
        -0.12539E-01
        -0.12339E-01
        -0.16758E-01
        -0.35811E-01
        -0.80272E-02
        -0.72121E-02
        -0.11670E-01
        -0.16290E-01
        -0.41703E-01
        -0.61715E-01
        -0.74385E-01
        -0.57488E-01
        -0.48225E-01
        -0.14421E-01
        -0.91123E-02
        -0.69338E-02
        -0.11175E-01
        -0.17249E-01
        -0.32374E-01
        -0.59934E-01
        -0.81408E-01
        -0.64061E-01
        -0.10441E-01
        -0.14008E-01
        -0.15628E-01
        -0.17300E-01
        -0.19097E-01
        -0.20660E-01
        -0.12764E-01
        -0.31952E-01
        -0.82013E-01
        -0.10425E+00
        -0.95734E-01
        -0.92283E-01
        -0.93653E-01
        -0.91545E-01
        -0.73017E-01
        -0.39074E-01
        -0.12692E-01
        -0.90673E-03
         0.41502E-03
        -0.51893E-02
        -0.20458E-01
        -0.50919E-01
        -0.89774E-01
        -0.10912E+00
        -0.80880E-01
        -0.39346E-01
        -0.32740E-02
        -0.67975E-02
        -0.13407E-01
        -0.12466E-01
        -0.26914E-01
        -0.34385E-01
        -0.47664E-02
        -0.31682E-02
        -0.44842E-02
        -0.91929E-02
        -0.33470E-02
        -0.61427E-02
        -0.10735E-01
        -0.39239E-02
        -0.44959E-02
        -0.45628E-02
        -0.75961E-02
        -0.64427E-02
        -0.11319E-01
        -0.15355E-01
        -0.28070E-01
        -0.31343E-01
        -0.17371E-01
        -0.11152E-01
        -0.16963E-01
        -0.72812E-02
        -0.14722E-01
        -0.25702E-01
        -0.31640E-01
        -0.21622E-01
        -0.92828E-02
        -0.56811E-02
        -0.17957E-01
        -0.33523E-01
        -0.30380E-01
        -0.23825E-01
        -0.16039E-01
        -0.17896E-01
        -0.34571E-01
        -0.46332E-01
        -0.51064E-01
        -0.37678E-01
        -0.30767E-01
        -0.84916E-02
        -0.26879E-02
         0.18424E-02
        -0.31141E-02
        -0.14926E-01
        -0.33814E-01
        -0.54052E-01
        -0.64197E-01
        -0.51426E-01
        -0.43861E-01
        -0.37342E-01
        -0.43300E-01
        -0.29937E-01
        -0.19859E-01
        -0.15333E-01
        -0.97740E-02
        -0.23965E-01
        -0.58487E-01
        -0.78336E-01
        -0.73468E-01
        -0.54493E-01
        -0.47834E-01
        -0.55257E-01
        -0.45425E-01
        -0.21722E-01
        -0.49909E-02
         0.24357E-02
         0.86603E-02
         0.33481E-02
        -0.20708E-01
        -0.54008E-01
        -0.76369E-01
        -0.77607E-01
        -0.59592E-01
        -0.42528E-01
        -0.80230E-03
        -0.89507E-03
        -0.19880E-02
        -0.19179E-02
        -0.61745E-02
        -0.80674E-02
        -0.13521E-02
        -0.23005E-02
        -0.33113E-02
        -0.71332E-02
        -0.21049E-02
        -0.31850E-02
        -0.37940E-02
        -0.41138E-02
        -0.54716E-02
        -0.25142E-02
        -0.58535E-02
        -0.23762E-02
        -0.63150E-02
        -0.10041E-01
        -0.14428E-01
        -0.17695E-01
        -0.74039E-02
        -0.51937E-02
        -0.12708E-01
        -0.29733E-02
        -0.11522E-01
        -0.19349E-01
        -0.23795E-01
        -0.15753E-01
        -0.27418E-02
        -0.13457E-02
        -0.44655E-02
        -0.72573E-02
        -0.66866E-02
        -0.51735E-02
        -0.44554E-02
        -0.14971E-01
        -0.25677E-01
        -0.33103E-01
        -0.34313E-01
        -0.25289E-01
        -0.19202E-01
        -0.22458E-02
         0.10216E-02
         0.37713E-02
         0.14425E-02
        -0.25325E-02
        -0.74167E-02
        -0.11778E-01
        -0.14124E-01
        -0.11624E-01
        -0.10365E-01
        -0.10834E-01
        -0.11298E-01
        -0.10866E-01
        -0.86958E-02
        -0.71630E-02
        -0.83969E-02
        -0.19745E-01
        -0.37562E-01
        -0.47740E-01
        -0.44156E-01
        -0.29587E-01
        -0.24533E-01
        -0.28599E-01
        -0.21625E-01
        -0.74835E-02
         0.17559E-02
         0.56596E-02
         0.83862E-02
         0.62662E-02
        -0.21486E-02
        -0.11768E-01
        -0.16849E-01
        -0.17297E-01
        -0.15062E-01
        -0.12709E-01
         0.40641E-03
         0.78128E-04
         0.63612E-03
         0.85461E-03
        -0.35535E-03
        -0.62145E-03
        -0.54348E-03
        -0.54886E-03
        -0.80685E-03
        -0.29309E-02
        -0.12346E-02
        -0.21882E-02
        -0.24194E-02
        -0.22070E-02
        -0.38946E-02
        -0.70913E-03
        -0.24485E-02
        -0.36289E-04
        -0.22082E-02
        -0.47094E-02
        -0.46898E-02
        -0.78475E-02
        -0.60636E-03
        -0.99115E-03
        -0.61163E-02
        -0.27385E-03
        -0.58844E-02
        -0.10247E-01
        -0.13607E-01
        -0.85571E-02
        -0.89115E-04
         0.52289E-03
         0.47506E-03
         0.99430E-03
         0.24464E-03
        -0.58960E-04
        -0.18957E-02
        -0.88848E-02
        -0.14583E-01
        -0.19179E-01
        -0.19983E-01
        -0.14920E-01
        -0.10516E-01
         0.17371E-02
         0.28895E-02
         0.37166E-02
         0.21110E-02
         0.11651E-02
         0.12608E-02
         0.16385E-02
         0.10500E-02
         0.68127E-04
        -0.86592E-04
        -0.30192E-02
        -0.12167E-02
        -0.53241E-02
        -0.56392E-02
        -0.42414E-02
        -0.57379E-02
        -0.12266E-01
        -0.20485E-01
        -0.25716E-01
        -0.23798E-01
        -0.16095E-01
        -0.12451E-01
        -0.11261E-01
        -0.57047E-02
         0.16717E-02
         0.57279E-02
         0.67936E-02
         0.64308E-02
         0.48283E-02
         0.28387E-02
         0.23282E-02
         0.25694E-02
         0.99971E-03
        -0.16234E-02
        -0.35561E-02
         0.38872E-03
        -0.36254E-03
        -0.11619E-03
         0.42182E-03
        -0.10573E-02
        -0.11284E-02
        -0.69537E-03
        -0.14520E-03
        -0.87745E-04
        -0.10106E-02
        -0.10073E-02
        -0.18496E-02
        -0.24929E-02
        -0.10704E-02
        -0.20792E-02
        -0.18138E-03
        -0.89836E-03
         0.20547E-03
        -0.25274E-03
        -0.17156E-02
         0.70402E-04
        -0.22353E-02
         0.22203E-02
         0.75128E-03
        -0.25053E-02
         0.61996E-03
        -0.24323E-02
        -0.45928E-02
        -0.68256E-02
        -0.39410E-02
         0.54526E-04
         0.79683E-03
         0.31597E-03
         0.41829E-03
        -0.69518E-03
        -0.93169E-03
        -0.23165E-02
        -0.41634E-02
        -0.71878E-02
        -0.10258E-01
        -0.11115E-01
        -0.78389E-02
        -0.46181E-02
         0.29759E-02
         0.31344E-02
         0.31163E-02
         0.14376E-02
         0.49006E-03
         0.43713E-03
         0.51309E-03
        -0.76350E-04
        -0.62155E-03
        -0.10013E-02
        -0.33293E-02
        -0.19078E-02
        -0.51687E-02
        -0.51274E-02
        -0.32396E-02
        -0.28365E-02
        -0.58014E-02
        -0.10785E-01
        -0.14854E-01
        -0.13944E-01
        -0.84033E-02
        -0.45248E-02
        -0.19014E-02
         0.18586E-02
         0.52357E-02
         0.64770E-02
         0.63203E-02
         0.50499E-02
         0.31085E-02
         0.13006E-02
         0.66925E-03
         0.57945E-03
        -0.45995E-03
        -0.19451E-02
        -0.34866E-02
         0.25099E-03
        -0.55483E-03
        -0.60173E-03
         0.42216E-04
        -0.17587E-02
        -0.18131E-02
        -0.77754E-03
        -0.11825E-03
        -0.22775E-04
        -0.32258E-03
        -0.87139E-03
        -0.15546E-02
        -0.24027E-02
        -0.49403E-03
        -0.91315E-03
        -0.12052E-03
        -0.39473E-03
         0.89992E-04
         0.35525E-03
        -0.40129E-03
         0.16422E-02
         0.34875E-03
         0.25849E-02
         0.10569E-02
        -0.94859E-03
         0.66991E-03
        -0.77633E-03
        -0.18403E-02
        -0.32140E-02
        -0.15818E-02
        -0.12119E-03
         0.61585E-03
        -0.17433E-03
        -0.43475E-03
        -0.16195E-02
        -0.16021E-02
        -0.24337E-02
        -0.15910E-02
        -0.32759E-02
        -0.53679E-02
        -0.60835E-02
        -0.37071E-02
        -0.13318E-02
         0.26717E-02
         0.25332E-02
         0.23124E-02
         0.81349E-03
        -0.24167E-03
        -0.66208E-03
        -0.94014E-03
        -0.15457E-02
        -0.16643E-02
        -0.22006E-02
        -0.39165E-02
        -0.27893E-02
        -0.49145E-02
        -0.45786E-02
        -0.25436E-02
        -0.96056E-03
        -0.22405E-02
        -0.57543E-02
        -0.90282E-02
        -0.87397E-02
        -0.40151E-02
        -0.10814E-04
         0.22574E-02
         0.40298E-02
         0.51915E-02
         0.52937E-02
         0.48264E-02
         0.37278E-02
         0.19523E-02
        -0.68611E-04
        -0.12449E-02
        -0.16256E-02
        -0.22458E-02
        -0.30094E-02
        -0.40331E-02
         0.15876E-03
        -0.67502E-03
        -0.73116E-03
        -0.11549E-04
        -0.19489E-02
        -0.19061E-02
        -0.93842E-03
        -0.19265E-03
        -0.56809E-04
        -0.12968E-03
        -0.95675E-03
        -0.16260E-02
        -0.25644E-02
        -0.34357E-03
        -0.54605E-03
        -0.13303E-03
        -0.28513E-03
         0.72310E-04
         0.60982E-03
         0.38919E-04
         0.24671E-02
         0.13840E-02
         0.30871E-02
         0.13241E-02
        -0.43950E-03
         0.79614E-03
        -0.16815E-03
        -0.85522E-03
        -0.20303E-02
        -0.80881E-03
        -0.10032E-03
         0.71543E-03
        -0.17464E-03
        -0.42807E-03
        -0.18558E-02
        -0.17852E-02
        -0.25707E-02
        -0.61114E-03
        -0.18181E-02
        -0.37494E-02
        -0.47270E-02
        -0.25609E-02
        -0.25792E-03
         0.29432E-02
         0.27170E-02
         0.25219E-02
         0.92242E-03
        -0.27735E-03
        -0.74222E-03
        -0.94879E-03
        -0.14596E-02
        -0.16321E-02
        -0.25103E-02
        -0.41807E-02
        -0.30441E-02
        -0.50130E-02
        -0.46111E-02
        -0.25087E-02
        -0.39711E-03
        -0.94346E-03
        -0.38609E-02
        -0.72692E-02
        -0.79703E-02
        -0.34061E-02
         0.15084E-02
         0.41855E-02
         0.53656E-02
         0.58096E-02
         0.54617E-02
         0.49033E-02
         0.40767E-02
         0.21862E-02
        -0.22512E-03
        -0.15389E-02
        -0.17370E-02
        -0.20483E-02
        -0.28982E-02
        -0.41773E-02
         0.11451E-03
        -0.83240E-03
        -0.82457E-03
         0.30080E-04
        -0.21395E-02
        -0.19263E-02
        -0.11901E-02
        -0.31098E-03
        -0.82271E-04
        -0.14534E-03
        -0.12390E-02
        -0.20327E-02
        -0.30072E-02
        -0.48610E-03
        -0.78535E-03
        -0.80818E-04
        -0.28570E-03
         0.10988E-03
         0.85568E-03
         0.11975E-03
         0.31488E-02
         0.16263E-02
         0.41074E-02
         0.18564E-02
        -0.41057E-03
         0.12301E-02
        -0.13409E-03
        -0.82211E-03
        -0.22325E-02
        -0.85849E-03
         0.58854E-04
         0.11830E-02
        -0.28251E-04
        -0.20081E-03
        -0.20669E-02
        -0.19942E-02
        -0.29388E-02
        -0.64523E-03
        -0.18882E-02
        -0.42256E-02
        -0.56656E-02
        -0.31529E-02
        -0.44352E-03
         0.40546E-02
         0.38221E-02
         0.36277E-02
         0.15777E-02
         0.63532E-04
        -0.47258E-03
        -0.57575E-03
        -0.10261E-02
        -0.13742E-02
        -0.28144E-02
        -0.47015E-02
        -0.33644E-02
        -0.56244E-02
        -0.51709E-02
        -0.30148E-02
        -0.85792E-03
        -0.12352E-02
        -0.43228E-02
        -0.87486E-02
        -0.10087E-01
        -0.48498E-02
         0.10542E-02
         0.47849E-02
         0.67204E-02
         0.74868E-02
         0.72105E-02
         0.66398E-02
         0.57062E-02
         0.34094E-02
         0.47899E-03
        -0.11459E-02
        -0.12734E-02
        -0.14497E-02
        -0.25689E-02
        -0.44064E-02
         0.13817E-03
        -0.87300E-03
        -0.84813E-03
         0.74113E-04
        -0.21910E-02
        -0.19330E-02
        -0.12732E-02
        -0.33696E-03
        -0.55267E-04
        -0.14126E-03
        -0.13600E-02
        -0.22294E-02
        -0.31847E-02
        -0.56726E-03
        -0.97594E-03
         0.38227E-05
        -0.25066E-03
         0.15286E-03
         0.97366E-03
         0.14038E-03
         0.32961E-02
         0.14950E-02
         0.45119E-02
         0.21111E-02
        -0.42207E-03
         0.14802E-02
        -0.19395E-03
        -0.95609E-03
        -0.25173E-02
        -0.94282E-03
         0.13813E-03
         0.14117E-02
         0.32487E-04
        -0.90740E-04
        -0.20721E-02
        -0.20065E-02
        -0.30363E-02
        -0.90914E-03
        -0.23541E-02
        -0.49866E-02
        -0.66100E-02
        -0.36717E-02
        -0.75440E-03
         0.45645E-02
         0.43111E-02
         0.40420E-02
         0.18050E-02
         0.18334E-03
        -0.33994E-03
        -0.35763E-03
        -0.81505E-03
        -0.12757E-02
        -0.27665E-02
        -0.48519E-02
        -0.31991E-02
        -0.57199E-02
        -0.54867E-02
        -0.33665E-02
        -0.12527E-02
        -0.19493E-02
        -0.58030E-02
        -0.11068E-01
        -0.12148E-01
        -0.59043E-02
         0.16659E-03
         0.44153E-02
         0.70321E-02
         0.81336E-02
         0.79903E-02
         0.73494E-02
         0.62229E-02
         0.38089E-02
         0.81520E-03
        -0.83864E-03
        -0.86032E-03
        -0.11500E-02
        -0.25205E-02
        -0.45125E-02
         0.23362E-03
        -0.74633E-03
        -0.75013E-03
         0.14648E-03
        -0.20544E-02
        -0.18749E-02
        -0.10939E-02
        -0.22350E-03
         0.30973E-04
        -0.37126E-05
        -0.11587E-02
        -0.19035E-02
        -0.29375E-02
        -0.43915E-03
        -0.81098E-03
         0.60016E-04
        -0.13423E-03
         0.21061E-03
         0.10411E-02
         0.34868E-03
         0.33793E-02
         0.17881E-02
         0.45064E-02
         0.21395E-02
        -0.15097E-03
         0.15091E-02
        -0.16138E-04
        -0.51057E-03
        -0.15701E-02
        -0.40890E-03
         0.14443E-03
         0.13953E-02
         0.91861E-04
         0.98514E-05
        -0.18360E-02
        -0.18117E-02
        -0.28561E-02
        -0.75946E-03
        -0.18572E-02
        -0.37325E-02
        -0.46122E-02
        -0.21231E-02
         0.55808E-04
         0.45194E-02
         0.42326E-02
         0.39106E-02
         0.16917E-02
         0.12552E-03
        -0.25193E-03
        -0.17551E-03
        -0.70112E-03
        -0.12275E-02
        -0.23752E-02
        -0.46203E-02
        -0.28516E-02
        -0.56002E-02
        -0.53473E-02
        -0.28222E-02
        -0.98522E-03
        -0.20919E-02
        -0.55779E-02
        -0.95639E-02
        -0.91215E-02
        -0.32203E-02
         0.11663E-02
         0.46542E-02
         0.71499E-02
         0.80969E-02
         0.78357E-02
         0.71256E-02
         0.59824E-02
         0.35940E-02
         0.69443E-03
        -0.63423E-03
        -0.48598E-03
        -0.10474E-02
        -0.25842E-02
        -0.44692E-02
         0.31121E-03
        -0.60240E-03
        -0.59230E-03
         0.21275E-03
        -0.18238E-02
        -0.17679E-02
        -0.87399E-03
        -0.85841E-04
         0.11164E-03
         0.13903E-03
        -0.88481E-03
        -0.14668E-02
        -0.25705E-02
        -0.25340E-03
        -0.50163E-03
         0.87777E-04
        -0.32543E-04
         0.25793E-03
         0.10668E-02
         0.61194E-03
         0.34607E-02
         0.24016E-02
         0.43183E-02
         0.20506E-02
         0.15853E-03
         0.14285E-02
         0.22717E-03
         0.11056E-03
        -0.23964E-03
         0.31460E-03
         0.14937E-03
         0.12927E-02
         0.14379E-03
         0.82416E-04
        -0.14875E-02
        -0.15222E-02
        -0.25988E-02
        -0.33015E-03
        -0.84635E-03
        -0.16391E-02
        -0.15043E-02
         0.20972E-03
         0.14708E-02
         0.42355E-02
         0.39141E-02
         0.35711E-02
         0.15029E-02
         0.64752E-04
        -0.20957E-03
        -0.10272E-03
        -0.65370E-03
        -0.11701E-02
        -0.18916E-02
        -0.43221E-02
        -0.25178E-02
        -0.53179E-02
        -0.48036E-02
        -0.20136E-02
        -0.40454E-03
        -0.14239E-02
        -0.37271E-02
        -0.55684E-02
        -0.38219E-02
         0.99014E-03
         0.36198E-02
         0.54665E-02
         0.71997E-02
         0.77827E-02
         0.73307E-02
         0.65280E-02
         0.54473E-02
         0.32178E-02
         0.50544E-03
        -0.59141E-03
        -0.40498E-03
        -0.10580E-02
        -0.25847E-02
        -0.43868E-02
         0.29969E-03
        -0.48490E-03
        -0.37059E-03
         0.26256E-03
        -0.14972E-02
        -0.15862E-02
        -0.78150E-03
        -0.74904E-04
         0.87257E-04
         0.12366E-03
        -0.76491E-03
        -0.12630E-02
        -0.23020E-02
        -0.15977E-03
        -0.20410E-03
         0.87658E-04
        -0.63562E-04
         0.26617E-03
         0.99299E-03
         0.56804E-03
         0.32793E-02
         0.23176E-02
         0.40778E-02
         0.19274E-02
         0.18072E-03
         0.13297E-02
         0.35498E-03
         0.36511E-03
         0.14034E-03
         0.39083E-03
         0.13310E-03
         0.11480E-02
         0.15017E-03
         0.85265E-04
        -0.10339E-02
        -0.10898E-02
        -0.22365E-02
         0.18416E-03
        -0.12386E-04
        -0.53690E-03
        -0.44728E-03
         0.61120E-03
         0.15132E-02
         0.39587E-02
         0.35426E-02
         0.31167E-02
         0.12398E-02
        -0.24184E-04
        -0.23981E-03
        -0.16191E-03
        -0.70111E-03
        -0.11168E-02
        -0.13426E-02
        -0.39056E-02
        -0.18751E-02
        -0.45596E-02
        -0.41374E-02
        -0.16436E-02
         0.22323E-03
        -0.10425E-03
        -0.12548E-02
        -0.23209E-02
        -0.17865E-02
         0.11649E-02
         0.34111E-02
         0.52764E-02
         0.68356E-02
         0.74000E-02
         0.69196E-02
         0.58932E-02
         0.47229E-02
         0.27212E-02
         0.33456E-03
        -0.65595E-03
        -0.56204E-03
        -0.11742E-02
        -0.24671E-02
        -0.41047E-02
         0.22643E-03
        -0.47707E-03
        -0.30587E-03
         0.25492E-03
        -0.13746E-02
        -0.14543E-02
        -0.84704E-03
        -0.16531E-03
         0.34215E-05
         0.24153E-04
        -0.82776E-03
        -0.13068E-02
        -0.22838E-02
        -0.18207E-03
        -0.96570E-04
         0.15245E-04
        -0.16708E-03
         0.23040E-03
         0.77861E-03
         0.27183E-03
         0.27436E-02
         0.16665E-02
         0.36736E-02
         0.16950E-02
        -0.22431E-04
         0.11782E-02
         0.29722E-03
         0.43791E-04
        -0.75360E-03
        -0.15422E-03
         0.76733E-04
         0.10171E-02
         0.13952E-03
         0.74561E-04
        -0.92338E-03
        -0.93608E-03
        -0.20667E-02
         0.23106E-03
        -0.40561E-03
        -0.17961E-02
        -0.26269E-02
        -0.11038E-02
         0.46743E-03
         0.37064E-02
         0.33445E-02
         0.29314E-02
         0.11068E-02
        -0.68623E-04
        -0.23167E-03
        -0.16910E-03
        -0.69054E-03
        -0.10432E-02
        -0.12533E-02
        -0.36781E-02
        -0.15555E-02
        -0.40464E-02
        -0.39174E-02
        -0.16595E-02
         0.55947E-03
         0.28714E-03
        -0.18103E-02
        -0.45735E-02
        -0.55891E-02
        -0.20847E-02
         0.19479E-02
         0.42603E-02
         0.58125E-02
         0.67266E-02
         0.65914E-02
         0.56769E-02
         0.45143E-02
         0.25412E-02
         0.28950E-03
        -0.61633E-03
        -0.57677E-03
        -0.11453E-02
        -0.22124E-02
        -0.37257E-02
         0.19895E-03
        -0.50272E-03
        -0.38168E-03
         0.19343E-03
        -0.14654E-02
        -0.15441E-02
        -0.85405E-03
        -0.16905E-03
        -0.29372E-05
         0.56866E-04
        -0.82387E-03
        -0.12953E-02
        -0.22525E-02
        -0.15479E-03
        -0.54959E-04
        -0.33641E-04
        -0.15537E-03
         0.19769E-03
         0.72757E-03
         0.26140E-03
         0.26313E-02
         0.15726E-02
         0.35842E-02
         0.16262E-02
        -0.24456E-04
         0.11438E-02
         0.30637E-03
        -0.13139E-03
        -0.12305E-02
        -0.28058E-03
         0.53466E-04
         0.10452E-02
         0.91727E-04
        -0.18695E-04
        -0.10220E-02
        -0.99439E-03
        -0.20360E-02
         0.14503E-03
        -0.93760E-03
        -0.29299E-02
        -0.41579E-02
        -0.19484E-02
         0.19326E-03
         0.37371E-02
         0.35068E-02
         0.31458E-02
         0.12131E-02
        -0.53075E-04
        -0.32146E-03
        -0.33265E-03
        -0.85590E-03
        -0.11646E-02
        -0.13490E-02
        -0.37037E-02
        -0.15554E-02
        -0.39520E-02
        -0.39318E-02
        -0.17131E-02
         0.60132E-03
         0.12779E-03
        -0.33258E-02
        -0.75619E-02
        -0.85836E-02
        -0.36839E-02
         0.16865E-02
         0.40566E-02
         0.55747E-02
         0.65732E-02
         0.66894E-02
         0.61110E-02
         0.49062E-02
         0.27302E-02
         0.31371E-03
        -0.82547E-03
        -0.87706E-03
        -0.13399E-02
        -0.23260E-02
        -0.37614E-02
         0.28269E-03
        -0.38937E-03
        -0.36592E-03
         0.19993E-03
        -0.15340E-02
        -0.16894E-02
        -0.64446E-03
        -0.25252E-04
         0.85593E-04
         0.21328E-03
        -0.61400E-03
        -0.10631E-02
        -0.19502E-02
        -0.48419E-05
         0.83873E-04
         0.60406E-04
        -0.21216E-04
         0.23126E-03
         0.10108E-02
         0.57194E-03
         0.32032E-02
         0.20912E-02
         0.41538E-02
         0.19854E-02
         0.20757E-03
         0.13982E-02
         0.52406E-03
         0.26645E-03
        -0.56270E-03
         0.15632E-03
         0.12916E-03
         0.12406E-02
         0.86372E-04
        -0.84369E-04
        -0.10296E-02
        -0.94702E-03
        -0.18661E-02
         0.52520E-03
        -0.20369E-03
        -0.18513E-02
        -0.29108E-02
        -0.10585E-02
         0.79976E-03
         0.42025E-02
         0.38605E-02
         0.34115E-02
         0.13924E-02
         0.25142E-04
        -0.38894E-03
        -0.50004E-03
        -0.10708E-02
        -0.13543E-02
        -0.13622E-02
        -0.38328E-02
        -0.15601E-02
        -0.38869E-02
        -0.36818E-02
        -0.16025E-02
         0.60428E-03
         0.75810E-03
        -0.18902E-02
        -0.57145E-02
        -0.67743E-02
        -0.26089E-02
         0.22444E-02
         0.47414E-02
         0.65335E-02
         0.74015E-02
         0.73149E-02
         0.65995E-02
         0.52041E-02
         0.29501E-02
         0.42977E-03
        -0.10156E-02
        -0.12173E-02
        -0.16658E-02
        -0.27053E-02
        -0.40944E-02
         0.35136E-03
        -0.22477E-03
        -0.24560E-03
         0.25385E-03
        -0.14669E-02
        -0.17170E-02
        -0.42313E-03
         0.76990E-04
         0.12806E-03
         0.28950E-03
        -0.40370E-03
        -0.75794E-03
        -0.15442E-02
         0.11197E-03
         0.21007E-03
         0.16953E-03
         0.44082E-04
         0.28357E-03
         0.12345E-02
         0.82542E-03
         0.36317E-02
         0.26905E-02
         0.43960E-02
         0.22180E-02
         0.36750E-03
         0.15936E-02
         0.71606E-03
         0.76978E-03
         0.45511E-03
         0.62292E-03
         0.25093E-03
         0.13964E-02
         0.17148E-03
        -0.35416E-04
        -0.91239E-03
        -0.78616E-03
        -0.16017E-02
         0.99493E-03
         0.99837E-03
         0.25838E-03
        -0.23871E-03
         0.55292E-03
         0.16797E-02
         0.43498E-02
         0.39435E-02
         0.34547E-02
         0.14965E-02
         0.15492E-03
        -0.25558E-03
        -0.39713E-03
        -0.10611E-02
        -0.14083E-02
        -0.12891E-02
        -0.38232E-02
        -0.15694E-02
        -0.37089E-02
        -0.30752E-02
        -0.11405E-02
         0.64000E-03
         0.16009E-02
         0.10074E-02
        -0.88643E-03
        -0.18628E-02
         0.50408E-04
         0.34820E-02
         0.57357E-02
         0.70724E-02
         0.75265E-02
         0.72259E-02
         0.64306E-02
         0.51207E-02
         0.30267E-02
         0.61940E-03
        -0.77997E-03
        -0.10263E-02
        -0.17087E-02
        -0.29598E-02
        -0.42727E-02
         0.45823E-03
        -0.11332E-03
         0.11213E-03
         0.49686E-03
        -0.96094E-03
        -0.14327E-02
        -0.41083E-03
         0.16747E-03
         0.18487E-03
         0.38051E-03
        -0.36617E-03
        -0.74008E-03
        -0.16084E-02
         0.22726E-03
         0.33705E-03
         0.17067E-03
         0.38800E-04
         0.42179E-03
         0.10813E-02
         0.77980E-03
         0.32586E-02
         0.26231E-02
         0.37801E-02
         0.19277E-02
         0.47064E-03
         0.14633E-02
         0.92693E-03
         0.11405E-02
         0.10085E-02
         0.75686E-03
         0.42530E-03
         0.14244E-02
         0.49253E-03
         0.34985E-03
        -0.22260E-03
        -0.30950E-03
        -0.15224E-02
         0.14107E-02
         0.18811E-02
         0.16307E-02
         0.12976E-02
         0.12206E-02
         0.18233E-02
         0.38872E-02
         0.37301E-02
         0.34083E-02
         0.16300E-02
         0.46086E-03
         0.22145E-03
         0.14068E-03
        -0.65335E-03
        -0.11378E-02
        -0.38810E-03
        -0.32692E-02
        -0.97737E-03
        -0.36694E-02
        -0.30471E-02
        -0.93507E-03
         0.87117E-03
         0.24089E-02
         0.32892E-02
         0.26792E-02
         0.11477E-02
         0.86673E-03
         0.35901E-02
         0.56845E-02
         0.61564E-02
         0.62877E-02
         0.62917E-02
         0.60127E-02
         0.50260E-02
         0.31419E-02
         0.95336E-03
        -0.20951E-03
        -0.40069E-03
        -0.13906E-02
        -0.29523E-02
        -0.41336E-02
         0.73745E-03
         0.32370E-03
         0.13057E-02
         0.12664E-02
         0.79546E-03
        -0.15049E-03
        -0.28815E-03
         0.44155E-03
         0.34136E-03
         0.64924E-03
        -0.13476E-03
        -0.47463E-03
        -0.14767E-02
         0.66471E-03
         0.99566E-03
         0.51821E-04
        -0.10504E-04
         0.78543E-03
         0.45291E-03
         0.42146E-03
         0.18347E-02
         0.17420E-02
         0.20775E-02
         0.95633E-03
         0.68698E-03
         0.83899E-03
         0.15065E-02
         0.18448E-02
         0.18174E-02
         0.85886E-03
         0.71518E-03
         0.11516E-02
         0.13867E-02
         0.16454E-02
         0.22324E-02
         0.16775E-02
        -0.65221E-03
         0.24429E-02
         0.33574E-02
         0.34645E-02
         0.32824E-02
         0.21504E-02
         0.16844E-02
         0.24785E-02
         0.28454E-02
         0.29226E-02
         0.16356E-02
         0.11166E-02
         0.15948E-02
         0.18979E-02
         0.10073E-02
         0.22556E-03
         0.28536E-02
        -0.12792E-02
         0.23671E-02
        -0.18290E-02
        -0.23650E-02
        -0.15941E-03
         0.21912E-02
         0.42933E-02
         0.66131E-02
         0.70750E-02
         0.47963E-02
         0.23640E-02
         0.30686E-02
         0.38893E-02
         0.34357E-02
         0.34332E-02
         0.40264E-02
         0.48013E-02
         0.44611E-02
         0.30723E-02
         0.17196E-02
         0.15375E-02
         0.16587E-02
         0.24544E-03
        -0.16882E-02
        -0.28159E-02
         0.93211E-03
         0.98867E-03
         0.30290E-02
         0.20925E-02
         0.36947E-02
         0.21528E-02
        -0.85790E-04
         0.73248E-03
         0.34640E-03
         0.72407E-03
         0.21693E-03
        -0.42070E-04
        -0.87213E-03
         0.12089E-02
         0.16814E-02
        -0.50810E-03
        -0.44991E-03
         0.91174E-03
        -0.80931E-03
        -0.83662E-03
        -0.68515E-03
        -0.83747E-03
         0.68805E-05
        -0.56228E-03
         0.19282E-03
        -0.38168E-03
         0.17350E-02
         0.14290E-02
         0.76817E-03
        -0.33336E-03
         0.41776E-03
         0.23762E-03
         0.18808E-02
         0.28483E-02
         0.59529E-02
         0.47963E-02
         0.12233E-02
         0.28618E-02
         0.31709E-02
         0.25717E-02
         0.21581E-02
         0.73532E-03
        -0.40807E-03
         0.88037E-03
         0.17354E-02
         0.20961E-02
         0.93878E-03
         0.94433E-03
         0.22934E-02
         0.33588E-02
         0.29300E-02
         0.22618E-02
         0.78223E-02
         0.28395E-02
         0.79546E-02
         0.23982E-02
        -0.47200E-03
         0.79808E-03
         0.31831E-02
         0.50641E-02
         0.69621E-02
         0.66285E-02
         0.41013E-02
         0.95813E-03
        -0.51831E-03
        -0.86790E-03
        -0.71914E-03
         0.79030E-03
         0.24996E-02
         0.42388E-02
         0.39198E-02
         0.21480E-02
         0.10973E-02
         0.20679E-02
         0.32959E-02
         0.25281E-02
         0.13687E-02
         0.85146E-03
         0.61073E-03
         0.88361E-03
         0.10625E-02
         0.34809E-03
         0.23921E-02
         0.17212E-02
         0.75919E-03
         0.62818E-03
         0.79704E-03
         0.94787E-03
         0.40025E-03
         0.68716E-03
         0.13514E-02
         0.40826E-03
         0.37708E-03
         0.10720E-02
         0.90422E-03
         0.23448E-03
         0.41690E-02
         0.32147E-02
         0.11185E-01
         0.96012E-02
         0.11756E-01
         0.61486E-02
         0.10248E-02
         0.41465E-02
         0.90552E-03
         0.10701E-02
         0.14007E-02
         0.24126E-02
         0.21804E-03
         0.33728E-02
        -0.88028E-03
        -0.57277E-03
         0.30258E-02
         0.22254E-02
         0.18588E-02
         0.51579E-03
         0.42008E-03
         0.10477E-03
         0.71664E-03
         0.34269E-02
         0.68603E-02
         0.10520E-01
         0.93104E-02
         0.84443E-02
         0.34996E-02
        -0.82728E-03
        -0.27501E-02
        -0.21082E-02
        -0.70237E-03
         0.58503E-03
         0.49224E-02
         0.48397E-02
         0.48389E-02
         0.38491E-02
         0.17413E-02
         0.12668E-02
         0.13863E-02
         0.48641E-03
        -0.11518E-02
        -0.27403E-02
        -0.20752E-02
         0.35041E-02
         0.12592E-01
         0.19679E-01
         0.21905E-01
         0.21004E-01
         0.18522E-01
         0.16148E-01
         0.13186E-01
         0.67045E-02
        -0.15937E-02
        -0.58359E-02
        -0.38075E-02
        -0.28243E-04
         0.29775E-02
         0.44138E-02
        -0.88312E-04
        -0.28148E-03
        -0.79939E-02
        -0.56367E-02
        -0.71609E-02
        -0.39453E-02
         0.34997E-02
         0.19539E-03
         0.30228E-02
         0.27987E-02
         0.83219E-03
         0.27418E-02
         0.68513E-02
        -0.25292E-02
        -0.38105E-02
         0.96112E-02
         0.80983E-02
        -0.74619E-03
         0.23319E-01
         0.21245E-01
         0.52042E-01
         0.50928E-01
         0.47791E-01
         0.29524E-01
         0.88785E-02
         0.21638E-01
         0.45521E-03
         0.79403E-02
         0.15032E-01
         0.19381E-01
         0.38255E-02
         0.17030E-01
        -0.77987E-02
        -0.10545E-01
        -0.11177E-01
        -0.10546E-01
        -0.32003E-03
        -0.33197E-02
         0.28801E-02
         0.86172E-02
         0.12915E-01
         0.23968E-01
         0.39971E-01
         0.39254E-01
         0.31839E-01
         0.28033E-01
         0.15462E-01
        -0.11357E-02
        -0.14450E-01
        -0.15707E-01
        -0.10332E-01
        -0.59227E-02
        -0.98116E-02
         0.15089E-02
        -0.12208E-01
        -0.11812E-02
         0.41624E-02
         0.23836E-02
        -0.30391E-02
        -0.75010E-02
        -0.86928E-02
        -0.52133E-02
         0.13267E-02
         0.23889E-01
         0.61760E-01
         0.89056E-01
         0.90254E-01
         0.74839E-01
         0.58197E-01
         0.44301E-01
         0.36932E-01
         0.22523E-01
        -0.34253E-02
        -0.21172E-01
        -0.18836E-01
        -0.67192E-02
         0.31562E-02
         0.56523E-02
  
SCALARS                      strain_yy  double 1
LOOKUP_TABLE default
         0.21072E-01
         0.48325E-01
         0.13517E-01
        -0.18835E-01
         0.95036E-10
         0.17689E-09
         0.10507E-09
        -0.36107E-10
         0.23582E-02
        -0.31913E-01
        -0.31596E-11
        -0.20890E-09
         0.64233E-01
         0.30754E-01
         0.19942E-09
         0.12693E-09
         0.84770E-02
         0.83550E-02
         0.12263E-10
         0.29891E-10
         0.58381E-01
         0.91279E-01
         0.11038E+00
         0.19955E-09
         0.18624E-09
         0.23686E-09
         0.24865E-01
         0.44239E-01
         0.74769E-10
         0.53805E-10
        -0.10604E-02
         0.49578E-02
        -0.58085E-02
        -0.26100E-10
        -0.10098E-10
        -0.89798E-11
         0.21607E-01
         0.16506E-02
         0.13930E-10
        -0.31156E-11
         0.55890E-01
        -0.14778E-01
         0.99497E-10
         0.28208E-10
         0.10430E+00
         0.44598E-01
         0.13523E-09
         0.62513E-10
        -0.12153E-01
        -0.99454E-11
         0.27067E-01
         0.37770E-10
        -0.10485E-01
        -0.14526E-11
        -0.57250E-01
        -0.69987E-10
        -0.11533E+00
        -0.47565E-01
        -0.19881E-09
        -0.63646E-10
        -0.15824E-01
         0.12743E-01
        -0.37608E-10
         0.10237E-11
        -0.30433E-01
        -0.58373E-10
        -0.47372E-01
        -0.19520E-09
         0.52952E-01
         0.51288E-01
         0.33243E-10
         0.93067E-10
         0.82429E-01
         0.18328E-09
        -0.13921E-01
        -0.38484E-11
        -0.88649E-01
        -0.67276E-10
        -0.16999E+00
        -0.15994E-09
        -0.16047E+00
        -0.15612E+00
        -0.27068E-09
        -0.34672E-09
        -0.10043E+00
        -0.19201E-09
         0.11238E+00
         0.17285E-09
         0.86800E-01
         0.12481E-09
         0.68944E-01
         0.15655E-01
        -0.28668E-10
        -0.29908E-10
        -0.32826E-01
        -0.19225E-10
        -0.60477E-01
        -0.12332E-09
        -0.67036E-01
        -0.21545E-09
        -0.52894E-01
        -0.46028E-01
        -0.33823E-09
        -0.31843E-09
         0.11831E+00
         0.11300E+00
         0.79206E-10
        -0.21377E-09
         0.44434E-01
         0.94966E-10
         0.91668E-01
         0.15469E-09
         0.15574E+00
         0.27186E-09
         0.15476E+00
         0.18025E-09
         0.13018E+00
         0.84976E-10
         0.65750E-01
         0.18976E-10
         0.21323E+00
         0.64128E-10
         0.48644E+00
        -0.22861E-09
         0.16020E+00
        -0.53376E-09
        -0.20600E+00
        -0.28285E-09
        -0.22666E+00
        -0.21520E-09
        -0.80476E-01
        -0.11261E-09
         0.66347E-01
        -0.78827E-11
         0.16439E+00
         0.13009E-09
         0.21429E+00
         0.30278E-09
         0.15877E+00
         0.56728E-09
         0.85401E-01
         0.32260E-09
         0.24070E-01
         0.69128E-10
        -0.19396E-01
         0.14332E-10
        -0.40149E-01
        -0.26875E-09
        -0.25699E-01
        -0.43795E-09
         0.45478E-02
        -0.62975E-09
         0.25428E-01
        -0.45930E-09
         0.55763E-01
        -0.37750E-09
         0.15039E-01
         0.34597E-01
         0.70242E-02
        -0.16793E-01
         0.14616E-01
         0.11677E-01
         0.52268E-01
         0.29700E-01
         0.88823E-02
         0.14559E-01
         0.50330E-01
         0.63800E-01
         0.79215E-01
         0.21916E-01
         0.79019E-02
         0.54915E-02
         0.13277E-01
        -0.12617E-01
         0.34846E-01
         0.51935E-02
         0.46204E-01
        -0.26874E-01
         0.70452E-01
         0.45979E-01
        -0.98481E-02
         0.23048E-01
        -0.19611E-01
        -0.74033E-01
        -0.13618E+00
        -0.60153E-01
        -0.20769E-01
        -0.47544E-02
        -0.29090E-01
        -0.23277E-01
         0.34757E-01
         0.34296E-01
         0.59763E-01
        -0.73726E-01
        -0.15388E+00
        -0.21592E+00
        -0.23590E+00
        -0.20145E+00
        -0.12969E+00
         0.54748E-01
         0.22006E-01
        -0.42480E-02
        -0.28916E-01
        -0.45008E-01
        -0.40570E-01
        -0.72620E-02
         0.51566E-01
         0.30685E-01
         0.93276E-01
         0.12647E+00
         0.51025E-01
         0.73063E-01
         0.10603E+00
         0.90494E-01
         0.23609E-01
        -0.95321E-01
        -0.19090E+00
        -0.10472E+00
        -0.11581E+00
        -0.29232E+00
        -0.24455E+00
        -0.93859E-01
         0.24581E-01
         0.88473E-01
         0.97439E-01
         0.57236E-01
         0.48251E-02
        -0.45223E-01
        -0.87367E-01
        -0.89127E-01
         0.28231E-01
         0.20297E+00
         0.23219E+00
         0.16967E+00
         0.28850E-02
         0.14467E-01
         0.44449E-02
        -0.42058E-02
         0.24082E-01
         0.49332E-01
         0.29024E-01
         0.16905E-01
         0.49216E-02
         0.12500E-01
         0.34427E-01
         0.45605E-01
         0.49661E-01
         0.17625E-01
         0.77081E-02
         0.53887E-02
         0.15366E-01
        -0.96959E-02
         0.26268E-01
         0.81685E-02
         0.11938E-01
        -0.28045E-01
         0.12634E-01
         0.20640E-01
        -0.43546E-02
         0.49365E-02
        -0.11872E-01
        -0.56270E-01
        -0.11087E+00
        -0.46429E-01
        -0.15732E-01
        -0.17313E-01
        -0.71236E-02
         0.23787E-01
         0.21860E-01
         0.20686E-01
         0.34812E-01
        -0.51627E-01
        -0.11272E+00
        -0.16975E+00
        -0.20119E+00
        -0.16585E+00
        -0.10301E+00
        -0.25561E-02
        -0.23517E-01
        -0.46082E-01
        -0.47754E-01
        -0.40171E-01
        -0.57723E-02
         0.61298E-01
         0.12884E+00
         0.96013E-01
         0.42467E-01
         0.77057E-01
         0.37339E-01
         0.52002E-01
         0.72445E-01
         0.61232E-01
         0.79349E-02
        -0.74216E-01
        -0.15323E+00
        -0.19704E+00
        -0.20583E+00
        -0.22116E+00
        -0.18682E+00
        -0.10340E+00
        -0.41674E-01
        -0.17777E-01
        -0.23154E-01
        -0.43317E-01
        -0.70841E-01
        -0.95487E-01
        -0.11053E+00
        -0.72488E-01
         0.59822E-01
         0.22773E+00
         0.24980E+00
         0.15964E+00
        -0.11080E-03
         0.43566E-02
         0.35762E-02
         0.19744E-02
         0.19970E-01
         0.38367E-01
         0.12810E-01
         0.83705E-02
         0.41661E-02
         0.87630E-02
         0.18330E-01
         0.26108E-01
         0.24704E-01
         0.11183E-01
         0.81028E-02
         0.40426E-02
         0.12230E-01
        -0.31767E-02
         0.13477E-01
         0.68303E-02
        -0.62959E-02
        -0.23615E-01
        -0.11246E-01
         0.42563E-02
        -0.55127E-03
        -0.26731E-02
        -0.52697E-02
        -0.35771E-01
        -0.76339E-01
        -0.27655E-01
        -0.74711E-02
        -0.14108E-01
         0.19947E-02
         0.23732E-01
         0.14015E-01
         0.11074E-01
         0.15930E-01
        -0.27833E-01
        -0.76269E-01
        -0.13027E+00
        -0.16446E+00
        -0.12233E+00
        -0.69640E-01
        -0.18537E-01
        -0.25872E-01
        -0.34564E-01
        -0.29674E-01
        -0.17885E-01
         0.70639E-02
         0.45552E-01
         0.81216E-01
         0.65345E-01
         0.20785E-01
         0.41111E-01
         0.23626E-01
         0.29172E-01
         0.39120E-01
         0.35494E-01
         0.73306E-02
        -0.43223E-01
        -0.11457E+00
        -0.17404E+00
        -0.20708E+00
        -0.19564E+00
        -0.13896E+00
        -0.94040E-01
        -0.63317E-01
        -0.52890E-01
        -0.51161E-01
        -0.46137E-01
        -0.47088E-01
        -0.48001E-01
        -0.37768E-01
        -0.35606E-02
         0.60875E-01
         0.13263E+00
         0.14014E+00
         0.89770E-01
         0.21210E-02
         0.30393E-02
         0.15249E-02
         0.34715E-03
         0.52683E-02
         0.76690E-02
         0.78635E-02
         0.68964E-02
         0.54986E-02
         0.83491E-02
         0.11678E-01
         0.16427E-01
         0.13494E-01
         0.90740E-02
         0.94383E-02
         0.37078E-02
         0.94922E-02
         0.69515E-03
         0.70511E-02
         0.52135E-02
        -0.53278E-02
        -0.16937E-01
        -0.64899E-02
         0.19486E-02
         0.34936E-02
        -0.45135E-03
         0.51944E-03
        -0.18103E-01
        -0.45893E-01
        -0.14417E-01
        -0.18267E-02
        -0.44161E-02
        -0.42840E-03
         0.32636E-02
         0.51886E-02
         0.51398E-02
         0.81450E-02
        -0.10781E-01
        -0.44525E-01
        -0.87062E-01
        -0.11983E+00
        -0.86611E-01
        -0.49137E-01
        -0.85281E-02
        -0.10107E-01
        -0.11555E-01
        -0.88667E-02
        -0.57979E-02
        -0.14667E-02
         0.55823E-02
         0.13201E-01
         0.11647E-01
         0.85678E-02
         0.11034E-01
         0.11047E-01
         0.14595E-01
         0.20992E-01
         0.22592E-01
         0.12390E-01
        -0.16052E-01
        -0.76586E-01
        -0.14317E+00
        -0.18611E+00
        -0.17251E+00
        -0.11697E+00
        -0.67324E-01
        -0.39858E-01
        -0.28910E-01
        -0.24563E-01
        -0.19069E-01
        -0.14960E-01
        -0.12639E-01
        -0.99709E-02
        -0.44978E-02
         0.74576E-02
         0.23801E-01
         0.28845E-01
         0.20085E-01
         0.26431E-02
         0.25941E-02
         0.69158E-03
        -0.33092E-03
        -0.16328E-02
        -0.48791E-02
         0.50340E-02
         0.48999E-02
         0.44846E-02
         0.59860E-02
         0.76590E-02
         0.10889E-01
         0.75368E-02
         0.70459E-02
         0.99818E-02
         0.31022E-02
         0.60128E-02
         0.19525E-02
         0.34277E-02
         0.32065E-02
        -0.32051E-02
        -0.99049E-02
        -0.28712E-02
         0.10938E-02
         0.38414E-02
         0.55871E-03
         0.32131E-02
        -0.64850E-02
        -0.22532E-01
        -0.62967E-02
         0.12739E-04
        -0.92587E-03
        -0.14551E-02
        -0.43752E-02
         0.52711E-03
         0.22408E-02
         0.44562E-02
         0.46180E-03
        -0.18936E-01
        -0.45030E-01
        -0.67572E-01
        -0.50079E-01
        -0.29069E-01
        -0.32184E-02
        -0.36165E-02
        -0.39179E-02
        -0.28819E-02
        -0.33030E-02
        -0.56924E-02
        -0.89372E-02
        -0.11586E-01
        -0.87454E-02
         0.73998E-03
        -0.35226E-02
         0.34829E-02
         0.64998E-02
         0.10588E-01
         0.14898E-01
         0.15477E-01
         0.33974E-02
        -0.35573E-01
        -0.81678E-01
        -0.11419E+00
        -0.11332E+00
        -0.77282E-01
        -0.38319E-01
        -0.19550E-01
        -0.11875E-01
        -0.93160E-02
        -0.73322E-02
        -0.52058E-02
        -0.39294E-02
        -0.43119E-02
        -0.78190E-02
        -0.12790E-01
        -0.16738E-01
        -0.15174E-01
        -0.93405E-02
         0.15028E-02
         0.16183E-02
         0.46708E-03
        -0.40941E-04
        -0.18393E-02
        -0.37934E-02
         0.25425E-02
         0.22191E-02
         0.22614E-02
         0.26556E-02
         0.40687E-02
         0.62359E-02
         0.39936E-02
         0.39390E-02
         0.71117E-02
         0.19005E-02
         0.26773E-02
         0.15241E-02
         0.12179E-02
         0.13222E-02
        -0.20070E-02
        -0.39526E-02
        -0.22948E-02
        -0.74290E-05
         0.19748E-02
         0.26892E-04
         0.26860E-02
        -0.90998E-03
        -0.73794E-02
        -0.18488E-02
         0.28534E-03
        -0.70205E-03
        -0.62468E-03
        -0.28792E-02
        -0.13739E-03
         0.15610E-02
         0.27683E-02
         0.40818E-02
        -0.35789E-02
        -0.14678E-01
        -0.25101E-01
        -0.19001E-01
        -0.10950E-01
        -0.26329E-02
        -0.28607E-02
        -0.30997E-02
        -0.20933E-02
        -0.20504E-02
        -0.35995E-02
        -0.60912E-02
        -0.82639E-02
        -0.63666E-02
        -0.43143E-03
        -0.38794E-02
         0.23460E-02
         0.37246E-02
         0.52235E-02
         0.85347E-02
         0.11676E-01
         0.88058E-02
        -0.75587E-02
        -0.28735E-01
        -0.45394E-01
        -0.46361E-01
        -0.30479E-01
        -0.14784E-01
        -0.81956E-02
        -0.60884E-02
        -0.58129E-02
        -0.53076E-02
        -0.43193E-02
        -0.30658E-02
        -0.27931E-02
        -0.48819E-02
        -0.83882E-02
        -0.12096E-01
        -0.11601E-01
        -0.75411E-02
         0.52709E-03
         0.87876E-03
         0.23003E-03
        -0.80988E-04
        -0.14810E-02
        -0.22126E-02
         0.10869E-02
         0.50298E-03
         0.72303E-03
         0.50352E-03
         0.18309E-02
         0.33096E-02
         0.23128E-02
         0.16905E-02
         0.42593E-02
         0.82845E-03
         0.58377E-03
         0.78232E-03
        -0.12520E-03
         0.43781E-05
        -0.14228E-02
        -0.63010E-03
        -0.22827E-02
        -0.78073E-03
         0.49222E-03
        -0.49411E-03
         0.16837E-02
         0.14538E-02
         0.68339E-03
         0.15324E-03
         0.97581E-04
        -0.76183E-03
        -0.30016E-03
        -0.14825E-02
        -0.14345E-03
         0.13663E-02
         0.20429E-02
         0.46909E-02
         0.41637E-02
         0.26221E-02
         0.75694E-03
        -0.53270E-03
        -0.55361E-03
        -0.25119E-02
        -0.24695E-02
        -0.25784E-02
        -0.16883E-02
        -0.13384E-02
        -0.19441E-02
        -0.30909E-02
        -0.40492E-02
        -0.31968E-02
        -0.34803E-03
        -0.31484E-02
         0.24960E-02
         0.30028E-02
         0.32201E-02
         0.48148E-02
         0.71722E-02
         0.91999E-02
         0.85567E-02
         0.55917E-02
         0.14326E-02
        -0.12661E-02
        -0.41551E-03
        -0.31005E-03
        -0.24592E-02
        -0.42038E-02
        -0.46375E-02
        -0.42188E-02
        -0.36057E-02
        -0.25389E-02
        -0.19969E-02
        -0.27382E-02
        -0.41383E-02
        -0.57493E-02
        -0.55715E-02
        -0.42872E-02
         0.98223E-04
         0.51909E-03
         0.36153E-04
        -0.28607E-03
        -0.15920E-02
        -0.21813E-02
         0.40951E-03
        -0.24318E-03
         0.44587E-04
        -0.41509E-03
         0.78891E-03
         0.19510E-02
         0.15095E-02
         0.66344E-03
         0.29594E-02
         0.23909E-03
        -0.39428E-03
         0.37226E-03
        -0.85716E-03
        -0.65995E-03
        -0.12640E-02
         0.82767E-03
        -0.22897E-02
        -0.12109E-02
        -0.16975E-03
        -0.73999E-03
         0.11653E-02
         0.23270E-02
         0.40227E-02
         0.93604E-03
        -0.10315E-03
        -0.72082E-03
        -0.49008E-03
        -0.15087E-02
        -0.26841E-03
         0.11899E-02
         0.16621E-02
         0.47919E-02
         0.70978E-02
         0.96837E-02
         0.11938E-01
         0.75498E-02
         0.40128E-02
        -0.22849E-02
        -0.20060E-02
        -0.20320E-02
        -0.14171E-02
        -0.12779E-02
        -0.19130E-02
        -0.29414E-02
        -0.37114E-02
        -0.29389E-02
        -0.43784E-03
        -0.32719E-02
         0.23879E-02
         0.26726E-02
         0.23735E-02
         0.31905E-02
         0.52799E-02
         0.93825E-02
         0.14990E-01
         0.20187E-01
         0.22819E-01
         0.19962E-01
         0.13772E-01
         0.63331E-02
        -0.99571E-04
        -0.32828E-02
        -0.37697E-02
        -0.32508E-02
        -0.28219E-02
        -0.21546E-02
        -0.18545E-02
        -0.26260E-02
        -0.39843E-02
        -0.51857E-02
        -0.48363E-02
        -0.40676E-02
         0.52000E-05
         0.46190E-03
        -0.25275E-04
        -0.35528E-03
        -0.19206E-02
        -0.27660E-02
         0.21319E-03
        -0.49878E-03
        -0.14174E-03
        -0.71375E-03
         0.45196E-03
         0.15407E-02
         0.13159E-02
         0.31791E-03
         0.25633E-02
         0.11601E-03
        -0.67018E-03
         0.34782E-03
        -0.11184E-02
        -0.86808E-03
        -0.13658E-02
         0.11450E-02
        -0.24688E-02
        -0.14617E-02
        -0.31167E-03
        -0.90982E-03
         0.10417E-02
         0.27747E-02
         0.53074E-02
         0.12597E-02
        -0.15132E-03
        -0.73993E-03
        -0.66301E-03
        -0.19519E-02
        -0.43302E-03
         0.11708E-02
         0.16475E-02
         0.49152E-02
         0.83844E-02
         0.12496E-01
         0.15939E-01
         0.10164E-01
         0.53689E-02
        -0.24700E-02
        -0.20085E-02
        -0.18963E-02
        -0.13621E-02
        -0.14596E-02
        -0.24861E-02
        -0.39513E-02
        -0.50396E-02
        -0.38965E-02
        -0.66888E-03
        -0.39445E-02
         0.23651E-02
         0.27286E-02
         0.22007E-02
         0.27328E-02
         0.47384E-02
         0.94813E-02
         0.17807E-01
         0.26368E-01
         0.30592E-01
         0.26682E-01
         0.18153E-01
         0.82036E-02
         0.53290E-03
        -0.29023E-02
        -0.37468E-02
        -0.31317E-02
        -0.25640E-02
        -0.20526E-02
        -0.20506E-02
        -0.34231E-02
        -0.55591E-02
        -0.72438E-02
        -0.66794E-02
        -0.53574E-02
         0.33606E-04
         0.59590E-03
         0.12537E-04
        -0.32772E-03
        -0.23080E-02
        -0.32789E-02
         0.26243E-03
        -0.64753E-03
        -0.16318E-03
        -0.93243E-03
         0.42899E-03
         0.16698E-02
         0.16162E-02
         0.14878E-03
         0.25986E-02
         0.15243E-03
        -0.73605E-03
         0.47979E-03
        -0.12928E-02
        -0.98099E-03
        -0.16314E-02
         0.11702E-02
        -0.31329E-02
        -0.18633E-02
        -0.37825E-03
        -0.12958E-02
         0.92547E-03
         0.30556E-02
         0.62437E-02
         0.14867E-02
        -0.24998E-03
        -0.11533E-02
        -0.79559E-03
        -0.23389E-02
        -0.56700E-03
         0.13909E-02
         0.20212E-02
         0.52213E-02
         0.94627E-02
         0.14769E-01
         0.19154E-01
         0.11818E-01
         0.59112E-02
        -0.33987E-02
        -0.29232E-02
        -0.27711E-02
        -0.19740E-02
        -0.19901E-02
        -0.32491E-02
        -0.50403E-02
        -0.63011E-02
        -0.47128E-02
        -0.93299E-03
        -0.48727E-02
         0.27571E-02
         0.33149E-02
         0.27250E-02
         0.30765E-02
         0.49759E-02
         0.10241E-01
         0.20539E-01
         0.31891E-01
         0.37391E-01
         0.30372E-01
         0.19798E-01
         0.93802E-02
         0.68903E-03
        -0.35320E-02
        -0.50475E-02
        -0.44548E-02
        -0.36593E-02
        -0.28857E-02
        -0.28560E-02
        -0.46619E-02
        -0.73548E-02
        -0.91939E-02
        -0.81856E-02
        -0.65274E-02
        -0.14622E-04
         0.59448E-03
         0.57463E-04
        -0.34359E-03
        -0.23492E-02
        -0.34350E-02
         0.15467E-03
        -0.83832E-03
        -0.24750E-03
        -0.11428E-02
         0.27453E-03
         0.15870E-02
         0.16081E-02
        -0.53056E-04
         0.24932E-02
         0.15649E-03
        -0.90445E-03
         0.50557E-03
        -0.14081E-02
        -0.11404E-02
        -0.16927E-02
         0.14588E-02
        -0.33972E-02
        -0.20112E-02
        -0.49550E-03
        -0.14837E-02
         0.85364E-03
         0.34174E-02
         0.74512E-02
         0.17871E-02
        -0.40953E-03
        -0.15398E-02
        -0.94717E-03
        -0.25686E-02
        -0.47005E-03
         0.15195E-02
         0.20978E-02
         0.53798E-02
         0.10414E-01
         0.17186E-01
         0.23298E-01
         0.14721E-01
         0.73028E-02
        -0.38645E-02
        -0.36366E-02
        -0.37056E-02
        -0.27335E-02
        -0.26037E-02
        -0.38594E-02
        -0.56611E-02
        -0.68523E-02
        -0.50216E-02
        -0.78117E-03
        -0.50252E-02
         0.29763E-02
         0.34206E-02
         0.27672E-02
         0.30636E-02
         0.49001E-02
         0.10399E-01
         0.22262E-01
         0.36702E-01
         0.45848E-01
         0.38221E-01
         0.23905E-01
         0.10923E-01
         0.94815E-03
        -0.39295E-02
        -0.57577E-02
        -0.55245E-02
        -0.49269E-02
        -0.40197E-02
        -0.38621E-02
        -0.57636E-02
        -0.84827E-02
        -0.99625E-02
        -0.85906E-02
        -0.68470E-02
        -0.95580E-04
         0.41633E-03
        -0.74414E-04
        -0.45658E-03
        -0.24306E-02
        -0.35666E-02
        -0.86927E-04
        -0.97849E-03
        -0.32213E-03
        -0.12640E-02
        -0.14386E-04
         0.11510E-02
         0.11766E-02
        -0.24191E-03
         0.21869E-02
         0.17003E-03
        -0.10794E-02
         0.46510E-03
        -0.14559E-02
        -0.13445E-02
        -0.16822E-02
         0.16113E-02
        -0.32699E-02
        -0.19261E-02
        -0.64685E-03
        -0.14446E-02
         0.85439E-03
         0.36664E-02
         0.80889E-02
         0.18251E-02
        -0.54671E-03
        -0.17146E-02
        -0.10922E-02
        -0.27394E-02
        -0.61548E-03
         0.12107E-02
         0.16849E-02
         0.55147E-02
         0.11183E-01
         0.18649E-01
         0.25627E-01
         0.16414E-01
         0.81544E-02
        -0.38072E-02
        -0.38454E-02
        -0.41320E-02
        -0.31662E-02
        -0.29827E-02
        -0.41404E-02
        -0.58573E-02
        -0.69960E-02
        -0.51674E-02
        -0.90220E-03
        -0.49564E-02
         0.23735E-02
         0.26743E-02
         0.20798E-02
         0.24196E-02
         0.43112E-02
         0.10543E-01
         0.23892E-01
         0.39580E-01
         0.50544E-01
         0.43142E-01
         0.26688E-01
         0.11713E-01
         0.10029E-02
        -0.38148E-02
        -0.57168E-02
        -0.58516E-02
        -0.54922E-02
        -0.46301E-02
        -0.44287E-02
        -0.61632E-02
        -0.87060E-02
        -0.10019E-01
        -0.86006E-02
        -0.68870E-02
        -0.82813E-04
         0.29382E-03
        -0.26152E-03
        -0.49564E-03
        -0.27960E-02
        -0.37431E-02
        -0.21443E-03
        -0.10023E-02
        -0.29197E-03
        -0.12718E-02
        -0.15113E-03
         0.89614E-03
         0.85362E-03
        -0.28833E-03
         0.21460E-02
         0.19995E-03
        -0.10818E-02
         0.48110E-03
        -0.14278E-02
        -0.13558E-02
        -0.15795E-02
         0.17123E-02
        -0.29753E-02
        -0.17753E-02
        -0.68991E-03
        -0.13201E-02
         0.85274E-03
         0.35688E-02
         0.77283E-02
         0.17055E-02
        -0.57629E-03
        -0.16942E-02
        -0.11156E-02
        -0.27486E-02
        -0.11747E-02
         0.71553E-03
         0.12846E-02
         0.57201E-02
         0.11333E-01
         0.18230E-01
         0.24490E-01
         0.15680E-01
         0.80427E-02
        -0.35310E-02
        -0.37369E-02
        -0.41430E-02
        -0.32388E-02
        -0.30533E-02
        -0.41017E-02
        -0.57239E-02
        -0.68457E-02
        -0.51648E-02
        -0.17906E-02
        -0.55949E-02
         0.14318E-02
         0.19858E-02
         0.15473E-02
         0.19670E-02
         0.42017E-02
         0.11305E-01
         0.24964E-01
         0.39366E-01
         0.48290E-01
         0.41677E-01
         0.26990E-01
         0.11950E-01
         0.11774E-02
        -0.32814E-02
        -0.53157E-02
        -0.57668E-02
        -0.55307E-02
        -0.47497E-02
        -0.45362E-02
        -0.59763E-02
        -0.82809E-02
        -0.96680E-02
        -0.84754E-02
        -0.71520E-02
        -0.30882E-04
         0.30977E-03
        -0.21591E-03
        -0.35314E-03
        -0.27500E-02
        -0.35137E-02
        -0.21542E-03
        -0.98298E-03
        -0.23840E-03
        -0.12257E-02
        -0.13585E-03
         0.88882E-03
         0.81424E-03
        -0.24741E-03
         0.22052E-02
         0.29643E-03
        -0.99936E-03
         0.56107E-03
        -0.12556E-02
        -0.12467E-02
        -0.12364E-02
         0.18518E-02
        -0.25424E-02
        -0.15014E-02
        -0.62731E-03
        -0.11289E-02
         0.83406E-03
         0.33808E-02
         0.72893E-02
         0.16655E-02
        -0.54758E-03
        -0.16405E-02
        -0.10296E-02
        -0.25275E-02
        -0.13231E-02
         0.59945E-03
         0.12342E-02
         0.56104E-02
         0.10766E-01
         0.17107E-01
         0.22867E-01
         0.14711E-01
         0.77337E-02
        -0.31799E-02
        -0.36049E-02
        -0.41845E-02
        -0.33232E-02
        -0.31037E-02
        -0.40214E-02
        -0.54565E-02
        -0.64394E-02
        -0.48044E-02
        -0.21741E-02
        -0.56545E-02
         0.11332E-02
         0.19260E-02
         0.14563E-02
         0.18434E-02
         0.42277E-02
         0.11237E-01
         0.23795E-01
         0.37071E-01
         0.45069E-01
         0.39178E-01
         0.26216E-01
         0.12215E-01
         0.17490E-02
        -0.26574E-02
        -0.47570E-02
        -0.56239E-02
        -0.56631E-02
        -0.49612E-02
        -0.47129E-02
        -0.59352E-02
        -0.79318E-02
        -0.91137E-02
        -0.79550E-02
        -0.68426E-02
        -0.57108E-04
         0.31356E-03
        -0.82551E-04
        -0.24985E-03
        -0.21888E-02
        -0.29426E-02
        -0.18833E-03
        -0.97143E-03
        -0.22900E-03
        -0.11683E-02
        -0.79214E-04
         0.98636E-03
         0.90919E-03
        -0.22172E-03
         0.21502E-02
         0.34782E-03
        -0.93245E-03
         0.56704E-03
        -0.11442E-02
        -0.11899E-02
        -0.11559E-02
         0.18135E-02
        -0.25005E-02
        -0.14239E-02
        -0.54840E-03
        -0.11259E-02
         0.82145E-03
         0.33727E-02
         0.73670E-02
         0.17428E-02
        -0.58136E-03
        -0.17126E-02
        -0.96629E-03
        -0.22804E-02
        -0.95846E-03
         0.71638E-03
         0.13047E-02
         0.52248E-02
         0.10202E-01
         0.16730E-01
         0.22911E-01
         0.15031E-01
         0.78612E-02
        -0.32125E-02
        -0.36909E-02
        -0.42999E-02
        -0.34239E-02
        -0.31411E-02
        -0.39159E-02
        -0.51297E-02
        -0.59541E-02
        -0.42920E-02
        -0.16920E-02
        -0.44863E-02
         0.12717E-02
         0.21002E-02
         0.16122E-02
         0.19758E-02
         0.41109E-02
         0.10140E-01
         0.21699E-01
         0.35443E-01
         0.45084E-01
         0.40308E-01
         0.26401E-01
         0.11909E-01
         0.18014E-02
        -0.27295E-02
        -0.47952E-02
        -0.56921E-02
        -0.57915E-02
        -0.50695E-02
        -0.48051E-02
        -0.59489E-02
        -0.76320E-02
        -0.85202E-02
        -0.71583E-02
        -0.56198E-02
        -0.17419E-03
         0.17247E-03
        -0.17767E-03
        -0.36649E-03
        -0.19585E-02
        -0.26836E-02
        -0.25916E-03
        -0.97454E-03
        -0.27254E-03
        -0.11060E-02
        -0.13515E-03
         0.90643E-03
         0.80607E-03
        -0.27482E-03
         0.19143E-02
         0.19925E-03
        -0.87251E-03
         0.40643E-03
        -0.12149E-02
        -0.10860E-02
        -0.13566E-02
         0.16922E-02
        -0.28323E-02
        -0.16751E-02
        -0.44528E-03
        -0.13539E-02
         0.78106E-03
         0.34157E-02
         0.75377E-02
         0.18584E-02
        -0.64160E-03
        -0.17923E-02
        -0.94673E-03
        -0.21255E-02
        -0.79477E-03
         0.62799E-03
         0.11347E-02
         0.48095E-02
         0.99524E-02
         0.16957E-01
         0.23492E-01
         0.15320E-01
         0.78583E-02
        -0.34826E-02
        -0.37624E-02
        -0.41857E-02
        -0.32438E-02
        -0.28602E-02
        -0.35201E-02
        -0.46131E-02
        -0.53497E-02
        -0.38845E-02
        -0.12935E-02
        -0.38055E-02
         0.11851E-02
         0.18999E-02
         0.15233E-02
         0.19546E-02
         0.37989E-02
         0.90090E-02
         0.20618E-01
         0.35937E-01
         0.46488E-01
         0.40928E-01
         0.25736E-01
         0.11072E-01
         0.14570E-02
        -0.30881E-02
        -0.50289E-02
        -0.56220E-02
        -0.55444E-02
        -0.46389E-02
        -0.42418E-02
        -0.53019E-02
        -0.68501E-02
        -0.76207E-02
        -0.63684E-02
        -0.49721E-02
        -0.23022E-03
         0.57575E-04
        -0.32064E-03
        -0.45016E-03
        -0.19800E-02
        -0.25278E-02
        -0.32212E-03
        -0.93931E-03
        -0.34256E-03
        -0.11082E-02
        -0.26598E-03
         0.59787E-03
         0.56112E-03
        -0.39767E-03
         0.15050E-02
        -0.32917E-05
        -0.92162E-03
         0.25669E-03
        -0.13284E-02
        -0.10821E-02
        -0.13942E-02
         0.15857E-02
        -0.29043E-02
        -0.18397E-02
        -0.50157E-03
        -0.14751E-02
         0.57828E-03
         0.31426E-02
         0.72590E-02
         0.17276E-02
        -0.61216E-03
        -0.17292E-02
        -0.83405E-03
        -0.18672E-02
        -0.88672E-03
         0.40738E-03
         0.86386E-03
         0.43007E-02
         0.94166E-02
         0.16630E-01
         0.23396E-01
         0.14948E-01
         0.74711E-02
        -0.34925E-02
        -0.36191E-02
        -0.38841E-02
        -0.29032E-02
        -0.24133E-02
        -0.28990E-02
        -0.38297E-02
        -0.44733E-02
        -0.33741E-02
        -0.12903E-02
        -0.36977E-02
         0.86323E-03
         0.14783E-02
         0.11754E-02
         0.15360E-02
         0.32289E-02
         0.82505E-02
         0.19834E-01
         0.36015E-01
         0.47228E-01
         0.40265E-01
         0.24346E-01
         0.10485E-01
         0.14804E-02
        -0.29886E-02
        -0.49427E-02
        -0.53568E-02
        -0.51203E-02
        -0.40787E-02
        -0.35163E-02
        -0.42722E-02
        -0.55247E-02
        -0.62615E-02
        -0.53867E-02
        -0.46228E-02
        -0.24230E-03
        -0.14037E-04
        -0.37520E-03
        -0.36994E-03
        -0.18705E-02
        -0.20381E-02
        -0.34174E-03
        -0.87186E-03
        -0.39658E-03
        -0.10838E-02
        -0.31171E-03
         0.39441E-03
         0.37952E-03
        -0.42971E-03
         0.11736E-02
        -0.95270E-04
        -0.97207E-03
         0.19778E-03
        -0.13262E-02
        -0.10413E-02
        -0.13612E-02
         0.17110E-02
        -0.28373E-02
        -0.18012E-02
        -0.62151E-03
        -0.13974E-02
         0.38161E-03
         0.25924E-02
         0.62862E-02
         0.14348E-02
        -0.51459E-03
        -0.15709E-02
        -0.61927E-03
        -0.13982E-02
        -0.11013E-02
         0.12032E-03
         0.62053E-03
         0.36282E-02
         0.81508E-02
         0.14659E-01
         0.20981E-01
         0.13538E-01
         0.70384E-02
        -0.32689E-02
        -0.33385E-02
        -0.35605E-02
        -0.25903E-02
        -0.19839E-02
        -0.21949E-02
        -0.28164E-02
        -0.32347E-02
        -0.24843E-02
        -0.17017E-02
        -0.34527E-02
         0.33899E-03
         0.11242E-02
         0.90833E-03
         0.11590E-02
         0.26225E-02
         0.70376E-02
         0.17413E-01
         0.32208E-01
         0.43006E-01
         0.37498E-01
         0.23410E-01
         0.10200E-01
         0.10090E-02
        -0.31693E-02
        -0.47323E-02
        -0.50082E-02
        -0.47280E-02
        -0.36575E-02
        -0.29050E-02
        -0.31939E-02
        -0.39380E-02
        -0.44169E-02
        -0.37876E-02
        -0.35866E-02
        -0.33737E-03
        -0.36120E-04
        -0.27841E-03
        -0.21521E-03
        -0.16072E-02
        -0.13697E-02
        -0.31673E-03
        -0.88441E-03
        -0.48385E-03
        -0.10676E-02
        -0.13032E-03
         0.71684E-03
         0.52687E-03
        -0.22391E-03
         0.15804E-02
        -0.75800E-04
        -0.93601E-03
         0.17384E-03
        -0.11458E-02
        -0.79342E-03
        -0.11651E-02
         0.23257E-02
        -0.27255E-02
        -0.16245E-02
        -0.56656E-03
        -0.12189E-02
         0.53325E-03
         0.25818E-02
         0.61551E-02
         0.16238E-02
        -0.28247E-03
        -0.12760E-02
        -0.24382E-03
        -0.69841E-03
        -0.91605E-03
         0.34287E-03
         0.76068E-03
         0.38663E-02
         0.79923E-02
         0.14002E-01
         0.20080E-01
         0.13579E-01
         0.77435E-02
        -0.29932E-02
        -0.29140E-02
        -0.29802E-02
        -0.19903E-02
        -0.12454E-02
        -0.11734E-02
        -0.14390E-02
        -0.15521E-02
        -0.12605E-02
        -0.14998E-02
        -0.33177E-02
         0.10152E-02
         0.15212E-02
         0.11852E-02
         0.15762E-02
         0.31375E-02
         0.73238E-02
         0.16885E-01
         0.30557E-01
         0.40730E-01
         0.37985E-01
         0.25659E-01
         0.11068E-01
         0.56409E-03
        -0.35331E-02
        -0.45298E-02
        -0.44705E-02
        -0.39960E-02
        -0.28051E-02
        -0.18432E-02
        -0.17398E-02
        -0.19649E-02
        -0.19792E-02
        -0.17442E-02
        -0.25381E-02
        -0.55009E-03
        -0.92558E-04
        -0.60667E-04
         0.16023E-03
        -0.97290E-03
        -0.52582E-05
        -0.25597E-03
        -0.95843E-03
        -0.67616E-03
        -0.10796E-02
         0.35335E-03
         0.16564E-02
         0.92067E-03
         0.31468E-03
         0.29203E-02
         0.84646E-05
        -0.97478E-03
         0.22323E-03
        -0.10106E-02
        -0.74739E-03
        -0.91110E-03
         0.24494E-02
        -0.23833E-02
        -0.13784E-02
        -0.44346E-03
        -0.10485E-02
         0.10991E-02
         0.30967E-02
         0.65690E-02
         0.18547E-02
         0.17127E-03
        -0.10303E-02
         0.58829E-03
         0.76724E-03
        -0.42168E-03
         0.80625E-03
         0.10407E-02
         0.52019E-02
         0.90160E-02
         0.14450E-01
         0.19947E-01
         0.13836E-01
         0.81121E-02
        -0.28971E-02
        -0.29049E-02
        -0.27972E-02
        -0.13755E-02
        -0.23155E-04
         0.72758E-03
         0.11850E-02
         0.16622E-02
         0.11485E-02
        -0.84680E-03
        -0.28052E-02
         0.22689E-02
         0.22408E-02
         0.18310E-02
         0.28517E-02
         0.51284E-02
         0.96096E-02
         0.18486E-01
         0.30511E-01
         0.39119E-01
         0.38156E-01
         0.27042E-01
         0.11691E-01
         0.12798E-02
        -0.29176E-02
        -0.46316E-02
        -0.48856E-02
        -0.39285E-02
        -0.19410E-02
        -0.18613E-03
         0.76815E-03
         0.15376E-02
         0.24849E-02
         0.20923E-02
        -0.55706E-03
        -0.90755E-03
        -0.27157E-03
         0.18528E-03
         0.46315E-03
         0.45437E-03
         0.19739E-02
        -0.20452E-03
        -0.10469E-02
        -0.94281E-03
        -0.10994E-02
         0.90984E-03
         0.26705E-02
         0.13020E-02
         0.91319E-03
         0.42993E-02
        -0.11858E-03
        -0.97089E-03
         0.11118E-03
        -0.11689E-02
        -0.71620E-03
        -0.11743E-02
         0.23007E-02
        -0.34376E-02
        -0.20566E-02
        -0.30087E-03
        -0.20513E-02
         0.16551E-02
         0.34479E-02
         0.63560E-02
         0.19198E-02
         0.57449E-04
        -0.23021E-02
         0.12706E-02
         0.23264E-02
         0.64904E-03
         0.12508E-02
         0.11588E-02
         0.64328E-02
         0.95689E-02
         0.13624E-01
         0.17335E-01
         0.12131E-01
         0.74790E-02
        -0.50589E-02
        -0.56340E-02
        -0.54487E-02
        -0.26050E-02
         0.42141E-03
         0.24767E-02
         0.39698E-02
         0.51983E-02
         0.39797E-02
         0.85740E-03
        -0.22653E-03
         0.32864E-02
         0.26066E-02
         0.23981E-02
         0.41169E-02
         0.70326E-02
         0.11687E-01
         0.18977E-01
         0.27297E-01
         0.32233E-01
         0.32871E-01
         0.26247E-01
         0.12866E-01
         0.23740E-02
        -0.34900E-02
        -0.76354E-02
        -0.91490E-02
        -0.74115E-02
        -0.32275E-02
         0.61123E-03
         0.30091E-02
         0.50454E-02
         0.72564E-02
         0.67233E-02
         0.30313E-02
        -0.13412E-02
        -0.86790E-03
         0.33439E-03
         0.22066E-04
         0.31346E-02
         0.35107E-02
        -0.64893E-03
        -0.12839E-02
        -0.13079E-02
        -0.13434E-02
         0.62615E-03
         0.23736E-02
         0.57454E-03
         0.79811E-03
         0.44661E-02
        -0.17335E-02
        -0.16274E-02
        -0.60804E-03
        -0.41004E-02
        -0.14999E-02
        -0.45741E-02
         0.33935E-02
        -0.10476E-01
        -0.72004E-02
        -0.23486E-04
        -0.73674E-02
         0.17860E-02
         0.43844E-02
         0.87484E-02
         0.34258E-02
        -0.20455E-02
        -0.80236E-02
         0.69812E-03
         0.22228E-02
         0.28625E-02
         0.11689E-02
         0.13150E-03
         0.71146E-02
         0.10654E-01
         0.15767E-01
         0.21359E-01
         0.17144E-01
         0.11994E-01
        -0.14463E-01
        -0.15851E-01
        -0.15285E-01
        -0.86595E-02
        -0.15575E-02
         0.27639E-02
         0.48738E-02
         0.60593E-02
         0.46317E-02
         0.49227E-02
         0.63655E-02
         0.29759E-02
         0.10680E-02
         0.15182E-02
         0.40279E-02
         0.77713E-02
         0.13075E-01
         0.20077E-01
         0.28896E-01
         0.39109E-01
         0.49323E-01
         0.46012E-01
         0.25236E-01
         0.44279E-02
        -0.95866E-02
        -0.19289E-01
        -0.23018E-01
        -0.19245E-01
        -0.96078E-02
        -0.78800E-03
         0.41207E-02
         0.68185E-02
         0.86857E-02
         0.84627E-02
         0.73987E-02
        -0.17563E-02
        -0.22698E-02
         0.34853E-03
        -0.10115E-02
         0.72137E-02
         0.48972E-02
        -0.21097E-02
        -0.18726E-02
        -0.16858E-02
        -0.18191E-02
        -0.11140E-02
        -0.40079E-04
        -0.21484E-02
        -0.47058E-03
         0.28808E-02
        -0.60467E-02
        -0.37670E-02
        -0.19460E-02
        -0.11972E-01
        -0.44762E-02
        -0.11438E-01
         0.77858E-02
        -0.24014E-01
        -0.18455E-01
         0.65659E-03
        -0.18329E-01
         0.13902E-02
         0.70411E-02
         0.17684E-01
         0.81969E-02
        -0.64655E-02
        -0.18853E-01
        -0.82973E-03
         0.57649E-03
         0.55835E-02
        -0.27042E-03
        -0.30187E-02
         0.73712E-02
         0.13885E-01
         0.24997E-01
         0.38542E-01
         0.36360E-01
         0.28028E-01
        -0.31304E-01
        -0.33058E-01
        -0.31125E-01
        -0.19010E-01
        -0.54139E-02
         0.26682E-02
         0.48709E-02
         0.48859E-02
         0.31596E-02
         0.99436E-02
         0.16499E-01
        -0.16983E-03
        -0.36559E-02
        -0.18347E-02
         0.19044E-02
         0.73978E-02
         0.14801E-01
         0.23986E-01
         0.39721E-01
         0.67038E-01
         0.97348E-01
         0.99519E-01
         0.59508E-01
         0.12045E-01
        -0.19665E-01
        -0.38168E-01
        -0.44133E-01
        -0.36836E-01
        -0.19082E-01
        -0.31470E-02
         0.58857E-02
         0.89625E-02
         0.80213E-02
         0.75459E-02
         0.12746E-01
  
SCALARS                      strain_zz  double 1
LOOKUP_TABLE default
        -0.23429E+00
        -0.24995E+00
        -0.24289E+00
        -0.23322E+00
        -0.14060E-09
        -0.14172E-09
        -0.14188E-09
        -0.14516E-09
        -0.23907E+00
        -0.24096E+00
        -0.13906E-09
        -0.15867E-09
        -0.23806E+00
        -0.23200E+00
        -0.14205E-09
        -0.14807E-09
        -0.23087E+00
        -0.23605E+00
        -0.13191E-09
        -0.14034E-09
        -0.21348E+00
        -0.17946E+00
        -0.22540E+00
        -0.12988E-09
        -0.93671E-10
        -0.10869E-09
        -0.19991E+00
        -0.12068E+00
        -0.13006E-09
        -0.77926E-10
        -0.22376E+00
        -0.23981E+00
        -0.22722E+00
        -0.14032E-09
        -0.13856E-09
        -0.12957E-09
        -0.24224E+00
        -0.25312E+00
        -0.15495E-09
        -0.14826E-09
        -0.27848E+00
        -0.25241E+00
        -0.14298E-09
        -0.12775E-09
        -0.28767E+00
        -0.24863E+00
        -0.15727E-09
        -0.16449E-09
        -0.24724E+00
        -0.14241E-09
        -0.24341E+00
        -0.16980E-09
        -0.19468E+00
        -0.11936E-09
        -0.18266E+00
        -0.11003E-09
        -0.14194E+00
        -0.23704E+00
        -0.94268E-10
        -0.14072E-09
        -0.24167E+00
        -0.26013E+00
        -0.15222E-09
        -0.18694E-09
        -0.23384E+00
        -0.15191E-09
        -0.22979E+00
        -0.17940E-09
        -0.24160E+00
        -0.23490E+00
        -0.12227E-09
        -0.12094E-09
        -0.23188E+00
        -0.11484E-09
        -0.52693E-01
        -0.56395E-10
         0.14234E-01
        -0.37159E-10
         0.88026E-01
        -0.18395E-10
         0.13174E+00
        -0.51901E-01
        -0.70890E-11
        -0.57335E-10
        -0.18035E+00
        -0.10656E-09
        -0.29388E+00
        -0.17496E-09
        -0.30154E+00
        -0.19969E-09
        -0.31277E+00
        -0.28675E+00
        -0.21230E-09
        -0.20498E-09
        -0.25766E+00
        -0.17845E-09
        -0.23518E+00
        -0.18079E-09
        -0.22993E+00
        -0.20385E-09
        -0.24058E+00
        -0.24087E+00
        -0.20706E-09
        -0.19105E-09
        -0.27482E+00
        -0.34258E+00
        -0.86393E-10
        -0.99840E-10
        -0.18746E+00
        -0.70287E-10
        -0.15460E+00
        -0.60799E-10
        -0.11122E+00
        -0.53361E-10
         0.18344E-01
        -0.37228E-10
         0.19329E+00
        -0.16521E-10
         0.38667E+00
         0.75854E-12
         0.81390E+00
         0.21129E-10
         0.93791E+00
         0.39746E-10
         0.39658E+00
         0.32570E-10
         0.23697E-02
        -0.10371E-10
        -0.13158E+00
        -0.55020E-10
        -0.25236E+00
        -0.80083E-10
        -0.34716E+00
        -0.96332E-10
        -0.39180E+00
        -0.11173E-09
        -0.43737E+00
        -0.12702E-09
        -0.42964E+00
        -0.15381E-09
        -0.37635E+00
        -0.17992E-09
        -0.32990E+00
        -0.16775E-09
        -0.28725E+00
        -0.14873E-09
        -0.25747E+00
        -0.15196E-09
        -0.26251E+00
        -0.16658E-09
        -0.28263E+00
        -0.17224E-09
        -0.29131E+00
        -0.14726E-09
        -0.28867E+00
        -0.11637E-09
        -0.70445E-01
        -0.98127E-01
        -0.91319E-01
        -0.59542E-01
        -0.10502E+00
        -0.48763E-01
        -0.11612E+00
        -0.93665E-01
        -0.57760E-01
        -0.78920E-01
        -0.12292E+00
        -0.12382E+00
        -0.13455E+00
        -0.10877E+00
        -0.91435E-01
        -0.62839E-01
        -0.56097E-01
        -0.59717E-01
        -0.62237E-01
        -0.61191E-01
        -0.73943E-01
        -0.67996E-01
        -0.71514E-01
        -0.68371E-01
        -0.76485E-01
        -0.64101E-01
        -0.93482E-01
        -0.79990E-01
        -0.53988E-01
        -0.71819E-01
        -0.52752E-01
        -0.36951E-01
        -0.43467E-01
        -0.22691E-01
        -0.15603E+00
        -0.14225E+00
        -0.13439E+00
        -0.48574E-01
         0.17882E-02
         0.73526E-01
         0.13738E+00
         0.54295E-02
        -0.51087E-01
        -0.48913E-01
        -0.15586E-02
         0.54347E-01
         0.41983E-01
         0.42594E-01
         0.61845E-01
         0.76603E-01
         0.75550E-01
         0.73828E-02
        -0.25395E+00
        -0.19929E+00
        -0.22549E+00
        -0.18695E+00
        -0.15519E+00
        -0.11209E+00
        -0.29012E-01
         0.10889E+00
         0.35568E+00
         0.66538E+00
         0.58227E+00
         0.16043E+00
        -0.44072E-03
        -0.81335E-01
        -0.11205E+00
        -0.92744E-01
        -0.38769E-01
         0.61983E-01
         0.14957E+00
         0.21407E+00
         0.30354E+00
         0.39030E+00
         0.35534E+00
         0.18461E+00
         0.26091E-01
        -0.94238E-01
        -0.79098E-02
        -0.29319E-01
        -0.23398E-01
         0.54697E-02
        -0.23258E-01
         0.21449E-01
        -0.40793E-01
        -0.21218E-01
         0.37782E-02
        -0.47818E-02
        -0.57710E-01
        -0.89023E-01
        -0.71815E-01
        -0.49996E-01
        -0.94922E-01
        -0.22180E-02
         0.10594E-01
         0.35983E-02
         0.46406E-02
         0.14364E-01
         0.17841E-01
         0.10893E-01
         0.23111E-01
         0.47092E-02
         0.35364E-02
         0.99942E-02
        -0.38894E-01
        -0.34480E-01
        -0.42240E-01
        -0.22857E-02
         0.22766E-01
         0.40312E-01
         0.29570E-01
         0.44822E-01
        -0.63593E-01
        -0.64680E-01
        -0.65333E-01
        -0.87707E-01
        -0.78061E-01
        -0.76231E-01
        -0.86594E-01
        -0.65648E-01
        -0.23082E-01
         0.42367E-01
         0.77528E-01
         0.10996E+00
         0.90937E-01
         0.81909E-01
         0.91166E-01
         0.94912E-01
         0.79502E-01
         0.57701E-01
        -0.12516E+00
        -0.59809E-01
        -0.14150E+00
        -0.12437E+00
        -0.12246E+00
        -0.14382E+00
        -0.16060E+00
        -0.14517E+00
        -0.10981E+00
        -0.11142E+00
        -0.12972E+00
        -0.11287E+00
        -0.63269E-01
        -0.32704E-02
         0.35449E-01
         0.61878E-01
         0.98977E-01
         0.14871E+00
         0.17215E+00
         0.16920E+00
         0.17642E+00
         0.19757E+00
         0.14370E+00
         0.34786E-01
         0.24375E-01
         0.61018E-02
         0.38254E-02
        -0.22754E-02
         0.14808E-02
         0.13088E-01
         0.70813E-02
         0.16693E-01
        -0.47650E-02
         0.29140E-02
         0.87035E-02
         0.10120E-01
        -0.11033E-01
        -0.30295E-01
        -0.17269E-01
        -0.72267E-02
        -0.40256E-01
         0.13369E-01
         0.13775E-01
         0.14841E-01
         0.14782E-01
         0.18764E-01
         0.25870E-01
         0.20436E-01
         0.23523E-01
         0.15914E-01
         0.15388E-01
         0.17279E-01
        -0.38253E-02
        -0.46262E-02
        -0.13913E-01
         0.12614E-01
         0.21610E-01
         0.18585E-01
         0.20757E-01
         0.18880E-01
        -0.24962E-02
        -0.67439E-02
        -0.10750E-01
        -0.46497E-01
        -0.50883E-01
        -0.58184E-01
        -0.70789E-01
        -0.39258E-01
        -0.32983E-02
         0.18880E-01
         0.11840E-01
        -0.31735E-02
        -0.32359E-02
        -0.71903E-02
        -0.96227E-02
        -0.57442E-02
        -0.21150E-02
         0.14248E-01
        -0.81883E-02
         0.10577E-01
        -0.17016E-01
        -0.22402E-01
        -0.38695E-01
        -0.70750E-01
        -0.10583E+00
        -0.12153E+00
        -0.12349E+00
        -0.13075E+00
        -0.12819E+00
        -0.10369E+00
        -0.48174E-01
         0.13873E-01
         0.45927E-01
         0.42275E-01
         0.21866E-01
        -0.47546E-02
        -0.33454E-01
        -0.63675E-01
        -0.87017E-01
        -0.87585E-01
        -0.65859E-01
        -0.31496E-01
         0.16621E-02
         0.18471E-01
         0.76586E-02
         0.72171E-02
         0.78001E-02
         0.90267E-02
         0.87080E-02
         0.26305E-02
         0.84389E-02
         0.10564E-01
         0.91394E-02
         0.12812E-01
         0.70932E-02
        -0.21605E-02
         0.46006E-02
         0.82112E-02
        -0.10351E-01
         0.10980E-01
         0.12007E-01
         0.10799E-01
         0.13006E-01
         0.16409E-01
         0.21066E-01
         0.19738E-01
         0.17374E-01
         0.13014E-01
         0.15904E-01
         0.11376E-01
         0.81948E-02
         0.72430E-02
         0.35710E-02
         0.16352E-01
         0.92200E-02
         0.57419E-02
         0.60260E-02
        -0.44272E-03
         0.11739E-01
         0.10442E-01
         0.79297E-02
        -0.18819E-01
        -0.24182E-01
        -0.26941E-01
        -0.30659E-01
        -0.87902E-02
         0.94957E-02
         0.92466E-02
        -0.26089E-02
        -0.18286E-01
        -0.16901E-01
        -0.21182E-01
        -0.30175E-01
        -0.35826E-01
        -0.39109E-01
        -0.14402E-01
         0.16688E-01
         0.82043E-02
         0.17761E-01
         0.11131E-01
        -0.26353E-02
        -0.24732E-01
        -0.54606E-01
        -0.77231E-01
        -0.86398E-01
        -0.86557E-01
        -0.70497E-01
        -0.45796E-01
        -0.15436E-01
         0.20560E-01
         0.38178E-01
         0.29183E-01
         0.55503E-02
        -0.22151E-01
        -0.46045E-01
        -0.66492E-01
        -0.88938E-01
        -0.10840E+00
        -0.10804E+00
        -0.83490E-01
        -0.45483E-01
        -0.10939E-01
         0.41980E-02
         0.37768E-02
         0.23964E-02
         0.20706E-02
         0.13182E-02
        -0.10156E-02
         0.58081E-02
         0.75812E-02
         0.55130E-02
         0.10054E-01
         0.60691E-02
         0.11394E-02
         0.36645E-02
         0.73731E-02
        -0.41885E-02
         0.33725E-02
         0.78642E-02
         0.28478E-02
         0.66590E-02
         0.11095E-01
         0.11317E-01
         0.12448E-01
         0.83601E-02
         0.53500E-02
         0.12919E-01
         0.33375E-02
         0.80270E-02
         0.69537E-02
         0.19110E-02
         0.12567E-01
         0.16308E-02
         0.17635E-02
         0.68899E-03
        -0.13036E-02
         0.28515E-02
         0.34045E-02
         0.37288E-02
        -0.13000E-01
        -0.21958E-01
        -0.29287E-01
        -0.36532E-01
        -0.12405E-01
         0.53966E-02
         0.47226E-02
         0.17511E-02
        -0.32327E-03
        -0.47782E-03
        -0.20162E-02
        -0.55358E-02
        -0.91497E-02
        -0.11666E-01
        -0.57148E-02
         0.39435E-02
        -0.23409E-03
         0.56740E-02
         0.45246E-02
        -0.37416E-04
        -0.11153E-01
        -0.33097E-01
        -0.62136E-01
        -0.89194E-01
        -0.10139E+00
        -0.87543E-01
        -0.53487E-01
        -0.14286E-01
         0.12833E-01
         0.20875E-01
         0.16064E-01
         0.77196E-02
         0.70986E-03
        -0.28509E-02
        -0.43408E-02
        -0.94207E-02
        -0.19531E-01
        -0.26703E-01
        -0.24299E-01
        -0.15192E-01
        -0.62705E-02
         0.10485E-02
         0.10424E-02
         0.98916E-04
        -0.56405E-03
        -0.16809E-03
        -0.26488E-03
         0.25095E-02
         0.34754E-02
         0.18151E-02
         0.53060E-02
         0.32041E-02
         0.14403E-02
         0.19967E-02
         0.41511E-02
        -0.16076E-02
        -0.16954E-03
         0.33637E-02
        -0.66493E-03
         0.23312E-02
         0.55162E-02
         0.49749E-02
         0.68094E-02
         0.27234E-02
         0.11718E-02
         0.72853E-02
        -0.11874E-03
         0.50698E-02
         0.45774E-02
         0.94356E-03
         0.71056E-02
        -0.93568E-03
        -0.10779E-03
        -0.85606E-03
        -0.23082E-03
         0.28783E-03
         0.65267E-03
         0.12854E-02
        -0.78382E-02
        -0.14808E-01
        -0.20917E-01
        -0.26573E-01
        -0.85690E-02
         0.33162E-02
         0.12298E-02
         0.13452E-02
         0.27962E-02
         0.24294E-02
         0.23136E-02
         0.24878E-02
         0.26301E-02
         0.26832E-02
         0.76598E-03
         0.58614E-03
        -0.17873E-03
         0.14370E-02
         0.19685E-02
         0.15105E-02
        -0.27969E-02
        -0.16665E-01
        -0.41575E-01
        -0.68215E-01
        -0.80631E-01
        -0.68675E-01
        -0.36310E-01
        -0.57705E-02
         0.87199E-02
         0.10014E-01
         0.63142E-02
         0.36552E-02
         0.38656E-02
         0.59870E-02
         0.85917E-02
         0.10505E-01
         0.10877E-01
         0.92553E-02
         0.59044E-02
         0.23223E-02
         0.13184E-03
        -0.34373E-04
         0.56791E-04
        -0.22198E-03
        -0.63376E-03
        -0.11054E-03
        -0.95782E-04
         0.67776E-03
         0.10677E-02
         0.27729E-03
         0.19747E-02
         0.11580E-02
         0.78977E-03
         0.68881E-03
         0.16817E-02
        -0.17778E-03
        -0.54877E-03
         0.10410E-02
        -0.78745E-03
         0.65797E-03
         0.22547E-02
         0.19904E-02
         0.33943E-02
         0.56301E-03
         0.10517E-04
         0.30465E-02
        -0.58305E-03
         0.23376E-02
         0.23855E-02
         0.96202E-03
         0.32856E-02
        -0.88222E-03
        -0.57922E-03
        -0.77665E-03
        -0.27828E-03
         0.11441E-03
         0.15066E-03
         0.32970E-03
        -0.28174E-02
        -0.59905E-02
        -0.87937E-02
        -0.11470E-01
        -0.30878E-02
         0.22176E-02
        -0.19559E-03
        -0.91848E-04
         0.56610E-03
         0.46695E-03
         0.49094E-03
         0.82025E-03
         0.13224E-02
         0.17435E-02
         0.62521E-03
         0.43771E-03
         0.22612E-03
         0.68486E-03
         0.85370E-03
         0.95376E-03
        -0.66533E-04
        -0.54525E-02
        -0.17733E-01
        -0.32050E-01
        -0.38520E-01
        -0.32533E-01
        -0.15656E-01
        -0.35737E-03
         0.54174E-02
         0.43374E-02
         0.17121E-02
         0.38824E-03
         0.72351E-03
         0.18338E-02
         0.29299E-02
         0.38148E-02
         0.46047E-02
         0.49392E-02
         0.40147E-02
         0.21958E-02
         0.68947E-03
        -0.91410E-04
        -0.11638E-03
        -0.16247E-03
        -0.24062E-03
        -0.11149E-03
        -0.24404E-03
         0.43389E-04
         0.21455E-03
         0.60971E-04
         0.57680E-03
         0.17096E-03
         0.16868E-04
        -0.71980E-05
         0.34421E-03
        -0.33228E-03
        -0.16821E-03
         0.38526E-03
        -0.24127E-03
         0.24601E-03
         0.87821E-03
         0.58068E-03
         0.12295E-02
         0.31697E-04
        -0.42349E-04
         0.10488E-02
        -0.27430E-03
         0.55485E-03
         0.63683E-03
         0.30912E-03
         0.12684E-02
        -0.40532E-03
        -0.44424E-03
        -0.41436E-03
        -0.43582E-03
        -0.40444E-04
        -0.81361E-04
        -0.85019E-04
        -0.13571E-02
        -0.25621E-02
        -0.34146E-02
        -0.41024E-02
        -0.93573E-03
         0.98862E-03
        -0.32285E-03
        -0.50758E-03
        -0.58072E-03
        -0.58137E-03
        -0.68245E-03
        -0.83529E-03
        -0.88228E-03
        -0.84659E-03
        -0.50027E-03
         0.10792E-03
         0.14025E-04
         0.65082E-04
        -0.12344E-04
        -0.25403E-04
        -0.33078E-03
        -0.20561E-02
        -0.63791E-02
        -0.11881E-01
        -0.14272E-01
        -0.11511E-01
        -0.51954E-02
         0.88283E-04
         0.15137E-02
         0.93103E-03
         0.13330E-03
        -0.39845E-03
        -0.61899E-03
        -0.64991E-03
        -0.77063E-03
        -0.12954E-02
        -0.18607E-02
        -0.18705E-02
        -0.13321E-02
        -0.67202E-03
        -0.20352E-03
         0.71748E-04
         0.57390E-04
         0.48939E-04
         0.88285E-04
        -0.11727E-03
        -0.49256E-03
         0.10018E-03
         0.14826E-03
         0.16402E-03
         0.35854E-03
         0.15107E-03
         0.17186E-03
         0.21751E-03
         0.20298E-03
        -0.14606E-03
         0.15794E-03
         0.36455E-03
         0.14630E-03
         0.33375E-03
         0.59314E-03
         0.31947E-03
         0.37482E-03
         0.32822E-03
         0.25007E-03
         0.65093E-03
         0.14681E-03
         0.34089E-03
         0.46847E-03
         0.50232E-03
         0.81536E-03
         0.41514E-04
         0.13804E-04
        -0.14582E-04
        -0.36578E-03
         0.27378E-04
         0.96587E-04
         0.15394E-03
        -0.68639E-03
        -0.11157E-02
        -0.11098E-02
        -0.89939E-03
         0.20752E-03
         0.48607E-03
         0.24581E-03
         0.64459E-04
        -0.14878E-03
        -0.28186E-03
        -0.50899E-03
        -0.94693E-03
        -0.15584E-02
        -0.21607E-02
        -0.12804E-02
         0.47391E-04
        -0.46114E-03
         0.22684E-03
         0.38465E-03
         0.54202E-03
         0.29096E-03
        -0.10787E-02
        -0.36885E-02
        -0.61192E-02
        -0.60694E-02
        -0.31240E-02
        -0.10270E-02
        -0.10820E-02
        -0.78905E-03
         0.29272E-04
         0.51692E-03
         0.57399E-03
         0.24650E-03
        -0.26117E-03
        -0.89700E-03
        -0.18808E-02
        -0.31784E-02
        -0.42420E-02
        -0.42804E-02
        -0.31768E-02
        -0.16112E-02
         0.16559E-03
         0.16997E-03
         0.16202E-03
         0.19986E-03
        -0.58078E-04
        -0.27589E-03
         0.19831E-03
         0.23596E-03
         0.23321E-03
         0.40016E-03
         0.22782E-03
         0.18862E-03
         0.29160E-03
         0.26791E-03
        -0.18274E-03
         0.20834E-03
         0.38477E-03
         0.22822E-03
         0.31945E-03
         0.54651E-03
         0.35122E-03
         0.41801E-03
         0.31252E-03
         0.24426E-03
         0.58391E-03
         0.19694E-03
         0.32105E-03
         0.20239E-03
        -0.14175E-03
         0.58998E-03
         0.13295E-03
         0.15456E-03
         0.10974E-03
        -0.91257E-04
         0.64138E-04
         0.19833E-03
         0.26532E-03
        -0.85046E-03
        -0.17175E-02
        -0.24245E-02
        -0.27072E-02
        -0.83081E-03
         0.18628E-03
         0.31090E-03
         0.27891E-03
         0.18506E-03
        -0.11580E-04
        -0.27155E-03
        -0.55972E-03
        -0.86683E-03
        -0.12166E-02
        -0.71168E-03
        -0.34370E-04
        -0.57605E-03
         0.30945E-03
         0.50985E-03
         0.58157E-03
         0.16679E-03
        -0.13861E-02
        -0.41105E-02
        -0.72447E-02
        -0.88464E-02
        -0.64599E-02
        -0.26923E-02
        -0.10712E-02
        -0.18208E-03
         0.32787E-03
         0.50150E-03
         0.63444E-03
         0.57751E-03
         0.26700E-03
        -0.36302E-03
        -0.12746E-02
        -0.21680E-02
        -0.26124E-02
        -0.25187E-02
        -0.20362E-02
        -0.12945E-02
         0.14718E-03
         0.12588E-03
         0.12151E-03
         0.14758E-03
        -0.13149E-04
        -0.15301E-04
         0.13284E-03
         0.18601E-03
         0.16095E-03
         0.25243E-03
         0.10511E-03
        -0.82350E-04
         0.40578E-05
         0.10407E-03
        -0.37643E-03
         0.11278E-03
         0.20353E-03
         0.14979E-03
         0.10663E-03
         0.28857E-03
         0.24315E-03
         0.43269E-03
         0.13953E-03
         0.92137E-04
         0.37324E-03
         0.11227E-03
         0.31074E-04
        -0.82552E-04
        -0.33529E-03
         0.38513E-03
         0.13720E-03
         0.13529E-03
         0.94973E-04
         0.35863E-04
         0.62465E-05
         0.80946E-04
         0.55802E-04
        -0.10450E-02
        -0.18678E-02
        -0.24954E-02
        -0.27212E-02
        -0.81717E-03
         0.30671E-03
         0.10260E-03
         0.89235E-04
         0.31698E-04
         0.31030E-04
        -0.38527E-04
        -0.12530E-03
        -0.14723E-03
        -0.14492E-03
        -0.64781E-04
        -0.11545E-03
        -0.35147E-03
         0.74486E-04
        -0.19761E-04
        -0.23391E-03
        -0.51143E-03
        -0.13843E-02
        -0.32247E-02
        -0.57406E-02
        -0.73901E-02
        -0.59026E-02
        -0.17319E-02
         0.58267E-03
         0.89707E-03
         0.65176E-03
         0.30065E-03
         0.86858E-04
        -0.31998E-04
        -0.12457E-03
        -0.24718E-03
        -0.44963E-03
        -0.58728E-03
        -0.46082E-03
        -0.26050E-03
        -0.24042E-03
        -0.35648E-03
         0.83606E-04
         0.71296E-04
        -0.58141E-05
         0.20621E-04
        -0.16358E-03
        -0.23071E-03
         0.11496E-03
         0.12223E-03
         0.53843E-04
         0.12073E-03
         0.11058E-03
         0.19596E-04
         0.58451E-04
         0.11640E-03
        -0.14591E-03
         0.86725E-04
         0.39620E-04
         0.97141E-04
         0.32000E-04
         0.10816E-03
         0.13837E-03
         0.25765E-03
         0.13639E-03
         0.80305E-04
         0.20672E-03
         0.12296E-03
         0.17186E-03
         0.37257E-03
         0.65403E-03
         0.34757E-03
         0.16392E-03
         0.11087E-03
         0.11017E-03
        -0.53239E-04
        -0.10857E-03
        -0.34145E-04
         0.17295E-04
        -0.20675E-03
         0.21173E-03
         0.10136E-02
         0.15953E-02
         0.95613E-03
         0.50890E-03
         0.12297E-03
         0.35346E-05
        -0.18044E-03
        -0.57023E-04
         0.12520E-03
         0.17501E-03
        -0.41959E-05
        -0.21292E-03
        -0.27222E-03
        -0.15718E-03
        -0.41021E-03
        -0.59288E-04
        -0.68682E-04
        -0.64624E-04
        -0.17676E-03
        -0.85931E-03
        -0.15764E-02
        -0.49592E-03
         0.24057E-02
         0.37650E-02
         0.18297E-02
         0.83703E-03
         0.60424E-03
         0.44767E-03
         0.32670E-03
         0.15781E-03
        -0.21204E-03
        -0.56652E-03
        -0.45364E-03
         0.10640E-03
         0.50992E-03
         0.21414E-03
        -0.30114E-03
        -0.58370E-03
        -0.63101E-03
        -0.44793E-04
        -0.19785E-04
        -0.10471E-03
        -0.78758E-04
        -0.17175E-03
        -0.16864E-03
         0.42062E-04
         0.10583E-04
        -0.54040E-04
        -0.95083E-05
         0.57629E-04
         0.54454E-04
         0.14364E-03
         0.71952E-04
        -0.39221E-04
         0.99896E-05
        -0.10209E-03
         0.31730E-05
        -0.58977E-04
        -0.14553E-03
        -0.27375E-04
        -0.33468E-04
        -0.26783E-04
        -0.17041E-04
        -0.10343E-03
         0.24682E-04
         0.16767E-03
         0.27220E-03
         0.43723E-03
        -0.16486E-03
         0.56291E-04
         0.25056E-05
         0.67909E-04
         0.29307E-04
        -0.14241E-03
        -0.72869E-04
         0.57313E-04
         0.33915E-03
         0.12249E-02
         0.22552E-02
         0.28171E-02
         0.80177E-03
        -0.44417E-04
        -0.64666E-05
        -0.70442E-04
        -0.19708E-03
        -0.13523E-03
         0.22588E-04
         0.19516E-03
         0.24127E-03
         0.16611E-03
        -0.41834E-04
        -0.14198E-03
        -0.19500E-03
        -0.40245E-04
         0.19163E-03
         0.37011E-03
         0.61111E-04
        -0.60816E-03
         0.67597E-04
         0.32312E-02
         0.73346E-02
         0.75824E-02
         0.20303E-02
         0.37142E-03
         0.39415E-03
         0.49238E-04
        -0.50035E-04
        -0.58757E-04
        -0.19110E-03
        -0.41478E-03
        -0.43269E-03
        -0.26303E-04
         0.50328E-03
         0.60977E-03
         0.29172E-03
        -0.17654E-03
        -0.31838E-03
        -0.10878E-03
        -0.74451E-04
        -0.10950E-03
        -0.75087E-04
        -0.31979E-04
         0.24267E-03
        -0.15399E-04
        -0.69825E-04
        -0.11860E-03
        -0.14545E-03
         0.37252E-04
         0.16698E-03
         0.11261E-03
        -0.35702E-05
         0.24401E-03
        -0.71337E-04
        -0.16741E-03
        -0.95926E-04
        -0.11271E-03
        -0.26660E-03
        -0.18105E-03
        -0.28550E-03
        -0.17711E-03
        -0.87558E-04
        -0.31051E-03
        -0.74188E-04
        -0.90925E-04
        -0.25563E-03
        -0.41532E-03
        -0.48245E-03
        -0.77397E-04
        -0.10936E-03
        -0.81973E-05
         0.19731E-03
        -0.14384E-03
        -0.95892E-04
         0.19254E-04
         0.48380E-03
         0.64532E-03
         0.57479E-03
         0.48969E-03
        -0.38688E-03
        -0.50152E-03
        -0.16370E-03
        -0.16312E-03
        -0.16575E-03
        -0.13807E-03
        -0.46857E-04
         0.19116E-03
         0.56819E-03
         0.91390E-03
         0.62582E-03
        -0.20573E-03
         0.12880E-03
        -0.60229E-04
         0.21355E-03
         0.39382E-03
         0.47322E-03
         0.81478E-03
         0.23387E-02
         0.42621E-02
         0.45230E-02
         0.29273E-02
         0.50429E-03
         0.26682E-05
        -0.10453E-03
        -0.39930E-03
        -0.48025E-03
        -0.40149E-03
        -0.25187E-03
        -0.16822E-03
        -0.14819E-03
         0.17787E-04
         0.48952E-03
         0.11854E-02
         0.16209E-02
         0.14234E-02
         0.80793E-03
        -0.15045E-03
        -0.17688E-03
        -0.26296E-03
        -0.26489E-03
        -0.22240E-03
         0.70640E-04
        -0.14597E-03
        -0.14913E-03
        -0.10695E-03
        -0.19334E-03
        -0.11736E-03
        -0.29191E-04
        -0.17005E-03
        -0.14190E-03
         0.24852E-03
        -0.88669E-04
        -0.73334E-04
        -0.21885E-03
        -0.12644E-04
        -0.10897E-03
        -0.11373E-03
        -0.24344E-03
        -0.12917E-03
        -0.45772E-04
        -0.25530E-03
        -0.11695E-03
        -0.26463E-03
        -0.42937E-03
        -0.57639E-03
        -0.33874E-03
        -0.21674E-03
        -0.20165E-03
        -0.20866E-03
        -0.24622E-04
        -0.33350E-03
        -0.29020E-03
        -0.21201E-03
         0.34410E-03
         0.59471E-04
        -0.33919E-03
        -0.54896E-03
        -0.71519E-03
        -0.49648E-03
        -0.19944E-03
        -0.23689E-03
        -0.13985E-03
        -0.41597E-04
         0.87159E-04
         0.28755E-03
         0.58786E-03
         0.93503E-03
         0.52464E-03
        -0.38659E-03
        -0.10777E-04
        -0.34799E-03
        -0.25935E-03
        -0.24715E-03
         0.11282E-03
         0.13624E-02
         0.28664E-02
         0.29999E-02
         0.18620E-02
         0.39853E-03
        -0.65584E-03
        -0.75532E-03
        -0.55726E-03
        -0.43282E-03
        -0.40447E-03
        -0.41234E-03
        -0.32153E-03
        -0.61119E-05
         0.50774E-03
         0.95953E-03
         0.14027E-02
         0.18187E-02
         0.19415E-02
         0.16983E-02
         0.87286E-03
        -0.17808E-03
        -0.28030E-03
        -0.31296E-03
        -0.33268E-03
        -0.26894E-03
        -0.15156E-03
        -0.35025E-03
        -0.23602E-03
        -0.99340E-04
        -0.16140E-03
        -0.41251E-03
        -0.50656E-03
        -0.54153E-03
        -0.32940E-03
        -0.21209E-03
        -0.11741E-03
        -0.47793E-04
        -0.27304E-03
         0.19394E-04
        -0.43363E-04
         0.26225E-04
        -0.10399E-03
         0.48577E-04
         0.89220E-05
        -0.12274E-03
        -0.71400E-04
        -0.25169E-03
        -0.18048E-03
        -0.37907E-04
        -0.87769E-04
        -0.19430E-03
        -0.48902E-04
        -0.26103E-03
        -0.16673E-03
        -0.32841E-03
        -0.37641E-03
        -0.43132E-03
        -0.56366E-04
        -0.75544E-04
         0.14037E-03
         0.58066E-03
         0.25132E-03
        -0.49868E-04
         0.21770E-05
         0.71137E-04
         0.30666E-03
         0.34480E-03
         0.38810E-03
         0.47144E-03
         0.56666E-03
         0.66776E-03
         0.17523E-03
        -0.29084E-03
        -0.38372E-04
        -0.47366E-03
        -0.63038E-03
        -0.86754E-03
        -0.65879E-03
         0.39272E-03
         0.94820E-03
         0.60158E-03
         0.10877E-02
         0.21250E-02
         0.12458E-02
        -0.19607E-04
        -0.25139E-03
         0.29888E-04
         0.11624E-03
         0.89346E-04
         0.22456E-03
         0.65828E-03
         0.12883E-02
         0.18477E-02
         0.22347E-02
         0.22046E-02
         0.15873E-02
         0.89255E-03
         0.33094E-03
        -0.96353E-04
        -0.17922E-03
        -0.16369E-03
        -0.14489E-03
        -0.40962E-04
         0.11763E-03
        -0.22613E-03
        -0.13485E-03
        -0.71368E-04
        -0.84337E-04
        -0.27820E-03
        -0.37948E-03
        -0.40821E-03
        -0.18387E-03
        -0.52627E-04
        -0.14061E-03
        -0.89509E-04
        -0.17608E-03
        -0.86480E-04
        -0.12340E-03
         0.27105E-04
         0.14459E-05
        -0.11928E-04
        -0.83331E-04
        -0.39868E-04
        -0.11095E-03
         0.28695E-04
         0.35979E-03
         0.74019E-03
         0.45551E-04
        -0.99447E-04
        -0.14487E-04
        -0.44403E-04
         0.14486E-03
        -0.15773E-03
        -0.27597E-03
        -0.35485E-03
         0.66073E-03
         0.16168E-02
         0.24008E-02
         0.28980E-02
         0.14211E-02
         0.37745E-03
        -0.23609E-04
         0.12474E-03
         0.37857E-03
         0.36494E-03
         0.46328E-03
         0.73731E-03
         0.99433E-03
         0.11328E-02
         0.52002E-03
        -0.12853E-03
         0.21264E-03
        -0.46550E-03
        -0.65673E-03
        -0.71782E-03
        -0.52448E-03
         0.39560E-03
         0.22105E-02
         0.51717E-02
         0.74135E-02
         0.66152E-02
         0.40011E-02
         0.15820E-02
         0.66912E-03
         0.45655E-03
         0.20471E-03
         0.12924E-03
         0.39520E-03
         0.80381E-03
         0.11566E-02
         0.17153E-02
         0.25363E-02
         0.28866E-02
         0.22322E-02
         0.12071E-02
         0.56318E-03
        -0.13174E-03
        -0.10694E-03
        -0.13867E-03
        -0.21308E-03
         0.18238E-04
         0.16834E-03
        -0.51572E-04
        -0.83956E-04
        -0.18868E-03
        -0.21086E-03
        -0.27663E-04
        -0.25466E-04
        -0.12212E-03
        -0.42090E-04
         0.21334E-03
        -0.27106E-03
        -0.29758E-03
        -0.26995E-03
        -0.26359E-03
        -0.40902E-03
        -0.43323E-04
        -0.14648E-03
        -0.15464E-03
        -0.24416E-03
        -0.39751E-03
        -0.27443E-03
        -0.65989E-04
        -0.67644E-04
        -0.49536E-04
        -0.51017E-03
        -0.22947E-03
        -0.19248E-03
        -0.14698E-03
         0.11726E-03
        -0.29586E-04
        -0.13671E-03
        -0.17105E-03
         0.78970E-03
         0.15313E-02
         0.18414E-02
         0.17988E-02
         0.30747E-03
        -0.21819E-03
        -0.24212E-03
        -0.11840E-03
         0.15662E-03
         0.18560E-03
         0.31018E-03
         0.62617E-03
         0.10338E-02
         0.13631E-02
         0.67587E-03
         0.10132E-03
         0.40196E-03
        -0.18054E-03
        -0.37419E-03
        -0.34482E-03
        -0.99187E-04
         0.73662E-03
         0.29966E-02
         0.64662E-02
         0.80906E-02
         0.53503E-02
         0.22646E-02
         0.12039E-02
         0.11119E-02
         0.74824E-03
         0.11586E-03
        -0.22042E-03
         0.44180E-04
         0.59280E-03
         0.10389E-02
         0.15790E-02
         0.23830E-02
         0.30259E-02
         0.27587E-02
         0.17360E-02
         0.84230E-03
        -0.15130E-03
        -0.76949E-04
        -0.15857E-03
        -0.38565E-03
         0.53906E-04
         0.10800E-03
         0.64974E-04
         0.31581E-04
        -0.20122E-03
        -0.75079E-04
         0.13342E-03
         0.12758E-03
         0.38125E-04
         0.11200E-03
         0.19023E-03
        -0.36968E-03
        -0.19632E-03
        -0.47497E-03
        -0.10142E-03
        -0.97290E-04
         0.22765E-03
         0.19052E-03
         0.97385E-04
        -0.12523E-03
        -0.21111E-03
        -0.30060E-03
        -0.58921E-05
        -0.25809E-03
        -0.61938E-03
        -0.32084E-03
        -0.47171E-03
        -0.27076E-03
        -0.45109E-03
        -0.13372E-03
         0.97585E-04
        -0.38924E-04
        -0.63663E-04
         0.29392E-03
         0.18745E-03
        -0.32200E-03
        -0.94188E-03
        -0.10990E-02
        -0.39301E-03
        -0.75231E-04
         0.26382E-04
         0.48596E-03
         0.44259E-03
         0.43683E-03
         0.60250E-03
         0.96497E-03
         0.13804E-02
         0.61084E-03
         0.37924E-03
         0.61527E-03
         0.73186E-04
        -0.14423E-03
        -0.10733E-03
         0.58667E-05
         0.24152E-03
         0.12454E-02
         0.23917E-02
         0.19186E-02
        -0.40288E-03
        -0.21610E-02
        -0.37695E-03
         0.95027E-03
         0.93192E-03
         0.58741E-03
         0.26859E-03
         0.53894E-03
         0.13982E-02
         0.22818E-02
         0.28126E-02
         0.31794E-02
         0.34869E-02
         0.31303E-02
         0.20521E-02
         0.10537E-02
         0.13854E-04
         0.26632E-04
        -0.14004E-03
        -0.44171E-03
         0.20863E-03
         0.49934E-03
         0.23478E-03
         0.22868E-03
         0.89777E-04
         0.19390E-03
         0.27245E-03
         0.31989E-03
         0.23667E-03
         0.16594E-03
         0.17807E-03
        -0.29528E-03
         0.28396E-03
        -0.56284E-03
         0.41068E-03
         0.54449E-03
         0.88622E-03
         0.57202E-03
         0.81735E-03
         0.29127E-03
         0.23239E-03
        -0.14906E-03
        -0.33751E-05
        -0.86875E-04
        -0.19345E-03
         0.23074E-03
        -0.60191E-03
        -0.21479E-04
        -0.56342E-03
         0.53691E-04
         0.55304E-04
        -0.12393E-03
        -0.33654E-04
         0.16666E-03
         0.33357E-03
         0.38298E-03
        -0.26091E-04
        -0.83567E-03
        -0.32772E-03
         0.57856E-03
         0.98023E-03
         0.23010E-02
         0.19907E-02
         0.17363E-02
         0.18277E-02
         0.22753E-02
         0.29078E-02
         0.14601E-02
         0.20018E-03
         0.10982E-02
        -0.33469E-03
        -0.27099E-03
         0.23998E-03
         0.46378E-03
         0.46728E-03
         0.15264E-02
         0.35816E-02
         0.45554E-02
         0.19308E-02
        -0.29257E-02
        -0.24887E-02
         0.18949E-03
         0.17002E-02
         0.20376E-02
         0.19176E-02
         0.28708E-02
         0.51264E-02
         0.71921E-02
         0.78943E-02
         0.77935E-02
         0.73692E-02
         0.60948E-02
         0.41693E-02
         0.23771E-02
        -0.18972E-03
        -0.51082E-03
        -0.89992E-03
        -0.79144E-03
        -0.57280E-03
         0.58995E-03
        -0.29047E-03
         0.72730E-05
         0.20252E-03
         0.30342E-03
        -0.37727E-03
        -0.63724E-03
        -0.59006E-03
        -0.34968E-03
        -0.92147E-03
        -0.48925E-03
         0.68173E-03
        -0.82423E-03
         0.81406E-03
         0.99025E-03
         0.17481E-02
         0.85042E-04
         0.20210E-02
         0.64074E-03
         0.43402E-03
        -0.71899E-04
        -0.45330E-03
        -0.10290E-02
        -0.27915E-02
        -0.29661E-03
        -0.58702E-03
         0.76529E-03
        -0.54459E-03
         0.38674E-03
        -0.14043E-02
        -0.14123E-02
        -0.94918E-03
        -0.13996E-02
        -0.26098E-02
        -0.52547E-02
        -0.88694E-02
        -0.70949E-02
        -0.34985E-02
         0.19690E-02
         0.34111E-02
         0.66128E-02
         0.55156E-02
         0.44348E-02
         0.39803E-02
         0.42505E-02
         0.49967E-02
         0.25133E-02
        -0.18826E-02
         0.60152E-03
        -0.24259E-02
        -0.16230E-02
        -0.91322E-03
        -0.86391E-03
        -0.12227E-02
        -0.15073E-02
        -0.28703E-02
        -0.79136E-02
        -0.15472E-01
        -0.18362E-01
        -0.12372E-01
        -0.25659E-02
         0.36648E-02
         0.55139E-02
         0.61319E-02
         0.88308E-02
         0.13542E-01
         0.16962E-01
         0.16799E-01
         0.14751E-01
         0.12643E-01
         0.99334E-02
         0.66807E-02
         0.35729E-02
        -0.12854E-02
        -0.25285E-02
        -0.35823E-02
        -0.22635E-02
        -0.34678E-02
        -0.75525E-03
        -0.18737E-02
        -0.50838E-03
         0.14019E-03
         0.97209E-03
        -0.19503E-02
        -0.35203E-02
        -0.32838E-02
        -0.11641E-02
        -0.39831E-02
        -0.11597E-02
         0.17774E-02
        -0.17473E-02
         0.16524E-02
         0.27527E-02
         0.35909E-02
         0.25629E-03
         0.38352E-02
         0.10239E-02
         0.15896E-02
        -0.65163E-04
        -0.94335E-03
        -0.34902E-02
        -0.10848E-01
        -0.10268E-02
        -0.35155E-03
         0.25643E-02
        -0.40964E-03
         0.61908E-03
        -0.54204E-02
        -0.51260E-02
        -0.39178E-02
        -0.61610E-02
        -0.12951E-01
        -0.24621E-01
        -0.36694E-01
        -0.25231E-01
        -0.10551E-01
         0.44013E-02
         0.82159E-02
         0.14830E-01
         0.12311E-01
         0.96204E-02
         0.79246E-02
         0.71654E-02
         0.71641E-02
         0.29338E-02
        -0.66317E-02
        -0.17490E-02
        -0.72699E-02
        -0.54874E-02
        -0.51400E-02
        -0.64821E-02
        -0.89043E-02
        -0.14232E-01
        -0.28032E-01
        -0.50612E-01
        -0.66846E-01
        -0.58863E-01
        -0.33410E-01
        -0.75191E-02
         0.61448E-02
         0.10278E-01
         0.13209E-01
         0.19731E-01
         0.28444E-01
         0.33440E-01
         0.31168E-01
         0.25351E-01
         0.19361E-01
         0.13405E-01
         0.75902E-02
         0.29422E-02
        -0.12796E-02
        -0.32645E-02
        -0.48722E-02
        -0.27459E-02
        -0.49607E-02
        -0.14386E-02
        -0.19960E-02
         0.33589E-03
         0.10652E-02
         0.29808E-02
        -0.16451E-02
        -0.37693E-02
        -0.39602E-02
        -0.24506E-04
        -0.39347E-02
        -0.86926E-03
         0.38017E-02
        -0.16639E-02
         0.30543E-02
         0.57542E-02
         0.53013E-02
         0.25181E-02
         0.45959E-02
         0.16747E-02
         0.43552E-02
         0.50815E-03
         0.78572E-03
        -0.36440E-02
        -0.16794E-01
         0.35335E-03
         0.61052E-03
         0.44487E-02
         0.49664E-03
         0.14166E-02
        -0.72309E-02
        -0.67975E-02
        -0.50954E-02
        -0.74543E-02
        -0.19978E-01
        -0.39295E-01
        -0.55146E-01
        -0.37814E-01
        -0.13656E-01
         0.56771E-02
         0.11160E-01
         0.19692E-01
         0.17037E-01
         0.13702E-01
         0.11291E-01
         0.95694E-02
         0.86941E-02
         0.34296E-02
        -0.76449E-02
        -0.21824E-02
        -0.80464E-02
        -0.58432E-02
        -0.55280E-02
        -0.73413E-02
        -0.11069E-01
        -0.20462E-01
        -0.42410E-01
        -0.71395E-01
        -0.86974E-01
        -0.73111E-01
        -0.40798E-01
        -0.92356E-02
         0.60679E-02
         0.10694E-01
         0.15541E-01
         0.24362E-01
         0.35406E-01
         0.41845E-01
         0.38988E-01
         0.31359E-01
         0.22908E-01
         0.15057E-01
         0.80451E-02
         0.28461E-02
  
SCALARS                      strain_yz  double 1
LOOKUP_TABLE default
         0.29485E-01
         0.35029E-01
         0.11615E-01
         0.33849E-01
         0.49746E-10
         0.56278E-10
         0.86239E-10
         0.59573E-10
        -0.93804E-01
        -0.75560E-01
         0.57629E-10
         0.40558E-10
         0.42008E-01
         0.31022E-01
         0.49278E-10
        -0.11411E-10
         0.34464E-02
         0.34325E-01
        -0.15328E-10
         0.17303E-10
         0.65230E-01
         0.88204E-01
         0.40461E-01
         0.17202E-10
         0.44926E-10
         0.45112E-10
         0.79758E-01
         0.13914E+00
         0.61115E-10
         0.74369E-10
        -0.13132E-01
        -0.45809E-02
         0.13659E-01
         0.58620E-11
         0.26694E-10
        -0.15104E-10
        -0.26143E-01
        -0.10151E-01
         0.16583E-10
         0.27608E-10
        -0.31231E-02
        -0.24031E-02
        -0.31080E-10
        -0.56259E-10
         0.58433E-01
         0.10741E-02
        -0.22854E-10
         0.19609E-11
         0.48200E-01
         0.26750E-10
         0.22983E-01
        -0.16898E-10
         0.11261E+00
         0.59740E-10
         0.13817E+00
         0.52931E-10
         0.12967E+00
         0.42614E-01
         0.64589E-12
        -0.76572E-11
         0.47407E-01
         0.62912E-01
         0.71610E-11
        -0.59199E-10
         0.55310E-01
         0.73090E-10
         0.17668E-01
         0.47022E-10
        -0.13467E+00
        -0.53027E-01
        -0.22770E-11
         0.42653E-10
         0.30109E-02
         0.56599E-10
         0.19212E+00
         0.75067E-10
         0.22326E+00
         0.66687E-10
         0.21534E+00
        -0.31246E-11
         0.20347E+00
         0.13862E+00
        -0.10160E-10
        -0.34996E-10
         0.64777E-01
        -0.69561E-10
         0.12759E+00
        -0.16479E-12
         0.16317E+00
        -0.27078E-10
         0.18152E+00
         0.13381E+00
        -0.10515E-09
        -0.63808E-10
         0.11145E+00
         0.36705E-10
         0.61365E-01
         0.47286E-10
        -0.15977E-01
         0.30855E-10
        -0.10644E+00
        -0.94352E-01
        -0.41684E-10
         0.37779E-10
        -0.31632E+00
        -0.32811E+00
        -0.20907E-09
        -0.17614E-09
        -0.16243E+00
        -0.32837E-10
        -0.60120E-01
         0.87622E-11
         0.13040E-01
        -0.54693E-11
         0.11312E+00
         0.68066E-11
         0.16588E+00
         0.86831E-11
         0.15692E+00
         0.18457E-10
        -0.73877E-01
        -0.16953E-11
        -0.17168E-01
         0.10952E-09
         0.28210E+00
         0.32016E-09
         0.35692E+00
         0.26770E-09
         0.29116E+00
         0.14440E-09
         0.19172E+00
         0.85886E-10
         0.16587E+00
         0.74047E-10
         0.22562E+00
         0.69543E-10
         0.34715E+00
         0.87721E-10
         0.39744E+00
         0.14568E-09
         0.31091E+00
         0.83454E-11
         0.22560E+00
        -0.61913E-10
         0.13333E+00
        -0.57158E-10
        -0.16676E-01
        -0.14383E-09
        -0.14080E+00
        -0.21039E-09
        -0.23944E+00
        -0.29970E-09
        -0.28232E+00
        -0.25654E-09
        -0.29024E+00
        -0.19312E-09
         0.19231E-01
         0.19233E-01
        -0.10992E-01
         0.29977E-01
        -0.12107E+00
        -0.10467E+00
         0.46159E-01
         0.37011E-01
         0.54771E-02
         0.44051E-01
         0.10656E+00
         0.16481E+00
         0.71305E-01
         0.13457E+00
         0.26202E+00
         0.75672E-02
        -0.12913E-01
         0.28540E-01
        -0.17111E-01
        -0.79975E-02
         0.30056E-01
         0.43506E-01
         0.10516E+00
         0.40615E-01
         0.60617E-01
         0.73885E-01
         0.17721E+00
         0.21407E+00
         0.23921E+00
         0.90813E-01
         0.62213E-01
         0.10999E+00
         0.40869E-01
        -0.13059E-01
        -0.14132E+00
        -0.55016E-01
         0.11022E-01
         0.33365E+00
         0.36793E+00
         0.37024E+00
         0.34898E+00
         0.27444E+00
         0.15452E+00
         0.17955E+00
         0.21020E+00
         0.20232E+00
         0.12577E+00
         0.52869E-01
        -0.37520E-01
        -0.15733E+00
        -0.26733E+00
        -0.16101E+00
        -0.28202E+00
        -0.34532E+00
        -0.14280E+00
        -0.32814E-01
         0.76886E-01
         0.20796E+00
         0.33653E+00
         0.41480E+00
         0.38314E+00
         0.21840E+00
         0.22037E+00
         0.33383E+00
         0.25249E+00
         0.15150E+00
         0.14000E+00
         0.23596E+00
         0.36559E+00
         0.39185E+00
         0.27519E+00
         0.13230E+00
        -0.39747E-01
        -0.32310E+00
        -0.63139E+00
        -0.64777E+00
        -0.46409E+00
        -0.36881E+00
         0.88973E-02
        -0.35528E-02
        -0.22271E-01
         0.84089E-02
        -0.95532E-01
        -0.10335E+00
         0.12798E-01
         0.12292E-01
         0.83316E-02
         0.17060E-01
         0.58032E-01
         0.96490E-01
         0.21172E-01
         0.84771E-01
         0.19152E+00
         0.26953E-01
        -0.86309E-02
         0.26806E-01
         0.76653E-02
        -0.30250E-02
         0.59895E-01
         0.82003E-01
         0.84386E-01
         0.48009E-01
         0.28336E-01
         0.56129E-01
         0.11951E+00
         0.15969E+00
         0.21567E+00
         0.73428E-01
         0.12107E-01
         0.30456E-01
        -0.20008E-01
        -0.68729E-01
        -0.10876E+00
        -0.59708E-01
        -0.19399E-01
         0.26610E+00
         0.31765E+00
         0.36503E+00
         0.39939E+00
         0.31201E+00
         0.18665E+00
         0.89598E-01
         0.50698E-01
        -0.13567E-01
        -0.54820E-01
        -0.11448E+00
        -0.19325E+00
        -0.27166E+00
        -0.32431E+00
        -0.18270E+00
        -0.19467E+00
        -0.23890E+00
        -0.12294E+00
        -0.51156E-01
         0.16455E-01
         0.11557E+00
         0.25054E+00
         0.37285E+00
         0.43442E+00
         0.45508E+00
         0.43725E+00
         0.43105E+00
         0.36192E+00
         0.25372E+00
         0.18351E+00
         0.16586E+00
         0.15053E+00
         0.69058E-01
        -0.51036E-01
        -0.16221E+00
        -0.29727E+00
        -0.49995E+00
        -0.69198E+00
        -0.64000E+00
        -0.41570E+00
        -0.28624E+00
        -0.70938E-02
        -0.10659E-01
        -0.70749E-02
        -0.47458E-02
        -0.38435E-02
        -0.76693E-02
        -0.47087E-02
        -0.75055E-02
        -0.72437E-02
        -0.73705E-02
         0.20474E-01
         0.46314E-01
         0.38954E-02
         0.34039E-01
         0.10574E+00
         0.65236E-02
        -0.17365E-01
         0.65398E-03
        -0.34858E-02
        -0.15429E-01
         0.25026E-01
         0.48241E-01
         0.14125E-01
         0.98221E-02
        -0.28999E-02
         0.73981E-02
         0.55761E-01
         0.85564E-01
         0.12856E+00
         0.26073E-01
        -0.20609E-01
        -0.22469E-01
        -0.32294E-01
        -0.31608E-01
        -0.94888E-02
        -0.11807E-01
        -0.10582E-01
         0.16443E+00
         0.21898E+00
         0.27146E+00
         0.31051E+00
         0.21433E+00
         0.11637E+00
        -0.48105E-02
        -0.39113E-01
        -0.81870E-01
        -0.89236E-01
        -0.10173E+00
        -0.10520E+00
        -0.87954E-01
        -0.61537E-01
        -0.24969E-01
        -0.11258E-01
        -0.30661E-03
        -0.11516E-01
        -0.86130E-02
         0.75381E-02
         0.62586E-01
         0.16064E+00
         0.27029E+00
         0.35665E+00
         0.40886E+00
         0.42170E+00
         0.39328E+00
         0.30409E+00
         0.19942E+00
         0.99121E-01
         0.24279E-01
        -0.31684E-01
        -0.82679E-01
        -0.12802E+00
        -0.16588E+00
        -0.17827E+00
        -0.16693E+00
        -0.13787E+00
        -0.78426E-01
        -0.11026E-01
         0.97788E-02
        -0.11817E-01
        -0.87269E-02
        -0.87769E-03
        -0.72653E-02
         0.19743E-01
         0.19649E-01
        -0.80876E-02
        -0.12941E-01
        -0.15051E-01
        -0.16352E-01
         0.33795E-02
         0.18426E-01
        -0.83825E-03
         0.86311E-02
         0.50893E-01
        -0.93038E-02
        -0.22192E-01
        -0.11043E-01
        -0.14245E-01
        -0.22330E-01
         0.17794E-02
         0.16495E-01
        -0.58964E-02
        -0.77546E-02
        -0.15713E-01
        -0.79402E-02
         0.20657E-01
         0.40482E-01
         0.69198E-01
         0.10597E-02
        -0.14760E-01
        -0.15351E-01
        -0.16357E-01
        -0.50262E-02
         0.19980E-01
         0.62162E-02
        -0.29029E-02
         0.92304E-01
         0.13840E+00
         0.18199E+00
         0.21122E+00
         0.12848E+00
         0.59694E-01
        -0.14217E-01
        -0.23373E-01
        -0.33158E-01
        -0.31039E-01
        -0.30079E-01
        -0.22501E-01
        -0.15766E-02
         0.24509E-01
         0.24701E-01
         0.42595E-01
         0.57651E-01
         0.23138E-01
         0.59370E-02
         0.44450E-02
         0.30470E-01
         0.89787E-01
         0.17604E+00
         0.26991E+00
         0.33875E+00
         0.34182E+00
         0.27781E+00
         0.19925E+00
         0.11872E+00
         0.46251E-01
        -0.35514E-02
        -0.33524E-01
        -0.46658E-01
        -0.50608E-01
        -0.53208E-01
        -0.43974E-01
        -0.19747E-01
         0.17716E-01
         0.57203E-01
         0.77374E-01
         0.71588E-01
        -0.92810E-02
        -0.73244E-02
        -0.42268E-02
        -0.52990E-02
         0.24666E-02
         0.39759E-02
        -0.87187E-02
        -0.12342E-01
        -0.12146E-01
        -0.16047E-01
        -0.56198E-02
         0.70954E-03
        -0.53280E-02
        -0.45260E-02
         0.14857E-01
        -0.88775E-02
        -0.16831E-01
        -0.74951E-02
        -0.12364E-01
        -0.17416E-01
        -0.43172E-02
         0.38099E-02
        -0.61415E-02
        -0.84763E-02
        -0.16908E-01
        -0.63411E-02
         0.60443E-03
         0.12288E-01
         0.34132E-01
        -0.58574E-02
        -0.33751E-02
        -0.26753E-02
        -0.33639E-02
        -0.75520E-03
         0.21158E-02
        -0.21551E-02
        -0.50427E-02
         0.39171E-01
         0.72428E-01
         0.10923E+00
         0.13990E+00
         0.82236E-01
         0.33420E-01
        -0.58599E-02
        -0.31163E-02
         0.19032E-03
         0.22739E-02
         0.31267E-02
         0.36374E-02
         0.63215E-02
         0.10960E-01
         0.75128E-02
         0.91278E-02
         0.14320E-01
         0.34073E-02
        -0.16686E-02
        -0.27913E-02
         0.61370E-02
         0.33369E-01
         0.88274E-01
         0.16811E+00
         0.23910E+00
         0.25772E+00
         0.20619E+00
         0.12594E+00
         0.60071E-01
         0.19552E-01
        -0.12156E-02
        -0.88454E-02
        -0.71174E-02
        -0.11594E-02
         0.32148E-02
         0.54982E-02
         0.75404E-02
         0.13680E-01
         0.21317E-01
         0.22653E-01
         0.18909E-01
        -0.46093E-02
        -0.39333E-02
        -0.30385E-02
        -0.17287E-02
        -0.25511E-02
        -0.96867E-03
        -0.51784E-02
        -0.71034E-02
        -0.58913E-02
        -0.93154E-02
        -0.53440E-02
        -0.36883E-02
        -0.37332E-02
        -0.59622E-02
        -0.77924E-03
        -0.35311E-02
        -0.78957E-02
        -0.23281E-02
        -0.56761E-02
        -0.85658E-02
        -0.37127E-02
        -0.49742E-03
        -0.42095E-02
        -0.42972E-02
        -0.10261E-01
        -0.26353E-02
        -0.49757E-02
        -0.24329E-03
         0.10949E-01
        -0.54618E-02
         0.86666E-03
         0.42682E-03
         0.11841E-02
         0.71688E-03
        -0.33107E-02
        -0.33062E-02
        -0.32345E-02
         0.88634E-02
         0.25905E-01
         0.46777E-01
         0.66002E-01
         0.36950E-01
         0.12954E-01
        -0.30748E-02
        -0.47530E-03
         0.20591E-02
         0.40936E-02
         0.52767E-02
         0.44558E-02
         0.23878E-02
         0.52927E-03
        -0.39447E-04
        -0.34366E-02
        -0.29680E-02
        -0.23105E-02
        -0.12482E-02
        -0.12675E-02
        -0.14157E-02
         0.38357E-02
         0.28710E-01
         0.77002E-01
         0.12406E+00
         0.13906E+00
         0.10777E+00
         0.57533E-01
         0.20898E-01
         0.27033E-02
        -0.43510E-02
        -0.55415E-02
        -0.32245E-02
         0.44722E-03
         0.37896E-02
         0.46738E-02
         0.16106E-02
        -0.19375E-02
        -0.27073E-02
        -0.23627E-02
        -0.22944E-02
        -0.18100E-02
        -0.14321E-02
        -0.85678E-03
         0.85959E-04
        -0.56534E-04
         0.12554E-02
        -0.19205E-02
        -0.28566E-02
        -0.19562E-02
        -0.37003E-02
        -0.25484E-02
        -0.21701E-02
        -0.92512E-03
        -0.36191E-02
        -0.38733E-02
        -0.50024E-03
        -0.22191E-02
        -0.20897E-03
        -0.13081E-02
        -0.27635E-02
        -0.19253E-02
        -0.17232E-02
        -0.22663E-02
        -0.12985E-02
        -0.43971E-02
        -0.59796E-03
        -0.45542E-02
        -0.41093E-02
        -0.12300E-02
        -0.38466E-02
         0.13772E-02
         0.56595E-03
         0.18698E-02
         0.21750E-02
        -0.47652E-03
        -0.67428E-03
        -0.61584E-03
        -0.36551E-02
         0.34476E-03
         0.69307E-02
         0.13602E-01
         0.62841E-02
         0.53743E-03
        -0.19376E-02
        -0.96405E-03
        -0.25445E-03
         0.15000E-02
         0.29185E-02
         0.33598E-02
         0.31818E-02
         0.27832E-02
         0.23816E-02
         0.19675E-04
         0.48032E-04
         0.92603E-03
         0.19356E-02
         0.21548E-02
         0.16280E-03
        -0.27494E-02
         0.44435E-03
         0.14275E-01
         0.31723E-01
         0.37516E-01
         0.27604E-01
         0.12283E-01
         0.12598E-02
        -0.33070E-02
        -0.50849E-02
        -0.56169E-02
        -0.48789E-02
        -0.33981E-02
        -0.13034E-02
         0.48324E-03
         0.53485E-03
         0.16223E-03
         0.92472E-03
         0.13611E-02
         0.79604E-03
        -0.90933E-03
        -0.58554E-03
        -0.16443E-03
         0.33208E-03
         0.12076E-02
         0.24425E-02
        -0.54618E-03
        -0.10513E-02
        -0.54593E-03
        -0.11690E-02
        -0.95711E-03
        -0.74135E-03
         0.34556E-03
        -0.19748E-02
        -0.35410E-02
         0.15586E-03
        -0.22316E-04
         0.65300E-04
         0.29350E-03
        -0.26035E-03
        -0.14320E-03
        -0.12160E-02
        -0.92443E-03
        -0.30944E-03
        -0.15905E-02
        -0.29468E-03
        -0.34420E-02
        -0.48608E-02
        -0.61753E-02
        -0.28274E-02
         0.93389E-03
         0.10885E-03
         0.15562E-02
         0.25500E-02
         0.10215E-02
         0.42597E-03
         0.37767E-03
        -0.70979E-02
        -0.95461E-02
        -0.10993E-01
        -0.11752E-01
        -0.79936E-02
        -0.45089E-02
        -0.14747E-02
        -0.13120E-02
        -0.12393E-02
         0.30727E-03
         0.19211E-02
         0.32592E-02
         0.44988E-02
         0.54089E-02
         0.42176E-02
         0.24424E-02
         0.26528E-02
         0.26488E-02
         0.32418E-02
         0.35717E-02
         0.19040E-02
        -0.26363E-02
        -0.91214E-02
        -0.14048E-01
        -0.15347E-01
        -0.16665E-01
        -0.13097E-01
        -0.72355E-02
        -0.29675E-02
        -0.11424E-02
        -0.25796E-02
        -0.44619E-02
        -0.50017E-02
        -0.46435E-02
        -0.30350E-02
        -0.40557E-03
         0.20546E-02
         0.44343E-02
         0.64211E-02
         0.59469E-02
         0.38989E-02
        -0.91775E-03
        -0.46744E-03
         0.41903E-04
         0.11683E-03
         0.24230E-02
         0.37412E-02
        -0.22404E-03
        -0.71706E-03
        -0.32555E-03
        -0.58482E-03
        -0.57188E-03
        -0.17608E-03
         0.10085E-02
        -0.17507E-02
        -0.37228E-02
        -0.78629E-04
         0.51309E-03
        -0.27870E-03
         0.74794E-03
         0.61295E-03
         0.15506E-02
         0.25298E-03
         0.49988E-03
         0.56751E-04
        -0.86686E-03
        -0.35095E-03
        -0.35453E-02
        -0.56307E-02
        -0.83030E-02
        -0.25424E-02
         0.53361E-03
         0.11626E-05
         0.12944E-02
         0.28417E-02
         0.23047E-02
         0.11697E-02
         0.96029E-03
        -0.88269E-02
        -0.13608E-01
        -0.17932E-01
        -0.21324E-01
        -0.13066E-01
        -0.54209E-02
        -0.49039E-03
        -0.56737E-03
        -0.52477E-03
         0.56720E-03
         0.21671E-02
         0.40052E-02
         0.60522E-02
         0.78840E-02
         0.60144E-02
         0.48030E-02
         0.59991E-02
         0.43433E-02
         0.46513E-02
         0.49812E-02
         0.31254E-02
        -0.26351E-02
        -0.12628E-01
        -0.23933E-01
        -0.32413E-01
        -0.37029E-01
        -0.27198E-01
        -0.10192E-01
         0.55918E-03
         0.38093E-02
         0.18213E-02
        -0.10147E-02
        -0.25027E-02
        -0.31022E-02
        -0.21087E-02
         0.72140E-03
         0.42508E-02
         0.80769E-02
         0.11140E-01
         0.10737E-01
         0.81176E-02
        -0.10580E-02
        -0.54105E-03
        -0.33968E-04
        -0.26991E-05
         0.26463E-02
         0.41214E-02
        -0.20294E-03
        -0.70793E-03
        -0.29261E-03
        -0.43684E-03
        -0.61028E-03
        -0.19946E-03
         0.12468E-02
        -0.19742E-02
        -0.45814E-02
         0.11357E-03
         0.87884E-03
        -0.37993E-03
         0.12305E-02
         0.11996E-02
         0.15074E-02
         0.29797E-03
         0.50259E-03
         0.39069E-03
        -0.62633E-03
        -0.57688E-04
        -0.40564E-02
        -0.64296E-02
        -0.92396E-02
        -0.23061E-02
         0.79753E-03
         0.38843E-03
         0.15750E-02
         0.32194E-02
         0.25079E-02
         0.13179E-02
         0.11714E-02
        -0.10952E-01
        -0.16826E-01
        -0.21542E-01
        -0.24543E-01
        -0.14054E-01
        -0.54917E-02
        -0.29230E-03
        -0.88351E-04
         0.32465E-03
         0.14511E-02
         0.31470E-02
         0.51108E-02
         0.71350E-02
         0.88553E-02
         0.66397E-02
         0.51509E-02
         0.66774E-02
         0.48067E-02
         0.52631E-02
         0.56322E-02
         0.33777E-02
        -0.38578E-02
        -0.17038E-01
        -0.31993E-01
        -0.41629E-01
        -0.43204E-01
        -0.29041E-01
        -0.11713E-01
        -0.19761E-02
         0.16980E-02
         0.67683E-03
        -0.12315E-02
        -0.18792E-02
        -0.17304E-02
        -0.40429E-03
         0.24973E-02
         0.60140E-02
         0.95695E-02
         0.12302E-01
         0.11773E-01
         0.91163E-02
        -0.10383E-02
        -0.73365E-03
        -0.30128E-03
         0.95290E-04
         0.19303E-02
         0.35929E-02
        -0.37587E-03
        -0.62795E-03
        -0.85370E-04
        -0.22672E-03
        -0.90213E-03
        -0.97854E-03
         0.58227E-03
        -0.21999E-02
        -0.56591E-02
         0.56247E-03
         0.14383E-02
        -0.14386E-03
         0.17918E-02
         0.18621E-02
         0.98234E-03
        -0.36473E-03
        -0.95664E-04
         0.61775E-03
        -0.41904E-03
         0.19777E-03
        -0.45233E-02
        -0.75402E-02
        -0.11219E-01
        -0.23881E-02
         0.13041E-02
         0.67764E-03
         0.21322E-02
         0.36191E-02
         0.17629E-02
         0.73556E-03
         0.54938E-03
        -0.12809E-01
        -0.20151E-01
        -0.26728E-01
        -0.31040E-01
        -0.17500E-01
        -0.69664E-02
        -0.80150E-03
        -0.38332E-03
         0.31123E-03
         0.19289E-02
         0.39717E-02
         0.59847E-02
         0.76799E-02
         0.87939E-02
         0.63542E-02
         0.39736E-02
         0.47542E-02
         0.36859E-02
         0.37946E-02
         0.40542E-02
         0.17470E-02
        -0.60988E-02
        -0.20978E-01
        -0.39465E-01
        -0.53577E-01
        -0.56210E-01
        -0.37342E-01
        -0.17622E-01
        -0.73186E-02
        -0.22919E-02
        -0.23190E-02
        -0.35486E-02
        -0.33347E-02
        -0.20873E-02
         0.11924E-03
         0.34007E-02
         0.67813E-02
         0.96640E-02
         0.11412E-01
         0.99717E-02
         0.68213E-02
        -0.83268E-03
        -0.64508E-03
        -0.23879E-03
         0.33102E-03
         0.21255E-02
         0.39850E-02
        -0.18552E-03
        -0.30636E-03
         0.12759E-03
         0.11715E-03
        -0.74619E-03
        -0.10595E-02
         0.43194E-03
        -0.20676E-02
        -0.59703E-02
         0.57732E-03
         0.17284E-02
        -0.35918E-04
         0.17677E-02
         0.21375E-02
         0.68338E-03
        -0.63151E-03
        -0.42553E-03
         0.45989E-03
        -0.87941E-04
         0.12490E-03
        -0.46446E-02
        -0.82029E-02
        -0.12918E-01
        -0.24235E-02
         0.14030E-02
         0.73648E-03
         0.22923E-02
         0.39195E-02
         0.16457E-02
         0.43392E-03
         0.22338E-03
        -0.13868E-01
        -0.22773E-01
        -0.31662E-01
        -0.38161E-01
        -0.21297E-01
        -0.81801E-02
        -0.10196E-02
        -0.40958E-03
         0.38790E-03
         0.20612E-02
         0.40592E-02
         0.59823E-02
         0.77616E-02
         0.90373E-02
         0.67562E-02
         0.37252E-02
         0.51211E-02
         0.27409E-02
         0.26619E-02
         0.32848E-02
         0.13131E-02
        -0.67040E-02
        -0.22830E-01
        -0.45158E-01
        -0.65441E-01
        -0.71769E-01
        -0.47132E-01
        -0.21148E-01
        -0.87933E-02
        -0.30503E-02
        -0.29977E-02
        -0.40879E-02
        -0.35083E-02
        -0.21346E-02
         0.49105E-04
         0.31113E-02
         0.61120E-02
         0.91485E-02
         0.11476E-01
         0.10325E-01
         0.73094E-02
        -0.52388E-03
        -0.17203E-03
         0.88035E-04
         0.52316E-03
         0.22917E-02
         0.41150E-02
         0.30250E-03
         0.51317E-04
         0.24401E-03
         0.45971E-03
        -0.36617E-03
        -0.65609E-03
         0.10877E-02
        -0.18130E-02
        -0.60488E-02
         0.42501E-03
         0.17857E-02
        -0.16299E-04
         0.16375E-02
         0.22957E-02
         0.61034E-03
        -0.49403E-03
        -0.75611E-03
         0.20684E-03
         0.40633E-03
        -0.72177E-04
        -0.43221E-02
        -0.75507E-02
        -0.12101E-01
        -0.18737E-02
         0.13350E-02
         0.69837E-03
         0.21862E-02
         0.37641E-02
         0.16680E-02
         0.68004E-03
         0.78078E-03
        -0.14359E-01
        -0.23236E-01
        -0.31723E-01
        -0.38087E-01
        -0.21004E-01
        -0.80391E-02
        -0.12926E-02
        -0.43911E-03
         0.54522E-03
         0.21597E-02
         0.39367E-02
         0.55579E-02
         0.71660E-02
         0.84773E-02
         0.65686E-02
         0.33158E-02
         0.51670E-02
         0.25863E-02
         0.32372E-02
         0.42398E-02
         0.19658E-02
        -0.70235E-02
        -0.25096E-01
        -0.49002E-01
        -0.69068E-01
        -0.73462E-01
        -0.48912E-01
        -0.22516E-01
        -0.86858E-02
        -0.32078E-02
        -0.35753E-02
        -0.46198E-02
        -0.35831E-02
        -0.18636E-02
         0.22993E-03
         0.28290E-02
         0.51554E-02
         0.79101E-02
         0.10614E-01
         0.10128E-01
         0.75613E-02
        -0.49018E-03
         0.38135E-04
         0.17212E-03
         0.40922E-03
         0.18478E-02
         0.31762E-02
         0.49726E-03
         0.98727E-04
         0.19479E-03
         0.46675E-03
        -0.22538E-03
        -0.41401E-03
         0.16144E-02
        -0.17441E-02
        -0.60802E-02
         0.23606E-03
         0.16069E-02
        -0.77443E-04
         0.14528E-02
         0.20300E-02
         0.76611E-03
        -0.52079E-03
        -0.66723E-03
         0.54677E-04
         0.35202E-03
        -0.22868E-03
        -0.41229E-02
        -0.70143E-02
        -0.11018E-01
        -0.19076E-02
         0.12731E-02
         0.67317E-03
         0.20549E-02
         0.32920E-02
         0.17184E-02
         0.11279E-02
         0.13927E-02
        -0.14180E-01
        -0.22147E-01
        -0.29042E-01
        -0.33888E-01
        -0.19029E-01
        -0.78335E-02
        -0.12323E-02
        -0.33841E-03
         0.73196E-03
         0.23156E-02
         0.40018E-02
         0.53653E-02
         0.64523E-02
         0.71247E-02
         0.52834E-02
         0.33297E-02
         0.38221E-02
         0.35967E-02
         0.45899E-02
         0.54191E-02
         0.25581E-02
        -0.73764E-02
        -0.25901E-01
        -0.48132E-01
        -0.64152E-01
        -0.64402E-01
        -0.44481E-01
        -0.22062E-01
        -0.76163E-02
        -0.22502E-02
        -0.28499E-02
        -0.40201E-02
        -0.32141E-02
        -0.15331E-02
         0.60906E-03
         0.31354E-02
         0.50813E-02
         0.69349E-02
         0.84797E-02
         0.73362E-02
         0.50790E-02
        -0.54523E-03
         0.33712E-05
         0.30663E-03
         0.52199E-03
         0.18409E-02
         0.29319E-02
         0.39622E-03
        -0.11195E-04
         0.87160E-04
         0.27660E-03
        -0.21610E-03
        -0.31046E-03
         0.15319E-02
        -0.16346E-02
        -0.55384E-02
         0.16968E-03
         0.13097E-02
         0.83990E-05
         0.11578E-02
         0.15198E-02
         0.79767E-03
        -0.95708E-03
        -0.21516E-03
         0.88150E-04
        -0.12464E-04
        -0.70185E-04
        -0.39631E-02
        -0.69884E-02
        -0.11204E-01
        -0.24389E-02
         0.14062E-02
         0.87656E-03
         0.21763E-02
         0.33324E-02
         0.20300E-02
         0.14440E-02
         0.14465E-02
        -0.13018E-01
        -0.20620E-01
        -0.27740E-01
        -0.33025E-01
        -0.19277E-01
        -0.84560E-02
        -0.65786E-03
         0.72167E-04
         0.83968E-03
         0.22615E-02
         0.38680E-02
         0.52172E-02
         0.62324E-02
         0.67122E-02
         0.49421E-02
         0.38158E-02
         0.33067E-02
         0.43011E-02
         0.48085E-02
         0.53599E-02
         0.27522E-02
        -0.65230E-02
        -0.23329E-01
        -0.43162E-01
        -0.59001E-01
        -0.61683E-01
        -0.44317E-01
        -0.22543E-01
        -0.70540E-02
        -0.86059E-03
        -0.12458E-02
        -0.25492E-02
        -0.24449E-02
        -0.16038E-02
         0.61054E-04
         0.25032E-02
         0.45729E-02
         0.63949E-02
         0.76470E-02
         0.61691E-02
         0.38812E-02
        -0.53464E-03
        -0.22060E-03
         0.79836E-04
         0.55402E-03
         0.14559E-02
         0.27110E-02
         0.18553E-03
        -0.89859E-04
         0.17809E-03
         0.17207E-03
        -0.27303E-03
        -0.40748E-03
         0.10148E-02
        -0.15485E-02
        -0.50080E-02
         0.58863E-03
         0.14018E-02
         0.28569E-03
         0.14990E-02
         0.17040E-02
         0.13234E-02
        -0.45508E-03
         0.44139E-03
         0.63773E-03
        -0.62881E-04
         0.47585E-03
        -0.39345E-02
        -0.70441E-02
        -0.11276E-01
        -0.23148E-02
         0.15582E-02
         0.11189E-02
         0.20961E-02
         0.30608E-02
         0.14628E-02
         0.92160E-03
         0.88352E-03
        -0.12232E-01
        -0.20117E-01
        -0.27712E-01
        -0.33412E-01
        -0.19459E-01
        -0.81452E-02
        -0.65343E-04
         0.34102E-03
         0.61505E-03
         0.17690E-02
         0.30693E-02
         0.41945E-02
         0.51903E-02
         0.58484E-02
         0.45696E-02
         0.30056E-02
         0.26859E-02
         0.35181E-02
         0.38372E-02
         0.42688E-02
         0.22268E-02
        -0.56155E-02
        -0.20667E-01
        -0.40644E-01
        -0.58041E-01
        -0.62551E-01
        -0.45485E-01
        -0.22226E-01
        -0.61119E-02
         0.72882E-04
        -0.44187E-03
        -0.19806E-02
        -0.23086E-02
        -0.21919E-02
        -0.13155E-02
         0.60293E-03
         0.24201E-02
         0.43514E-02
         0.63975E-02
         0.58720E-02
         0.37425E-02
        -0.42072E-03
        -0.28514E-03
        -0.10927E-03
         0.43019E-03
         0.10294E-02
         0.20370E-02
         0.12015E-03
        -0.70258E-04
         0.38629E-03
         0.26197E-03
        -0.25129E-03
        -0.33509E-03
         0.76146E-03
        -0.14212E-02
        -0.45711E-02
         0.10523E-02
         0.17448E-02
         0.44716E-03
         0.20000E-02
         0.21352E-02
         0.12528E-02
        -0.47301E-03
         0.47056E-03
         0.10842E-02
         0.19299E-03
         0.80574E-03
        -0.37437E-02
        -0.68570E-02
        -0.11100E-01
        -0.18749E-02
         0.13870E-02
         0.99053E-03
         0.16026E-02
         0.22141E-02
         0.90157E-03
         0.40566E-03
         0.48422E-03
        -0.11875E-01
        -0.20324E-01
        -0.28455E-01
        -0.34307E-01
        -0.19375E-01
        -0.78327E-02
        -0.11146E-03
         0.36341E-04
         0.90923E-05
         0.10343E-02
         0.19956E-02
         0.26089E-02
         0.32082E-02
         0.37239E-02
         0.32529E-02
         0.21761E-02
         0.21581E-02
         0.23790E-02
         0.28900E-02
         0.36247E-02
         0.21315E-02
        -0.49256E-02
        -0.20165E-01
        -0.42269E-01
        -0.61875E-01
        -0.65639E-01
        -0.46103E-01
        -0.22915E-01
        -0.82001E-02
        -0.18329E-02
        -0.16748E-02
        -0.28693E-02
        -0.30408E-02
        -0.30224E-02
        -0.24406E-02
        -0.10939E-02
        -0.25791E-03
         0.83336E-03
         0.31423E-02
         0.37816E-02
         0.27520E-02
        -0.23536E-03
        -0.63091E-04
         0.13406E-03
         0.56230E-03
         0.98384E-03
         0.16488E-02
         0.15674E-03
        -0.62527E-04
         0.52417E-03
         0.39325E-03
        -0.21773E-03
        -0.12853E-03
         0.93045E-03
        -0.12119E-02
        -0.37919E-02
         0.11143E-02
         0.18781E-02
         0.58189E-03
         0.18951E-02
         0.21775E-02
         0.42111E-03
        -0.11742E-02
        -0.62192E-04
         0.88950E-03
         0.62745E-03
         0.62394E-03
        -0.30139E-02
        -0.54677E-02
        -0.91812E-02
        -0.11566E-02
         0.11296E-02
         0.57798E-03
         0.12884E-02
         0.16522E-02
         0.85774E-03
         0.57858E-03
         0.76315E-03
        -0.10069E-01
        -0.17415E-01
        -0.24758E-01
        -0.30517E-01
        -0.17073E-01
        -0.71717E-02
        -0.57334E-03
        -0.64211E-03
        -0.94711E-03
         0.16078E-03
         0.10772E-02
         0.14088E-02
         0.15974E-02
         0.18007E-02
         0.21304E-02
         0.17399E-02
         0.16590E-02
         0.23780E-02
         0.33831E-02
         0.41409E-02
         0.27163E-02
        -0.35224E-02
        -0.17216E-01
        -0.37213E-01
        -0.55309E-01
        -0.60288E-01
        -0.42439E-01
        -0.22781E-01
        -0.11139E-01
        -0.43942E-02
        -0.29237E-02
        -0.36913E-02
        -0.41812E-02
        -0.43986E-02
        -0.37941E-02
        -0.25482E-02
        -0.22587E-02
        -0.20675E-02
        -0.41129E-04
         0.16061E-02
         0.17511E-02
        -0.33247E-03
        -0.23797E-03
        -0.31412E-03
         0.28003E-03
        -0.47489E-03
         0.52896E-04
        -0.93617E-04
        -0.32303E-03
         0.38326E-03
         0.10916E-03
        -0.47147E-03
        -0.19127E-03
         0.77387E-03
        -0.13720E-02
        -0.33282E-02
         0.77697E-03
         0.14185E-02
         0.51081E-03
         0.11799E-02
         0.12406E-02
        -0.22059E-03
        -0.20803E-02
        -0.79575E-03
         0.17032E-03
         0.15589E-03
        -0.74091E-04
        -0.28839E-02
        -0.50607E-02
        -0.87281E-02
        -0.19599E-02
         0.42119E-03
        -0.42126E-03
         0.53201E-03
         0.38120E-03
        -0.68930E-03
        -0.17027E-03
         0.53119E-03
        -0.85593E-02
        -0.14727E-01
        -0.21402E-01
        -0.27239E-01
        -0.16390E-01
        -0.79321E-02
        -0.14917E-02
        -0.19127E-02
        -0.27405E-02
        -0.17082E-02
        -0.90058E-03
        -0.87616E-03
        -0.12504E-02
        -0.16182E-02
        -0.27502E-03
        -0.10250E-02
        -0.15863E-02
         0.11392E-02
         0.32921E-02
         0.43150E-02
         0.32425E-02
        -0.17920E-02
        -0.12974E-01
        -0.29653E-01
        -0.45657E-01
        -0.52764E-01
        -0.39271E-01
        -0.21811E-01
        -0.10198E-01
        -0.38874E-02
        -0.33075E-02
        -0.46384E-02
        -0.57272E-02
        -0.67134E-02
        -0.67720E-02
        -0.60082E-02
        -0.62590E-02
        -0.69829E-02
        -0.53559E-02
        -0.27753E-02
        -0.16507E-02
        -0.11671E-02
        -0.13572E-02
        -0.19687E-02
        -0.87262E-03
        -0.38888E-02
        -0.38302E-02
        -0.11759E-02
        -0.13864E-02
        -0.43715E-03
        -0.10240E-02
        -0.15562E-02
        -0.11809E-02
        -0.42907E-03
        -0.24299E-02
        -0.40163E-02
        -0.39632E-04
         0.33581E-03
        -0.12277E-03
         0.73763E-04
        -0.25518E-03
        -0.57439E-03
        -0.29552E-02
        -0.14999E-02
        -0.89478E-03
        -0.13057E-02
        -0.12533E-02
        -0.38948E-02
        -0.64164E-02
        -0.11069E-01
        -0.40918E-02
        -0.11999E-02
        -0.22667E-02
        -0.13428E-02
        -0.25237E-02
        -0.42066E-02
        -0.26598E-02
        -0.11375E-02
        -0.87970E-02
        -0.15104E-01
        -0.23046E-01
        -0.30563E-01
        -0.20222E-01
        -0.10590E-01
        -0.26506E-02
        -0.37963E-02
        -0.56797E-02
        -0.52857E-02
        -0.50749E-02
        -0.57539E-02
        -0.71717E-02
        -0.87446E-02
        -0.56290E-02
        -0.62633E-02
        -0.81057E-02
        -0.29227E-02
         0.65101E-03
         0.28320E-02
         0.25271E-02
        -0.17949E-02
        -0.11810E-01
        -0.28091E-01
        -0.46798E-01
        -0.57392E-01
        -0.46151E-01
        -0.23906E-01
        -0.69222E-02
        -0.99810E-03
        -0.24775E-02
        -0.50416E-02
        -0.72311E-02
        -0.99747E-02
        -0.12073E-01
        -0.12940E-01
        -0.14630E-01
        -0.17082E-01
        -0.16313E-01
        -0.12752E-01
        -0.98140E-02
        -0.65895E-03
        -0.76786E-03
        -0.95964E-03
         0.80174E-04
        -0.33625E-02
        -0.43005E-02
        -0.96179E-03
        -0.14503E-02
        -0.22563E-03
        -0.16773E-02
        -0.16143E-02
        -0.12771E-02
        -0.17077E-03
        -0.28536E-02
        -0.44507E-02
         0.41574E-03
        -0.21331E-03
         0.78561E-03
         0.21005E-03
        -0.12997E-02
         0.27083E-02
        -0.53457E-03
         0.22681E-02
         0.26657E-03
        -0.28097E-02
        -0.48552E-03
        -0.49230E-02
        -0.79778E-02
        -0.12221E-01
        -0.57368E-02
        -0.15735E-02
        -0.26151E-02
        -0.13855E-02
        -0.24451E-02
        -0.26827E-02
        -0.12119E-02
        -0.38432E-03
        -0.93824E-02
        -0.15375E-01
        -0.21991E-01
        -0.26955E-01
        -0.18162E-01
        -0.88148E-02
         0.21093E-03
        -0.28418E-02
        -0.71052E-02
        -0.85996E-02
        -0.91217E-02
        -0.90719E-02
        -0.95614E-02
        -0.11090E-01
        -0.68215E-02
        -0.39631E-02
        -0.90685E-02
        -0.28478E-03
         0.18247E-02
         0.30847E-02
         0.22969E-02
        -0.23217E-02
        -0.11556E-01
        -0.25423E-01
        -0.39820E-01
        -0.45664E-01
        -0.34079E-01
        -0.10597E-01
         0.80400E-02
         0.13236E-01
         0.97288E-02
         0.40687E-02
        -0.27590E-02
        -0.10994E-01
        -0.17800E-01
        -0.20413E-01
        -0.20852E-01
        -0.22013E-01
        -0.20864E-01
        -0.17224E-01
        -0.13478E-01
         0.67028E-02
         0.74569E-02
         0.94229E-02
         0.87020E-02
         0.84946E-02
         0.53554E-02
         0.54392E-02
         0.42928E-02
         0.56474E-02
         0.18049E-02
         0.31403E-02
         0.23180E-02
         0.56428E-02
         0.58517E-03
        -0.30306E-02
         0.67639E-02
         0.31426E-02
         0.78494E-02
         0.65279E-02
         0.27378E-03
         0.15350E-01
         0.77556E-02
         0.16639E-01
         0.93085E-02
        -0.31565E-02
         0.70729E-02
        -0.43467E-02
        -0.10400E-01
        -0.14653E-01
        -0.78648E-02
         0.25307E-02
         0.17747E-02
         0.40294E-02
         0.52755E-02
         0.11524E-01
         0.11407E-01
         0.86313E-02
        -0.10456E-01
        -0.17160E-01
        -0.21101E-01
        -0.20827E-01
        -0.13705E-01
        -0.38994E-02
         0.12033E-01
         0.41478E-02
        -0.55904E-02
        -0.10778E-01
        -0.12414E-01
        -0.93292E-02
        -0.51603E-02
        -0.39572E-02
         0.19607E-02
         0.13659E-01
         0.42609E-02
         0.16687E-01
         0.12408E-01
         0.80578E-02
         0.42174E-02
        -0.21730E-02
        -0.12048E-01
        -0.23315E-01
        -0.28766E-01
        -0.26349E-01
        -0.11959E-01
         0.15017E-01
         0.38115E-01
         0.45789E-01
         0.40062E-01
         0.27876E-01
         0.10748E-01
        -0.94820E-02
        -0.25861E-01
        -0.31216E-01
        -0.26909E-01
        -0.20749E-01
        -0.14367E-01
        -0.86430E-02
        -0.32550E-02
         0.16086E-01
         0.17598E-01
         0.20671E-01
         0.18025E-01
         0.19796E-01
         0.14514E-01
         0.13561E-01
         0.11869E-01
         0.14251E-01
         0.72291E-02
         0.89468E-02
         0.63936E-02
         0.13087E-01
         0.47984E-02
        -0.26548E-02
         0.16383E-01
         0.10367E-01
         0.16708E-01
         0.17295E-01
         0.40137E-02
         0.26531E-01
         0.81962E-02
         0.28796E-01
         0.20621E-01
        -0.35913E-02
         0.15242E-01
        -0.44047E-02
        -0.18079E-01
        -0.30156E-01
        -0.16297E-01
         0.51767E-02
         0.27863E-02
         0.81397E-02
         0.11340E-01
         0.24690E-01
         0.24645E-01
         0.19578E-01
        -0.15664E-01
        -0.28188E-01
        -0.37434E-01
        -0.44168E-01
        -0.36868E-01
        -0.19565E-01
         0.19414E-01
         0.36906E-02
        -0.13981E-01
        -0.20742E-01
        -0.21881E-01
        -0.14333E-01
        -0.45809E-02
         0.51212E-04
         0.90712E-02
         0.27882E-01
         0.16207E-01
         0.32641E-01
         0.24361E-01
         0.14588E-01
         0.62587E-02
        -0.39695E-02
        -0.17584E-01
        -0.33158E-01
        -0.47194E-01
        -0.62823E-01
        -0.59850E-01
        -0.19885E-01
         0.29823E-01
         0.56801E-01
         0.54216E-01
         0.35837E-01
         0.76181E-02
        -0.24102E-01
        -0.47248E-01
        -0.51398E-01
        -0.40182E-01
        -0.25415E-01
        -0.11528E-01
        -0.59652E-03
         0.81486E-02
  
SCALARS                      strain_xz  double 1
LOOKUP_TABLE default
         0.20228E+00
         0.29073E+00
         0.26515E+00
         0.18523E+00
        -0.34115E-10
         0.30640E-09
         0.17186E-09
         0.13446E-09
         0.25498E+00
         0.19460E+00
        -0.42119E-10
         0.18292E-09
         0.27916E+00
         0.22213E+00
        -0.58642E-10
         0.12821E-09
         0.13206E+00
         0.17043E+00
        -0.32870E-10
         0.87602E-10
         0.26971E+00
         0.32059E+00
         0.31972E+00
        -0.60046E-10
         0.19613E-09
         0.17130E-09
         0.20760E+00
         0.24722E+00
        -0.75459E-10
         0.18137E-09
         0.87994E-01
         0.11418E+00
         0.10269E+00
        -0.20904E-10
        -0.52458E-11
         0.25345E-10
         0.10158E+00
         0.11910E+00
        -0.36582E-10
        -0.36980E-10
         0.10824E+00
         0.75036E-01
        -0.62122E-10
        -0.75732E-10
         0.11387E+00
         0.11188E+00
        -0.82723E-10
        -0.38709E-10
         0.13865E+00
        -0.52234E-10
         0.11168E+00
        -0.29337E-10
         0.13224E+00
        -0.53710E-10
         0.85781E-01
        -0.48711E-10
         0.56019E-01
         0.14113E+00
        -0.12680E-09
         0.16212E-09
         0.91106E-01
         0.13445E+00
        -0.19250E-10
         0.72044E-10
         0.63099E-01
        -0.44927E-10
         0.90842E-01
        -0.65781E-10
         0.28253E+00
         0.29227E+00
        -0.25550E-10
         0.18458E-09
         0.29894E+00
        -0.18421E-10
         0.78594E-01
        -0.65157E-10
        -0.24024E-01
        -0.77079E-10
        -0.97200E-01
        -0.81441E-10
        -0.15229E+00
        -0.18408E-01
        -0.60468E-10
         0.56327E-10
         0.43940E-01
        -0.78181E-10
         0.96964E-01
        -0.10145E-09
         0.94589E-01
        -0.12622E-09
         0.87553E-01
         0.11748E+00
        -0.11087E-09
         0.16849E-09
         0.44063E-01
        -0.58801E-10
        -0.83629E-02
        -0.95922E-10
        -0.46595E-02
        -0.13382E-09
         0.92824E-02
         0.10344E+00
        -0.12696E-09
         0.16689E-09
         0.34210E+00
         0.43342E+00
        -0.51118E-10
         0.29646E-09
         0.24977E+00
        -0.16268E-10
         0.19334E+00
        -0.58010E-11
         0.15698E+00
        -0.18777E-10
         0.15875E+00
        -0.10326E-10
         0.11050E+00
         0.16815E-11
        -0.43553E-01
        -0.23150E-10
        -0.17684E+00
        -0.33574E-10
        -0.23906E+00
        -0.27952E-10
        -0.42139E+00
        -0.19360E-11
        -0.27204E+00
        -0.46030E-10
        -0.12978E+00
        -0.93677E-10
        -0.16811E-01
        -0.10011E-09
         0.41408E-01
        -0.13122E-09
         0.41359E-01
        -0.16910E-09
         0.48421E-02
        -0.19137E-09
        -0.39844E-01
        -0.24468E-09
        -0.27185E-01
        -0.25198E-09
        -0.44629E-01
        -0.17785E-09
        -0.11620E+00
        -0.16159E-09
        -0.14127E+00
        -0.19863E-09
        -0.11794E+00
        -0.21913E-09
        -0.76325E-01
        -0.17217E-09
         0.10519E-02
        -0.67509E-10
         0.12880E+00
        -0.21859E-10
         0.16165E+00
         0.21740E+00
         0.20220E+00
         0.11601E+00
         0.23562E+00
         0.16564E+00
         0.24988E+00
         0.20448E+00
         0.12180E+00
         0.15362E+00
         0.23676E+00
         0.19655E+00
         0.23618E+00
         0.18887E+00
         0.12149E+00
         0.93455E-01
         0.11174E+00
         0.87282E-01
         0.13382E+00
         0.12477E+00
         0.23483E+00
         0.16514E+00
         0.26185E+00
         0.16835E+00
         0.13389E+00
         0.14698E+00
         0.12749E+00
         0.90197E-01
         0.36855E-01
         0.10561E+00
         0.10297E+00
         0.16580E+00
         0.87189E-01
         0.10981E+00
         0.30253E+00
         0.27560E+00
         0.24702E+00
         0.28840E-01
        -0.52646E-01
        -0.14172E+00
        -0.21250E+00
        -0.61337E-01
         0.66319E-01
         0.24357E+00
         0.25217E+00
         0.28887E+00
         0.22931E+00
         0.16290E+00
         0.14400E+00
         0.15984E+00
         0.17372E+00
         0.15445E+00
         0.38879E+00
         0.33893E+00
         0.34439E+00
         0.24881E+00
         0.15111E+00
         0.62391E-01
        -0.16408E-01
        -0.15335E+00
        -0.37741E+00
        -0.51669E+00
        -0.47374E+00
        -0.25991E+00
        -0.23305E-03
         0.25025E+00
         0.40545E+00
         0.42820E+00
         0.37316E+00
         0.35256E+00
         0.40023E+00
         0.37311E+00
         0.29816E+00
         0.27980E+00
         0.25800E+00
         0.20540E+00
         0.20810E+00
         0.25840E+00
        -0.50619E-01
        -0.73264E-01
        -0.11690E+00
        -0.92522E-01
        -0.21010E+00
        -0.22867E+00
        -0.70031E-01
        -0.61257E-01
        -0.46345E-01
        -0.52033E-01
        -0.80816E-01
        -0.91437E-01
        -0.81810E-01
        -0.81989E-01
        -0.10817E+00
        -0.74948E-01
        -0.51141E-01
        -0.64941E-01
        -0.50257E-01
        -0.47427E-01
        -0.42402E-02
        -0.34829E-01
        -0.28112E-01
        -0.57549E-01
        -0.55967E-01
        -0.88683E-01
        -0.82827E-01
        -0.99452E-01
        -0.13894E+00
        -0.79575E-01
        -0.95776E-01
        -0.11870E+00
        -0.11111E+00
        -0.18295E+00
        -0.23430E+00
        -0.17301E+00
        -0.10796E+00
        -0.13633E+00
        -0.18208E+00
        -0.23251E+00
        -0.26238E+00
        -0.19852E+00
        -0.11080E+00
        -0.88956E-01
        -0.15234E+00
        -0.18495E+00
        -0.14527E+00
        -0.12578E+00
        -0.18290E+00
        -0.31602E+00
        -0.44297E+00
        -0.32978E+00
        -0.33919E+00
        -0.33681E+00
        -0.27271E+00
        -0.15994E+00
        -0.10318E+00
        -0.10827E+00
        -0.13623E+00
        -0.21625E+00
        -0.33018E+00
        -0.35588E+00
        -0.27250E+00
        -0.23554E+00
        -0.16307E+00
        -0.33127E-01
         0.29870E-01
        -0.85463E-02
        -0.11109E+00
        -0.22900E+00
        -0.25923E+00
        -0.19761E+00
        -0.18828E+00
        -0.33456E+00
        -0.63243E+00
        -0.78814E+00
        -0.64375E+00
        -0.42714E+00
        -0.71181E-01
        -0.83317E-01
        -0.10104E+00
        -0.77206E-01
        -0.13643E+00
        -0.11522E+00
        -0.79307E-01
        -0.71975E-01
        -0.59970E-01
        -0.57591E-01
        -0.81934E-01
        -0.85852E-01
        -0.81971E-01
        -0.80350E-01
        -0.10013E+00
        -0.66289E-01
        -0.49619E-01
        -0.65522E-01
        -0.51183E-01
        -0.44021E-01
        -0.37150E-01
        -0.49558E-01
        -0.53692E-01
        -0.61165E-01
        -0.52258E-01
        -0.76932E-01
        -0.77934E-01
        -0.87083E-01
        -0.11081E+00
        -0.64931E-01
        -0.66820E-01
        -0.87906E-01
        -0.66074E-01
        -0.88275E-01
        -0.16461E+00
        -0.13528E+00
        -0.99664E-01
        -0.12308E+00
        -0.15404E+00
        -0.18542E+00
        -0.20893E+00
        -0.15508E+00
        -0.93866E-01
        -0.84401E-01
        -0.11319E+00
        -0.12333E+00
        -0.89446E-01
        -0.57783E-01
        -0.65738E-01
        -0.10880E+00
        -0.14797E+00
        -0.12737E+00
        -0.22568E+00
        -0.19586E+00
        -0.19195E+00
        -0.12857E+00
        -0.92578E-01
        -0.98485E-01
        -0.13652E+00
        -0.20810E+00
        -0.28898E+00
        -0.30591E+00
        -0.27221E+00
        -0.23059E+00
        -0.15893E+00
        -0.75679E-01
        -0.43618E-01
        -0.59601E-01
        -0.10163E+00
        -0.15153E+00
        -0.15841E+00
        -0.10216E+00
        -0.51406E-01
        -0.66568E-01
        -0.15541E+00
        -0.22442E+00
        -0.21213E+00
        -0.18165E+00
        -0.12238E-01
        -0.11013E-01
        -0.75542E-02
        -0.52563E-02
         0.76017E-02
         0.26818E-01
        -0.11083E-01
        -0.97864E-02
        -0.97100E-02
        -0.61002E-02
        -0.15809E-01
        -0.26091E-01
        -0.13701E-01
        -0.17569E-01
        -0.43735E-01
        -0.11274E-01
        -0.54230E-02
        -0.11319E-01
        -0.60477E-02
        -0.60848E-02
        -0.51274E-02
        -0.15360E-01
        -0.59626E-02
        -0.80639E-02
        -0.79843E-02
        -0.10007E-01
        -0.21418E-01
        -0.31233E-01
        -0.49510E-01
        -0.20535E-01
        -0.11509E-02
        -0.25714E-02
         0.60033E-02
         0.23113E-01
         0.29860E-02
        -0.46506E-02
        -0.92464E-02
        -0.63830E-01
        -0.84245E-01
        -0.10480E+00
        -0.12249E+00
        -0.80261E-01
        -0.40915E-01
        -0.69439E-02
        -0.84648E-03
         0.98139E-02
         0.15993E-01
         0.27656E-01
         0.43287E-01
         0.62960E-01
         0.82755E-01
         0.58063E-01
         0.17850E-01
         0.31093E-01
         0.71046E-02
        -0.84697E-02
        -0.23288E-01
        -0.52207E-01
        -0.97994E-01
        -0.15180E+00
        -0.20672E+00
        -0.22550E+00
        -0.20015E+00
        -0.14083E+00
        -0.78957E-01
        -0.36100E-01
        -0.17342E-01
        -0.96019E-02
        -0.39684E-02
         0.51236E-02
         0.19292E-01
         0.40160E-01
         0.69210E-01
         0.10171E+00
         0.12668E+00
         0.13672E+00
         0.11562E+00
         0.69233E-01
         0.58689E-02
         0.60299E-02
         0.87333E-02
         0.71987E-02
         0.16869E-01
         0.21833E-01
         0.40804E-02
         0.53998E-02
         0.49975E-02
         0.47561E-02
        -0.27407E-03
        -0.86105E-02
         0.24804E-03
        -0.16842E-02
        -0.20750E-01
         0.86398E-03
         0.26635E-02
         0.30326E-02
         0.40936E-03
        -0.23048E-02
        -0.35549E-02
        -0.10288E-01
        -0.25492E-02
        -0.63274E-03
        -0.22607E-02
         0.36663E-03
        -0.69929E-02
        -0.18353E-01
        -0.34675E-01
        -0.14598E-01
         0.40427E-02
         0.53761E-02
         0.70399E-02
         0.16446E-01
         0.18423E-01
         0.12297E-01
         0.58778E-02
        -0.36128E-01
        -0.52649E-01
        -0.69790E-01
        -0.83020E-01
        -0.54426E-01
        -0.27239E-01
         0.72456E-03
         0.81176E-02
         0.14999E-01
         0.13781E-01
         0.14131E-01
         0.20303E-01
         0.32779E-01
         0.45842E-01
         0.34740E-01
         0.31886E-01
         0.33153E-01
         0.22684E-01
         0.66034E-02
        -0.67349E-02
        -0.26582E-01
        -0.58922E-01
        -0.97143E-01
        -0.13356E+00
        -0.15066E+00
        -0.13808E+00
        -0.89135E-01
        -0.43810E-01
        -0.25145E-01
        -0.17590E-01
        -0.98937E-02
         0.17686E-03
         0.12999E-01
         0.23002E-01
         0.26240E-01
         0.31301E-01
         0.45460E-01
         0.65943E-01
         0.77773E-01
         0.69508E-01
         0.47622E-01
         0.29029E-02
         0.23347E-02
         0.18233E-02
         0.10510E-02
         0.14172E-02
         0.31683E-04
         0.19087E-02
         0.26722E-02
         0.28025E-02
         0.21936E-02
         0.38455E-03
        -0.26684E-02
         0.33346E-03
        -0.28686E-03
        -0.80726E-02
         0.71342E-03
         0.13940E-02
         0.12230E-02
        -0.34070E-03
        -0.15739E-02
        -0.38532E-02
        -0.59685E-02
        -0.40307E-02
        -0.15505E-02
        -0.15166E-02
        -0.11103E-02
        -0.31300E-02
        -0.89295E-02
        -0.17006E-01
        -0.74812E-02
        -0.70221E-03
        -0.65975E-03
        -0.15091E-02
        -0.18974E-02
         0.27655E-02
         0.23904E-02
         0.16309E-02
        -0.15843E-01
        -0.24117E-01
        -0.32604E-01
        -0.38929E-01
        -0.25913E-01
        -0.13340E-01
        -0.31199E-02
        -0.14291E-02
        -0.54160E-03
        -0.85569E-03
        -0.23833E-02
        -0.41053E-02
        -0.43397E-02
        -0.30174E-02
        -0.14412E-02
         0.64014E-02
         0.50083E-02
         0.55977E-02
         0.24368E-02
        -0.13603E-02
        -0.85544E-02
        -0.23300E-01
        -0.43094E-01
        -0.60668E-01
        -0.69419E-01
        -0.65090E-01
        -0.41741E-01
        -0.21837E-01
        -0.16181E-01
        -0.14354E-01
        -0.10903E-01
        -0.69084E-02
        -0.36000E-02
        -0.10773E-02
        -0.13716E-02
        -0.39371E-02
        -0.65525E-02
        -0.54997E-02
        -0.93983E-03
         0.35220E-02
         0.45461E-02
         0.44860E-03
         0.56572E-03
        -0.29369E-03
        -0.96726E-03
        -0.18215E-02
        -0.39275E-02
         0.53889E-03
         0.24373E-03
         0.53317E-03
        -0.11241E-03
         0.13902E-03
         0.38464E-04
         0.93136E-03
        -0.51329E-03
        -0.17780E-02
         0.47187E-03
         0.18462E-03
         0.53384E-04
        -0.66814E-03
        -0.10967E-02
        -0.28686E-02
        -0.28735E-02
        -0.29214E-02
        -0.12698E-02
        -0.98549E-03
        -0.76079E-03
        -0.15005E-02
        -0.25437E-02
        -0.40361E-02
        -0.24007E-02
        -0.68256E-03
        -0.84163E-03
        -0.22334E-02
        -0.44132E-02
        -0.51909E-03
         0.38836E-03
         0.10754E-02
        -0.39552E-02
        -0.54105E-02
        -0.63086E-02
        -0.70014E-02
        -0.55710E-02
        -0.38881E-02
        -0.24221E-02
        -0.20172E-02
        -0.20520E-02
        -0.17444E-02
        -0.28472E-02
        -0.55601E-02
        -0.82014E-02
        -0.94497E-02
        -0.69380E-02
         0.13152E-02
        -0.48280E-03
         0.31927E-02
         0.36364E-02
         0.23942E-02
         0.20625E-03
        -0.38190E-02
        -0.89238E-02
        -0.12095E-01
        -0.11608E-01
        -0.10845E-01
        -0.92426E-02
        -0.77492E-02
        -0.89010E-02
        -0.87297E-02
        -0.69815E-02
        -0.52734E-02
        -0.47140E-02
        -0.37377E-02
        -0.32940E-02
        -0.53554E-02
        -0.96045E-02
        -0.12611E-01
        -0.11725E-01
        -0.76355E-02
        -0.35362E-02
        -0.23385E-03
         0.26202E-03
        -0.13651E-03
        -0.78475E-03
        -0.89711E-03
        -0.23620E-02
         0.26313E-04
        -0.73809E-03
        -0.35072E-03
        -0.11652E-02
        -0.20327E-03
         0.61360E-03
         0.99639E-03
        -0.80962E-03
         0.53844E-03
         0.39551E-03
        -0.47831E-03
        -0.76014E-04
        -0.90582E-03
        -0.98441E-03
        -0.24398E-02
        -0.12683E-02
        -0.23596E-02
        -0.10768E-02
        -0.83572E-03
        -0.29395E-03
        -0.84581E-03
         0.44928E-03
         0.23763E-02
        -0.59695E-05
         0.90837E-04
         0.21273E-04
        -0.11816E-02
        -0.25840E-02
         0.53398E-03
         0.10111E-02
         0.12696E-02
         0.15187E-02
         0.37442E-02
         0.69086E-02
         0.96659E-02
         0.52170E-02
         0.12008E-02
        -0.16093E-02
        -0.10261E-02
        -0.77157E-03
        -0.24057E-03
        -0.94799E-03
        -0.29193E-02
        -0.45129E-02
        -0.49407E-02
        -0.37915E-02
         0.31456E-02
         0.11501E-02
         0.45712E-02
         0.43431E-02
         0.32449E-02
         0.26385E-02
         0.37199E-02
         0.71736E-02
         0.12232E-01
         0.18082E-01
         0.18570E-01
         0.95822E-02
         0.73412E-03
        -0.48713E-02
        -0.62576E-02
        -0.54754E-02
        -0.41068E-02
        -0.35769E-02
        -0.22050E-02
        -0.84972E-03
        -0.19216E-02
        -0.46838E-02
        -0.61008E-02
        -0.48352E-02
        -0.25067E-02
        -0.83922E-03
        -0.37708E-03
         0.15368E-03
        -0.67250E-04
        -0.68864E-03
        -0.68529E-03
        -0.21186E-02
        -0.20017E-03
        -0.10415E-02
        -0.61637E-03
        -0.14898E-02
        -0.38653E-03
         0.56209E-03
         0.65202E-03
        -0.85066E-03
         0.13977E-02
         0.36900E-03
        -0.74943E-03
        -0.13925E-04
        -0.10677E-02
        -0.82336E-03
        -0.24372E-02
         0.80689E-04
        -0.31374E-02
        -0.13689E-02
        -0.71975E-03
        -0.50142E-03
        -0.39465E-03
         0.18862E-02
         0.53946E-02
         0.12225E-02
         0.15389E-03
        -0.30270E-03
        -0.10062E-02
        -0.23329E-02
         0.82551E-03
         0.10361E-02
         0.96648E-03
         0.39259E-02
         0.79281E-02
         0.13023E-01
         0.17644E-01
         0.10849E-01
         0.44835E-02
        -0.27255E-02
        -0.23489E-02
        -0.23101E-02
        -0.11313E-02
        -0.14116E-02
        -0.30864E-02
        -0.44078E-02
        -0.45710E-02
        -0.33886E-02
         0.36142E-02
         0.14023E-02
         0.42576E-02
         0.32838E-02
         0.24297E-02
         0.27056E-02
         0.61135E-02
         0.13546E-01
         0.22807E-01
         0.31743E-01
         0.32706E-01
         0.20340E-01
         0.76502E-02
        -0.15602E-02
        -0.63796E-02
        -0.78491E-02
        -0.75276E-02
        -0.71512E-02
        -0.51212E-02
        -0.30502E-02
        -0.35882E-02
        -0.57754E-02
        -0.63751E-02
        -0.42679E-02
        -0.15464E-02
        -0.29192E-03
        -0.33906E-03
         0.29835E-03
        -0.29483E-04
        -0.75019E-03
        -0.96513E-03
        -0.28396E-02
        -0.98922E-04
        -0.11629E-02
        -0.75222E-03
        -0.17410E-02
        -0.26485E-03
         0.10450E-02
         0.92510E-03
        -0.80652E-03
         0.23592E-02
         0.27003E-03
        -0.10107E-02
         0.39181E-04
        -0.12513E-02
        -0.82432E-03
        -0.21744E-02
         0.11205E-02
        -0.33691E-02
        -0.16207E-02
        -0.77581E-03
        -0.78519E-03
        -0.10484E-03
         0.27556E-02
         0.70123E-02
         0.17768E-02
        -0.73145E-04
        -0.78578E-03
        -0.13062E-02
        -0.30509E-02
         0.77408E-03
         0.11536E-02
         0.11846E-02
         0.58220E-02
         0.10979E-01
         0.16929E-01
         0.22052E-01
         0.13782E-01
         0.64208E-02
        -0.33129E-02
        -0.32574E-02
        -0.36245E-02
        -0.23540E-02
        -0.26280E-02
        -0.44576E-02
        -0.61115E-02
        -0.65524E-02
        -0.47809E-02
         0.35341E-02
         0.86299E-03
         0.44494E-02
         0.34691E-02
         0.27580E-02
         0.38521E-02
         0.90826E-02
         0.19061E-01
         0.31399E-01
         0.41682E-01
         0.40587E-01
         0.25729E-01
         0.12378E-01
         0.13467E-02
        -0.52898E-02
        -0.79836E-02
        -0.85635E-02
        -0.87264E-02
        -0.71743E-02
        -0.57548E-02
        -0.67028E-02
        -0.90939E-02
        -0.96158E-02
        -0.71430E-02
        -0.36264E-02
        -0.14366E-02
        -0.31572E-03
         0.48891E-03
         0.58506E-04
        -0.81194E-03
        -0.11096E-02
        -0.33225E-02
         0.58891E-04
        -0.12627E-02
        -0.87501E-03
        -0.20119E-02
        -0.24052E-04
         0.18871E-02
         0.16170E-02
        -0.69199E-03
         0.34467E-02
         0.22779E-03
        -0.12431E-02
         0.17526E-04
        -0.13625E-02
        -0.11130E-02
        -0.21654E-02
         0.87897E-03
        -0.30159E-02
        -0.15591E-02
        -0.10725E-02
        -0.68964E-03
         0.62454E-04
         0.30973E-02
         0.73744E-02
         0.15181E-02
        -0.21082E-03
        -0.69017E-03
        -0.15754E-02
        -0.35197E-02
         0.89041E-03
         0.15244E-02
         0.17966E-02
         0.75043E-02
         0.13319E-01
         0.19345E-01
         0.23609E-01
         0.13742E-01
         0.59862E-02
        -0.27591E-02
        -0.26487E-02
        -0.30785E-02
        -0.23470E-02
        -0.31184E-02
        -0.52014E-02
        -0.69915E-02
        -0.76238E-02
        -0.56433E-02
         0.37485E-02
         0.65205E-03
         0.54034E-02
         0.49689E-02
         0.45840E-02
         0.62567E-02
         0.12362E-01
         0.24102E-01
         0.39087E-01
         0.49629E-01
         0.43713E-01
         0.24301E-01
         0.11456E-01
         0.11822E-02
        -0.47445E-02
        -0.66753E-02
        -0.68306E-02
        -0.70107E-02
        -0.60092E-02
        -0.56823E-02
        -0.77408E-02
        -0.10548E-01
        -0.10947E-01
        -0.86064E-02
        -0.50614E-02
        -0.22668E-02
        -0.26957E-03
         0.51722E-03
         0.89707E-04
        -0.82697E-03
        -0.11830E-02
        -0.34793E-02
        -0.46757E-05
        -0.13316E-02
        -0.86006E-03
        -0.21933E-02
        -0.10052E-03
         0.19016E-02
         0.16408E-02
        -0.75378E-03
         0.36761E-02
         0.30321E-03
        -0.13124E-02
         0.38094E-04
        -0.13646E-02
        -0.13626E-02
        -0.24022E-02
         0.12966E-03
        -0.28863E-02
        -0.14555E-02
        -0.14325E-02
        -0.51967E-03
        -0.10015E-03
         0.26912E-02
         0.65778E-02
         0.93369E-03
        -0.14682E-03
        -0.41073E-03
        -0.16196E-02
        -0.36069E-02
         0.94032E-03
         0.16336E-02
         0.19022E-02
         0.78409E-02
         0.13412E-01
         0.18826E-01
         0.22162E-01
         0.12008E-01
         0.45925E-02
        -0.23832E-02
        -0.20575E-02
        -0.22253E-02
        -0.16856E-02
        -0.26942E-02
        -0.50123E-02
        -0.69641E-02
        -0.76558E-02
        -0.57587E-02
         0.37968E-02
         0.44365E-03
         0.55860E-02
         0.53927E-02
         0.50331E-02
         0.66390E-02
         0.13206E-01
         0.25768E-01
         0.40741E-01
         0.50189E-01
         0.41444E-01
         0.19707E-01
         0.76892E-02
        -0.76067E-03
        -0.52561E-02
        -0.63479E-02
        -0.60122E-02
        -0.58759E-02
        -0.45471E-02
        -0.40370E-02
        -0.63021E-02
        -0.96392E-02
        -0.10564E-01
        -0.85410E-02
        -0.52040E-02
        -0.26043E-02
        -0.38045E-03
         0.29801E-03
        -0.10947E-03
        -0.10040E-02
        -0.13312E-02
        -0.37696E-02
        -0.22584E-03
        -0.14796E-02
        -0.83594E-03
        -0.22590E-02
        -0.35434E-03
         0.16236E-02
         0.12969E-02
        -0.10495E-02
         0.32723E-02
         0.42005E-03
        -0.12110E-02
         0.37535E-04
        -0.12771E-02
        -0.12453E-02
        -0.23744E-02
         0.23421E-03
        -0.27280E-02
        -0.13143E-02
        -0.13746E-02
        -0.31870E-03
        -0.46089E-03
         0.23467E-02
         0.64517E-02
         0.11337E-02
         0.57374E-04
        -0.73573E-04
        -0.15695E-02
        -0.37952E-02
         0.87041E-03
         0.14722E-02
         0.16207E-02
         0.68898E-02
         0.11910E-01
         0.17248E-01
         0.21519E-01
         0.12560E-01
         0.50936E-02
        -0.20627E-02
        -0.15440E-02
        -0.14746E-02
        -0.98961E-03
        -0.20718E-02
        -0.46814E-02
        -0.70895E-02
        -0.80719E-02
        -0.61585E-02
         0.38428E-02
         0.37536E-03
         0.55668E-02
         0.51774E-02
         0.44560E-02
         0.63051E-02
         0.13076E-01
         0.24244E-01
         0.36827E-01
         0.45085E-01
         0.39942E-01
         0.22232E-01
         0.88030E-02
        -0.63481E-03
        -0.51575E-02
        -0.61021E-02
        -0.54699E-02
        -0.50013E-02
        -0.33773E-02
        -0.26033E-02
        -0.47168E-02
        -0.86308E-02
        -0.10647E-01
        -0.91873E-02
        -0.58364E-02
        -0.29841E-02
        -0.48917E-03
         0.12896E-03
        -0.27990E-03
        -0.10560E-02
        -0.14324E-02
        -0.36772E-02
        -0.34382E-03
        -0.15168E-02
        -0.80935E-03
        -0.21047E-02
        -0.43380E-03
         0.14829E-02
         0.10348E-02
        -0.10969E-02
         0.29876E-02
         0.55597E-03
        -0.99938E-03
         0.52520E-04
        -0.10507E-02
        -0.83899E-03
        -0.19409E-02
         0.10392E-02
        -0.23793E-02
        -0.10562E-02
        -0.91985E-03
        -0.10613E-03
        -0.39817E-03
         0.27138E-02
         0.74876E-02
         0.19757E-02
         0.18118E-03
         0.36868E-04
        -0.14152E-02
        -0.35966E-02
         0.60253E-03
         0.11930E-02
         0.13380E-02
         0.62883E-02
         0.11439E-01
         0.17602E-01
         0.23495E-01
         0.15059E-01
         0.68495E-02
        -0.18247E-02
        -0.14880E-02
        -0.16078E-02
        -0.10456E-02
        -0.19665E-02
        -0.43805E-02
        -0.66545E-02
        -0.76524E-02
        -0.59006E-02
         0.34391E-02
         0.36165E-03
         0.51569E-02
         0.46065E-02
         0.37185E-02
         0.59766E-02
         0.12446E-01
         0.22182E-01
         0.34428E-01
         0.44062E-01
         0.43285E-01
         0.28849E-01
         0.12711E-01
         0.12036E-02
        -0.41176E-02
        -0.56084E-02
        -0.53304E-02
        -0.51776E-02
        -0.38154E-02
        -0.29637E-02
        -0.46966E-02
        -0.82129E-02
        -0.10007E-01
        -0.86562E-02
        -0.55002E-02
        -0.26690E-02
        -0.42033E-03
         0.17215E-03
        -0.36308E-03
        -0.99801E-03
        -0.15850E-02
        -0.34235E-02
        -0.18644E-03
        -0.13103E-02
        -0.72249E-03
        -0.18445E-02
        -0.18817E-03
         0.16998E-02
         0.11957E-02
        -0.75925E-03
         0.32372E-02
         0.54375E-03
        -0.88100E-03
         0.24144E-04
        -0.88762E-03
        -0.69479E-03
        -0.15786E-02
         0.11474E-02
        -0.20402E-02
        -0.88961E-03
        -0.64990E-03
        -0.12893E-03
         0.57996E-04
         0.33639E-02
         0.84951E-02
         0.22984E-02
         0.89021E-04
        -0.13017E-03
        -0.13849E-02
        -0.33264E-02
         0.18146E-03
         0.91203E-03
         0.13138E-02
         0.68829E-02
         0.12879E-01
         0.20062E-01
         0.26455E-01
         0.16480E-01
         0.71492E-02
        -0.18279E-02
        -0.17729E-02
        -0.19221E-02
        -0.11598E-02
        -0.18766E-02
        -0.40608E-02
        -0.60458E-02
        -0.68170E-02
        -0.52883E-02
         0.27131E-02
         0.64218E-04
         0.45509E-02
         0.44050E-02
         0.38790E-02
         0.61725E-02
         0.12181E-01
         0.22256E-01
         0.37234E-01
         0.50287E-01
         0.49342E-01
         0.31370E-01
         0.12450E-01
         0.12004E-02
        -0.34104E-02
        -0.50212E-02
        -0.54702E-02
        -0.58581E-02
        -0.42968E-02
        -0.29493E-02
        -0.42969E-02
        -0.74079E-02
        -0.88595E-02
        -0.73541E-02
        -0.44810E-02
        -0.22972E-02
        -0.38281E-03
         0.33278E-03
        -0.25075E-03
        -0.97548E-03
        -0.13741E-02
        -0.31499E-02
         0.56408E-04
        -0.11761E-02
        -0.80624E-03
        -0.18364E-02
         0.90227E-04
         0.21197E-02
         0.16684E-02
        -0.51934E-03
         0.37550E-02
         0.20186E-03
        -0.10725E-02
        -0.17401E-03
        -0.12648E-02
        -0.10630E-02
        -0.22629E-02
         0.40098E-03
        -0.28290E-02
        -0.14227E-02
        -0.86021E-03
        -0.64923E-03
         0.22426E-03
         0.32101E-02
         0.77145E-02
         0.17182E-02
        -0.18397E-03
        -0.53538E-03
        -0.14849E-02
        -0.31974E-02
         0.38066E-03
         0.10756E-02
         0.16201E-02
         0.76610E-02
         0.13287E-01
         0.19331E-01
         0.24560E-01
         0.14759E-01
         0.59585E-02
        -0.25490E-02
        -0.22751E-02
        -0.21241E-02
        -0.12174E-02
        -0.17659E-02
        -0.38156E-02
        -0.57098E-02
        -0.63805E-02
        -0.49017E-02
         0.30283E-02
         0.33542E-03
         0.47562E-02
         0.49630E-02
         0.49221E-02
         0.69907E-02
         0.13150E-01
         0.24402E-01
         0.39306E-01
         0.49423E-01
         0.45865E-01
         0.27949E-01
         0.10430E-01
        -0.30596E-03
        -0.51088E-02
        -0.65575E-02
        -0.66144E-02
        -0.64342E-02
        -0.42472E-02
        -0.25066E-02
        -0.36173E-02
        -0.65383E-02
        -0.81938E-02
        -0.68236E-02
        -0.40396E-02
        -0.21298E-02
        -0.59560E-03
         0.19703E-03
        -0.26455E-03
        -0.10153E-02
        -0.11403E-02
        -0.28196E-02
        -0.10481E-03
        -0.13945E-02
        -0.10106E-02
        -0.20553E-02
        -0.17194E-03
         0.18059E-02
         0.16673E-02
        -0.88900E-03
         0.31796E-02
        -0.10849E-03
        -0.12484E-02
        -0.35422E-03
        -0.16595E-02
        -0.12944E-02
        -0.29683E-02
        -0.21718E-03
        -0.34978E-02
        -0.19299E-02
        -0.11012E-02
        -0.10252E-02
        -0.24731E-03
         0.25213E-02
         0.65095E-02
         0.12758E-02
        -0.23904E-03
        -0.67644E-03
        -0.13355E-02
        -0.28306E-02
         0.60441E-03
         0.11762E-02
         0.16700E-02
         0.69211E-02
         0.11991E-01
         0.16950E-01
         0.21033E-01
         0.12469E-01
         0.49019E-02
        -0.29110E-02
        -0.23322E-02
        -0.20090E-02
        -0.10704E-02
        -0.14025E-02
        -0.31431E-02
        -0.48391E-02
        -0.54804E-02
        -0.43014E-02
         0.33965E-02
         0.76416E-03
         0.50470E-02
         0.54234E-02
         0.53576E-02
         0.65293E-02
         0.12309E-01
         0.23747E-01
         0.37374E-01
         0.44528E-01
         0.38905E-01
         0.22490E-01
         0.80299E-02
        -0.18496E-02
        -0.65183E-02
        -0.74645E-02
        -0.67128E-02
        -0.60336E-02
        -0.39261E-02
        -0.21403E-02
        -0.28076E-02
        -0.50412E-02
        -0.65506E-02
        -0.56320E-02
        -0.33332E-02
        -0.16438E-02
        -0.66041E-03
        -0.91975E-05
        -0.24263E-03
        -0.86328E-03
        -0.72010E-03
        -0.21768E-02
        -0.34050E-03
        -0.13942E-02
        -0.96861E-03
        -0.19471E-02
        -0.49430E-03
         0.90854E-03
         0.95388E-03
        -0.11244E-02
         0.19139E-02
         0.40504E-04
        -0.10377E-02
        -0.28271E-03
        -0.13817E-02
        -0.99314E-03
        -0.26177E-02
        -0.10378E-03
        -0.28701E-02
        -0.15521E-02
        -0.91474E-03
        -0.67518E-03
        -0.58569E-03
         0.21713E-02
         0.62896E-02
         0.14818E-02
         0.15136E-03
        -0.21755E-03
        -0.80370E-03
        -0.20413E-02
         0.84615E-03
         0.10206E-02
         0.11236E-02
         0.51248E-02
         0.10088E-01
         0.15585E-01
         0.20045E-01
         0.12090E-01
         0.49036E-02
        -0.22508E-02
        -0.16410E-02
        -0.11737E-02
        -0.21681E-03
        -0.33500E-03
        -0.17363E-02
        -0.31678E-02
        -0.37768E-02
        -0.31774E-02
         0.38285E-02
         0.16149E-02
         0.46213E-02
         0.42272E-02
         0.37381E-02
         0.42506E-02
         0.86836E-02
         0.18599E-01
         0.31195E-01
         0.40189E-01
         0.36858E-01
         0.21123E-01
         0.74252E-02
        -0.21364E-02
        -0.56695E-02
        -0.60720E-02
        -0.54229E-02
        -0.48262E-02
        -0.27475E-02
        -0.68574E-03
        -0.71948E-03
        -0.21888E-02
        -0.35261E-02
        -0.32910E-02
        -0.19296E-02
        -0.64165E-03
        -0.34543E-03
         0.30156E-03
         0.56326E-03
        -0.12061E-03
         0.93934E-03
        -0.28449E-03
        -0.24052E-03
        -0.10868E-02
        -0.72082E-03
        -0.16034E-02
        -0.59247E-03
         0.12000E-03
         0.45246E-03
        -0.11065E-02
         0.76924E-03
         0.33867E-03
        -0.78890E-03
         0.42899E-04
        -0.10466E-02
        -0.79486E-03
        -0.21621E-02
        -0.38430E-04
        -0.19754E-02
        -0.98055E-03
        -0.61920E-03
        -0.51624E-05
        -0.58571E-03
         0.22308E-02
         0.65415E-02
         0.16667E-02
         0.10290E-02
         0.85933E-03
         0.36614E-03
        -0.16978E-03
         0.25881E-02
         0.19759E-02
         0.11711E-02
         0.36007E-02
         0.88313E-02
         0.15349E-01
         0.20638E-01
         0.12476E-01
         0.49090E-02
        -0.10788E-02
        -0.12592E-03
         0.83694E-03
         0.17542E-02
         0.17981E-02
         0.89856E-03
         0.10420E-03
        -0.14503E-03
        -0.42082E-03
         0.65120E-02
         0.42264E-02
         0.60288E-02
         0.37065E-02
         0.20410E-02
         0.19419E-02
         0.49037E-02
         0.13057E-01
         0.25797E-01
         0.38035E-01
         0.38229E-01
         0.22187E-01
         0.71016E-02
        -0.20634E-02
        -0.45994E-02
        -0.43147E-02
        -0.34039E-02
        -0.24544E-02
         0.10727E-03
         0.26473E-02
         0.31727E-02
         0.25739E-02
         0.17075E-02
         0.14677E-02
         0.16738E-02
         0.20425E-02
         0.26382E-03
         0.11766E-02
         0.21385E-02
         0.10584E-02
         0.39842E-02
         0.29918E-02
         0.50072E-03
        -0.33795E-03
        -0.24997E-03
        -0.93798E-03
         0.92125E-04
         0.51265E-03
         0.10798E-02
        -0.45351E-03
         0.72763E-03
         0.86496E-03
        -0.29879E-03
         0.57344E-03
        -0.22383E-03
         0.44895E-04
        -0.39765E-03
         0.19362E-02
        -0.22796E-03
         0.10773E-03
         0.54520E-04
         0.10169E-02
        -0.96219E-04
         0.27669E-02
         0.75769E-02
         0.27340E-02
         0.21771E-02
         0.21940E-02
         0.19508E-02
         0.25097E-02
         0.59647E-02
         0.43551E-02
         0.24412E-02
         0.30230E-02
         0.82580E-02
         0.15541E-01
         0.22057E-01
         0.14575E-01
         0.70285E-02
         0.61103E-03
         0.16869E-02
         0.30562E-02
         0.38784E-02
         0.40523E-02
         0.39607E-02
         0.44238E-02
         0.51492E-02
         0.39191E-02
         0.11603E-01
         0.91921E-02
         0.10316E-01
         0.59001E-02
         0.26029E-02
         0.18097E-02
         0.34450E-02
         0.97446E-02
         0.22107E-01
         0.35836E-01
         0.39705E-01
         0.26676E-01
         0.11238E-01
         0.24778E-02
        -0.66654E-03
        -0.11052E-02
        -0.58222E-03
         0.37749E-03
         0.31842E-02
         0.56058E-02
         0.61383E-02
         0.70859E-02
         0.81470E-02
         0.85769E-02
         0.80760E-02
         0.74776E-02
         0.94611E-04
         0.94200E-03
         0.14949E-02
         0.35376E-03
         0.33678E-02
         0.23045E-02
         0.79954E-03
        -0.12368E-04
        -0.19857E-03
        -0.36194E-03
         0.11541E-02
         0.26820E-02
         0.21541E-02
         0.78673E-03
         0.37427E-02
         0.21528E-03
        -0.15520E-03
         0.43082E-04
        -0.11635E-02
         0.51770E-03
        -0.28933E-02
         0.26558E-02
        -0.47486E-02
        -0.21435E-02
         0.12165E-02
        -0.13510E-02
         0.15520E-02
         0.56317E-02
         0.13026E-01
         0.54068E-02
         0.10977E-03
        -0.14481E-02
        -0.43501E-04
         0.69937E-04
         0.44700E-02
         0.34161E-02
         0.26202E-02
         0.68696E-02
         0.13980E-01
         0.24541E-01
         0.34780E-01
         0.24383E-01
         0.12276E-01
        -0.48023E-02
        -0.48288E-02
        -0.46932E-02
        -0.22560E-02
        -0.12089E-02
        -0.13906E-02
        -0.11438E-02
        -0.20735E-03
         0.11622E-02
         0.92720E-02
         0.93982E-02
         0.94248E-02
         0.74915E-02
         0.53724E-02
         0.64903E-02
         0.10144E-01
         0.17755E-01
         0.32861E-01
         0.51876E-01
         0.60614E-01
         0.46283E-01
         0.20438E-01
         0.13258E-02
        -0.82962E-02
        -0.11685E-01
        -0.11804E-01
        -0.10933E-01
        -0.82300E-02
        -0.58958E-02
        -0.60330E-02
        -0.52956E-02
        -0.34207E-02
         0.65724E-04
         0.41967E-02
         0.77178E-02
        -0.90030E-02
        -0.94697E-02
        -0.11450E-01
        -0.10404E-01
        -0.13995E-01
        -0.14375E-01
        -0.96613E-02
        -0.10386E-01
        -0.90035E-02
        -0.99344E-02
        -0.81948E-02
        -0.28311E-02
        -0.51964E-02
        -0.76685E-02
         0.13334E-02
        -0.13560E-01
        -0.11569E-01
        -0.92017E-02
        -0.21737E-01
        -0.15875E-01
        -0.39354E-01
        -0.26841E-01
        -0.45992E-01
        -0.29628E-01
        -0.91747E-02
        -0.26300E-01
        -0.46738E-02
         0.78106E-03
         0.87785E-02
        -0.69033E-02
        -0.17281E-01
        -0.28107E-01
        -0.15579E-01
        -0.18771E-01
        -0.16868E-01
        -0.13203E-01
        -0.75586E-02
         0.92196E-02
         0.20723E-01
         0.33826E-01
         0.44216E-01
         0.20433E-01
        -0.63126E-02
        -0.45039E-01
        -0.44855E-01
        -0.47082E-01
        -0.36453E-01
        -0.29257E-01
        -0.29161E-01
        -0.31784E-01
        -0.32671E-01
        -0.22825E-01
        -0.19391E-01
        -0.11746E-01
        -0.12600E-01
        -0.62566E-03
         0.45148E-02
         0.96777E-02
         0.18186E-01
         0.33566E-01
         0.59793E-01
         0.85859E-01
         0.87226E-01
         0.48942E-01
        -0.15309E-01
        -0.64530E-01
        -0.83074E-01
        -0.82746E-01
        -0.75144E-01
        -0.69403E-01
        -0.64719E-01
        -0.58005E-01
        -0.54631E-01
        -0.53745E-01
        -0.52503E-01
        -0.44036E-01
        -0.28580E-01
        -0.13442E-01
        -0.22331E-01
        -0.24304E-01
        -0.28052E-01
        -0.23992E-01
        -0.33718E-01
        -0.32969E-01
        -0.25147E-01
        -0.26133E-01
        -0.22346E-01
        -0.25034E-01
        -0.23570E-01
        -0.15410E-01
        -0.18329E-01
        -0.22427E-01
        -0.82750E-02
        -0.32846E-01
        -0.28737E-01
        -0.21599E-01
        -0.51364E-01
        -0.39786E-01
        -0.87225E-01
        -0.66443E-01
        -0.98193E-01
        -0.67334E-01
        -0.24918E-01
        -0.59909E-01
        -0.15687E-01
        -0.56371E-02
         0.39149E-02
        -0.24869E-01
        -0.37941E-01
        -0.61203E-01
        -0.32384E-01
        -0.38516E-01
        -0.39711E-01
        -0.33173E-01
        -0.22735E-01
         0.85170E-02
         0.30363E-01
         0.47210E-01
         0.55033E-01
         0.13772E-01
        -0.32448E-01
        -0.94572E-01
        -0.91565E-01
        -0.93621E-01
        -0.74296E-01
        -0.58319E-01
        -0.56231E-01
        -0.61161E-01
        -0.63575E-01
        -0.47386E-01
        -0.45788E-01
        -0.33577E-01
        -0.36063E-01
        -0.14402E-01
        -0.34239E-02
         0.39685E-02
         0.16872E-01
         0.44996E-01
         0.89108E-01
         0.12406E+00
         0.11282E+00
         0.40993E-01
        -0.66802E-01
        -0.14616E+00
        -0.16794E+00
        -0.15954E+00
        -0.14190E+00
        -0.12818E+00
        -0.11963E+00
        -0.10809E+00
        -0.99483E-01
        -0.95402E-01
        -0.92956E-01
        -0.81874E-01
        -0.60089E-01
        -0.36484E-01
  
SCALARS                      strain_xy  double 1
LOOKUP_TABLE default
        -0.23876E-01
         0.32720E-01
         0.11135E+00
         0.39837E-01
        -0.18794E-09
         0.90797E-10
         0.24330E-09
        -0.10269E-10
         0.24450E+00
         0.19407E+00
         0.37063E-09
         0.43568E-09
        -0.20126E-03
        -0.18591E-01
         0.75419E-10
        -0.13157E-09
        -0.20290E-01
        -0.24174E-01
        -0.14640E-09
        -0.12008E-09
        -0.22749E-02
         0.53680E-01
         0.62784E-01
         0.21290E-11
        -0.26974E-09
        -0.52378E-10
        -0.84497E-02
         0.33748E-01
         0.51317E-10
        -0.20231E-09
         0.56264E-02
        -0.35308E-01
        -0.86246E-02
         0.71977E-11
        -0.63305E-10
        -0.12563E-09
         0.20677E-01
        -0.31214E-01
         0.44335E-10
        -0.10493E-09
         0.14267E+00
         0.15386E+00
         0.10867E-09
         0.93473E-10
         0.13881E+00
         0.74376E-01
         0.15215E-09
         0.13568E-09
        -0.41260E-01
        -0.76409E-10
         0.63155E-01
         0.17273E-09
        -0.12147E-01
         0.47623E-10
         0.78183E-02
         0.16467E-10
         0.11754E+00
         0.72731E-02
         0.16999E-09
        -0.82399E-10
         0.88128E-02
         0.47233E-01
        -0.59197E-10
         0.19601E-09
         0.20823E-01
        -0.11603E-09
         0.78882E-01
        -0.24622E-11
         0.31549E+00
         0.22857E+00
         0.60544E-09
         0.38646E-09
         0.13807E+00
         0.44112E-09
         0.29955E-01
         0.10407E-09
         0.11538E+00
         0.11582E-09
         0.34513E+00
         0.32667E-09
         0.63677E+00
         0.40317E+00
         0.47011E-09
         0.41208E-09
         0.22265E+00
         0.11424E-09
         0.12748E+00
         0.22052E-09
         0.11425E+00
         0.19033E-09
         0.73742E-01
         0.16946E-01
         0.40618E-10
         0.28943E-09
         0.20139E-01
        -0.15699E-09
         0.63390E-01
        -0.29823E-10
         0.12346E+00
         0.70833E-10
         0.17168E+00
         0.17500E+00
         0.12641E-09
         0.22258E-09
         0.43678E+00
         0.27258E+00
         0.12898E-08
         0.10932E-08
         0.35057E+00
         0.58209E-09
         0.21423E+00
         0.39277E-09
         0.14967E+00
         0.38542E-09
         0.17992E+00
         0.27498E-09
         0.16957E+00
         0.16520E-09
         0.12728E+00
         0.10387E-09
         0.30450E+00
         0.11662E-09
         0.93609E+00
         0.34486E-09
         0.11182E+01
         0.89806E-09
         0.75158E+00
         0.76411E-09
         0.48743E+00
         0.39786E-09
         0.36679E+00
         0.31223E-09
         0.26168E+00
         0.31419E-09
         0.17523E+00
         0.28889E-09
         0.11719E+00
         0.27298E-09
         0.14900E+00
         0.31388E-09
         0.11773E+00
        -0.25884E-09
         0.57910E-01
        -0.40303E-09
         0.82147E-01
        -0.25119E-09
         0.12881E+00
        -0.16267E-09
         0.16843E+00
        -0.57591E-10
         0.21395E+00
         0.42631E-09
         0.24637E+00
         0.67784E-09
         0.23097E+00
         0.57562E-09
         0.31907E-01
         0.56258E-01
         0.88202E-01
         0.28871E-01
         0.14258E+00
         0.81386E-01
         0.34866E-01
         0.27299E-01
         0.14383E-01
         0.33910E-03
         0.14711E-01
        -0.39749E-02
         0.12160E-01
         0.51897E-02
         0.17796E-02
        -0.36326E-02
        -0.20043E-01
         0.25654E-02
         0.17349E-01
         0.24248E-01
         0.14191E+00
         0.21364E+00
         0.97934E-01
         0.45010E-01
        -0.75103E-02
         0.21295E-01
        -0.78743E-02
         0.35895E-01
         0.16850E+00
         0.87609E-01
        -0.32687E-02
         0.23302E-02
        -0.39054E-02
         0.10842E-03
         0.16086E+00
         0.11115E+00
         0.52367E-01
         0.32015E-01
         0.12371E+00
         0.30374E+00
         0.49721E+00
         0.40400E+00
         0.30507E+00
         0.48011E-01
         0.11905E-01
         0.14823E-02
        -0.87413E-03
        -0.57466E-02
        -0.25143E-01
        -0.55563E-01
        -0.78963E-01
        -0.20174E-02
         0.18281E+00
         0.20375E+00
         0.93947E-01
         0.13695E-01
        -0.27514E-01
        -0.19943E-01
         0.27868E-01
         0.13251E+00
         0.36979E+00
         0.69549E+00
         0.84606E+00
         0.69179E+00
         0.52206E+00
         0.40435E+00
         0.27887E+00
         0.14883E+00
         0.40693E-01
         0.52548E-02
         0.22294E-01
         0.34379E-01
        -0.13809E-02
        -0.12590E+00
        -0.25007E+00
        -0.25133E+00
        -0.95891E-01
         0.97780E-01
         0.36400E-01
         0.38312E-01
         0.28982E-01
         0.26952E-02
         0.39747E-01
        -0.25109E-01
         0.38236E-01
         0.33986E-01
         0.14158E-01
         0.87494E-02
         0.21781E-01
         0.82715E-02
         0.10090E-01
         0.16662E-01
         0.26472E-01
        -0.64550E-02
        -0.14914E-01
         0.98543E-02
        -0.52148E-02
         0.34482E-01
         0.82098E-01
         0.18357E+00
         0.24873E-01
        -0.67617E-03
         0.20841E-01
        -0.75213E-02
         0.20064E-01
         0.77396E-01
         0.19657E+00
         0.11622E+00
         0.16124E-02
        -0.10847E-01
        -0.18727E-01
        -0.68103E-01
         0.45330E-01
         0.15486E-01
         0.90280E-02
         0.70867E-01
         0.15155E+00
         0.27178E+00
         0.37002E+00
         0.35390E+00
         0.28633E+00
        -0.17514E-01
        -0.44321E-01
        -0.50457E-01
        -0.26360E-01
        -0.34294E-01
        -0.94712E-01
        -0.18119E+00
        -0.22400E+00
        -0.12541E+00
         0.68458E-01
         0.99326E-01
        -0.13657E-01
        -0.25995E-01
        -0.15718E-01
         0.13906E-01
         0.66652E-01
         0.14924E+00
         0.27425E+00
         0.35549E+00
         0.36410E+00
         0.41643E+00
         0.42612E+00
         0.32259E+00
         0.18197E+00
         0.62471E-01
        -0.38787E-01
        -0.10665E+00
        -0.85529E-01
        -0.56582E-01
        -0.11352E+00
        -0.28952E+00
        -0.44348E+00
        -0.38660E+00
        -0.17877E+00
         0.55490E-02
         0.68758E-02
         0.19225E-02
        -0.11371E-01
         0.39110E-02
        -0.25897E-01
        -0.15697E-01
         0.88906E-02
         0.25410E-02
        -0.72135E-03
        -0.39998E-02
         0.97329E-02
         0.17280E-01
         0.73557E-02
         0.64589E-02
         0.31571E-01
        -0.11039E-02
        -0.86714E-02
         0.11347E-01
        -0.20022E-03
         0.28284E-01
         0.53411E-01
         0.12134E+00
         0.21327E-01
         0.81665E-03
         0.14202E-01
         0.62440E-02
         0.17079E-01
         0.60270E-01
         0.13766E+00
         0.78912E-01
         0.25329E-01
         0.26890E-01
         0.15430E-01
        -0.70412E-02
        -0.47650E-01
        -0.34480E-01
        -0.10138E-01
         0.67615E-01
         0.12915E+00
         0.21124E+00
         0.27975E+00
         0.24881E+00
         0.19330E+00
         0.13274E-01
         0.22243E-01
         0.34890E-01
         0.41119E-01
         0.31432E-01
         0.44589E-02
        -0.28411E-01
        -0.44407E-01
        -0.27802E-01
        -0.82704E-01
        -0.44089E-01
        -0.61634E-01
        -0.22739E-01
         0.22813E-02
         0.30361E-01
         0.70089E-01
         0.13725E+00
         0.24324E+00
         0.30748E+00
         0.33255E+00
         0.36249E+00
         0.32080E+00
         0.21481E+00
         0.12269E+00
         0.65115E-01
         0.30404E-01
         0.17142E-01
         0.31616E-01
         0.37665E-01
         0.80572E-02
        -0.45597E-01
        -0.86645E-01
        -0.74877E-01
        -0.26691E-01
        -0.53760E-02
        -0.14509E-02
         0.11188E-02
        -0.33563E-02
         0.47216E-02
        -0.36250E-02
         0.15258E-01
         0.47423E-02
        -0.14573E-02
        -0.49827E-02
        -0.28683E-02
         0.63407E-02
         0.12920E-01
         0.93240E-02
         0.39688E-02
         0.20319E-01
        -0.42458E-02
        -0.28841E-02
         0.78978E-03
         0.16548E-02
         0.22648E-01
         0.31453E-01
         0.73205E-01
         0.15497E-01
         0.86251E-03
         0.11775E-01
         0.55326E-02
         0.12422E-01
         0.41437E-01
         0.93177E-01
         0.53802E-01
         0.16186E-01
         0.22110E-01
         0.15796E-01
         0.17890E-01
        -0.17079E-01
        -0.89827E-02
         0.26209E-02
         0.45606E-01
         0.90246E-01
         0.15078E+00
         0.20428E+00
         0.16964E+00
         0.12234E+00
         0.18604E-01
         0.30158E-01
         0.38942E-01
         0.36958E-01
         0.33248E-01
         0.30835E-01
         0.31072E-01
         0.35399E-01
         0.28003E-01
        -0.32614E-01
        -0.76520E-02
        -0.13725E-01
         0.18245E-02
         0.93933E-02
         0.19772E-01
         0.43147E-01
         0.94545E-01
         0.18531E+00
         0.25816E+00
         0.28948E+00
         0.27600E+00
         0.20319E+00
         0.12256E+00
         0.73227E-01
         0.48889E-01
         0.41438E-01
         0.41564E-01
         0.43105E-01
         0.41119E-01
         0.33310E-01
         0.28655E-01
         0.35178E-01
         0.51134E-01
         0.55438E-01
         0.36550E-01
        -0.18525E-02
         0.22989E-02
         0.36599E-02
         0.18353E-02
         0.96996E-02
         0.14106E-01
         0.18571E-02
        -0.13362E-02
        -0.38996E-02
        -0.93823E-03
         0.10330E-02
         0.22203E-02
         0.41722E-02
         0.49004E-03
         0.57213E-02
        -0.52641E-02
        -0.66102E-03
        -0.37027E-02
        -0.64871E-03
         0.13163E-01
         0.11074E-01
         0.34844E-01
         0.29629E-02
        -0.29514E-02
         0.87414E-02
        -0.13262E-02
         0.69903E-02
         0.25361E-01
         0.56743E-01
         0.32441E-01
         0.25470E-02
         0.49400E-02
         0.44980E-02
         0.10267E-01
         0.69428E-02
         0.53333E-02
         0.52807E-02
         0.22757E-01
         0.51746E-01
         0.90543E-01
         0.12474E+00
         0.10016E+00
         0.66303E-01
         0.49831E-02
         0.93937E-02
         0.12017E-01
         0.11152E-01
         0.12128E-01
         0.16080E-01
         0.21374E-01
         0.25231E-01
         0.19777E-01
         0.75022E-02
         0.16109E-01
         0.57609E-02
         0.61622E-02
         0.43244E-02
         0.17895E-02
         0.11273E-01
         0.46315E-01
         0.10556E+00
         0.15694E+00
         0.18439E+00
         0.16425E+00
         0.10316E+00
         0.53037E-01
         0.27754E-01
         0.17861E-01
         0.16663E-01
         0.16095E-01
         0.13718E-01
         0.14230E-01
         0.18902E-01
         0.26756E-01
         0.33211E-01
         0.34858E-01
         0.30044E-01
         0.24116E-01
        -0.12483E-02
         0.77397E-03
         0.30326E-02
         0.32207E-03
         0.85509E-02
         0.77443E-02
        -0.33124E-03
        -0.11695E-02
        -0.19046E-02
         0.49370E-05
        -0.14530E-02
        -0.22201E-02
         0.10960E-03
        -0.11266E-02
        -0.10671E-02
        -0.29593E-02
         0.23830E-03
        -0.26437E-02
        -0.15154E-02
         0.52565E-02
         0.85571E-04
         0.10324E-01
        -0.28422E-02
        -0.34728E-02
         0.48704E-02
        -0.24302E-02
         0.30117E-02
         0.11738E-01
         0.24536E-01
         0.13917E-01
        -0.62396E-03
        -0.90493E-04
         0.44711E-03
         0.36165E-02
         0.79020E-02
         0.37541E-02
         0.16398E-02
         0.74577E-02
         0.21337E-01
         0.38426E-01
         0.51950E-01
         0.40257E-01
         0.24511E-01
        -0.12151E-02
         0.89440E-03
         0.23483E-02
         0.26939E-02
         0.38016E-02
         0.63245E-02
         0.95390E-02
         0.11673E-01
         0.89161E-02
         0.11099E-01
         0.15917E-01
         0.27716E-02
         0.16982E-02
        -0.22223E-03
        -0.48546E-02
        -0.27880E-02
         0.13631E-01
         0.41194E-01
         0.65293E-01
         0.77730E-01
         0.64720E-01
         0.34606E-01
         0.12423E-01
         0.29374E-02
         0.87803E-03
         0.22852E-02
         0.29132E-02
         0.29156E-02
         0.45301E-02
         0.87391E-02
         0.14496E-01
         0.18386E-01
         0.17385E-01
         0.13257E-01
         0.12840E-01
        -0.52419E-03
         0.30038E-03
         0.20867E-02
         0.59162E-03
         0.65141E-02
         0.61835E-02
        -0.37371E-03
        -0.33252E-03
        -0.52515E-03
         0.80571E-03
        -0.12471E-02
        -0.23345E-02
        -0.58907E-03
        -0.95546E-03
        -0.30572E-02
        -0.11098E-02
         0.79772E-03
        -0.11540E-02
        -0.12995E-02
         0.14378E-02
        -0.35196E-02
        -0.11537E-02
        -0.34775E-02
        -0.24510E-02
         0.26466E-02
        -0.12863E-02
         0.10093E-02
         0.36355E-02
         0.56638E-02
         0.37404E-02
         0.18897E-03
         0.38526E-03
         0.74197E-03
         0.27767E-02
         0.53593E-02
         0.17749E-02
         0.22268E-03
        -0.94481E-03
         0.29208E-02
         0.64865E-02
         0.75004E-02
         0.56389E-02
         0.21243E-02
        -0.15359E-02
         0.46377E-03
         0.22255E-02
         0.28264E-02
         0.34425E-02
         0.47041E-02
         0.66587E-02
         0.84986E-02
         0.68867E-02
         0.75782E-02
         0.12479E-01
         0.29933E-03
        -0.10105E-03
        -0.12073E-02
        -0.47119E-02
        -0.69910E-02
        -0.53153E-02
         0.54514E-03
         0.54966E-02
         0.75811E-02
         0.38631E-02
        -0.32036E-02
        -0.61295E-02
        -0.55505E-02
        -0.36311E-02
        -0.71487E-03
         0.12655E-02
         0.30095E-02
         0.46886E-02
         0.68755E-02
         0.97605E-02
         0.12274E-01
         0.12792E-01
         0.11095E-01
         0.10751E-01
        -0.93709E-04
         0.40223E-03
         0.19107E-02
         0.98120E-03
         0.59590E-02
         0.63486E-02
        -0.23613E-04
         0.29163E-03
         0.13526E-03
         0.12970E-02
        -0.86668E-03
        -0.21616E-02
        -0.46748E-03
        -0.70496E-03
        -0.38817E-02
        -0.36462E-03
         0.11463E-02
        -0.55236E-03
        -0.97138E-03
        -0.22153E-04
        -0.46640E-02
        -0.58727E-02
        -0.33789E-02
        -0.17965E-02
         0.17681E-02
        -0.78163E-03
         0.17164E-03
         0.27501E-04
        -0.27896E-02
        -0.62906E-03
         0.53517E-03
         0.51738E-03
         0.12154E-02
         0.32936E-02
         0.45626E-02
         0.14657E-02
         0.16688E-03
        -0.45821E-02
        -0.52796E-02
        -0.81958E-02
        -0.13236E-01
        -0.10089E-01
        -0.77129E-02
        -0.15053E-02
         0.31592E-03
         0.21598E-02
         0.28736E-02
         0.35989E-02
         0.49349E-02
         0.69217E-02
         0.88477E-02
         0.73828E-02
         0.63366E-02
         0.11188E-01
         0.27498E-03
        -0.20143E-03
        -0.11777E-02
        -0.44135E-02
        -0.88718E-02
        -0.13558E-01
        -0.17394E-01
        -0.22888E-01
        -0.26769E-01
        -0.25278E-01
        -0.20438E-01
        -0.14154E-01
        -0.90061E-02
        -0.50995E-02
        -0.16667E-02
         0.71990E-03
         0.31113E-02
         0.48980E-02
         0.67619E-02
         0.94823E-02
         0.11939E-01
         0.12869E-01
         0.11791E-01
         0.10996E-01
         0.82298E-04
         0.53979E-03
         0.21295E-02
         0.11545E-02
         0.65275E-02
         0.70877E-02
         0.17579E-03
         0.60009E-03
         0.42996E-03
         0.15615E-02
        -0.73428E-03
        -0.22034E-02
        -0.39015E-03
        -0.65964E-03
        -0.44092E-02
        -0.62993E-04
         0.14414E-02
        -0.45412E-03
        -0.11526E-02
        -0.74232E-03
        -0.66125E-02
        -0.90175E-02
        -0.46162E-02
        -0.20556E-02
         0.15772E-02
        -0.81220E-03
        -0.22193E-03
        -0.12935E-02
        -0.58202E-02
        -0.22893E-02
         0.46379E-03
         0.31733E-03
         0.13075E-02
         0.38166E-02
         0.50750E-02
         0.17353E-02
         0.27405E-03
        -0.62304E-02
        -0.84963E-02
        -0.13477E-01
        -0.20755E-01
        -0.16206E-01
        -0.12296E-01
        -0.22437E-02
        -0.20300E-03
         0.17836E-02
         0.26075E-02
         0.35481E-02
         0.53908E-02
         0.80141E-02
         0.10341E-01
         0.84997E-02
         0.71028E-02
         0.12084E-01
         0.67472E-03
        -0.74910E-04
        -0.11187E-02
        -0.45554E-02
        -0.98781E-02
        -0.17110E-01
        -0.24730E-01
        -0.33379E-01
        -0.39221E-01
        -0.37057E-01
        -0.29357E-01
        -0.20607E-01
        -0.13741E-01
        -0.82089E-02
        -0.34902E-02
        -0.22289E-03
         0.27716E-02
         0.47722E-02
         0.71159E-02
         0.10824E-01
         0.14128E-01
         0.15107E-01
         0.13316E-01
         0.12001E-01
         0.13241E-03
         0.70978E-03
         0.26779E-02
         0.13278E-02
         0.80218E-02
         0.85164E-02
         0.32245E-03
         0.81493E-03
         0.58321E-03
         0.18602E-02
        -0.64035E-03
        -0.22551E-02
        -0.31171E-03
        -0.56076E-03
        -0.47552E-02
         0.54701E-04
         0.17434E-02
        -0.52201E-03
        -0.16280E-02
        -0.12507E-02
        -0.89352E-02
        -0.12005E-01
        -0.61882E-02
        -0.26826E-02
         0.17481E-02
        -0.95167E-03
        -0.26767E-03
        -0.17733E-02
        -0.71253E-02
        -0.30132E-02
         0.53689E-03
         0.40273E-03
         0.14132E-02
         0.43730E-02
         0.64504E-02
         0.23706E-02
         0.48553E-03
        -0.72001E-02
        -0.10379E-01
        -0.16358E-01
        -0.24487E-01
        -0.19343E-01
        -0.15507E-01
        -0.29728E-02
        -0.33303E-03
         0.21113E-02
         0.31039E-02
         0.41551E-02
         0.62649E-02
         0.93765E-02
         0.12256E-01
         0.10099E-01
         0.91061E-02
         0.14743E-01
         0.13638E-02
         0.20825E-03
        -0.11190E-02
        -0.48406E-02
        -0.10820E-01
        -0.19651E-01
        -0.29988E-01
        -0.40491E-01
        -0.45614E-01
        -0.43271E-01
        -0.36951E-01
        -0.27086E-01
        -0.18421E-01
        -0.11185E-01
        -0.48652E-02
        -0.47753E-03
         0.32744E-02
         0.56867E-02
         0.85961E-02
         0.13009E-01
         0.16943E-01
         0.18115E-01
         0.15957E-01
         0.14404E-01
         0.14781E-03
         0.89567E-03
         0.30215E-02
         0.13866E-02
         0.87393E-02
         0.91255E-02
         0.51257E-03
         0.97519E-03
         0.62474E-03
         0.20896E-02
        -0.44911E-03
        -0.20401E-02
        -0.43491E-04
        -0.38711E-03
        -0.47104E-02
        -0.17551E-04
         0.18164E-02
        -0.60621E-03
        -0.18260E-02
        -0.15001E-02
        -0.94554E-02
        -0.13104E-01
        -0.64425E-02
        -0.28723E-02
         0.18193E-02
        -0.99421E-03
        -0.15051E-03
        -0.21429E-02
        -0.85809E-02
        -0.36403E-02
         0.71008E-03
         0.64082E-03
         0.15886E-02
         0.46436E-02
         0.72910E-02
         0.29637E-02
         0.85301E-03
        -0.76087E-02
        -0.11803E-01
        -0.19473E-01
        -0.29050E-01
        -0.22473E-01
        -0.17446E-01
        -0.29846E-02
         0.21709E-05
         0.28034E-02
         0.38709E-02
         0.49900E-02
         0.70887E-02
         0.10111E-01
         0.13013E-01
         0.10726E-01
         0.10340E-01
         0.15962E-01
         0.22417E-02
         0.68072E-03
        -0.86834E-03
        -0.46815E-02
        -0.10912E-01
        -0.20923E-01
        -0.33926E-01
        -0.47982E-01
        -0.54120E-01
        -0.49533E-01
        -0.40846E-01
        -0.28848E-01
        -0.19005E-01
        -0.11401E-01
        -0.47412E-02
         0.15721E-03
         0.42696E-02
         0.69186E-02
         0.10166E-01
         0.14696E-01
         0.18323E-01
         0.19180E-01
         0.17041E-01
         0.15506E-01
         0.93369E-04
         0.91634E-03
         0.31360E-02
         0.13989E-02
         0.89560E-02
         0.91921E-02
         0.53292E-03
         0.95496E-03
         0.55878E-03
         0.21482E-02
        -0.37706E-03
        -0.18626E-02
         0.10136E-03
        -0.33283E-03
        -0.46826E-02
        -0.13372E-03
         0.17163E-02
        -0.65044E-03
        -0.18281E-02
        -0.17139E-02
        -0.91435E-02
        -0.13429E-01
        -0.61207E-02
        -0.27833E-02
         0.17645E-02
        -0.98337E-03
        -0.48409E-04
        -0.23198E-02
        -0.97236E-02
        -0.42807E-02
         0.81935E-03
         0.77509E-03
         0.17537E-02
         0.47585E-02
         0.76974E-02
         0.32763E-02
         0.10146E-02
        -0.77387E-02
        -0.12352E-01
        -0.21313E-01
        -0.32533E-01
        -0.25191E-01
        -0.18930E-01
        -0.27475E-02
         0.31643E-03
         0.32424E-02
         0.42766E-02
         0.54359E-02
         0.75439E-02
         0.10387E-01
         0.13061E-01
         0.10730E-01
         0.11007E-01
         0.16350E-01
         0.28350E-02
         0.95904E-03
        -0.59182E-03
        -0.42966E-02
        -0.11005E-01
        -0.21793E-01
        -0.35534E-01
        -0.51889E-01
        -0.60832E-01
        -0.55554E-01
        -0.43638E-01
        -0.28899E-01
        -0.18259E-01
        -0.10808E-01
        -0.42602E-02
         0.77861E-03
         0.49303E-02
         0.75599E-02
         0.10847E-01
         0.15409E-01
         0.18676E-01
         0.19063E-01
         0.16989E-01
         0.15670E-01
         0.63572E-04
         0.78361E-03
         0.30836E-02
         0.14615E-02
         0.91317E-02
         0.94571E-02
         0.41875E-03
         0.87452E-03
         0.50327E-03
         0.20465E-02
        -0.45227E-03
        -0.19687E-02
        -0.84113E-04
        -0.41711E-03
        -0.48828E-02
        -0.19030E-03
         0.16072E-02
        -0.64068E-03
        -0.17278E-02
        -0.18483E-02
        -0.88179E-02
        -0.13639E-01
        -0.57420E-02
        -0.26052E-02
         0.16068E-02
        -0.99005E-03
        -0.15580E-03
        -0.24163E-02
        -0.10009E-01
        -0.46478E-02
         0.73841E-03
         0.63799E-03
         0.17648E-02
         0.48652E-02
         0.76724E-02
         0.30378E-02
         0.72167E-03
        -0.79135E-02
        -0.12273E-01
        -0.21139E-01
        -0.33002E-01
        -0.26219E-01
        -0.19804E-01
        -0.25823E-02
         0.25722E-03
         0.30352E-02
         0.40421E-02
         0.52374E-02
         0.74244E-02
         0.10407E-01
         0.13219E-01
         0.10970E-01
         0.11042E-01
         0.16905E-01
         0.23623E-02
         0.52250E-03
        -0.79356E-03
        -0.44042E-02
        -0.11650E-01
        -0.22561E-01
        -0.35347E-01
        -0.50942E-01
        -0.61779E-01
        -0.58752E-01
        -0.45957E-01
        -0.29464E-01
        -0.17872E-01
        -0.10286E-01
        -0.39380E-02
         0.80369E-03
         0.47126E-02
         0.72560E-02
         0.10410E-01
         0.14968E-01
         0.18523E-01
         0.19245E-01
         0.17463E-01
         0.16312E-01
         0.98805E-04
         0.68117E-03
         0.27830E-02
         0.12934E-02
         0.86964E-02
         0.90717E-02
         0.40499E-03
         0.87165E-03
         0.52089E-03
         0.19079E-02
        -0.52163E-03
        -0.21365E-02
        -0.26291E-03
        -0.58987E-03
        -0.51958E-02
        -0.25334E-03
         0.15563E-02
        -0.66526E-03
        -0.16796E-02
        -0.18540E-02
        -0.84546E-02
        -0.13344E-01
        -0.55072E-02
        -0.25549E-02
         0.13946E-02
        -0.10724E-02
        -0.52667E-03
        -0.28689E-02
        -0.10410E-01
        -0.48168E-02
         0.65241E-03
         0.50508E-03
         0.16146E-02
         0.45572E-02
         0.71309E-02
         0.25395E-02
         0.37051E-03
        -0.83399E-02
        -0.12830E-01
        -0.21752E-01
        -0.33592E-01
        -0.26567E-01
        -0.19817E-01
        -0.25860E-02
         0.13117E-03
         0.28555E-02
         0.38811E-02
         0.50600E-02
         0.70726E-02
         0.98981E-02
         0.12707E-01
         0.10541E-01
         0.10400E-01
         0.16470E-01
         0.15585E-02
        -0.12509E-03
        -0.11843E-02
        -0.47453E-02
        -0.12156E-01
        -0.22858E-01
        -0.35598E-01
        -0.51790E-01
        -0.62730E-01
        -0.59325E-01
        -0.45538E-01
        -0.28599E-01
        -0.16989E-01
        -0.97261E-02
        -0.38775E-02
         0.72913E-03
         0.45597E-02
         0.70712E-02
         0.10052E-01
         0.14206E-01
         0.17648E-01
         0.18674E-01
         0.17087E-01
         0.15938E-01
         0.19523E-03
         0.73822E-03
         0.25927E-02
         0.11030E-02
         0.79116E-02
         0.79769E-02
         0.46696E-03
         0.89460E-03
         0.60383E-03
         0.18638E-02
        -0.58413E-03
        -0.22688E-02
        -0.31207E-03
        -0.77346E-03
        -0.54667E-02
        -0.19472E-03
         0.16326E-02
        -0.58332E-03
        -0.16981E-02
        -0.16928E-02
        -0.84901E-02
        -0.12943E-01
        -0.56414E-02
        -0.26523E-02
         0.14233E-02
        -0.10843E-02
        -0.77790E-03
        -0.30576E-02
        -0.10478E-01
        -0.45929E-02
         0.75447E-03
         0.60340E-03
         0.15506E-02
         0.40370E-02
         0.66657E-02
         0.23990E-02
         0.32037E-03
        -0.87012E-02
        -0.13306E-01
        -0.22305E-01
        -0.33932E-01
        -0.26168E-01
        -0.19044E-01
        -0.26938E-02
         0.14439E-03
         0.29507E-02
         0.40048E-02
         0.50901E-02
         0.67732E-02
         0.90707E-02
         0.11374E-01
         0.92401E-02
         0.97869E-02
         0.14992E-01
         0.14153E-02
        -0.39310E-03
        -0.14664E-02
        -0.49936E-02
        -0.12202E-01
        -0.22839E-01
        -0.36034E-01
        -0.52821E-01
        -0.63253E-01
        -0.57587E-01
        -0.43173E-01
        -0.28016E-01
        -0.16900E-01
        -0.96704E-02
        -0.40073E-02
         0.70071E-03
         0.46464E-02
         0.71705E-02
         0.99850E-02
         0.13532E-01
         0.16291E-01
         0.16803E-01
         0.14947E-01
         0.13939E-01
         0.32703E-03
         0.85143E-03
         0.25712E-02
         0.11657E-02
         0.73647E-02
         0.72996E-02
         0.54752E-03
         0.93442E-03
         0.73888E-03
         0.18864E-02
        -0.46934E-03
        -0.19940E-02
        -0.14441E-03
        -0.65952E-03
        -0.50131E-02
         0.49181E-04
         0.16889E-02
        -0.30626E-03
        -0.18306E-02
        -0.18143E-02
        -0.91662E-02
        -0.13347E-01
        -0.60504E-02
        -0.27727E-02
         0.14461E-02
        -0.96709E-03
        -0.65679E-03
        -0.28773E-02
        -0.10057E-01
        -0.44602E-02
         0.95192E-03
         0.75516E-03
         0.16626E-02
         0.38481E-02
         0.63723E-02
         0.24786E-02
         0.50613E-03
        -0.82838E-02
        -0.13002E-01
        -0.21695E-01
        -0.32665E-01
        -0.25071E-01
        -0.18588E-01
        -0.28031E-02
         0.13260E-03
         0.28917E-02
         0.39507E-02
         0.49472E-02
         0.64657E-02
         0.84844E-02
         0.10475E-01
         0.84470E-02
         0.92876E-02
         0.13737E-01
         0.16215E-02
        -0.18955E-03
        -0.12465E-02
        -0.44638E-02
        -0.10987E-01
        -0.21664E-01
        -0.35868E-01
        -0.52028E-01
        -0.60814E-01
        -0.54446E-01
        -0.41813E-01
        -0.29097E-01
        -0.18203E-01
        -0.10336E-01
        -0.42274E-02
         0.50738E-03
         0.43954E-02
         0.68152E-02
         0.94323E-02
         0.12664E-01
         0.15113E-01
         0.15404E-01
         0.13521E-01
         0.12556E-01
         0.33844E-03
         0.77090E-03
         0.23758E-02
         0.11088E-02
         0.68862E-02
         0.68197E-02
         0.54766E-03
         0.98890E-03
         0.77448E-03
         0.19185E-02
        -0.15496E-03
        -0.13397E-02
         0.11985E-04
        -0.16799E-03
        -0.37329E-02
         0.14246E-03
         0.15794E-02
        -0.22011E-03
        -0.19270E-02
        -0.21469E-02
        -0.93101E-02
        -0.13686E-01
        -0.60010E-02
        -0.27046E-02
         0.12801E-02
        -0.86674E-03
        -0.22884E-03
        -0.27946E-02
        -0.10239E-01
        -0.47798E-02
         0.90727E-03
         0.74138E-03
         0.15362E-02
         0.35705E-02
         0.59559E-02
         0.23125E-02
         0.51902E-03
        -0.70017E-02
        -0.12400E-01
        -0.21805E-01
        -0.32928E-01
        -0.25205E-01
        -0.18836E-01
        -0.27493E-02
         0.85674E-04
         0.27176E-02
         0.36860E-02
         0.44887E-02
         0.58324E-02
         0.77607E-02
         0.96862E-02
         0.78533E-02
         0.87119E-02
         0.12938E-01
         0.15279E-02
         0.27467E-05
        -0.76565E-03
        -0.32428E-02
        -0.86865E-02
        -0.19032E-01
        -0.34774E-01
        -0.52821E-01
        -0.61617E-01
        -0.54044E-01
        -0.41472E-01
        -0.29074E-01
        -0.18188E-01
        -0.10376E-01
        -0.43425E-02
         0.27961E-03
         0.40994E-02
         0.62652E-02
         0.83877E-02
         0.11202E-01
         0.13694E-01
         0.14260E-01
         0.12649E-01
         0.11837E-01
         0.35539E-03
         0.67534E-03
         0.20714E-02
         0.87310E-03
         0.63013E-02
         0.60376E-02
         0.55347E-03
         0.10310E-02
         0.73048E-03
         0.18422E-02
         0.48869E-05
        -0.10548E-02
         0.54322E-05
         0.10344E-03
        -0.29412E-02
         0.39853E-04
         0.13502E-02
        -0.30938E-03
        -0.17185E-02
        -0.21698E-02
        -0.81098E-02
        -0.12464E-01
        -0.52035E-02
        -0.23694E-02
         0.97540E-03
        -0.86398E-03
         0.13189E-04
        -0.28130E-02
        -0.10571E-01
        -0.50613E-02
         0.62079E-03
         0.51660E-03
         0.11132E-02
         0.28344E-02
         0.53088E-02
         0.18422E-02
         0.31145E-03
        -0.58644E-02
        -0.11471E-01
        -0.21566E-01
        -0.33273E-01
        -0.25438E-01
        -0.18267E-01
        -0.25402E-02
        -0.44979E-04
         0.24309E-02
         0.32351E-02
         0.37617E-02
         0.47572E-02
         0.63243E-02
         0.79887E-02
         0.65968E-02
         0.78109E-02
         0.12198E-01
         0.73680E-03
        -0.28887E-03
        -0.65038E-03
        -0.27097E-02
        -0.72034E-02
        -0.16245E-01
        -0.31780E-01
        -0.51292E-01
        -0.62279E-01
        -0.54164E-01
        -0.38867E-01
        -0.25564E-01
        -0.15780E-01
        -0.91191E-02
        -0.41037E-02
         0.12383E-03
         0.38404E-02
         0.56171E-02
         0.70163E-02
         0.91165E-02
         0.11231E-01
         0.11850E-01
         0.10854E-01
         0.10819E-01
         0.41304E-03
         0.50650E-03
         0.13500E-02
         0.33166E-03
         0.48469E-02
         0.44118E-02
         0.43864E-03
         0.98552E-03
         0.69593E-03
         0.16303E-02
        -0.40532E-03
        -0.18228E-02
        -0.44911E-03
        -0.35549E-03
        -0.39137E-02
        -0.60955E-04
         0.11566E-02
        -0.49250E-03
        -0.14089E-02
        -0.20281E-02
        -0.67822E-02
        -0.11020E-01
        -0.43330E-02
        -0.19960E-02
         0.57349E-03
        -0.90895E-03
        -0.51933E-03
        -0.34987E-02
        -0.11552E-01
        -0.54042E-02
         0.35089E-04
        -0.24224E-05
         0.24264E-03
         0.13861E-02
         0.34559E-02
         0.39611E-03
        -0.41046E-03
        -0.67281E-02
        -0.12404E-01
        -0.22964E-01
        -0.35376E-01
        -0.26713E-01
        -0.17893E-01
        -0.23546E-02
        -0.49559E-03
         0.14690E-02
         0.20257E-02
         0.22303E-02
         0.27822E-02
         0.38123E-02
         0.50919E-02
         0.43232E-02
         0.50401E-02
         0.10222E-01
        -0.19733E-02
        -0.15166E-02
        -0.13720E-02
        -0.38668E-02
        -0.87145E-02
        -0.17326E-01
        -0.32729E-01
        -0.53021E-01
        -0.65930E-01
        -0.56967E-01
        -0.36794E-01
        -0.21875E-01
        -0.13378E-01
        -0.76062E-02
        -0.36326E-02
        -0.38573E-03
         0.26520E-02
         0.38126E-02
         0.44759E-02
         0.57933E-02
         0.73404E-02
         0.80212E-02
         0.78313E-02
         0.86329E-02
         0.47787E-03
        -0.30044E-04
        -0.44561E-03
        -0.11454E-02
         0.12313E-02
         0.15179E-03
        -0.55279E-05
         0.80932E-03
         0.76266E-03
         0.13497E-02
        -0.15573E-02
        -0.38746E-02
        -0.18280E-02
        -0.16481E-02
        -0.66969E-02
        -0.21956E-03
         0.12147E-02
        -0.94777E-03
        -0.14456E-02
        -0.19738E-02
        -0.73586E-02
        -0.11678E-01
        -0.49707E-02
        -0.23332E-02
         0.27937E-03
        -0.14551E-02
        -0.18871E-02
        -0.47917E-02
        -0.12995E-01
        -0.58549E-02
        -0.12614E-02
        -0.13184E-02
        -0.17424E-02
        -0.20136E-02
        -0.44593E-03
        -0.27162E-02
        -0.22852E-02
        -0.96337E-02
        -0.15136E-01
        -0.25677E-01
        -0.38821E-01
        -0.29426E-01
        -0.19487E-01
        -0.31292E-02
        -0.20119E-02
        -0.10176E-02
        -0.70113E-03
        -0.90075E-03
        -0.12424E-02
        -0.14962E-02
        -0.12292E-02
        -0.10767E-02
        -0.25584E-03
         0.52052E-02
        -0.74405E-02
        -0.48706E-02
        -0.37508E-02
        -0.69471E-02
        -0.13069E-01
        -0.22148E-01
        -0.37117E-01
        -0.57405E-01
        -0.71920E-01
        -0.64388E-01
        -0.41528E-01
        -0.24405E-01
        -0.15200E-01
        -0.85512E-02
        -0.41640E-02
        -0.21127E-02
        -0.56427E-03
        -0.33044E-03
        -0.47481E-03
        -0.50243E-03
        -0.29750E-03
        -0.69364E-05
         0.57940E-03
         0.24373E-02
         0.86446E-03
        -0.27932E-03
        -0.23521E-02
        -0.25859E-02
        -0.36844E-02
        -0.56576E-02
        -0.14771E-03
         0.86013E-03
         0.11109E-02
         0.12603E-02
        -0.24370E-02
        -0.55452E-02
        -0.30057E-02
        -0.27069E-02
        -0.87755E-02
        -0.22995E-04
         0.17981E-02
        -0.93238E-03
        -0.23945E-02
        -0.21821E-02
        -0.12099E-01
        -0.16364E-01
        -0.87882E-02
        -0.41090E-02
         0.53025E-03
        -0.21993E-02
        -0.28771E-02
        -0.52903E-02
        -0.13380E-01
        -0.60891E-02
        -0.17487E-02
        -0.21905E-02
        -0.29410E-02
        -0.53008E-02
        -0.46699E-02
        -0.54417E-02
        -0.38333E-02
        -0.11340E-01
        -0.15894E-01
        -0.25509E-01
        -0.39331E-01
        -0.32145E-01
        -0.23875E-01
        -0.52079E-02
        -0.37876E-02
        -0.35902E-02
        -0.29491E-02
        -0.28551E-02
        -0.38449E-02
        -0.61141E-02
        -0.79548E-02
        -0.76616E-02
        -0.57863E-02
        -0.27161E-02
        -0.11637E-01
        -0.80669E-02
        -0.61617E-02
        -0.92610E-02
        -0.15666E-01
        -0.24093E-01
        -0.36230E-01
        -0.53854E-01
        -0.70963E-01
        -0.73312E-01
        -0.56085E-01
        -0.37705E-01
        -0.25143E-01
        -0.14596E-01
        -0.67599E-02
        -0.45074E-02
        -0.45794E-02
        -0.49611E-02
        -0.44728E-02
        -0.48360E-02
        -0.66740E-02
        -0.86806E-02
        -0.91300E-02
        -0.71198E-02
         0.18578E-02
         0.14508E-02
        -0.59808E-03
         0.55106E-03
        -0.56619E-02
        -0.52728E-02
         0.13949E-02
         0.18009E-02
         0.25829E-02
         0.31690E-02
         0.57213E-03
        -0.77740E-03
         0.63142E-03
         0.60526E-03
        -0.27693E-02
         0.34061E-02
         0.44220E-02
         0.28388E-02
        -0.37556E-02
        -0.45454E-02
        -0.26553E-01
        -0.35629E-01
        -0.17884E-01
        -0.62084E-02
         0.27381E-02
        -0.32634E-03
         0.11843E-02
        -0.23240E-02
        -0.15930E-01
        -0.94226E-02
         0.41229E-02
         0.23086E-02
         0.41025E-02
         0.13010E-02
        -0.41092E-02
        -0.71699E-03
         0.88351E-03
        -0.47852E-02
        -0.10492E-01
        -0.25558E-01
        -0.48964E-01
        -0.47823E-01
        -0.43702E-01
        -0.80736E-02
        -0.19319E-02
         0.35515E-03
         0.31049E-02
         0.56374E-02
         0.68026E-02
         0.42011E-02
         0.34796E-03
        -0.31849E-02
        -0.67657E-02
        -0.11115E-01
        -0.17642E-02
        -0.84228E-03
        -0.18114E-02
        -0.41186E-02
        -0.86177E-02
        -0.15312E-01
        -0.26832E-01
        -0.50793E-01
        -0.85335E-01
        -0.11125E+00
        -0.10597E+00
        -0.83939E-01
        -0.59265E-01
        -0.35825E-01
        -0.16251E-01
        -0.54806E-02
        -0.27109E-02
        -0.18774E-02
         0.31899E-02
         0.76185E-02
         0.63252E-02
         0.68378E-03
        -0.56773E-02
        -0.10013E-01
         0.27473E-02
         0.53990E-02
         0.63223E-02
         0.10943E-01
        -0.36050E-02
         0.52273E-02
         0.45261E-02
         0.30883E-02
         0.56303E-02
         0.78364E-02
         0.86382E-02
         0.12715E-01
         0.10762E-01
         0.97688E-02
         0.13853E-01
         0.12832E-01
         0.10082E-01
         0.13041E-01
        -0.35049E-02
        -0.11282E-01
        -0.51364E-01
        -0.78058E-01
        -0.30474E-01
        -0.59162E-02
         0.68811E-02
         0.62075E-02
         0.12621E-01
         0.42397E-02
        -0.26985E-01
        -0.21616E-01
         0.19073E-01
         0.13846E-01
         0.23629E-01
         0.23078E-01
         0.23402E-02
         0.13842E-01
         0.14133E-01
         0.12108E-01
        -0.10156E-03
        -0.32660E-01
        -0.77975E-01
        -0.87674E-01
        -0.91333E-01
        -0.10814E-01
         0.43251E-02
         0.11228E-01
         0.18073E-01
         0.26195E-01
         0.33645E-01
         0.32781E-01
         0.27501E-01
         0.18012E-01
        -0.30191E-02
        -0.19596E-01
         0.24521E-01
         0.19725E-01
         0.11470E-01
         0.98844E-02
         0.74346E-02
         0.74685E-03
        -0.16321E-01
        -0.58716E-01
        -0.12788E+00
        -0.18875E+00
        -0.19934E+00
        -0.17127E+00
        -0.12179E+00
        -0.73537E-01
        -0.34505E-01
        -0.61179E-02
         0.50620E-02
         0.82646E-02
         0.22311E-01
         0.36727E-01
         0.38515E-01
         0.29720E-01
         0.15914E-01
        -0.16186E-02
  
SCALARS                      strain_eq  double 1
LOOKUP_TABLE default
         0.30598E+00
         0.39925E+00
         0.38745E+00
         0.29318E+00
         0.34386E-09
         0.43046E-09
         0.38621E-09
         0.27433E-09
         0.46540E+00
         0.38438E+00
         0.47054E-09
         0.60254E-09
         0.38354E+00
         0.32305E+00
         0.25841E-09
         0.26723E-09
         0.24439E+00
         0.27984E+00
         0.24211E-09
         0.21019E-09
         0.36803E+00
         0.42886E+00
         0.44114E+00
         0.24131E-09
         0.43220E-09
         0.30556E-09
         0.30554E+00
         0.34630E+00
         0.26377E-09
         0.33820E-09
         0.20998E+00
         0.23965E+00
         0.22129E+00
         0.12727E-09
         0.14056E-09
         0.21456E-09
         0.23405E+00
         0.25242E+00
         0.14671E-09
         0.17947E-09
         0.31317E+00
         0.28825E+00
         0.20594E-09
         0.18768E-09
         0.33202E+00
         0.25817E+00
         0.26800E-09
         0.22171E-09
         0.27012E+00
         0.16155E-09
         0.25033E+00
         0.26033E-09
         0.25676E+00
         0.18332E-09
         0.24993E+00
         0.14846E-09
         0.26929E+00
         0.26559E+00
         0.33894E-09
         0.28561E-09
         0.23100E+00
         0.27852E+00
         0.15179E-09
         0.31368E-09
         0.21689E+00
         0.21576E-09
         0.23797E+00
         0.26115E-09
         0.55158E+00
         0.47596E+00
         0.73880E-09
         0.51251E-09
         0.43392E+00
         0.57149E-09
         0.24763E+00
         0.20175E-09
         0.31046E+00
         0.19957E-09
         0.51174E+00
         0.42707E-09
         0.81117E+00
         0.51102E+00
         0.59705E-09
         0.57169E-09
         0.32147E+00
         0.25712E-09
         0.34934E+00
         0.36272E-09
         0.36234E+00
         0.37902E-09
         0.36119E+00
         0.31265E+00
         0.31044E-09
         0.44692E-09
         0.25520E+00
         0.28750E-09
         0.22312E+00
         0.22807E-09
         0.24317E+00
         0.30138E-09
         0.30857E+00
         0.32733E+00
         0.39331E-09
         0.49346E-09
         0.77857E+00
         0.76187E+00
         0.15438E-08
         0.15197E-08
         0.55409E+00
         0.70878E-09
         0.37252E+00
         0.49821E-09
         0.31463E+00
         0.52321E-09
         0.35419E+00
         0.35887E-09
         0.36130E+00
         0.20496E-09
         0.40431E+00
         0.12804E-09
         0.81270E+00
         0.15684E-09
         0.14380E+01
         0.46537E-09
         0.15725E+01
         0.11871E-08
         0.10411E+01
         0.96695E-09
         0.70750E+00
         0.53692E-09
         0.52531E+00
         0.40751E-09
         0.46438E+00
         0.41421E-09
         0.48223E+00
         0.43894E-09
         0.58067E+00
         0.50521E-09
         0.61921E+00
         0.73090E-09
         0.49849E+00
         0.54951E-09
         0.38471E+00
         0.53660E-09
         0.32585E+00
         0.38827E-09
         0.30731E+00
         0.43947E-09
         0.36030E+00
         0.55329E-09
         0.44627E+00
         0.87328E-09
         0.49443E+00
         0.97062E-09
         0.51329E+00
         0.82185E-09
         0.20042E+00
         0.27573E+00
         0.27375E+00
         0.15568E+00
         0.37070E+00
         0.25769E+00
         0.31427E+00
         0.25497E+00
         0.15011E+00
         0.19586E+00
         0.31997E+00
         0.31850E+00
         0.31346E+00
         0.28388E+00
         0.34484E+00
         0.12097E+00
         0.14020E+00
         0.11726E+00
         0.16760E+00
         0.15620E+00
         0.32706E+00
         0.32184E+00
         0.35460E+00
         0.21731E+00
         0.18183E+00
         0.19952E+00
         0.26569E+00
         0.28737E+00
         0.36210E+00
         0.20632E+00
         0.14649E+00
         0.23183E+00
         0.12300E+00
         0.14437E+00
         0.46678E+00
         0.38396E+00
         0.32127E+00
         0.39808E+00
         0.47140E+00
         0.60628E+00
         0.77662E+00
         0.59178E+00
         0.41809E+00
         0.35882E+00
         0.37980E+00
         0.41007E+00
         0.30508E+00
         0.20482E+00
         0.19470E+00
         0.29509E+00
         0.40634E+00
         0.27217E+00
         0.66149E+00
         0.65302E+00
         0.50801E+00
         0.34624E+00
         0.25497E+00
         0.28013E+00
         0.39531E+00
         0.54861E+00
         0.82260E+00
         0.11822E+01
         0.12755E+01
         0.98302E+00
         0.70086E+00
         0.58566E+00
         0.59826E+00
         0.59936E+00
         0.61109E+00
         0.61262E+00
         0.57602E+00
         0.49434E+00
         0.43358E+00
         0.62527E+00
         0.91464E+00
         0.88908E+00
         0.63755E+00
         0.56293E+00
         0.73184E-01
         0.10053E+00
         0.15301E+00
         0.11028E+00
         0.28571E+00
         0.30039E+00
         0.10188E+00
         0.85955E-01
         0.57009E-01
         0.65426E-01
         0.13010E+00
         0.17415E+00
         0.12160E+00
         0.14615E+00
         0.26783E+00
         0.93208E-01
         0.64168E-01
         0.82359E-01
         0.63536E-01
         0.69473E-01
         0.12378E+00
         0.24099E+00
         0.11247E+00
         0.89570E-01
         0.76505E-01
         0.12307E+00
         0.17280E+00
         0.24160E+00
         0.38701E+00
         0.18781E+00
         0.11394E+00
         0.14792E+00
         0.13619E+00
         0.24676E+00
         0.33001E+00
         0.23797E+00
         0.14557E+00
         0.36445E+00
         0.47247E+00
         0.61274E+00
         0.72533E+00
         0.61261E+00
         0.42718E+00
         0.15290E+00
         0.20462E+00
         0.24374E+00
         0.20115E+00
         0.21412E+00
         0.33974E+00
         0.54072E+00
         0.70338E+00
         0.47258E+00
         0.50040E+00
         0.51468E+00
         0.39436E+00
         0.23718E+00
         0.16925E+00
         0.22376E+00
         0.36283E+00
         0.54386E+00
         0.72561E+00
         0.81083E+00
         0.75939E+00
         0.77582E+00
         0.70011E+00
         0.49529E+00
         0.31813E+00
         0.22159E+00
         0.23826E+00
         0.32801E+00
         0.35556E+00
         0.34181E+00
         0.46176E+00
         0.80202E+00
         0.12208E+01
         0.12834E+01
         0.94040E+00
         0.61633E+00
         0.83039E-01
         0.97195E-01
         0.11780E+00
         0.90595E-01
         0.16169E+00
         0.14172E+00
         0.93044E-01
         0.84108E-01
         0.70233E-01
         0.68093E-01
         0.99729E-01
         0.11908E+00
         0.99022E-01
         0.10186E+00
         0.17531E+00
         0.77877E-01
         0.63341E-01
         0.77865E-01
         0.62274E-01
         0.66135E-01
         0.89168E-01
         0.16750E+00
         0.74846E-01
         0.73810E-01
         0.64356E-01
         0.91164E-01
         0.11268E+00
         0.16113E+00
         0.26177E+00
         0.12546E+00
         0.88478E-01
         0.11138E+00
         0.89477E-01
         0.11514E+00
         0.19864E+00
         0.16223E+00
         0.11776E+00
         0.25392E+00
         0.35295E+00
         0.46872E+00
         0.56228E+00
         0.43481E+00
         0.29054E+00
         0.10183E+00
         0.14275E+00
         0.17798E+00
         0.15562E+00
         0.14147E+00
         0.14608E+00
         0.17599E+00
         0.21376E+00
         0.17091E+00
         0.27857E+00
         0.23468E+00
         0.23473E+00
         0.15470E+00
         0.11735E+00
         0.15442E+00
         0.27096E+00
         0.43822E+00
         0.61907E+00
         0.71593E+00
         0.72734E+00
         0.70048E+00
         0.56076E+00
         0.36578E+00
         0.20818E+00
         0.12349E+00
         0.13607E+00
         0.20385E+00
         0.24263E+00
         0.23823E+00
         0.22860E+00
         0.22953E+00
         0.27981E+00
         0.32117E+00
         0.28030E+00
         0.22537E+00
         0.20926E-01
         0.18347E-01
         0.15940E-01
         0.17174E-01
         0.34150E-01
         0.51148E-01
         0.19617E-01
         0.21601E-01
         0.23455E-01
         0.25087E-01
         0.23109E-01
         0.42321E-01
         0.24072E-01
         0.25338E-01
         0.81845E-01
         0.20306E-01
         0.30027E-01
         0.20976E-01
         0.23544E-01
         0.41868E-01
         0.46887E-01
         0.94491E-01
         0.29060E-01
         0.19137E-01
         0.31107E-01
         0.19498E-01
         0.39696E-01
         0.80430E-01
         0.15267E+00
         0.71076E-01
         0.27530E-01
         0.32114E-01
         0.31254E-01
         0.43922E-01
         0.40721E-01
         0.25625E-01
         0.19800E-01
         0.14175E+00
         0.21993E+00
         0.30998E+00
         0.38349E+00
         0.27381E+00
         0.17100E+00
         0.30803E-01
         0.44939E-01
         0.62693E-01
         0.60795E-01
         0.64577E-01
         0.76236E-01
         0.96954E-01
         0.12444E+00
         0.91356E-01
         0.76021E-01
         0.82791E-01
         0.50734E-01
         0.31131E-01
         0.37794E-01
         0.79359E-01
         0.16789E+00
         0.29748E+00
         0.45942E+00
         0.57655E+00
         0.59240E+00
         0.50411E+00
         0.35651E+00
         0.21424E+00
         0.11751E+00
         0.69037E-01
         0.65179E-01
         0.76254E-01
         0.89449E-01
         0.10602E+00
         0.12677E+00
         0.15874E+00
         0.18754E+00
         0.20448E+00
         0.18495E+00
         0.12868E+00
         0.13498E-01
         0.11899E-01
         0.12254E-01
         0.10789E-01
         0.23266E-01
         0.31335E-01
         0.12991E-01
         0.17384E-01
         0.17066E-01
         0.22358E-01
         0.10500E-01
         0.13884E-01
         0.10842E-01
         0.10585E-01
         0.31782E-01
         0.12698E-01
         0.21815E-01
         0.10824E-01
         0.16389E-01
         0.28261E-01
         0.20886E-01
         0.46440E-01
         0.12621E-01
         0.12075E-01
         0.26807E-01
         0.83465E-02
         0.16407E-01
         0.42636E-01
         0.90377E-01
         0.45059E-01
         0.72398E-02
         0.91908E-02
         0.11098E-01
         0.23472E-01
         0.23626E-01
         0.16573E-01
         0.12365E-01
         0.68840E-01
         0.12353E+00
         0.18970E+00
         0.24648E+00
         0.16895E+00
         0.95752E-01
         0.10234E-01
         0.15163E-01
         0.22635E-01
         0.20810E-01
         0.22128E-01
         0.31476E-01
         0.47922E-01
         0.64219E-01
         0.48670E-01
         0.40300E-01
         0.46599E-01
         0.29334E-01
         0.15265E-01
         0.14864E-01
         0.35521E-01
         0.84971E-01
         0.16933E+00
         0.28881E+00
         0.39006E+00
         0.41763E+00
         0.33809E+00
         0.20595E+00
         0.10507E+00
         0.52975E-01
         0.29347E-01
         0.23963E-01
         0.26377E-01
         0.32071E-01
         0.35368E-01
         0.43562E-01
         0.64601E-01
         0.91060E-01
         0.10522E+00
         0.93745E-01
         0.66844E-01
         0.66325E-02
         0.55829E-02
         0.54246E-02
         0.25091E-02
         0.10545E-01
         0.95455E-02
         0.70330E-02
         0.94951E-02
         0.82234E-02
         0.12301E-01
         0.77450E-02
         0.80438E-02
         0.59949E-02
         0.86184E-02
         0.11609E-01
         0.56340E-02
         0.10105E-01
         0.45149E-02
         0.73510E-02
         0.13199E-01
         0.84872E-02
         0.16502E-01
         0.80474E-02
         0.67437E-02
         0.15427E-01
         0.43402E-02
         0.10158E-01
         0.19355E-01
         0.38839E-01
         0.21387E-01
         0.16797E-02
         0.11631E-02
         0.24641E-02
         0.53987E-02
         0.10401E-01
         0.65495E-02
         0.54486E-02
         0.24865E-01
         0.50732E-01
         0.83571E-01
         0.11218E+00
         0.72901E-01
         0.37723E-01
         0.59325E-02
         0.40397E-02
         0.58501E-02
         0.65439E-02
         0.84406E-02
         0.10775E-01
         0.13608E-01
         0.15661E-01
         0.11670E-01
         0.15329E-01
         0.19978E-01
         0.80729E-02
         0.66760E-02
         0.67518E-02
         0.14051E-01
         0.32432E-01
         0.71604E-01
         0.13600E+00
         0.19483E+00
         0.21067E+00
         0.16087E+00
         0.85970E-01
         0.37658E-01
         0.20720E-01
         0.15425E-01
         0.12839E-01
         0.10098E-01
         0.87779E-02
         0.10956E-01
         0.15354E-01
         0.20959E-01
         0.24586E-01
         0.23138E-01
         0.18799E-01
         0.17342E-01
         0.22999E-02
         0.19713E-02
         0.26413E-02
         0.14542E-02
         0.79513E-02
         0.88186E-02
         0.26282E-02
         0.34712E-02
         0.25008E-02
         0.47527E-02
         0.38163E-02
         0.48525E-02
         0.32842E-02
         0.48566E-02
         0.71887E-02
         0.17185E-02
         0.29912E-02
         0.16393E-02
         0.23388E-02
         0.44602E-02
         0.60353E-02
         0.52934E-02
         0.64283E-02
         0.36319E-02
         0.68518E-02
         0.20249E-02
         0.64413E-02
         0.82480E-02
         0.99245E-02
         0.79771E-02
         0.19300E-02
         0.16135E-02
         0.35462E-02
         0.66475E-02
         0.62692E-02
         0.26165E-02
         0.29234E-02
         0.84486E-02
         0.10977E-01
         0.17306E-01
         0.23612E-01
         0.13563E-01
         0.66527E-02
         0.51097E-02
         0.41919E-02
         0.48399E-02
         0.45970E-02
         0.62835E-02
         0.94271E-02
         0.13039E-01
         0.15448E-01
         0.11929E-01
         0.89306E-02
         0.14899E-01
         0.46633E-02
         0.68518E-02
         0.63893E-02
         0.72214E-02
         0.12417E-01
         0.20799E-01
         0.35753E-01
         0.52143E-01
         0.54283E-01
         0.36896E-01
         0.17572E-01
         0.13412E-01
         0.13272E-01
         0.12209E-01
         0.11056E-01
         0.10117E-01
         0.86029E-02
         0.79060E-02
         0.10727E-01
         0.16427E-01
         0.20997E-01
         0.20870E-01
         0.16455E-01
         0.13867E-01
         0.11141E-02
         0.10762E-02
         0.22778E-02
         0.15317E-02
         0.73569E-02
         0.86335E-02
         0.95682E-03
         0.15468E-02
         0.76807E-03
         0.25063E-02
         0.17941E-02
         0.34079E-02
         0.26724E-02
         0.26965E-02
         0.66078E-02
         0.69633E-03
         0.15376E-02
         0.74618E-03
         0.17554E-02
         0.15149E-02
         0.63290E-02
         0.71866E-02
         0.56334E-02
         0.27750E-02
         0.31344E-02
         0.13266E-02
         0.42781E-02
         0.61572E-02
         0.92999E-02
         0.38094E-02
         0.12970E-02
         0.10508E-02
         0.27121E-02
         0.58144E-02
         0.55969E-02
         0.26700E-02
         0.28586E-02
         0.10792E-01
         0.14916E-01
         0.20096E-01
         0.25946E-01
         0.17463E-01
         0.10996E-01
         0.42050E-02
         0.33113E-02
         0.39501E-02
         0.36357E-02
         0.49827E-02
         0.78227E-02
         0.11176E-01
         0.13681E-01
         0.11105E-01
         0.88344E-02
         0.13979E-01
         0.68050E-02
         0.77512E-02
         0.71155E-02
         0.71597E-02
         0.12437E-01
         0.22667E-01
         0.33646E-01
         0.43707E-01
         0.47664E-01
         0.38697E-01
         0.27457E-01
         0.18497E-01
         0.13172E-01
         0.10425E-01
         0.89999E-02
         0.85986E-02
         0.79369E-02
         0.71598E-02
         0.83380E-02
         0.12755E-01
         0.16750E-01
         0.18150E-01
         0.16213E-01
         0.14294E-01
         0.11584E-02
         0.10768E-02
         0.25324E-02
         0.15865E-02
         0.83824E-02
         0.99656E-02
         0.88636E-03
         0.16785E-02
         0.96324E-03
         0.26651E-02
         0.14546E-02
         0.32095E-02
         0.27741E-02
         0.24093E-02
         0.71832E-02
         0.48216E-03
         0.20766E-02
         0.69079E-03
         0.22789E-02
         0.16963E-02
         0.86484E-02
         0.10524E-01
         0.72359E-02
         0.32821E-02
         0.23421E-02
         0.15388E-02
         0.42251E-02
         0.74172E-02
         0.14056E-01
         0.44200E-02
         0.84921E-03
         0.98122E-03
         0.24853E-02
         0.63401E-02
         0.66897E-02
         0.32118E-02
         0.29675E-02
         0.13887E-01
         0.21837E-01
         0.31802E-01
         0.42196E-01
         0.28426E-01
         0.16941E-01
         0.51788E-02
         0.39312E-02
         0.42868E-02
         0.36135E-02
         0.52295E-02
         0.88273E-02
         0.13153E-01
         0.16577E-01
         0.13147E-01
         0.10952E-01
         0.16355E-01
         0.77376E-02
         0.80652E-02
         0.77604E-02
         0.77256E-02
         0.14319E-01
         0.30286E-01
         0.50189E-01
         0.68942E-01
         0.77319E-01
         0.62064E-01
         0.39845E-01
         0.25036E-01
         0.18568E-01
         0.14308E-01
         0.11074E-01
         0.99605E-02
         0.85762E-02
         0.74317E-02
         0.95168E-02
         0.15521E-01
         0.21022E-01
         0.23325E-01
         0.20866E-01
         0.17678E-01
         0.13027E-02
         0.13779E-02
         0.31678E-02
         0.17889E-02
         0.10148E-01
         0.11824E-01
         0.11059E-02
         0.19334E-02
         0.11750E-02
         0.31000E-02
         0.15223E-02
         0.35954E-02
         0.33422E-02
         0.25890E-02
         0.83959E-02
         0.40889E-03
         0.26379E-02
         0.86838E-03
         0.30513E-02
         0.24002E-02
         0.11147E-01
         0.14027E-01
         0.91861E-02
         0.42371E-02
         0.24156E-02
         0.20465E-02
         0.47646E-02
         0.87257E-02
         0.16626E-01
         0.50599E-02
         0.11381E-02
         0.17539E-02
         0.29454E-02
         0.74436E-02
         0.82296E-02
         0.39434E-02
         0.35416E-02
         0.17122E-01
         0.27311E-01
         0.38973E-01
         0.50218E-01
         0.33402E-01
         0.20958E-01
         0.67273E-02
         0.54584E-02
         0.61250E-02
         0.52249E-02
         0.69372E-02
         0.11002E-01
         0.15892E-01
         0.19754E-01
         0.15545E-01
         0.12979E-01
         0.19520E-01
         0.85064E-02
         0.90347E-02
         0.87812E-02
         0.88671E-02
         0.17442E-01
         0.38322E-01
         0.64861E-01
         0.87146E-01
         0.92126E-01
         0.71688E-01
         0.49705E-01
         0.32554E-01
         0.22893E-01
         0.17270E-01
         0.13538E-01
         0.12223E-01
         0.10844E-01
         0.10044E-01
         0.13169E-01
         0.20065E-01
         0.25881E-01
         0.27737E-01
         0.24365E-01
         0.20800E-01
         0.12754E-02
         0.16912E-02
         0.35763E-02
         0.18846E-02
         0.10739E-01
         0.12382E-01
         0.12852E-02
         0.21182E-02
         0.12693E-02
         0.34948E-02
         0.16265E-02
         0.40708E-02
         0.35251E-02
         0.27413E-02
         0.96436E-02
         0.71850E-03
         0.31357E-02
         0.84790E-03
         0.36281E-02
         0.31955E-02
         0.11659E-01
         0.15271E-01
         0.94212E-02
         0.45192E-02
         0.25605E-02
         0.22228E-02
         0.52752E-02
         0.10155E-01
         0.19489E-01
         0.55827E-02
         0.17709E-02
         0.21717E-02
         0.36525E-02
         0.81938E-02
         0.88932E-02
         0.44451E-02
         0.38417E-02
         0.19789E-01
         0.32280E-01
         0.46634E-01
         0.59574E-01
         0.38567E-01
         0.23543E-01
         0.68364E-02
         0.55464E-02
         0.65796E-02
         0.62800E-02
         0.84701E-02
         0.12683E-01
         0.17367E-01
         0.20932E-01
         0.16358E-01
         0.13706E-01
         0.20075E-01
         0.87451E-02
         0.90746E-02
         0.87264E-02
         0.99737E-02
         0.20747E-01
         0.45018E-01
         0.77610E-01
         0.10582E+00
         0.11040E+00
         0.83169E-01
         0.56522E-01
         0.35721E-01
         0.23505E-01
         0.17157E-01
         0.13177E-01
         0.11694E-01
         0.10967E-01
         0.11286E-01
         0.15609E-01
         0.22814E-01
         0.27938E-01
         0.28810E-01
         0.24646E-01
         0.20842E-01
         0.10393E-02
         0.15879E-02
         0.36848E-02
         0.19547E-02
         0.11028E-01
         0.12682E-01
         0.11118E-02
         0.20945E-02
         0.12231E-02
         0.36960E-02
         0.13597E-02
         0.37740E-02
         0.32450E-02
         0.26042E-02
         0.99207E-02
         0.78581E-03
         0.33161E-02
         0.86477E-03
         0.36389E-02
         0.37119E-02
         0.11371E-01
         0.15649E-01
         0.90542E-02
         0.43548E-02
         0.26870E-02
         0.21424E-02
         0.54117E-02
         0.10760E-01
         0.21256E-01
         0.59865E-02
         0.19441E-02
         0.22395E-02
         0.39260E-02
         0.85455E-02
         0.92896E-02
         0.46138E-02
         0.36871E-02
         0.20951E-01
         0.34935E-01
         0.51543E-01
         0.66794E-01
         0.42736E-01
         0.25291E-01
         0.65049E-02
         0.52728E-02
         0.65131E-02
         0.65140E-02
         0.87749E-02
         0.12984E-01
         0.17656E-01
         0.21154E-01
         0.16657E-01
         0.14269E-01
         0.20552E-01
         0.84567E-02
         0.86677E-02
         0.84011E-02
         0.97425E-02
         0.21621E-01
         0.47876E-01
         0.83768E-01
         0.11734E+00
         0.12594E+00
         0.94046E-01
         0.60748E-01
         0.36381E-01
         0.22992E-01
         0.16581E-01
         0.12546E-01
         0.10953E-01
         0.10499E-01
         0.10999E-01
         0.15367E-01
         0.22717E-01
         0.27860E-01
         0.28725E-01
         0.24841E-01
         0.21281E-01
         0.79674E-03
         0.11297E-02
         0.36043E-02
         0.21806E-02
         0.11314E-01
         0.13123E-01
         0.98229E-03
         0.21487E-02
         0.11899E-02
         0.37096E-02
         0.10762E-02
         0.33509E-02
         0.29553E-02
         0.24870E-02
         0.99040E-02
         0.74582E-03
         0.32309E-02
         0.86498E-03
         0.34424E-02
         0.38909E-02
         0.11015E-01
         0.15945E-01
         0.85428E-02
         0.40391E-02
         0.25541E-02
         0.19930E-02
         0.50755E-02
         0.99847E-02
         0.20598E-01
         0.61008E-02
         0.18292E-02
         0.20561E-02
         0.38283E-02
         0.86428E-02
         0.92529E-02
         0.42072E-02
         0.32580E-02
         0.21063E-01
         0.34597E-01
         0.50606E-01
         0.66410E-01
         0.43354E-01
         0.26234E-01
         0.60880E-02
         0.48011E-02
         0.59623E-02
         0.61498E-02
         0.83174E-02
         0.12457E-01
         0.17372E-01
         0.21148E-01
         0.16949E-01
         0.14193E-01
         0.21217E-01
         0.79544E-02
         0.84607E-02
         0.82676E-02
         0.94502E-02
         0.22065E-01
         0.48874E-01
         0.84306E-01
         0.11671E+00
         0.12655E+00
         0.98044E-01
         0.63952E-01
         0.37066E-01
         0.22595E-01
         0.15979E-01
         0.11987E-01
         0.10096E-01
         0.94731E-02
         0.10068E-01
         0.14096E-01
         0.21393E-01
         0.27168E-01
         0.28630E-01
         0.25321E-01
         0.22133E-01
         0.84902E-03
         0.93123E-03
         0.32560E-02
         0.20183E-02
         0.10708E-01
         0.12295E-01
         0.10697E-02
         0.21782E-02
         0.11568E-02
         0.34751E-02
         0.10415E-02
         0.32947E-02
         0.29964E-02
         0.24864E-02
         0.10025E-01
         0.79944E-03
         0.29481E-02
         0.93006E-03
         0.31248E-02
         0.35093E-02
         0.10456E-01
         0.15657E-01
         0.79998E-02
         0.37655E-02
         0.20579E-02
         0.19106E-02
         0.48784E-02
         0.97029E-02
         0.20412E-01
         0.65649E-02
         0.17286E-02
         0.19044E-02
         0.35353E-02
         0.79798E-02
         0.86090E-02
         0.36373E-02
         0.30832E-02
         0.20850E-01
         0.33548E-01
         0.48622E-01
         0.64193E-01
         0.43253E-01
         0.26638E-01
         0.57085E-02
         0.44917E-02
         0.57620E-02
         0.60902E-02
         0.81897E-02
         0.11896E-01
         0.16287E-01
         0.19737E-01
         0.15757E-01
         0.13384E-01
         0.20318E-01
         0.76908E-02
         0.85304E-02
         0.85083E-02
         0.95179E-02
         0.22102E-01
         0.48322E-01
         0.82156E-01
         0.11219E+00
         0.12098E+00
         0.97287E-01
         0.63995E-01
         0.35887E-01
         0.21154E-01
         0.14841E-01
         0.11251E-01
         0.97215E-02
         0.93024E-02
         0.10012E-01
         0.13860E-01
         0.20429E-01
         0.25612E-01
         0.26810E-01
         0.23430E-01
         0.20627E-01
         0.85686E-03
         0.10021E-02
         0.30622E-02
         0.18561E-02
         0.97884E-02
         0.10914E-01
         0.10308E-02
         0.20046E-02
         0.11112E-02
         0.31946E-02
         0.10171E-02
         0.35542E-02
         0.30353E-02
         0.22797E-02
         0.98918E-02
         0.75447E-03
         0.27346E-02
         0.85804E-03
         0.28213E-02
         0.29232E-02
         0.10305E-01
         0.15180E-01
         0.78245E-02
         0.37031E-02
         0.18731E-02
         0.18374E-02
         0.47232E-02
         0.10019E-01
         0.21137E-01
         0.67245E-02
         0.19148E-02
         0.20505E-02
         0.35697E-02
         0.74000E-02
         0.81262E-02
         0.35419E-02
         0.30398E-02
         0.20209E-01
         0.33071E-01
         0.49141E-01
         0.65401E-01
         0.43846E-01
         0.26241E-01
         0.55473E-02
         0.45610E-02
         0.59618E-02
         0.62154E-02
         0.81102E-02
         0.11391E-01
         0.15100E-01
         0.17863E-01
         0.14032E-01
         0.12649E-01
         0.18349E-01
         0.75975E-02
         0.84148E-02
         0.85580E-02
         0.99294E-02
         0.21582E-01
         0.46429E-01
         0.79911E-01
         0.11219E+00
         0.12260E+00
         0.97153E-01
         0.61943E-01
         0.34952E-01
         0.20546E-01
         0.13986E-01
         0.10695E-01
         0.98759E-02
         0.96321E-02
         0.10088E-01
         0.13490E-01
         0.19245E-01
         0.23544E-01
         0.24048E-01
         0.20365E-01
         0.17804E-01
         0.88706E-03
         0.11916E-02
         0.30150E-02
         0.19178E-02
         0.90387E-02
         0.10024E-01
         0.10309E-02
         0.19258E-02
         0.13012E-02
         0.31806E-02
         0.99100E-03
         0.36539E-02
         0.30205E-02
         0.20677E-02
         0.93927E-02
         0.74561E-03
         0.29124E-02
         0.67833E-03
         0.33067E-02
         0.32558E-02
         0.11271E-01
         0.15543E-01
         0.85822E-02
         0.41383E-02
         0.19806E-02
         0.20515E-02
         0.46684E-02
         0.99373E-02
         0.20558E-01
         0.63218E-02
         0.21891E-02
         0.23839E-02
         0.36239E-02
         0.69926E-02
         0.76405E-02
         0.34472E-02
         0.29374E-02
         0.19613E-01
         0.32666E-01
         0.48448E-01
         0.63993E-01
         0.42337E-01
         0.25252E-01
         0.60450E-02
         0.49718E-02
         0.60008E-02
         0.59190E-02
         0.74100E-02
         0.10348E-01
         0.13778E-01
         0.16311E-01
         0.12884E-01
         0.11903E-01
         0.16739E-01
         0.72711E-02
         0.80997E-02
         0.84277E-02
         0.10155E-01
         0.21059E-01
         0.45210E-01
         0.79176E-01
         0.11071E+00
         0.12019E+00
         0.94231E-01
         0.59819E-01
         0.35659E-01
         0.22332E-01
         0.15336E-01
         0.11580E-01
         0.10423E-01
         0.96461E-02
         0.96456E-02
         0.12284E-01
         0.17354E-01
         0.21315E-01
         0.21786E-01
         0.18511E-01
         0.16153E-01
         0.97801E-03
         0.10379E-02
         0.27948E-02
         0.18537E-02
         0.83997E-02
         0.91824E-02
         0.90219E-03
         0.21223E-02
         0.15643E-02
         0.33889E-02
         0.71114E-03
         0.28247E-02
         0.27086E-02
         0.19780E-02
         0.78381E-02
         0.12389E-02
         0.31678E-02
         0.77379E-03
         0.39773E-02
         0.39329E-02
         0.11728E-01
         0.15959E-01
         0.90415E-02
         0.46016E-02
         0.20122E-02
         0.24558E-02
         0.43870E-02
         0.93967E-02
         0.19906E-01
         0.62710E-02
         0.20016E-02
         0.23813E-02
         0.30691E-02
         0.60465E-02
         0.70792E-02
         0.31549E-02
         0.27006E-02
         0.18168E-01
         0.31755E-01
         0.47824E-01
         0.63095E-01
         0.41303E-01
         0.24993E-01
         0.64264E-02
         0.50933E-02
         0.57568E-02
         0.52981E-02
         0.62308E-02
         0.85831E-02
         0.11656E-01
         0.14092E-01
         0.11402E-01
         0.11191E-01
         0.15783E-01
         0.68473E-02
         0.78848E-02
         0.81776E-02
         0.89660E-02
         0.18501E-01
         0.42732E-01
         0.78354E-01
         0.11132E+00
         0.11988E+00
         0.92189E-01
         0.58988E-01
         0.36192E-01
         0.23071E-01
         0.16251E-01
         0.12173E-01
         0.10452E-01
         0.95448E-02
         0.91745E-02
         0.10781E-01
         0.14779E-01
         0.18305E-01
         0.18918E-01
         0.16505E-01
         0.15038E-01
         0.97815E-03
         0.80931E-03
         0.24434E-02
         0.16112E-02
         0.76610E-02
         0.79561E-02
         0.89150E-03
         0.21283E-02
         0.15711E-02
         0.32642E-02
         0.75030E-03
         0.17588E-02
         0.20158E-02
         0.19471E-02
         0.60471E-02
         0.13169E-02
         0.30430E-02
         0.90218E-03
         0.36751E-02
         0.38991E-02
         0.10349E-01
         0.14689E-01
         0.80843E-02
         0.41515E-02
         0.18336E-02
         0.22732E-02
         0.36070E-02
         0.78471E-02
         0.18456E-01
         0.63774E-02
         0.15809E-02
         0.19581E-02
         0.22398E-02
         0.46065E-02
         0.63935E-02
         0.26066E-02
         0.21391E-02
         0.15030E-01
         0.27605E-01
         0.43667E-01
         0.59576E-01
         0.39607E-01
         0.24093E-01
         0.59644E-02
         0.46851E-02
         0.52284E-02
         0.44767E-02
         0.48237E-02
         0.63527E-02
         0.87302E-02
         0.10835E-01
         0.91256E-02
         0.10391E-01
         0.14944E-01
         0.62032E-02
         0.70217E-02
         0.69994E-02
         0.67444E-02
         0.13838E-01
         0.35341E-01
         0.68711E-01
         0.10235E+00
         0.11438E+00
         0.88594E-01
         0.56161E-01
         0.33690E-01
         0.20857E-01
         0.14694E-01
         0.11384E-01
         0.99337E-02
         0.93885E-02
         0.88111E-02
         0.90845E-02
         0.11619E-01
         0.14409E-01
         0.14889E-01
         0.13524E-01
         0.13488E-01
         0.87468E-03
         0.74310E-03
         0.17497E-02
         0.75181E-03
         0.59279E-02
         0.53563E-02
         0.72634E-03
         0.18841E-02
         0.13192E-02
         0.28014E-02
         0.10469E-02
         0.22840E-02
         0.18031E-02
         0.20945E-02
         0.61438E-02
         0.10379E-02
         0.24305E-02
         0.98128E-03
         0.27614E-02
         0.30349E-02
         0.86975E-02
         0.13264E-01
         0.67502E-02
         0.32984E-02
         0.11720E-02
         0.18940E-02
         0.35593E-02
         0.79031E-02
         0.19046E-01
         0.70693E-02
         0.14043E-02
         0.19257E-02
         0.98572E-03
         0.17924E-02
         0.51076E-02
         0.23657E-02
         0.20888E-02
         0.13663E-01
         0.25363E-01
         0.41958E-01
         0.59130E-01
         0.40520E-01
         0.24191E-01
         0.52878E-02
         0.44904E-02
         0.52581E-02
         0.42436E-02
         0.36506E-02
         0.36897E-02
         0.48468E-02
         0.64227E-02
         0.52372E-02
         0.96700E-02
         0.13462E-01
         0.75307E-02
         0.68094E-02
         0.63264E-02
         0.64205E-02
         0.12029E-01
         0.29878E-01
         0.60737E-01
         0.95323E-01
         0.11209E+00
         0.89471E-01
         0.54353E-01
         0.29769E-01
         0.17693E-01
         0.12307E-01
         0.10092E-01
         0.94649E-02
         0.99133E-02
         0.10255E-01
         0.98188E-02
         0.10705E-01
         0.12310E-01
         0.11719E-01
         0.10316E-01
         0.11180E-01
         0.16666E-02
         0.20927E-02
         0.35612E-02
         0.23398E-02
         0.66658E-02
         0.56309E-02
         0.15211E-02
         0.20894E-02
         0.12254E-02
         0.24665E-02
         0.25727E-02
         0.49269E-02
         0.28830E-02
         0.34853E-02
         0.94010E-02
         0.10601E-02
         0.17100E-02
         0.15205E-02
         0.19469E-02
         0.24439E-02
         0.87276E-02
         0.14308E-01
         0.65667E-02
         0.32054E-02
         0.16920E-02
         0.27410E-02
         0.52254E-02
         0.10217E-01
         0.22272E-01
         0.89898E-02
         0.33111E-02
         0.41447E-02
         0.36401E-02
         0.49493E-02
         0.86451E-02
         0.68468E-02
         0.42000E-02
         0.16160E-01
         0.27611E-01
         0.45349E-01
         0.64621E-01
         0.45980E-01
         0.27704E-01
         0.57302E-02
         0.63302E-02
         0.84432E-02
         0.79780E-02
         0.77561E-02
         0.84494E-02
         0.10220E-01
         0.12144E-01
         0.81613E-02
         0.15422E-01
         0.15606E-01
         0.15308E-01
         0.91781E-02
         0.66699E-02
         0.91002E-02
         0.16393E-01
         0.32280E-01
         0.61695E-01
         0.98457E-01
         0.12012E+00
         0.10147E+00
         0.61055E-01
         0.31104E-01
         0.17912E-01
         0.11118E-01
         0.92207E-02
         0.10613E-01
         0.13700E-01
         0.16723E-01
         0.17814E-01
         0.19878E-01
         0.22744E-01
         0.21950E-01
         0.17906E-01
         0.14838E-01
         0.16552E-02
         0.17170E-02
         0.42736E-02
         0.35455E-02
         0.75997E-02
         0.89631E-02
         0.14845E-02
         0.22090E-02
         0.15703E-02
         0.26945E-02
         0.37212E-02
         0.76020E-02
         0.44879E-02
         0.48025E-02
         0.12749E-01
         0.79625E-03
         0.23402E-02
         0.17320E-02
         0.33612E-02
         0.32281E-02
         0.14812E-01
         0.19257E-01
         0.12268E-01
         0.56601E-02
         0.36173E-02
         0.34789E-02
         0.71087E-02
         0.13208E-01
         0.26392E-01
         0.11614E-01
         0.27826E-02
         0.47195E-02
         0.42103E-02
         0.73864E-02
         0.95150E-02
         0.86435E-02
         0.56068E-02
         0.19650E-01
         0.31383E-01
         0.49619E-01
         0.70001E-01
         0.52367E-01
         0.33318E-01
         0.93347E-02
         0.95870E-02
         0.12874E-01
         0.11932E-01
         0.11730E-01
         0.12255E-01
         0.14267E-01
         0.16994E-01
         0.12661E-01
         0.14962E-01
         0.15585E-01
         0.18773E-01
         0.13272E-01
         0.10312E-01
         0.13776E-01
         0.22635E-01
         0.38497E-01
         0.65800E-01
         0.10068E+00
         0.12352E+00
         0.11188E+00
         0.73907E-01
         0.45818E-01
         0.34371E-01
         0.24922E-01
         0.18354E-01
         0.17787E-01
         0.21179E-01
         0.26523E-01
         0.28635E-01
         0.28324E-01
         0.29186E-01
         0.28037E-01
         0.24317E-01
         0.20108E-01
         0.13234E-01
         0.14206E-01
         0.17409E-01
         0.15786E-01
         0.20457E-01
         0.19011E-01
         0.13019E-01
         0.13200E-01
         0.12692E-01
         0.12319E-01
         0.10297E-01
         0.55668E-02
         0.93604E-02
         0.89885E-02
         0.69864E-02
         0.18036E-01
         0.14904E-01
         0.14426E-01
         0.27023E-01
         0.19419E-01
         0.58525E-01
         0.52939E-01
         0.61571E-01
         0.37388E-01
         0.11743E-01
         0.32198E-01
         0.77106E-02
         0.13188E-01
         0.29295E-01
         0.16637E-01
         0.20792E-01
         0.33459E-01
         0.19201E-01
         0.22647E-01
         0.24700E-01
         0.20696E-01
         0.13751E-01
         0.18678E-01
         0.36050E-01
         0.59666E-01
         0.87086E-01
         0.66968E-01
         0.53117E-01
         0.56664E-01
         0.54597E-01
         0.57857E-01
         0.45812E-01
         0.38117E-01
         0.36926E-01
         0.38198E-01
         0.38772E-01
         0.27084E-01
         0.29543E-01
         0.20434E-01
         0.25374E-01
         0.15410E-01
         0.11802E-01
         0.14530E-01
         0.25312E-01
         0.47514E-01
         0.85118E-01
         0.12900E+00
         0.15742E+00
         0.15436E+00
         0.13359E+00
         0.13268E+00
         0.13053E+00
         0.11578E+00
         0.97520E-01
         0.86040E-01
         0.81343E-01
         0.78864E-01
         0.77084E-01
         0.73190E-01
         0.67774E-01
         0.55059E-01
         0.36384E-01
         0.21071E-01
         0.31987E-01
         0.35355E-01
         0.41602E-01
         0.37245E-01
         0.46271E-01
         0.42360E-01
         0.33607E-01
         0.33371E-01
         0.31426E-01
         0.31631E-01
         0.30823E-01
         0.24519E-01
         0.29590E-01
         0.28861E-01
         0.19547E-01
         0.45851E-01
         0.37983E-01
         0.35010E-01
         0.66312E-01
         0.51363E-01
         0.12850E+00
         0.12599E+00
         0.13085E+00
         0.86423E-01
         0.31204E-01
         0.75384E-01
         0.23837E-01
         0.24209E-01
         0.52450E-01
         0.45793E-01
         0.49779E-01
         0.75524E-01
         0.47668E-01
         0.54178E-01
         0.55331E-01
         0.51357E-01
         0.38601E-01
         0.26456E-01
         0.51853E-01
         0.88079E-01
         0.13370E+00
         0.12055E+00
         0.12145E+00
         0.11952E+00
         0.11274E+00
         0.11638E+00
         0.94672E-01
         0.78954E-01
         0.78918E-01
         0.81791E-01
         0.80838E-01
         0.59784E-01
         0.63350E-01
         0.50514E-01
         0.64023E-01
         0.40240E-01
         0.22560E-01
         0.15673E-01
         0.24466E-01
         0.59793E-01
         0.11850E+00
         0.18043E+00
         0.22821E+00
         0.25452E+00
         0.26404E+00
         0.27656E+00
         0.25930E+00
         0.22167E+00
         0.18313E+00
         0.15823E+00
         0.15013E+00
         0.14281E+00
         0.13568E+00
         0.13063E+00
         0.12247E+00
         0.10255E+00
         0.72389E-01
         0.44741E-01
  
SCALARS                     nodal_mass  double 1
LOOKUP_TABLE default
         0.24608E-05
         0.19551E-05
         0.20945E-05
         0.35953E-05
         0.12304E-05
         0.97770E-06
         0.10472E-05
         0.17973E-05
         0.19315E-05
         0.24627E-05
         0.96570E-06
         0.12312E-05
         0.13823E-05
         0.16614E-05
         0.69133E-06
         0.83095E-06
         0.27274E-05
         0.20125E-05
         0.13635E-05
         0.10066E-05
         0.81737E-06
         0.15393E-05
         0.16929E-05
         0.40889E-06
         0.76975E-06
         0.84649E-06
         0.13859E-05
         0.17532E-05
         0.69345E-06
         0.87672E-06
         0.32470E-05
         0.25355E-05
         0.32225E-05
         0.16233E-05
         0.12675E-05
         0.16109E-05
         0.18980E-05
         0.21673E-05
         0.94902E-06
         0.10836E-05
         0.20482E-05
         0.22683E-05
         0.10242E-05
         0.11342E-05
         0.17426E-05
         0.10823E-05
         0.87140E-06
         0.54121E-06
         0.20598E-05
         0.10301E-05
         0.17103E-05
         0.85523E-06
         0.17977E-05
         0.89958E-06
         0.18362E-05
         0.91859E-06
         0.15911E-05
         0.19369E-05
         0.79575E-06
         0.96860E-06
         0.24553E-05
         0.17361E-05
         0.12277E-05
         0.86816E-06
         0.27409E-05
         0.13702E-05
         0.23792E-05
         0.11891E-05
         0.10821E-05
         0.16705E-05
         0.54106E-06
         0.83538E-06
         0.18955E-05
         0.94787E-06
         0.20026E-05
         0.10014E-05
         0.19316E-05
         0.96578E-06
         0.15181E-05
         0.75906E-06
         0.95443E-06
         0.15782E-05
         0.47723E-06
         0.78918E-06
         0.20886E-05
         0.10443E-05
         0.16867E-05
         0.84342E-06
         0.14838E-05
         0.74203E-06
         0.97224E-06
         0.16569E-05
         0.48620E-06
         0.82849E-06
         0.22482E-05
         0.11241E-05
         0.23568E-05
         0.11783E-05
         0.19018E-05
         0.95085E-06
         0.11709E-05
         0.20091E-05
         0.58544E-06
         0.10044E-05
         0.74681E-06
         0.94889E-06
         0.37348E-06
         0.47447E-06
         0.88885E-06
         0.44455E-06
         0.10466E-05
         0.52333E-06
         0.10205E-05
         0.51021E-06
         0.99108E-06
         0.49550E-06
         0.10560E-05
         0.52791E-06
         0.11142E-05
         0.55694E-06
         0.10497E-05
         0.52469E-06
         0.82085E-06
         0.41039E-06
         0.66950E-06
         0.33475E-06
         0.86397E-06
         0.43199E-06
         0.11504E-05
         0.57519E-06
         0.12637E-05
         0.63182E-06
         0.12132E-05
         0.60658E-06
         0.10948E-05
         0.54745E-06
         0.99429E-06
         0.49718E-06
         0.80759E-06
         0.40382E-06
         0.67982E-06
         0.33995E-06
         0.88797E-06
         0.44401E-06
         0.11753E-05
         0.58766E-06
         0.12140E-05
         0.60702E-06
         0.98236E-06
         0.49125E-06
         0.79766E-06
         0.39889E-06
         0.97540E-06
         0.48769E-06
         0.11548E-05
         0.57743E-06
         0.24609E-05
         0.19547E-05
         0.20946E-05
         0.35969E-05
         0.19318E-05
         0.24634E-05
         0.13815E-05
         0.16603E-05
         0.27283E-05
         0.20111E-05
         0.81658E-06
         0.15390E-05
         0.16927E-05
         0.13839E-05
         0.17528E-05
         0.32479E-05
         0.25367E-05
         0.32241E-05
         0.18980E-05
         0.21675E-05
         0.20481E-05
         0.22684E-05
         0.17424E-05
         0.10822E-05
         0.20589E-05
         0.17102E-05
         0.17950E-05
         0.18344E-05
         0.15904E-05
         0.19365E-05
         0.24555E-05
         0.17359E-05
         0.27423E-05
         0.23814E-05
         0.10820E-05
         0.16702E-05
         0.18953E-05
         0.20025E-05
         0.19317E-05
         0.15181E-05
         0.95442E-06
         0.15780E-05
         0.20884E-05
         0.16864E-05
         0.14835E-05
         0.97197E-06
         0.16567E-05
         0.22482E-05
         0.23571E-05
         0.19022E-05
         0.11709E-05
         0.20101E-05
         0.74658E-06
         0.94886E-06
         0.88841E-06
         0.10467E-05
         0.10207E-05
         0.99128E-06
         0.10565E-05
         0.11150E-05
         0.10503E-05
         0.82102E-06
         0.66954E-06
         0.86398E-06
         0.11506E-05
         0.12640E-05
         0.12133E-05
         0.10948E-05
         0.99421E-06
         0.80751E-06
         0.67970E-06
         0.88789E-06
         0.11752E-05
         0.12140E-05
         0.98215E-06
         0.79747E-06
         0.97551E-06
         0.11548E-05
         0.24611E-05
         0.19543E-05
         0.20949E-05
         0.35987E-05
         0.19321E-05
         0.24642E-05
         0.13808E-05
         0.16594E-05
         0.27293E-05
         0.20098E-05
         0.81582E-06
         0.15388E-05
         0.16927E-05
         0.13821E-05
         0.17525E-05
         0.32489E-05
         0.25379E-05
         0.32257E-05
         0.18982E-05
         0.21678E-05
         0.20480E-05
         0.22685E-05
         0.17423E-05
         0.10821E-05
         0.20580E-05
         0.17101E-05
         0.17924E-05
         0.18326E-05
         0.15898E-05
         0.19361E-05
         0.24558E-05
         0.17357E-05
         0.27438E-05
         0.23836E-05
         0.10821E-05
         0.16699E-05
         0.18951E-05
         0.20024E-05
         0.19318E-05
         0.15183E-05
         0.95445E-06
         0.15778E-05
         0.20884E-05
         0.16862E-05
         0.14831E-05
         0.97174E-06
         0.16566E-05
         0.22483E-05
         0.23575E-05
         0.19026E-05
         0.11709E-05
         0.20112E-05
         0.74636E-06
         0.94886E-06
         0.88800E-06
         0.10467E-05
         0.10210E-05
         0.99152E-06
         0.10570E-05
         0.11159E-05
         0.10509E-05
         0.82122E-06
         0.66961E-06
         0.86402E-06
         0.11507E-05
         0.12643E-05
         0.12135E-05
         0.10948E-05
         0.99417E-06
         0.80747E-06
         0.67961E-06
         0.88784E-06
         0.11752E-05
         0.12140E-05
         0.98197E-06
         0.79731E-06
         0.97565E-06
         0.11548E-05
         0.24612E-05
         0.19539E-05
         0.20950E-05
         0.36004E-05
         0.19324E-05
         0.24650E-05
         0.13801E-05
         0.16584E-05
         0.27303E-05
         0.20085E-05
         0.81504E-06
         0.15385E-05
         0.16925E-05
         0.13801E-05
         0.17521E-05
         0.32498E-05
         0.25390E-05
         0.32274E-05
         0.18982E-05
         0.21681E-05
         0.20479E-05
         0.22686E-05
         0.17421E-05
         0.10820E-05
         0.20571E-05
         0.17099E-05
         0.17897E-05
         0.18308E-05
         0.15891E-05
         0.19356E-05
         0.24561E-05
         0.17355E-05
         0.27453E-05
         0.23857E-05
         0.10820E-05
         0.16696E-05
         0.18948E-05
         0.20022E-05
         0.19320E-05
         0.15183E-05
         0.95445E-06
         0.15776E-05
         0.20883E-05
         0.16859E-05
         0.14828E-05
         0.97149E-06
         0.16564E-05
         0.22483E-05
         0.23578E-05
         0.19030E-05
         0.11710E-05
         0.20122E-05
         0.74613E-06
         0.94884E-06
         0.88756E-06
         0.10467E-05
         0.10212E-05
         0.99173E-06
         0.10574E-05
         0.11167E-05
         0.10515E-05
         0.82140E-06
         0.66966E-06
         0.86404E-06
         0.11509E-05
         0.12646E-05
         0.12136E-05
         0.10947E-05
         0.99410E-06
         0.80740E-06
         0.67950E-06
         0.88777E-06
         0.11752E-05
         0.12140E-05
         0.98177E-06
         0.79713E-06
         0.97576E-06
         0.11547E-05
         0.24613E-05
         0.19535E-05
         0.20952E-05
         0.36022E-05
         0.19327E-05
         0.24657E-05
         0.13794E-05
         0.16574E-05
         0.27313E-05
         0.20072E-05
         0.81426E-06
         0.15382E-05
         0.16924E-05
         0.13782E-05
         0.17517E-05
         0.32508E-05
         0.25402E-05
         0.32290E-05
         0.18983E-05
         0.21684E-05
         0.20479E-05
         0.22687E-05
         0.17420E-05
         0.10819E-05
         0.20563E-05
         0.17098E-05
         0.17870E-05
         0.18290E-05
         0.15884E-05
         0.19352E-05
         0.24563E-05
         0.17353E-05
         0.27467E-05
         0.23879E-05
         0.10820E-05
         0.16693E-05
         0.18946E-05
         0.20021E-05
         0.19321E-05
         0.15184E-05
         0.95445E-06
         0.15773E-05
         0.20882E-05
         0.16857E-05
         0.14824E-05
         0.97124E-06
         0.16563E-05
         0.22484E-05
         0.23582E-05
         0.19034E-05
         0.11710E-05
         0.20132E-05
         0.74590E-06
         0.94883E-06
         0.88713E-06
         0.10468E-05
         0.10215E-05
         0.99194E-06
         0.10579E-05
         0.11175E-05
         0.10521E-05
         0.82159E-06
         0.66972E-06
         0.86406E-06
         0.11510E-05
         0.12649E-05
         0.12138E-05
         0.10947E-05
         0.99404E-06
         0.80734E-06
         0.67940E-06
         0.88771E-06
         0.11752E-05
         0.12140E-05
         0.98157E-06
         0.79696E-06
         0.97588E-06
         0.11547E-05
         0.24615E-05
         0.19531E-05
         0.20954E-05
         0.36039E-05
         0.19331E-05
         0.24665E-05
         0.13787E-05
         0.16564E-05
         0.27322E-05
         0.20059E-05
         0.81349E-06
         0.15380E-05
         0.16923E-05
         0.13763E-05
         0.17514E-05
         0.32518E-05
         0.25414E-05
         0.32306E-05
         0.18984E-05
         0.21687E-05
         0.20478E-05
         0.22688E-05
         0.17418E-05
         0.10818E-05
         0.20554E-05
         0.17096E-05
         0.17843E-05
         0.18272E-05
         0.15878E-05
         0.19347E-05
         0.24566E-05
         0.17351E-05
         0.27482E-05
         0.23901E-05
         0.10820E-05
         0.16690E-05
         0.18943E-05
         0.20019E-05
         0.19322E-05
         0.15185E-05
         0.95446E-06
         0.15771E-05
         0.20881E-05
         0.16855E-05
         0.14821E-05
         0.97100E-06
         0.16562E-05
         0.22484E-05
         0.23586E-05
         0.19038E-05
         0.11710E-05
         0.20142E-05
         0.74568E-06
         0.94882E-06
         0.88671E-06
         0.10468E-05
         0.10217E-05
         0.99216E-06
         0.10583E-05
         0.11183E-05
         0.10528E-05
         0.82178E-06
         0.66977E-06
         0.86408E-06
         0.11512E-05
         0.12652E-05
         0.12139E-05
         0.10947E-05
         0.99398E-06
         0.80728E-06
         0.67930E-06
         0.88766E-06
         0.11752E-05
         0.12140E-05
         0.98138E-06
         0.79679E-06
         0.97601E-06
         0.11547E-05
         0.24616E-05
         0.19527E-05
         0.20956E-05
         0.36056E-05
         0.19334E-05
         0.24672E-05
         0.13779E-05
         0.16554E-05
         0.27332E-05
         0.20046E-05
         0.81271E-06
         0.15377E-05
         0.16922E-05
         0.13744E-05
         0.17510E-05
         0.32527E-05
         0.25425E-05
         0.32322E-05
         0.18984E-05
         0.21689E-05
         0.20477E-05
         0.22689E-05
         0.17416E-05
         0.10816E-05
         0.20545E-05
         0.17095E-05
         0.17817E-05
         0.18254E-05
         0.15871E-05
         0.19343E-05
         0.24568E-05
         0.17349E-05
         0.27496E-05
         0.23922E-05
         0.10820E-05
         0.16686E-05
         0.18941E-05
         0.20018E-05
         0.19324E-05
         0.15186E-05
         0.95446E-06
         0.15769E-05
         0.20880E-05
         0.16852E-05
         0.14817E-05
         0.97074E-06
         0.16560E-05
         0.22484E-05
         0.23589E-05
         0.19042E-05
         0.11710E-05
         0.20152E-05
         0.74544E-06
         0.94880E-06
         0.88627E-06
         0.10469E-05
         0.10219E-05
         0.99237E-06
         0.10588E-05
         0.11191E-05
         0.10534E-05
         0.82196E-06
         0.66982E-06
         0.86410E-06
         0.11513E-05
         0.12654E-05
         0.12140E-05
         0.10947E-05
         0.99391E-06
         0.80721E-06
         0.67919E-06
         0.88759E-06
         0.11751E-05
         0.12140E-05
         0.98118E-06
         0.79661E-06
         0.97612E-06
         0.11546E-05
         0.24618E-05
         0.19523E-05
         0.20957E-05
         0.36073E-05
         0.19337E-05
         0.24680E-05
         0.13772E-05
         0.16545E-05
         0.27341E-05
         0.20033E-05
         0.81194E-06
         0.15374E-05
         0.16921E-05
         0.13725E-05
         0.17506E-05
         0.32537E-05
         0.25437E-05
         0.32339E-05
         0.18985E-05
         0.21692E-05
         0.20476E-05
         0.22690E-05
         0.17414E-05
         0.10815E-05
         0.20536E-05
         0.17093E-05
         0.17790E-05
         0.18236E-05
         0.15864E-05
         0.19339E-05
         0.24571E-05
         0.17347E-05
         0.27511E-05
         0.23944E-05
         0.10820E-05
         0.16683E-05
         0.18938E-05
         0.20016E-05
         0.19325E-05
         0.15186E-05
         0.95446E-06
         0.15767E-05
         0.20878E-05
         0.16850E-05
         0.14814E-05
         0.97050E-06
         0.16559E-05
         0.22484E-05
         0.23593E-05
         0.19046E-05
         0.11711E-05
         0.20162E-05
         0.74522E-06
         0.94878E-06
         0.88584E-06
         0.10469E-05
         0.10222E-05
         0.99258E-06
         0.10593E-05
         0.11199E-05
         0.10540E-05
         0.82215E-06
         0.66988E-06
         0.86413E-06
         0.11515E-05
         0.12657E-05
         0.12142E-05
         0.10946E-05
         0.99385E-06
         0.80715E-06
         0.67909E-06
         0.88752E-06
         0.11751E-05
         0.12140E-05
         0.98098E-06
         0.79643E-06
         0.97624E-06
         0.11546E-05
         0.24619E-05
         0.19519E-05
         0.20959E-05
         0.36091E-05
         0.19340E-05
         0.24688E-05
         0.13765E-05
         0.16535E-05
         0.27351E-05
         0.20020E-05
         0.81117E-06
         0.15372E-05
         0.16920E-05
         0.13706E-05
         0.17503E-05
         0.32546E-05
         0.25448E-05
         0.32355E-05
         0.18986E-05
         0.21695E-05
         0.20475E-05
         0.22691E-05
         0.17413E-05
         0.10814E-05
         0.20527E-05
         0.17092E-05
         0.17763E-05
         0.18219E-05
         0.15858E-05
         0.19334E-05
         0.24573E-05
         0.17345E-05
         0.27525E-05
         0.23966E-05
         0.10820E-05
         0.16680E-05
         0.18936E-05
         0.20015E-05
         0.19326E-05
         0.15187E-05
         0.95447E-06
         0.15765E-05
         0.20878E-05
         0.16848E-05
         0.14810E-05
         0.97025E-06
         0.16557E-05
         0.22485E-05
         0.23597E-05
         0.19050E-05
         0.11711E-05
         0.20172E-05
         0.74499E-06
         0.94877E-06
         0.88541E-06
         0.10469E-05
         0.10224E-05
         0.99280E-06
         0.10597E-05
         0.11207E-05
         0.10546E-05
         0.82234E-06
         0.66994E-06
         0.86415E-06
         0.11517E-05
         0.12660E-05
         0.12143E-05
         0.10946E-05
         0.99379E-06
         0.80709E-06
         0.67898E-06
         0.88746E-06
         0.11751E-05
         0.12140E-05
         0.98079E-06
         0.79626E-06
         0.97636E-06
         0.11546E-05
         0.24621E-05
         0.19515E-05
         0.20961E-05
         0.36108E-05
         0.19343E-05
         0.24695E-05
         0.13758E-05
         0.16525E-05
         0.27361E-05
         0.20006E-05
         0.81039E-06
         0.15369E-05
         0.16919E-05
         0.13686E-05
         0.17499E-05
         0.32556E-05
         0.25460E-05
         0.32371E-05
         0.18986E-05
         0.21697E-05
         0.20474E-05
         0.22692E-05
         0.17411E-05
         0.10813E-05
         0.20519E-05
         0.17091E-05
         0.17736E-05
         0.18201E-05
         0.15851E-05
         0.19330E-05
         0.24575E-05
         0.17342E-05
         0.27540E-05
         0.23987E-05
         0.10820E-05
         0.16677E-05
         0.18933E-05
         0.20014E-05
         0.19328E-05
         0.15188E-05
         0.95448E-06
         0.15763E-05
         0.20876E-05
         0.16845E-05
         0.14807E-05
         0.97000E-06
         0.16556E-05
         0.22485E-05
         0.23600E-05
         0.19053E-05
         0.11711E-05
         0.20182E-05
         0.74476E-06
         0.94875E-06
         0.88498E-06
         0.10470E-05
         0.10227E-05
         0.99301E-06
         0.10602E-05
         0.11215E-05
         0.10553E-05
         0.82252E-06
         0.66999E-06
         0.86417E-06
         0.11518E-05
         0.12663E-05
         0.12145E-05
         0.10946E-05
         0.99373E-06
         0.80702E-06
         0.67888E-06
         0.88740E-06
         0.11751E-05
         0.12140E-05
         0.98058E-06
         0.79608E-06
         0.97648E-06
         0.11546E-05
         0.24622E-05
         0.19511E-05
         0.20963E-05
         0.36125E-05
         0.19346E-05
         0.24703E-05
         0.13751E-05
         0.16515E-05
         0.27370E-05
         0.19993E-05
         0.80962E-06
         0.15366E-05
         0.16917E-05
         0.13667E-05
         0.17495E-05
         0.32565E-05
         0.25471E-05
         0.32388E-05
         0.18987E-05
         0.21700E-05
         0.20473E-05
         0.22693E-05
         0.17409E-05
         0.10812E-05
         0.20510E-05
         0.17089E-05
         0.17710E-05
         0.18183E-05
         0.15844E-05
         0.19325E-05
         0.24578E-05
         0.17340E-05
         0.27554E-05
         0.24009E-05
         0.10820E-05
         0.16674E-05
         0.18931E-05
         0.20012E-05
         0.19329E-05
         0.15189E-05
         0.95448E-06
         0.15760E-05
         0.20875E-05
         0.16843E-05
         0.14803E-05
         0.96975E-06
         0.16555E-05
         0.22485E-05
         0.23604E-05
         0.19057E-05
         0.11712E-05
         0.20192E-05
         0.74453E-06
         0.94874E-06
         0.88455E-06
         0.10470E-05
         0.10229E-05
         0.99322E-06
         0.10606E-05
         0.11223E-05
         0.10559E-05
         0.82270E-06
         0.67004E-06
         0.86419E-06
         0.11520E-05
         0.12666E-05
         0.12146E-05
         0.10945E-05
         0.99366E-06
         0.80696E-06
         0.67877E-06
         0.88733E-06
         0.11751E-05
         0.12140E-05
         0.98038E-06
         0.79590E-06
         0.97660E-06
         0.11545E-05
         0.24623E-05
         0.19507E-05
         0.20964E-05
         0.36142E-05
         0.19349E-05
         0.24710E-05
         0.13743E-05
         0.16505E-05
         0.27380E-05
         0.19980E-05
         0.80885E-06
         0.15364E-05
         0.16916E-05
         0.13648E-05
         0.17492E-05
         0.32575E-05
         0.25483E-05
         0.32404E-05
         0.18988E-05
         0.21703E-05
         0.20473E-05
         0.22694E-05
         0.17407E-05
         0.10811E-05
         0.20501E-05
         0.17088E-05
         0.17683E-05
         0.18165E-05
         0.15837E-05
         0.19321E-05
         0.24580E-05
         0.17338E-05
         0.27569E-05
         0.24031E-05
         0.10820E-05
         0.16670E-05
         0.18928E-05
         0.20011E-05
         0.19330E-05
         0.15189E-05
         0.95448E-06
         0.15758E-05
         0.20874E-05
         0.16840E-05
         0.14800E-05
         0.96950E-06
         0.16553E-05
         0.22485E-05
         0.23608E-05
         0.19061E-05
         0.11712E-05
         0.20202E-05
         0.74430E-06
         0.94872E-06
         0.88412E-06
         0.10470E-05
         0.10231E-05
         0.99344E-06
         0.10611E-05
         0.11231E-05
         0.10565E-05
         0.82289E-06
         0.67009E-06
         0.86422E-06
         0.11521E-05
         0.12669E-05
         0.12147E-05
         0.10945E-05
         0.99360E-06
         0.80690E-06
         0.67867E-06
         0.88727E-06
         0.11750E-05
         0.12140E-05
         0.98019E-06
         0.79573E-06
         0.97672E-06
         0.11545E-05
         0.24625E-05
         0.19503E-05
         0.20966E-05
         0.36160E-05
         0.19352E-05
         0.24718E-05
         0.13736E-05
         0.16496E-05
         0.27389E-05
         0.19967E-05
         0.80807E-06
         0.15361E-05
         0.16915E-05
         0.13629E-05
         0.17488E-05
         0.32584E-05
         0.25495E-05
         0.32420E-05
         0.18988E-05
         0.21705E-05
         0.20472E-05
         0.22695E-05
         0.17406E-05
         0.10810E-05
         0.20492E-05
         0.17086E-05
         0.17656E-05
         0.18147E-05
         0.15831E-05
         0.19317E-05
         0.24583E-05
         0.17336E-05
         0.27583E-05
         0.24053E-05
         0.10820E-05
         0.16667E-05
         0.18926E-05
         0.20009E-05
         0.19331E-05
         0.15190E-05
         0.95449E-06
         0.15756E-05
         0.20873E-05
         0.16838E-05
         0.14796E-05
         0.96925E-06
         0.16552E-05
         0.22486E-05
         0.23611E-05
         0.19065E-05
         0.11712E-05
         0.20212E-05
         0.74407E-06
         0.94870E-06
         0.88368E-06
         0.10471E-05
         0.10234E-05
         0.99365E-06
         0.10616E-05
         0.11239E-05
         0.10571E-05
         0.82307E-06
         0.67014E-06
         0.86424E-06
         0.11523E-05
         0.12672E-05
         0.12149E-05
         0.10945E-05
         0.99354E-06
         0.80683E-06
         0.67856E-06
         0.88721E-06
         0.11750E-05
         0.12140E-05
         0.97999E-06
         0.79555E-06
         0.97684E-06
         0.11545E-05
         0.24626E-05
         0.19499E-05
         0.20968E-05
         0.36177E-05
         0.19355E-05
         0.24725E-05
         0.13729E-05
         0.16486E-05
         0.27399E-05
         0.19954E-05
         0.80730E-06
         0.15358E-05
         0.16914E-05
         0.13610E-05
         0.17484E-05
         0.32594E-05
         0.25506E-05
         0.32437E-05
         0.18989E-05
         0.21708E-05
         0.20471E-05
         0.22696E-05
         0.17404E-05
         0.10808E-05
         0.20483E-05
         0.17085E-05
         0.17629E-05
         0.18129E-05
         0.15824E-05
         0.19312E-05
         0.24585E-05
         0.17334E-05
         0.27598E-05
         0.24074E-05
         0.10820E-05
         0.16664E-05
         0.18923E-05
         0.20008E-05
         0.19333E-05
         0.15191E-05
         0.95449E-06
         0.15754E-05
         0.20872E-05
         0.16835E-05
         0.14793E-05
         0.96901E-06
         0.16550E-05
         0.22486E-05
         0.23615E-05
         0.19069E-05
         0.11713E-05
         0.20222E-05
         0.74384E-06
         0.94869E-06
         0.88325E-06
         0.10471E-05
         0.10236E-05
         0.99386E-06
         0.10620E-05
         0.11247E-05
         0.10577E-05
         0.82326E-06
         0.67020E-06
         0.86426E-06
         0.11524E-05
         0.12674E-05
         0.12150E-05
         0.10944E-05
         0.99348E-06
         0.80677E-06
         0.67846E-06
         0.88714E-06
         0.11750E-05
         0.12140E-05
         0.97979E-06
         0.79538E-06
         0.97696E-06
         0.11544E-05
         0.24628E-05
         0.19495E-05
         0.20970E-05
         0.36194E-05
         0.19358E-05
         0.24733E-05
         0.13722E-05
         0.16476E-05
         0.27409E-05
         0.19941E-05
         0.80652E-06
         0.15355E-05
         0.16913E-05
         0.13591E-05
         0.17481E-05
         0.32604E-05
         0.25518E-05
         0.32453E-05
         0.18990E-05
         0.21711E-05
         0.20470E-05
         0.22697E-05
         0.17402E-05
         0.10807E-05
         0.20474E-05
         0.17084E-05
         0.17603E-05
         0.18111E-05
         0.15817E-05
         0.19308E-05
         0.24588E-05
         0.17332E-05
         0.27613E-05
         0.24096E-05
         0.10819E-05
         0.16661E-05
         0.18921E-05
         0.20006E-05
         0.19334E-05
         0.15192E-05
         0.95450E-06
         0.15752E-05
         0.20871E-05
         0.16833E-05
         0.14789E-05
         0.96876E-06
         0.16549E-05
         0.22486E-05
         0.23619E-05
         0.19073E-05
         0.11713E-05
         0.20232E-05
         0.74362E-06
         0.94868E-06
         0.88282E-06
         0.10472E-05
         0.10238E-05
         0.99408E-06
         0.10625E-05
         0.11255E-05
         0.10584E-05
         0.82345E-06
         0.67025E-06
         0.86428E-06
         0.11526E-05
         0.12677E-05
         0.12152E-05
         0.10944E-05
         0.99342E-06
         0.80671E-06
         0.67836E-06
         0.88709E-06
         0.11750E-05
         0.12140E-05
         0.97959E-06
         0.79521E-06
         0.97708E-06
         0.11544E-05
         0.24629E-05
         0.19491E-05
         0.20972E-05
         0.36212E-05
         0.19361E-05
         0.24741E-05
         0.13715E-05
         0.16466E-05
         0.27418E-05
         0.19928E-05
         0.80575E-06
         0.15353E-05
         0.16912E-05
         0.13572E-05
         0.17477E-05
         0.32613E-05
         0.25529E-05
         0.32469E-05
         0.18990E-05
         0.21714E-05
         0.20469E-05
         0.22698E-05
         0.17400E-05
         0.10806E-05
         0.20466E-05
         0.17082E-05
         0.17576E-05
         0.18093E-05
         0.15810E-05
         0.19303E-05
         0.24590E-05
         0.17330E-05
         0.27627E-05
         0.24118E-05
         0.10819E-05
         0.16658E-05
         0.18919E-05
         0.20005E-05
         0.19335E-05
         0.15192E-05
         0.95450E-06
         0.15750E-05
         0.20870E-05
         0.16831E-05
         0.14786E-05
         0.96851E-06
         0.16548E-05
         0.22487E-05
         0.23622E-05
         0.19077E-05
         0.11713E-05
         0.20242E-05
         0.74339E-06
         0.94866E-06
         0.88239E-06
         0.10472E-05
         0.10241E-05
         0.99429E-06
         0.10630E-05
         0.11263E-05
         0.10590E-05
         0.82363E-06
         0.67030E-06
         0.86430E-06
         0.11527E-05
         0.12680E-05
         0.12153E-05
         0.10944E-05
         0.99335E-06
         0.80665E-06
         0.67825E-06
         0.88702E-06
         0.11749E-05
         0.12140E-05
         0.97939E-06
         0.79503E-06
         0.97720E-06
         0.11544E-05
         0.24631E-05
         0.19487E-05
         0.20973E-05
         0.36229E-05
         0.19364E-05
         0.24748E-05
         0.13707E-05
         0.16456E-05
         0.27428E-05
         0.19915E-05
         0.80498E-06
         0.15350E-05
         0.16911E-05
         0.13553E-05
         0.17473E-05
         0.32623E-05
         0.25541E-05
         0.32486E-05
         0.18991E-05
         0.21716E-05
         0.20468E-05
         0.22699E-05
         0.17399E-05
         0.10805E-05
         0.20457E-05
         0.17081E-05
         0.17549E-05
         0.18075E-05
         0.15804E-05
         0.19299E-05
         0.24592E-05
         0.17328E-05
         0.27642E-05
         0.24140E-05
         0.10819E-05
         0.16654E-05
         0.18916E-05
         0.20003E-05
         0.19337E-05
         0.15193E-05
         0.95450E-06
         0.15748E-05
         0.20869E-05
         0.16828E-05
         0.14782E-05
         0.96826E-06
         0.16546E-05
         0.22487E-05
         0.23626E-05
         0.19081E-05
         0.11714E-05
         0.20253E-05
         0.74316E-06
         0.94864E-06
         0.88196E-06
         0.10472E-05
         0.10243E-05
         0.99450E-06
         0.10634E-05
         0.11271E-05
         0.10596E-05
         0.82381E-06
         0.67036E-06
         0.86432E-06
         0.11529E-05
         0.12683E-05
         0.12154E-05
         0.10943E-05
         0.99329E-06
         0.80658E-06
         0.67815E-06
         0.88696E-06
         0.11749E-05
         0.12140E-05
         0.97919E-06
         0.79485E-06
         0.97732E-06
         0.11544E-05
         0.24632E-05
         0.19483E-05
         0.20975E-05
         0.36246E-05
         0.19368E-05
         0.24756E-05
         0.13700E-05
         0.16447E-05
         0.27437E-05
         0.19902E-05
         0.80421E-06
         0.15347E-05
         0.16910E-05
         0.13534E-05
         0.17470E-05
         0.32632E-05
         0.25552E-05
         0.32502E-05
         0.18992E-05
         0.21719E-05
         0.20467E-05
         0.22700E-05
         0.17397E-05
         0.10804E-05
         0.20448E-05
         0.17079E-05
         0.17523E-05
         0.18057E-05
         0.15797E-05
         0.19295E-05
         0.24595E-05
         0.17326E-05
         0.27656E-05
         0.24161E-05
         0.10819E-05
         0.16651E-05
         0.18914E-05
         0.20002E-05
         0.19338E-05
         0.15194E-05
         0.95451E-06
         0.15745E-05
         0.20868E-05
         0.16826E-05
         0.14779E-05
         0.96801E-06
         0.16545E-05
         0.22487E-05
         0.23630E-05
         0.19085E-05
         0.11714E-05
         0.20263E-05
         0.74293E-06
         0.94863E-06
         0.88153E-06
         0.10473E-05
         0.10245E-05
         0.99472E-06
         0.10639E-05
         0.11279E-05
         0.10602E-05
         0.82400E-06
         0.67041E-06
         0.86435E-06
         0.11530E-05
         0.12686E-05
         0.12156E-05
         0.10943E-05
         0.99323E-06
         0.80652E-06
         0.67804E-06
         0.88690E-06
         0.11749E-05
         0.12140E-05
         0.97900E-06
         0.79468E-06
         0.97744E-06
         0.11543E-05
         0.24633E-05
         0.19479E-05
         0.20977E-05
         0.36264E-05
         0.19371E-05
         0.24763E-05
         0.13693E-05
         0.16437E-05
         0.27447E-05
         0.19888E-05
         0.80343E-06
         0.15345E-05
         0.16908E-05
         0.13515E-05
         0.17466E-05
         0.32642E-05
         0.25564E-05
         0.32518E-05
         0.18992E-05
         0.21722E-05
         0.20466E-05
         0.22701E-05
         0.17395E-05
         0.10803E-05
         0.20439E-05
         0.17078E-05
         0.17496E-05
         0.18039E-05
         0.15790E-05
         0.19290E-05
         0.24597E-05
         0.17323E-05
         0.27671E-05
         0.24183E-05
         0.10819E-05
         0.16648E-05
         0.18911E-05
         0.20001E-05
         0.19339E-05
         0.15195E-05
         0.95452E-06
         0.15743E-05
         0.20867E-05
         0.16823E-05
         0.14775E-05
         0.96776E-06
         0.16543E-05
         0.22487E-05
         0.23633E-05
         0.19089E-05
         0.11714E-05
         0.20273E-05
         0.74270E-06
         0.94861E-06
         0.88109E-06
         0.10473E-05
         0.10248E-05
         0.99493E-06
         0.10643E-05
         0.11287E-05
         0.10609E-05
         0.82418E-06
         0.67046E-06
         0.86437E-06
         0.11532E-05
         0.12689E-05
         0.12157E-05
         0.10943E-05
         0.99316E-06
         0.80646E-06
         0.67794E-06
         0.88683E-06
         0.11749E-05
         0.12140E-05
         0.97879E-06
         0.79450E-06
         0.97755E-06
         0.11543E-05
         0.24635E-05
         0.19475E-05
         0.20979E-05
         0.36281E-05
         0.19374E-05
         0.24771E-05
         0.13686E-05
         0.16427E-05
         0.27456E-05
         0.19875E-05
         0.80266E-06
         0.15342E-05
         0.16907E-05
         0.13496E-05
         0.17463E-05
         0.32651E-05
         0.25575E-05
         0.32534E-05
         0.18993E-05
         0.21724E-05
         0.20466E-05
         0.22702E-05
         0.17393E-05
         0.10802E-05
         0.20430E-05
         0.17076E-05
         0.17469E-05
         0.18021E-05
         0.15784E-05
         0.19286E-05
         0.24600E-05
         0.17321E-05
         0.27685E-05
         0.24205E-05
         0.10819E-05
         0.16645E-05
         0.18909E-05
         0.19999E-05
         0.19341E-05
         0.15195E-05
         0.95452E-06
         0.15741E-05
         0.20866E-05
         0.16821E-05
         0.14772E-05
         0.96751E-06
         0.16542E-05
         0.22488E-05
         0.23637E-05
         0.19092E-05
         0.11715E-05
         0.20283E-05
         0.74247E-06
         0.94860E-06
         0.88066E-06
         0.10473E-05
         0.10250E-05
         0.99514E-06
         0.10648E-05
         0.11295E-05
         0.10615E-05
         0.82437E-06
         0.67052E-06
         0.86439E-06
         0.11533E-05
         0.12691E-05
         0.12159E-05
         0.10942E-05
         0.99310E-06
         0.80639E-06
         0.67783E-06
         0.88676E-06
         0.11748E-05
         0.12140E-05
         0.97859E-06
         0.79433E-06
         0.97767E-06
         0.11543E-05
         0.24636E-05
         0.19471E-05
         0.20980E-05
         0.36298E-05
         0.19377E-05
         0.24779E-05
         0.13679E-05
         0.16417E-05
         0.27466E-05
         0.19862E-05
         0.80189E-06
         0.15339E-05
         0.16906E-05
         0.13477E-05
         0.17459E-05
         0.32661E-05
         0.25587E-05
         0.32551E-05
         0.18994E-05
         0.21727E-05
         0.20465E-05
         0.22703E-05
         0.17392E-05
         0.10800E-05
         0.20421E-05
         0.17075E-05
         0.17443E-05
         0.18003E-05
         0.15777E-05
         0.19281E-05
         0.24602E-05
         0.17319E-05
         0.27700E-05
         0.24227E-05
         0.10819E-05
         0.16642E-05
         0.18906E-05
         0.19998E-05
         0.19342E-05
         0.15196E-05
         0.95453E-06
         0.15739E-05
         0.20865E-05
         0.16819E-05
         0.14768E-05
         0.96727E-06
         0.16541E-05
         0.22488E-05
         0.23640E-05
         0.19096E-05
         0.11715E-05
         0.20293E-05
         0.74225E-06
         0.94859E-06
         0.88023E-06
         0.10474E-05
         0.10253E-05
         0.99535E-06
         0.10653E-05
         0.11303E-05
         0.10621E-05
         0.82456E-06
         0.67057E-06
         0.86441E-06
         0.11535E-05
         0.12694E-05
         0.12160E-05
         0.10942E-05
         0.99304E-06
         0.80633E-06
         0.67773E-06
         0.88671E-06
         0.11748E-05
         0.12140E-05
         0.97840E-06
         0.79415E-06
         0.97780E-06
         0.11542E-05
         0.24637E-05
         0.19466E-05
         0.20982E-05
         0.36315E-05
         0.19380E-05
         0.24786E-05
         0.13671E-05
         0.16407E-05
         0.27475E-05
         0.19849E-05
         0.80110E-06
         0.15336E-05
         0.16905E-05
         0.13457E-05
         0.17455E-05
         0.32669E-05
         0.25598E-05
         0.32567E-05
         0.18994E-05
         0.21729E-05
         0.20464E-05
         0.22703E-05
         0.17390E-05
         0.10799E-05
         0.20412E-05
         0.17073E-05
         0.17416E-05
         0.17985E-05
         0.15770E-05
         0.19277E-05
         0.24604E-05
         0.17317E-05
         0.27714E-05
         0.24248E-05
         0.10819E-05
         0.16638E-05
         0.18903E-05
         0.19996E-05
         0.19343E-05
         0.15196E-05
         0.95451E-06
         0.15737E-05
         0.20864E-05
         0.16816E-05
         0.14765E-05
         0.96700E-06
         0.16539E-05
         0.22488E-05
         0.23644E-05
         0.19100E-05
         0.11715E-05
         0.20303E-05
         0.74200E-06
         0.94855E-06
         0.87978E-06
         0.10474E-05
         0.10255E-05
         0.99555E-06
         0.10657E-05
         0.11311E-05
         0.10627E-05
         0.82472E-06
         0.67061E-06
         0.86442E-06
         0.11536E-05
         0.12697E-05
         0.12161E-05
         0.10941E-05
         0.99295E-06
         0.80625E-06
         0.67761E-06
         0.88662E-06
         0.11748E-05
         0.12140E-05
         0.97818E-06
         0.79396E-06
         0.97790E-06
         0.11542E-05
         0.24639E-05
         0.19463E-05
         0.20984E-05
         0.36333E-05
         0.19383E-05
         0.24794E-05
         0.13664E-05
         0.16398E-05
         0.27485E-05
         0.19836E-05
         0.80034E-06
         0.15334E-05
         0.16904E-05
         0.13439E-05
         0.17452E-05
         0.32679E-05
         0.25610E-05
         0.32583E-05
         0.18995E-05
         0.21732E-05
         0.20463E-05
         0.22704E-05
         0.17388E-05
         0.10798E-05
         0.20404E-05
         0.17072E-05
         0.17389E-05
         0.17967E-05
         0.15763E-05
         0.19272E-05
         0.24607E-05
         0.17315E-05
         0.27729E-05
         0.24270E-05
         0.10819E-05
         0.16635E-05
         0.18901E-05
         0.19995E-05
         0.19345E-05
         0.15197E-05
         0.95453E-06
         0.15735E-05
         0.20863E-05
         0.16814E-05
         0.14761E-05
         0.96677E-06
         0.16538E-05
         0.22488E-05
         0.23647E-05
         0.19104E-05
         0.11716E-05
         0.20313E-05
         0.74179E-06
         0.94855E-06
         0.87936E-06
         0.10475E-05
         0.10257E-05
         0.99577E-06
         0.10662E-05
         0.11319E-05
         0.10633E-05
         0.82492E-06
         0.67068E-06
         0.86446E-06
         0.11538E-05
         0.12700E-05
         0.12163E-05
         0.10941E-05
         0.99291E-06
         0.80620E-06
         0.67752E-06
         0.88657E-06
         0.11748E-05
         0.12140E-05
         0.97800E-06
         0.79380E-06
         0.97803E-06
         0.11542E-05
         0.12320E-05
         0.97306E-06
         0.10493E-05
         0.18171E-05
         0.96926E-06
         0.12399E-05
         0.68306E-06
         0.81967E-06
         0.13745E-05
         0.99152E-06
         0.39999E-06
         0.76665E-06
         0.84519E-06
         0.67148E-06
         0.87252E-06
         0.16343E-05
         0.12808E-05
         0.16296E-05
         0.94981E-06
         0.10867E-05
         0.10232E-05
         0.11353E-05
         0.86940E-06
         0.53990E-06
         0.10200E-05
         0.85360E-06
         0.86884E-06
         0.89793E-06
         0.78802E-06
         0.96354E-06
         0.12305E-05
         0.86572E-06
         0.13869E-05
         0.12141E-05
         0.54095E-06
         0.83170E-06
         0.94503E-06
         0.99975E-06
         0.96729E-06
         0.75992E-06
         0.47728E-06
         0.78670E-06
         0.10432E-05
         0.84065E-06
         0.73800E-06
         0.48334E-06
         0.82688E-06
         0.11245E-05
         0.11825E-05
         0.95534E-06
         0.58581E-06
         0.10159E-05
         0.37085E-06
         0.47429E-06
         0.43959E-06
         0.52375E-06
         0.51294E-06
         0.49796E-06
         0.53322E-06
         0.56619E-06
         0.53185E-06
         0.41252E-06
         0.33536E-06
         0.43225E-06
         0.57696E-06
         0.63509E-06
         0.60820E-06
         0.54708E-06
         0.49646E-06
         0.40310E-06
         0.33875E-06
         0.44329E-06
         0.58740E-06
         0.60700E-06
         0.48897E-06
         0.39687E-06
         0.48906E-06
         0.57710E-06
  
SCALARS                 Poissons_ratio  double 1
LOOKUP_TABLE default
         0.30000E+00
         0.30000E+00
         0.30000E+00
         0.30000E+00
         0.30000E+00
         0.30000E+00
         0.30000E+00
         0.30000E+00
         0.30000E+00
         0.30000E+00
         0.30000E+00
         0.30000E+00
         0.30000E+00
         0.30000E+00
         0.30000E+00
         0.30000E+00
         0.30000E+00
         0.30000E+00
         0.30000E+00
         0.30000E+00
         0.30000E+00
         0.30000E+00
         0.30000E+00
         0.30000E+00
         0.30000E+00
         0.30000E+00
         0.30000E+00
         0.30000E+00
         0.30000E+00
         0.30000E+00
         0.30000E+00
         0.30000E+00
         0.30000E+00
         0.30000E+00
         0.30000E+00
         0.30000E+00
         0.30000E+00
         0.30000E+00
         0.30000E+00
         0.30000E+00
         0.30000E+00
         0.30000E+00
         0.30000E+00
         0.30000E+00
         0.30000E+00
         0.30000E+00
         0.30000E+00
         0.30000E+00
         0.30000E+00
         0.30000E+00
         0.30000E+00
         0.30000E+00
         0.30000E+00
         0.30000E+00
         0.30000E+00
         0.30000E+00
         0.30000E+00
         0.30000E+00
         0.30000E+00
         0.30000E+00
         0.30000E+00
         0.30000E+00
         0.30000E+00
         0.30000E+00
         0.30000E+00
         0.30000E+00
         0.30000E+00
         0.30000E+00
         0.30000E+00
         0.30000E+00
         0.30000E+00
         0.30000E+00
         0.30000E+00
         0.30000E+00
         0.30000E+00
         0.30000E+00
         0.30000E+00
         0.30000E+00
         0.30000E+00
         0.30000E+00
         0.30000E+00
         0.30000E+00
         0.30000E+00
         0.30000E+00
         0.30000E+00
         0.30000E+00
         0.30000E+00
         0.30000E+00
         0.30000E+00
         0.30000E+00
         0.30000E+00
         0.30000E+00
         0.30000E+00
         0.30000E+00
         0.30000E+00
         0.30000E+00
         0.30000E+00
         0.30000E+00
         0.30000E+00
         0.30000E+00
         0.30000E+00
         0.30000E+00
         0.30000E+00
         0.30000E+00
         0.30000E+00
         0.30000E+00
         0.30000E+00
         0.30000E+00
         0.30000E+00
         0.30000E+00
         0.30000E+00
         0.30000E+00
         0.30000E+00
         0.30000E+00
         0.30000E+00
         0.30000E+00
         0.30000E+00
         0.30000E+00
         0.30000E+00
         0.30000E+00
         0.30000E+00
         0.30000E+00
         0.30000E+00
         0.30000E+00
         0.30000E+00
         0.30000E+00
         0.30000E+00
         0.30000E+00
         0.30000E+00
         0.30000E+00
         0.30000E+00
         0.30000E+00
         0.30000E+00
         0.30000E+00
         0.30000E+00
         0.30000E+00
         0.30000E+00
         0.30000E+00
         0.30000E+00
         0.30000E+00
         0.30000E+00
         0.30000E+00
         0.30000E+00
         0.30000E+00
         0.30000E+00
         0.30000E+00
         0.30000E+00
         0.30000E+00
         0.30000E+00
         0.30000E+00
         0.30000E+00
         0.30000E+00
         0.30000E+00
         0.30000E+00
         0.30000E+00
         0.30000E+00
         0.30000E+00
         0.30000E+00
         0.30000E+00
         0.30000E+00
         0.30000E+00
         0.30000E+00
         0.30000E+00
         0.30000E+00
         0.30000E+00
         0.30000E+00
         0.30000E+00
         0.30000E+00
         0.30000E+00
         0.30000E+00
         0.30000E+00
         0.30000E+00
         0.30000E+00
         0.30000E+00
         0.30000E+00
         0.30000E+00
         0.30000E+00
         0.30000E+00
         0.30000E+00
         0.30000E+00
         0.30000E+00
         0.30000E+00
         0.30000E+00
         0.30000E+00
         0.30000E+00
         0.30000E+00
         0.30000E+00
         0.30000E+00
         0.30000E+00
         0.30000E+00
         0.30000E+00
         0.30000E+00
         0.30000E+00
         0.30000E+00
         0.30000E+00
         0.30000E+00
         0.30000E+00
         0.30000E+00
         0.30000E+00
         0.30000E+00
         0.30000E+00
         0.30000E+00
         0.30000E+00
         0.30000E+00
         0.30000E+00
         0.30000E+00
         0.30000E+00
         0.30000E+00
         0.30000E+00
         0.30000E+00
         0.30000E+00
         0.30000E+00
         0.30000E+00
         0.30000E+00
         0.30000E+00
         0.30000E+00
         0.30000E+00
         0.30000E+00
         0.30000E+00
         0.30000E+00
         0.30000E+00
         0.30000E+00
         0.30000E+00
         0.30000E+00
         0.30000E+00
         0.30000E+00
         0.30000E+00
         0.30000E+00
         0.30000E+00
         0.30000E+00
         0.30000E+00
         0.30000E+00
         0.30000E+00
         0.30000E+00
         0.30000E+00
         0.30000E+00
         0.30000E+00
         0.30000E+00
         0.30000E+00
         0.30000E+00
         0.30000E+00
         0.30000E+00
         0.30000E+00
         0.30000E+00
         0.30000E+00
         0.30000E+00
         0.30000E+00
         0.30000E+00
         0.30000E+00
         0.30000E+00
         0.30000E+00
         0.30000E+00
         0.30000E+00
         0.30000E+00
         0.30000E+00
         0.30000E+00
         0.30000E+00
         0.30000E+00
         0.30000E+00
         0.30000E+00
         0.30000E+00
         0.30000E+00
         0.30000E+00
         0.30000E+00
         0.30000E+00
         0.30000E+00
         0.30000E+00
         0.30000E+00
         0.30000E+00
         0.30000E+00
         0.30000E+00
         0.30000E+00
         0.30000E+00
         0.30000E+00
         0.30000E+00
         0.30000E+00
         0.30000E+00
         0.30000E+00
         0.30000E+00
         0.30000E+00
         0.30000E+00
         0.30000E+00
         0.30000E+00
         0.30000E+00
         0.30000E+00
         0.30000E+00
         0.30000E+00
         0.30000E+00
         0.30000E+00
         0.30000E+00
         0.30000E+00
         0.30000E+00
         0.30000E+00
         0.30000E+00
         0.30000E+00
         0.30000E+00
         0.30000E+00
         0.30000E+00
         0.30000E+00
         0.30000E+00
         0.30000E+00
         0.30000E+00
         0.30000E+00
         0.30000E+00
         0.30000E+00
         0.30000E+00
         0.30000E+00
         0.30000E+00
         0.30000E+00
         0.30000E+00
         0.30000E+00
         0.30000E+00
         0.30000E+00
         0.30000E+00
         0.30000E+00
         0.30000E+00
         0.30000E+00
         0.30000E+00
         0.30000E+00
         0.30000E+00
         0.30000E+00
         0.30000E+00
         0.30000E+00
         0.30000E+00
         0.30000E+00
         0.30000E+00
         0.30000E+00
         0.30000E+00
         0.30000E+00
         0.30000E+00
         0.30000E+00
         0.30000E+00
         0.30000E+00
         0.30000E+00
         0.30000E+00
         0.30000E+00
         0.30000E+00
         0.30000E+00
         0.30000E+00
         0.30000E+00
         0.30000E+00
         0.30000E+00
         0.30000E+00
         0.30000E+00
         0.30000E+00
         0.30000E+00
         0.30000E+00
         0.30000E+00
         0.30000E+00
         0.30000E+00
         0.30000E+00
         0.30000E+00
         0.30000E+00
         0.30000E+00
         0.30000E+00
         0.30000E+00
         0.30000E+00
         0.30000E+00
         0.30000E+00
         0.30000E+00
         0.30000E+00
         0.30000E+00
         0.30000E+00
         0.30000E+00
         0.30000E+00
         0.30000E+00
         0.30000E+00
         0.30000E+00
         0.30000E+00
         0.30000E+00
         0.30000E+00
         0.30000E+00
         0.30000E+00
         0.30000E+00
         0.30000E+00
         0.30000E+00
         0.30000E+00
         0.30000E+00
         0.30000E+00
         0.30000E+00
         0.30000E+00
         0.30000E+00
         0.30000E+00
         0.30000E+00
         0.30000E+00
         0.30000E+00
         0.30000E+00
         0.30000E+00
         0.30000E+00
         0.30000E+00
         0.30000E+00
         0.30000E+00
         0.30000E+00
         0.30000E+00
         0.30000E+00
         0.30000E+00
         0.30000E+00
         0.30000E+00
         0.30000E+00
         0.30000E+00
         0.30000E+00
         0.30000E+00
         0.30000E+00
         0.30000E+00
         0.30000E+00
         0.30000E+00
         0.30000E+00
         0.30000E+00
         0.30000E+00
         0.30000E+00
         0.30000E+00
         0.30000E+00
         0.30000E+00
         0.30000E+00
         0.30000E+00
         0.30000E+00
         0.30000E+00
         0.30000E+00
         0.30000E+00
         0.30000E+00
         0.30000E+00
         0.30000E+00
         0.30000E+00
         0.30000E+00
         0.30000E+00
         0.30000E+00
         0.30000E+00
         0.30000E+00
         0.30000E+00
         0.30000E+00
         0.30000E+00
         0.30000E+00
         0.30000E+00
         0.30000E+00
         0.30000E+00
         0.30000E+00
         0.30000E+00
         0.30000E+00
         0.30000E+00
         0.30000E+00
         0.30000E+00
         0.30000E+00
         0.30000E+00
         0.30000E+00
         0.30000E+00
         0.30000E+00
         0.30000E+00
         0.30000E+00
         0.30000E+00
         0.30000E+00
         0.30000E+00
         0.30000E+00
         0.30000E+00
         0.30000E+00
         0.30000E+00
         0.30000E+00
         0.30000E+00
         0.30000E+00
         0.30000E+00
         0.30000E+00
         0.30000E+00
         0.30000E+00
         0.30000E+00
         0.30000E+00
         0.30000E+00
         0.30000E+00
         0.30000E+00
         0.30000E+00
         0.30000E+00
         0.30000E+00
         0.30000E+00
         0.30000E+00
         0.30000E+00
         0.30000E+00
         0.30000E+00
         0.30000E+00
         0.30000E+00
         0.30000E+00
         0.30000E+00
         0.30000E+00
         0.30000E+00
         0.30000E+00
         0.30000E+00
         0.30000E+00
         0.30000E+00
         0.30000E+00
         0.30000E+00
         0.30000E+00
         0.30000E+00
         0.30000E+00
         0.30000E+00
         0.30000E+00
         0.30000E+00
         0.30000E+00
         0.30000E+00
         0.30000E+00
         0.30000E+00
         0.30000E+00
         0.30000E+00
         0.30000E+00
         0.30000E+00
         0.30000E+00
         0.30000E+00
         0.30000E+00
         0.30000E+00
         0.30000E+00
         0.30000E+00
         0.30000E+00
         0.30000E+00
         0.30000E+00
         0.30000E+00
         0.30000E+00
         0.30000E+00
         0.30000E+00
         0.30000E+00
         0.30000E+00
         0.30000E+00
         0.30000E+00
         0.30000E+00
         0.30000E+00
         0.30000E+00
         0.30000E+00
         0.30000E+00
         0.30000E+00
         0.30000E+00
         0.30000E+00
         0.30000E+00
         0.30000E+00
         0.30000E+00
         0.30000E+00
         0.30000E+00
         0.30000E+00
         0.30000E+00
         0.30000E+00
         0.30000E+00
         0.30000E+00
         0.30000E+00
         0.30000E+00
         0.30000E+00
         0.30000E+00
         0.30000E+00
         0.30000E+00
         0.30000E+00
         0.30000E+00
         0.30000E+00
         0.30000E+00
         0.30000E+00
         0.30000E+00
         0.30000E+00
         0.30000E+00
         0.30000E+00
         0.30000E+00
         0.30000E+00
         0.30000E+00
         0.30000E+00
         0.30000E+00
         0.30000E+00
         0.30000E+00
         0.30000E+00
         0.30000E+00
         0.30000E+00
         0.30000E+00
         0.30000E+00
         0.30000E+00
         0.30000E+00
         0.30000E+00
         0.30000E+00
         0.30000E+00
         0.30000E+00
         0.30000E+00
         0.30000E+00
         0.30000E+00
         0.30000E+00
         0.30000E+00
         0.30000E+00
         0.30000E+00
         0.30000E+00
         0.30000E+00
         0.30000E+00
         0.30000E+00
         0.30000E+00
         0.30000E+00
         0.30000E+00
         0.30000E+00
         0.30000E+00
         0.30000E+00
         0.30000E+00
         0.30000E+00
         0.30000E+00
         0.30000E+00
         0.30000E+00
         0.30000E+00
         0.30000E+00
         0.30000E+00
         0.30000E+00
         0.30000E+00
         0.30000E+00
         0.30000E+00
         0.30000E+00
         0.30000E+00
         0.30000E+00
         0.30000E+00
         0.30000E+00
         0.30000E+00
         0.30000E+00
         0.30000E+00
         0.30000E+00
         0.30000E+00
         0.30000E+00
         0.30000E+00
         0.30000E+00
         0.30000E+00
         0.30000E+00
         0.30000E+00
         0.30000E+00
         0.30000E+00
         0.30000E+00
         0.30000E+00
         0.30000E+00
         0.30000E+00
         0.30000E+00
         0.30000E+00
         0.30000E+00
         0.30000E+00
         0.30000E+00
         0.30000E+00
         0.30000E+00
         0.30000E+00
         0.30000E+00
         0.30000E+00
         0.30000E+00
         0.30000E+00
         0.30000E+00
         0.30000E+00
         0.30000E+00
         0.30000E+00
         0.30000E+00
         0.30000E+00
         0.30000E+00
         0.30000E+00
         0.30000E+00
         0.30000E+00
         0.30000E+00
         0.30000E+00
         0.30000E+00
         0.30000E+00
         0.30000E+00
         0.30000E+00
         0.30000E+00
         0.30000E+00
         0.30000E+00
         0.30000E+00
         0.30000E+00
         0.30000E+00
         0.30000E+00
         0.30000E+00
         0.30000E+00
         0.30000E+00
         0.30000E+00
         0.30000E+00
         0.30000E+00
         0.30000E+00
         0.30000E+00
         0.30000E+00
         0.30000E+00
         0.30000E+00
         0.30000E+00
         0.30000E+00
         0.30000E+00
         0.30000E+00
         0.30000E+00
         0.30000E+00
         0.30000E+00
         0.30000E+00
         0.30000E+00
         0.30000E+00
         0.30000E+00
         0.30000E+00
         0.30000E+00
         0.30000E+00
         0.30000E+00
         0.30000E+00
         0.30000E+00
         0.30000E+00
         0.30000E+00
         0.30000E+00
         0.30000E+00
         0.30000E+00
         0.30000E+00
         0.30000E+00
         0.30000E+00
         0.30000E+00
         0.30000E+00
         0.30000E+00
         0.30000E+00
         0.30000E+00
         0.30000E+00
         0.30000E+00
         0.30000E+00
         0.30000E+00
         0.30000E+00
         0.30000E+00
         0.30000E+00
         0.30000E+00
         0.30000E+00
         0.30000E+00
         0.30000E+00
         0.30000E+00
         0.30000E+00
         0.30000E+00
         0.30000E+00
         0.30000E+00
         0.30000E+00
         0.30000E+00
         0.30000E+00
         0.30000E+00
         0.30000E+00
         0.30000E+00
         0.30000E+00
         0.30000E+00
         0.30000E+00
         0.30000E+00
         0.30000E+00
         0.30000E+00
         0.30000E+00
         0.30000E+00
         0.30000E+00
         0.30000E+00
         0.30000E+00
         0.30000E+00
         0.30000E+00
         0.30000E+00
         0.30000E+00
         0.30000E+00
         0.30000E+00
         0.30000E+00
         0.30000E+00
         0.30000E+00
         0.30000E+00
         0.30000E+00
         0.30000E+00
         0.30000E+00
         0.30000E+00
         0.30000E+00
         0.30000E+00
         0.30000E+00
         0.30000E+00
         0.30000E+00
         0.30000E+00
         0.30000E+00
         0.30000E+00
         0.30000E+00
         0.30000E+00
         0.30000E+00
         0.30000E+00
         0.30000E+00
         0.30000E+00
         0.30000E+00
         0.30000E+00
         0.30000E+00
         0.30000E+00
         0.30000E+00
         0.30000E+00
         0.30000E+00
         0.30000E+00
         0.30000E+00
         0.30000E+00
         0.30000E+00
         0.30000E+00
         0.30000E+00
         0.30000E+00
         0.30000E+00
         0.30000E+00
         0.30000E+00
         0.30000E+00
         0.30000E+00
         0.30000E+00
         0.30000E+00
         0.30000E+00
         0.30000E+00
         0.30000E+00
         0.30000E+00
         0.30000E+00
         0.30000E+00
         0.30000E+00
         0.30000E+00
         0.30000E+00
         0.30000E+00
         0.30000E+00
         0.30000E+00
         0.30000E+00
         0.30000E+00
         0.30000E+00
         0.30000E+00
         0.30000E+00
         0.30000E+00
         0.30000E+00
         0.30000E+00
         0.30000E+00
         0.30000E+00
         0.30000E+00
         0.30000E+00
         0.30000E+00
         0.30000E+00
         0.30000E+00
         0.30000E+00
         0.30000E+00
         0.30000E+00
         0.30000E+00
         0.30000E+00
         0.30000E+00
         0.30000E+00
         0.30000E+00
         0.30000E+00
         0.30000E+00
         0.30000E+00
         0.30000E+00
         0.30000E+00
         0.30000E+00
         0.30000E+00
         0.30000E+00
         0.30000E+00
         0.30000E+00
         0.30000E+00
         0.30000E+00
         0.30000E+00
         0.30000E+00
         0.30000E+00
         0.30000E+00
         0.30000E+00
         0.30000E+00
         0.30000E+00
         0.30000E+00
         0.30000E+00
         0.30000E+00
         0.30000E+00
         0.30000E+00
         0.30000E+00
         0.30000E+00
         0.30000E+00
         0.30000E+00
         0.30000E+00
         0.30000E+00
         0.30000E+00
         0.30000E+00
         0.30000E+00
         0.30000E+00
         0.30000E+00
         0.30000E+00
         0.30000E+00
         0.30000E+00
         0.30000E+00
         0.30000E+00
         0.30000E+00
         0.30000E+00
         0.30000E+00
         0.30000E+00
         0.30000E+00
         0.30000E+00
         0.30000E+00
         0.30000E+00
         0.30000E+00
         0.30000E+00
         0.30000E+00
         0.30000E+00
         0.30000E+00
         0.30000E+00
         0.30000E+00
         0.30000E+00
         0.30000E+00
         0.30000E+00
         0.30000E+00
         0.30000E+00
         0.30000E+00
         0.30000E+00
         0.30000E+00
         0.30000E+00
         0.30000E+00
         0.30000E+00
         0.30000E+00
         0.30000E+00
         0.30000E+00
         0.30000E+00
         0.30000E+00
         0.30000E+00
         0.30000E+00
         0.30000E+00
         0.30000E+00
         0.30000E+00
         0.30000E+00
         0.30000E+00
         0.30000E+00
         0.30000E+00
         0.30000E+00
         0.30000E+00
         0.30000E+00
         0.30000E+00
         0.30000E+00
         0.30000E+00
         0.30000E+00
         0.30000E+00
         0.30000E+00
         0.30000E+00
         0.30000E+00
         0.30000E+00
         0.30000E+00
         0.30000E+00
         0.30000E+00
         0.30000E+00
         0.30000E+00
         0.30000E+00
         0.30000E+00
         0.30000E+00
         0.30000E+00
         0.30000E+00
         0.30000E+00
         0.30000E+00
         0.30000E+00
         0.30000E+00
         0.30000E+00
         0.30000E+00
         0.30000E+00
         0.30000E+00
         0.30000E+00
         0.30000E+00
         0.30000E+00
         0.30000E+00
         0.30000E+00
         0.30000E+00
         0.30000E+00
         0.30000E+00
         0.30000E+00
         0.30000E+00
         0.30000E+00
         0.30000E+00
         0.30000E+00
         0.30000E+00
         0.30000E+00
         0.30000E+00
         0.30000E+00
         0.30000E+00
         0.30000E+00
         0.30000E+00
         0.30000E+00
         0.30000E+00
         0.30000E+00
         0.30000E+00
         0.30000E+00
         0.30000E+00
         0.30000E+00
         0.30000E+00
         0.30000E+00
         0.30000E+00
         0.30000E+00
         0.30000E+00
         0.30000E+00
         0.30000E+00
         0.30000E+00
         0.30000E+00
         0.30000E+00
         0.30000E+00
         0.30000E+00
         0.30000E+00
         0.30000E+00
         0.30000E+00
         0.30000E+00
         0.30000E+00
         0.30000E+00
         0.30000E+00
         0.30000E+00
         0.30000E+00
         0.30000E+00
         0.30000E+00
         0.30000E+00
         0.30000E+00
         0.30000E+00
         0.30000E+00
         0.30000E+00
         0.30000E+00
         0.30000E+00
         0.30000E+00
         0.30000E+00
         0.30000E+00
         0.30000E+00
         0.30000E+00
         0.30000E+00
         0.30000E+00
         0.30000E+00
         0.30000E+00
         0.30000E+00
         0.30000E+00
         0.30000E+00
         0.30000E+00
         0.30000E+00
         0.30000E+00
         0.30000E+00
         0.30000E+00
         0.30000E+00
         0.30000E+00
         0.30000E+00
         0.30000E+00
         0.30000E+00
         0.30000E+00
         0.30000E+00
         0.30000E+00
         0.30000E+00
         0.30000E+00
         0.30000E+00
         0.30000E+00
         0.30000E+00
         0.30000E+00
         0.30000E+00
         0.30000E+00
         0.30000E+00
         0.30000E+00
         0.30000E+00
         0.30000E+00
         0.30000E+00
         0.30000E+00
         0.30000E+00
         0.30000E+00
         0.30000E+00
         0.30000E+00
         0.30000E+00
         0.30000E+00
         0.30000E+00
         0.30000E+00
         0.30000E+00
         0.30000E+00
         0.30000E+00
         0.30000E+00
         0.30000E+00
         0.30000E+00
         0.30000E+00
         0.30000E+00
         0.30000E+00
         0.30000E+00
         0.30000E+00
         0.30000E+00
         0.30000E+00
         0.30000E+00
         0.30000E+00
         0.30000E+00
         0.30000E+00
         0.30000E+00
         0.30000E+00
         0.30000E+00
         0.30000E+00
         0.30000E+00
         0.30000E+00
         0.30000E+00
         0.30000E+00
         0.30000E+00
         0.30000E+00
         0.30000E+00
         0.30000E+00
         0.30000E+00
         0.30000E+00
         0.30000E+00
         0.30000E+00
         0.30000E+00
         0.30000E+00
         0.30000E+00
         0.30000E+00
         0.30000E+00
         0.30000E+00
         0.30000E+00
         0.30000E+00
         0.30000E+00
         0.30000E+00
         0.30000E+00
         0.30000E+00
         0.30000E+00
         0.30000E+00
         0.30000E+00
         0.30000E+00
         0.30000E+00
         0.30000E+00
         0.30000E+00
         0.30000E+00
         0.30000E+00
         0.30000E+00
         0.30000E+00
         0.30000E+00
         0.30000E+00
         0.30000E+00
         0.30000E+00
         0.30000E+00
         0.30000E+00
         0.30000E+00
         0.30000E+00
         0.30000E+00
         0.30000E+00
         0.30000E+00
         0.30000E+00
         0.30000E+00
         0.30000E+00
         0.30000E+00
         0.30000E+00
         0.30000E+00
         0.30000E+00
         0.30000E+00
         0.30000E+00
         0.30000E+00
         0.30000E+00
         0.30000E+00
         0.30000E+00
         0.30000E+00
         0.30000E+00
         0.30000E+00
         0.30000E+00
         0.30000E+00
         0.30000E+00
         0.30000E+00
         0.30000E+00
         0.30000E+00
         0.30000E+00
         0.30000E+00
         0.30000E+00
         0.30000E+00
         0.30000E+00
         0.30000E+00
         0.30000E+00
         0.30000E+00
         0.30000E+00
         0.30000E+00
         0.30000E+00
         0.30000E+00
         0.30000E+00
         0.30000E+00
         0.30000E+00
         0.30000E+00
         0.30000E+00
         0.30000E+00
         0.30000E+00
         0.30000E+00
         0.30000E+00
         0.30000E+00
         0.30000E+00
         0.30000E+00
         0.30000E+00
         0.30000E+00
         0.30000E+00
         0.30000E+00
         0.30000E+00
         0.30000E+00
         0.30000E+00
         0.30000E+00
         0.30000E+00
         0.30000E+00
         0.30000E+00
         0.30000E+00
         0.30000E+00
         0.30000E+00
         0.30000E+00
         0.30000E+00
         0.30000E+00
         0.30000E+00
         0.30000E+00
         0.30000E+00
         0.30000E+00
         0.30000E+00
         0.30000E+00
         0.30000E+00
         0.30000E+00
         0.30000E+00
         0.30000E+00
         0.30000E+00
         0.30000E+00
         0.30000E+00
         0.30000E+00
         0.30000E+00
         0.30000E+00
         0.30000E+00
         0.30000E+00
         0.30000E+00
         0.30000E+00
         0.30000E+00
         0.30000E+00
         0.30000E+00
         0.30000E+00
         0.30000E+00
         0.30000E+00
         0.30000E+00
         0.30000E+00
         0.30000E+00
         0.30000E+00
         0.30000E+00
         0.30000E+00
         0.30000E+00
         0.30000E+00
         0.30000E+00
         0.30000E+00
         0.30000E+00
         0.30000E+00
         0.30000E+00
         0.30000E+00
         0.30000E+00
         0.30000E+00
         0.30000E+00
         0.30000E+00
         0.30000E+00
         0.30000E+00
         0.30000E+00
         0.30000E+00
         0.30000E+00
         0.30000E+00
         0.30000E+00
         0.30000E+00
         0.30000E+00
         0.30000E+00
         0.30000E+00
         0.30000E+00
         0.30000E+00
         0.30000E+00
         0.30000E+00
         0.30000E+00
         0.30000E+00
         0.30000E+00
         0.30000E+00
         0.30000E+00
         0.30000E+00
         0.30000E+00
         0.30000E+00
         0.30000E+00
         0.30000E+00
         0.30000E+00
         0.30000E+00
         0.30000E+00
         0.30000E+00
         0.30000E+00
         0.30000E+00
         0.30000E+00
         0.30000E+00
         0.30000E+00
         0.30000E+00
         0.30000E+00
         0.30000E+00
         0.30000E+00
         0.30000E+00
         0.30000E+00
         0.30000E+00
         0.30000E+00
         0.30000E+00
         0.30000E+00
         0.30000E+00
         0.30000E+00
         0.30000E+00
         0.30000E+00
         0.30000E+00
         0.30000E+00
         0.30000E+00
         0.30000E+00
         0.30000E+00
         0.30000E+00
         0.30000E+00
         0.30000E+00
         0.30000E+00
         0.30000E+00
         0.30000E+00
         0.30000E+00
         0.30000E+00
         0.30000E+00
         0.30000E+00
         0.30000E+00
         0.30000E+00
         0.30000E+00
         0.30000E+00
         0.30000E+00
         0.30000E+00
         0.30000E+00
         0.30000E+00
         0.30000E+00
         0.30000E+00
         0.30000E+00
         0.30000E+00
         0.30000E+00
         0.30000E+00
         0.30000E+00
         0.30000E+00
         0.30000E+00
         0.30000E+00
         0.30000E+00
         0.30000E+00
         0.30000E+00
         0.30000E+00
         0.30000E+00
         0.30000E+00
         0.30000E+00
         0.30000E+00
         0.30000E+00
         0.30000E+00
         0.30000E+00
         0.30000E+00
         0.30000E+00
         0.30000E+00
         0.30000E+00
         0.30000E+00
         0.30000E+00
         0.30000E+00
         0.30000E+00
         0.30000E+00
         0.30000E+00
         0.30000E+00
         0.30000E+00
         0.30000E+00
         0.30000E+00
         0.30000E+00
         0.30000E+00
         0.30000E+00
         0.30000E+00
         0.30000E+00
         0.30000E+00
         0.30000E+00
         0.30000E+00
         0.30000E+00
         0.30000E+00
         0.30000E+00
         0.30000E+00
         0.30000E+00
         0.30000E+00
         0.30000E+00
         0.30000E+00
         0.30000E+00
         0.30000E+00
         0.30000E+00
         0.30000E+00
         0.30000E+00
         0.30000E+00
         0.30000E+00
         0.30000E+00
         0.30000E+00
         0.30000E+00
         0.30000E+00
         0.30000E+00
         0.30000E+00
         0.30000E+00
         0.30000E+00
         0.30000E+00
         0.30000E+00
         0.30000E+00
         0.30000E+00
         0.30000E+00
         0.30000E+00
         0.30000E+00
         0.30000E+00
         0.30000E+00
         0.30000E+00
         0.30000E+00
         0.30000E+00
         0.30000E+00
         0.30000E+00
         0.30000E+00
         0.30000E+00
         0.30000E+00
         0.30000E+00
         0.30000E+00
         0.30000E+00
         0.30000E+00
         0.30000E+00
         0.30000E+00
         0.30000E+00
         0.30000E+00
         0.30000E+00
         0.30000E+00
         0.30000E+00
         0.30000E+00
         0.30000E+00
         0.30000E+00
         0.30000E+00
         0.30000E+00
         0.30000E+00
         0.30000E+00
         0.30000E+00
         0.30000E+00
         0.30000E+00
         0.30000E+00
         0.30000E+00
         0.30000E+00
         0.30000E+00
         0.30000E+00
         0.30000E+00
         0.30000E+00
         0.30000E+00
         0.30000E+00
         0.30000E+00
         0.30000E+00
         0.30000E+00
         0.30000E+00
         0.30000E+00
         0.30000E+00
         0.30000E+00
         0.30000E+00
         0.30000E+00
         0.30000E+00
         0.30000E+00
         0.30000E+00
         0.30000E+00
         0.30000E+00
         0.30000E+00
         0.30000E+00
         0.30000E+00
         0.30000E+00
         0.30000E+00
         0.30000E+00
         0.30000E+00
         0.30000E+00
         0.30000E+00
         0.30000E+00
         0.30000E+00
         0.30000E+00
         0.30000E+00
         0.30000E+00
         0.30000E+00
         0.30000E+00
         0.30000E+00
         0.30000E+00
         0.30000E+00
         0.30000E+00
         0.30000E+00
         0.30000E+00
         0.30000E+00
         0.30000E+00
         0.30000E+00
         0.30000E+00
         0.30000E+00
         0.30000E+00
         0.30000E+00
         0.30000E+00
         0.30000E+00
         0.30000E+00
         0.30000E+00
         0.30000E+00
         0.30000E+00
         0.30000E+00
         0.30000E+00
         0.30000E+00
         0.30000E+00
         0.30000E+00
         0.30000E+00
         0.30000E+00
         0.30000E+00
         0.30000E+00
         0.30000E+00
         0.30000E+00
         0.30000E+00
         0.30000E+00
         0.30000E+00
         0.30000E+00
         0.30000E+00
         0.30000E+00
         0.30000E+00
         0.30000E+00
         0.30000E+00
         0.30000E+00
         0.30000E+00
         0.30000E+00
         0.30000E+00
         0.30000E+00
         0.30000E+00
         0.30000E+00
         0.30000E+00
         0.30000E+00
         0.30000E+00
         0.30000E+00
         0.30000E+00
         0.30000E+00
         0.30000E+00
         0.30000E+00
         0.30000E+00
         0.30000E+00
         0.30000E+00
         0.30000E+00
         0.30000E+00
         0.30000E+00
         0.30000E+00
         0.30000E+00
         0.30000E+00
         0.30000E+00
         0.30000E+00
         0.30000E+00
         0.30000E+00
         0.30000E+00
         0.30000E+00
         0.30000E+00
         0.30000E+00
         0.30000E+00
         0.30000E+00
         0.30000E+00
         0.30000E+00
         0.30000E+00
         0.30000E+00
         0.30000E+00
         0.30000E+00
         0.30000E+00
         0.30000E+00
         0.30000E+00
         0.30000E+00
         0.30000E+00
         0.30000E+00
         0.30000E+00
         0.30000E+00
         0.30000E+00
         0.30000E+00
         0.30000E+00
         0.30000E+00
         0.30000E+00
         0.30000E+00
         0.30000E+00
         0.30000E+00
         0.30000E+00
         0.30000E+00
         0.30000E+00
         0.30000E+00
         0.30000E+00
         0.30000E+00
         0.30000E+00
         0.30000E+00
         0.30000E+00
         0.30000E+00
         0.30000E+00
         0.30000E+00
         0.30000E+00
         0.30000E+00
         0.30000E+00
         0.30000E+00
         0.30000E+00
         0.30000E+00
         0.30000E+00
         0.30000E+00
         0.30000E+00
         0.30000E+00
         0.30000E+00
         0.30000E+00
         0.30000E+00
         0.30000E+00
         0.30000E+00
         0.30000E+00
         0.30000E+00
         0.30000E+00
         0.30000E+00
         0.30000E+00
         0.30000E+00
         0.30000E+00
         0.30000E+00
         0.30000E+00
         0.30000E+00
         0.30000E+00
         0.30000E+00
         0.30000E+00
         0.30000E+00
         0.30000E+00
         0.30000E+00
         0.30000E+00
         0.30000E+00
         0.30000E+00
         0.30000E+00
         0.30000E+00
         0.30000E+00
         0.30000E+00
         0.30000E+00
         0.30000E+00
         0.30000E+00
         0.30000E+00
         0.30000E+00
         0.30000E+00
         0.30000E+00
         0.30000E+00
         0.30000E+00
         0.30000E+00
         0.30000E+00
         0.30000E+00
         0.30000E+00
         0.30000E+00
         0.30000E+00
         0.30000E+00
         0.30000E+00
         0.30000E+00
         0.30000E+00
         0.30000E+00
         0.30000E+00
         0.30000E+00
         0.30000E+00
         0.30000E+00
         0.30000E+00
         0.30000E+00
         0.30000E+00
         0.30000E+00
         0.30000E+00
         0.30000E+00
         0.30000E+00
         0.30000E+00
         0.30000E+00
         0.30000E+00
         0.30000E+00
         0.30000E+00
         0.30000E+00
         0.30000E+00
         0.30000E+00
         0.30000E+00
         0.30000E+00
         0.30000E+00
         0.30000E+00
         0.30000E+00
         0.30000E+00
         0.30000E+00
         0.30000E+00
         0.30000E+00
         0.30000E+00
         0.30000E+00
         0.30000E+00
         0.30000E+00
         0.30000E+00
         0.30000E+00
         0.30000E+00
         0.30000E+00
         0.30000E+00
         0.30000E+00
         0.30000E+00
         0.30000E+00
         0.30000E+00
         0.30000E+00
         0.30000E+00
         0.30000E+00
         0.30000E+00
         0.30000E+00
         0.30000E+00
         0.30000E+00
         0.30000E+00
         0.30000E+00
         0.30000E+00
         0.30000E+00
         0.30000E+00
         0.30000E+00
         0.30000E+00
         0.30000E+00
         0.30000E+00
         0.30000E+00
         0.30000E+00
         0.30000E+00
         0.30000E+00
         0.30000E+00
         0.30000E+00
         0.30000E+00
         0.30000E+00
         0.30000E+00
         0.30000E+00
         0.30000E+00
         0.30000E+00
         0.30000E+00
         0.30000E+00
         0.30000E+00
         0.30000E+00
         0.30000E+00
         0.30000E+00
         0.30000E+00
         0.30000E+00
         0.30000E+00
         0.30000E+00
         0.30000E+00
         0.30000E+00
         0.30000E+00
         0.30000E+00
         0.30000E+00
         0.30000E+00
         0.30000E+00
         0.30000E+00
         0.30000E+00
         0.30000E+00
         0.30000E+00
         0.30000E+00
         0.30000E+00
         0.30000E+00
         0.30000E+00
         0.30000E+00
         0.30000E+00
         0.30000E+00
         0.30000E+00
         0.30000E+00
         0.30000E+00
         0.30000E+00
         0.30000E+00
         0.30000E+00
         0.30000E+00
         0.30000E+00
         0.30000E+00
         0.30000E+00
         0.30000E+00
         0.30000E+00
         0.30000E+00
         0.30000E+00
         0.30000E+00
         0.30000E+00
         0.30000E+00
         0.30000E+00
         0.30000E+00
         0.30000E+00
         0.30000E+00
         0.30000E+00
         0.30000E+00
         0.30000E+00
         0.30000E+00
         0.30000E+00
         0.30000E+00
         0.30000E+00
         0.30000E+00
         0.30000E+00
         0.30000E+00
         0.30000E+00
         0.30000E+00
         0.30000E+00
         0.30000E+00
         0.30000E+00
         0.30000E+00
         0.30000E+00
         0.30000E+00
         0.30000E+00
         0.30000E+00
         0.30000E+00
         0.30000E+00
         0.30000E+00
         0.30000E+00
         0.30000E+00
         0.30000E+00
         0.30000E+00
         0.30000E+00
         0.30000E+00
         0.30000E+00
         0.30000E+00
         0.30000E+00
         0.30000E+00
         0.30000E+00
         0.30000E+00
         0.30000E+00
         0.30000E+00
         0.30000E+00
         0.30000E+00
         0.30000E+00
         0.30000E+00
         0.30000E+00
         0.30000E+00
         0.30000E+00
         0.30000E+00
         0.30000E+00
         0.30000E+00
         0.30000E+00
         0.30000E+00
         0.30000E+00
         0.30000E+00
         0.30000E+00
         0.30000E+00
         0.30000E+00
         0.30000E+00
         0.30000E+00
         0.30000E+00
         0.30000E+00
         0.30000E+00
         0.30000E+00
         0.30000E+00
         0.30000E+00
         0.30000E+00
         0.30000E+00
         0.30000E+00
         0.30000E+00
         0.30000E+00
         0.30000E+00
         0.30000E+00
         0.30000E+00
         0.30000E+00
         0.30000E+00
         0.30000E+00
         0.30000E+00
         0.30000E+00
         0.30000E+00
         0.30000E+00
         0.30000E+00
         0.30000E+00
         0.30000E+00
         0.30000E+00
         0.30000E+00
         0.30000E+00
         0.30000E+00
         0.30000E+00
         0.30000E+00
         0.30000E+00
         0.30000E+00
         0.30000E+00
         0.30000E+00
         0.30000E+00
         0.30000E+00
         0.30000E+00
         0.30000E+00
         0.30000E+00
         0.30000E+00
         0.30000E+00
         0.30000E+00
         0.30000E+00
         0.30000E+00
         0.30000E+00
         0.30000E+00
         0.30000E+00
         0.30000E+00
         0.30000E+00
         0.30000E+00
         0.30000E+00
         0.30000E+00
         0.30000E+00
         0.30000E+00
         0.30000E+00
         0.30000E+00
         0.30000E+00
         0.30000E+00
         0.30000E+00
         0.30000E+00
         0.30000E+00
         0.30000E+00
         0.30000E+00
         0.30000E+00
         0.30000E+00
         0.30000E+00
         0.30000E+00
         0.30000E+00
         0.30000E+00
         0.30000E+00
         0.30000E+00
         0.30000E+00
         0.30000E+00
         0.30000E+00
         0.30000E+00
         0.30000E+00
         0.30000E+00
         0.30000E+00
         0.30000E+00
         0.30000E+00
         0.30000E+00
         0.30000E+00
         0.30000E+00
         0.30000E+00
         0.30000E+00
         0.30000E+00
         0.30000E+00
         0.30000E+00
         0.30000E+00
         0.30000E+00
         0.30000E+00
         0.30000E+00
         0.30000E+00
         0.30000E+00
         0.30000E+00
         0.30000E+00
         0.30000E+00
         0.30000E+00
         0.30000E+00
         0.30000E+00
         0.30000E+00
         0.30000E+00
         0.30000E+00
         0.30000E+00
         0.30000E+00
         0.30000E+00
         0.30000E+00
         0.30000E+00
         0.30000E+00
         0.30000E+00
         0.30000E+00
         0.30000E+00
         0.30000E+00
         0.30000E+00
         0.30000E+00
         0.30000E+00
         0.30000E+00
         0.30000E+00
         0.30000E+00
         0.30000E+00
         0.30000E+00
         0.30000E+00
         0.30000E+00
         0.30000E+00
         0.30000E+00
         0.30000E+00
         0.30000E+00
         0.30000E+00
         0.30000E+00
         0.30000E+00
         0.30000E+00
         0.30000E+00
         0.30000E+00
         0.30000E+00
         0.30000E+00
         0.30000E+00
         0.30000E+00
         0.30000E+00
         0.30000E+00
         0.30000E+00
         0.30000E+00
         0.30000E+00
         0.30000E+00
         0.30000E+00
         0.30000E+00
         0.30000E+00
         0.30000E+00
         0.30000E+00
         0.30000E+00
         0.30000E+00
         0.30000E+00
         0.30000E+00
         0.30000E+00
         0.30000E+00
         0.30000E+00
         0.30000E+00
         0.30000E+00
         0.30000E+00
         0.30000E+00
         0.30000E+00
         0.30000E+00
         0.30000E+00
         0.30000E+00
         0.30000E+00
         0.30000E+00
         0.30000E+00
         0.30000E+00
         0.30000E+00
         0.30000E+00
         0.30000E+00
         0.30000E+00
         0.30000E+00
         0.30000E+00
         0.30000E+00
         0.30000E+00
         0.30000E+00
         0.30000E+00
         0.30000E+00
         0.30000E+00
         0.30000E+00
         0.30000E+00
         0.30000E+00
         0.30000E+00
         0.30000E+00
         0.30000E+00
         0.30000E+00
         0.30000E+00
         0.30000E+00
         0.30000E+00
         0.30000E+00
         0.30000E+00
         0.30000E+00
         0.30000E+00
         0.30000E+00
         0.30000E+00
         0.30000E+00
  
SCALARS                 Youngs_modulus  double 1
LOOKUP_TABLE default
         0.78200E+11
         0.78200E+11
         0.78200E+11
         0.78200E+11
         0.78200E+11
         0.78200E+11
         0.78200E+11
         0.78200E+11
         0.78200E+11
         0.78200E+11
         0.78200E+11
         0.78200E+11
         0.78200E+11
         0.78200E+11
         0.78200E+11
         0.78200E+11
         0.78200E+11
         0.78200E+11
         0.78200E+11
         0.78200E+11
         0.78200E+11
         0.78200E+11
         0.78200E+11
         0.78200E+11
         0.78200E+11
         0.78200E+11
         0.78200E+11
         0.78200E+11
         0.78200E+11
         0.78200E+11
         0.78200E+11
         0.78200E+11
         0.78200E+11
         0.78200E+11
         0.78200E+11
         0.78200E+11
         0.78200E+11
         0.78200E+11
         0.78200E+11
         0.78200E+11
         0.78200E+11
         0.78200E+11
         0.78200E+11
         0.78200E+11
         0.78200E+11
         0.78200E+11
         0.78200E+11
         0.78200E+11
         0.78200E+11
         0.78200E+11
         0.78200E+11
         0.78200E+11
         0.78200E+11
         0.78200E+11
         0.78200E+11
         0.78200E+11
         0.78200E+11
         0.78200E+11
         0.78200E+11
         0.78200E+11
         0.78200E+11
         0.78200E+11
         0.78200E+11
         0.78200E+11
         0.78200E+11
         0.78200E+11
         0.78200E+11
         0.78200E+11
         0.78200E+11
         0.78200E+11
         0.78200E+11
         0.78200E+11
         0.78200E+11
         0.78200E+11
         0.78200E+11
         0.78200E+11
         0.78200E+11
         0.78200E+11
         0.78200E+11
         0.78200E+11
         0.78200E+11
         0.78200E+11
         0.78200E+11
         0.78200E+11
         0.78200E+11
         0.78200E+11
         0.78200E+11
         0.78200E+11
         0.78200E+11
         0.78200E+11
         0.78200E+11
         0.78200E+11
         0.78200E+11
         0.78200E+11
         0.78200E+11
         0.78200E+11
         0.78200E+11
         0.78200E+11
         0.78200E+11
         0.78200E+11
         0.78200E+11
         0.78200E+11
         0.78200E+11
         0.78200E+11
         0.78200E+11
         0.78200E+11
         0.78200E+11
         0.78200E+11
         0.78200E+11
         0.78200E+11
         0.78200E+11
         0.78200E+11
         0.78200E+11
         0.78200E+11
         0.78200E+11
         0.78200E+11
         0.78200E+11
         0.78200E+11
         0.78200E+11
         0.78200E+11
         0.78200E+11
         0.78200E+11
         0.78200E+11
         0.78200E+11
         0.78200E+11
         0.78200E+11
         0.78200E+11
         0.78200E+11
         0.78200E+11
         0.78200E+11
         0.78200E+11
         0.78200E+11
         0.78200E+11
         0.78200E+11
         0.78200E+11
         0.78200E+11
         0.78200E+11
         0.78200E+11
         0.78200E+11
         0.78200E+11
         0.78200E+11
         0.78200E+11
         0.78200E+11
         0.78200E+11
         0.78200E+11
         0.78200E+11
         0.78200E+11
         0.78200E+11
         0.78200E+11
         0.78200E+11
         0.78200E+11
         0.78200E+11
         0.78200E+11
         0.78200E+11
         0.78200E+11
         0.78200E+11
         0.78200E+11
         0.78200E+11
         0.78200E+11
         0.78200E+11
         0.78200E+11
         0.78200E+11
         0.78200E+11
         0.78200E+11
         0.78200E+11
         0.78200E+11
         0.78200E+11
         0.78200E+11
         0.78200E+11
         0.78200E+11
         0.78200E+11
         0.78200E+11
         0.78200E+11
         0.78200E+11
         0.78200E+11
         0.78200E+11
         0.78200E+11
         0.78200E+11
         0.78200E+11
         0.78200E+11
         0.78200E+11
         0.78200E+11
         0.78200E+11
         0.78200E+11
         0.78200E+11
         0.78200E+11
         0.78200E+11
         0.78200E+11
         0.78200E+11
         0.78200E+11
         0.78200E+11
         0.78200E+11
         0.78200E+11
         0.78200E+11
         0.78200E+11
         0.78200E+11
         0.78200E+11
         0.78200E+11
         0.78200E+11
         0.78200E+11
         0.78200E+11
         0.78200E+11
         0.78200E+11
         0.78200E+11
         0.78200E+11
         0.78200E+11
         0.78200E+11
         0.78200E+11
         0.78200E+11
         0.78200E+11
         0.78200E+11
         0.78200E+11
         0.78200E+11
         0.78200E+11
         0.78200E+11
         0.78200E+11
         0.78200E+11
         0.78200E+11
         0.78200E+11
         0.78200E+11
         0.78200E+11
         0.78200E+11
         0.78200E+11
         0.78200E+11
         0.78200E+11
         0.78200E+11
         0.78200E+11
         0.78200E+11
         0.78200E+11
         0.78200E+11
         0.78200E+11
         0.78200E+11
         0.78200E+11
         0.78200E+11
         0.78200E+11
         0.78200E+11
         0.78200E+11
         0.78200E+11
         0.78200E+11
         0.78200E+11
         0.78200E+11
         0.78200E+11
         0.78200E+11
         0.78200E+11
         0.78200E+11
         0.78200E+11
         0.78200E+11
         0.78200E+11
         0.78200E+11
         0.78200E+11
         0.78200E+11
         0.78200E+11
         0.78200E+11
         0.78200E+11
         0.78200E+11
         0.78200E+11
         0.78200E+11
         0.78200E+11
         0.78200E+11
         0.78200E+11
         0.78200E+11
         0.78200E+11
         0.78200E+11
         0.78200E+11
         0.78200E+11
         0.78200E+11
         0.78200E+11
         0.78200E+11
         0.78200E+11
         0.78200E+11
         0.78200E+11
         0.78200E+11
         0.78200E+11
         0.78200E+11
         0.78200E+11
         0.78200E+11
         0.78200E+11
         0.78200E+11
         0.78200E+11
         0.78200E+11
         0.78200E+11
         0.78200E+11
         0.78200E+11
         0.78200E+11
         0.78200E+11
         0.78200E+11
         0.78200E+11
         0.78200E+11
         0.78200E+11
         0.78200E+11
         0.78200E+11
         0.78200E+11
         0.78200E+11
         0.78200E+11
         0.78200E+11
         0.78200E+11
         0.78200E+11
         0.78200E+11
         0.78200E+11
         0.78200E+11
         0.78200E+11
         0.78200E+11
         0.78200E+11
         0.78200E+11
         0.78200E+11
         0.78200E+11
         0.78200E+11
         0.78200E+11
         0.78200E+11
         0.78200E+11
         0.78200E+11
         0.78200E+11
         0.78200E+11
         0.78200E+11
         0.78200E+11
         0.78200E+11
         0.78200E+11
         0.78200E+11
         0.78200E+11
         0.78200E+11
         0.78200E+11
         0.78200E+11
         0.78200E+11
         0.78200E+11
         0.78200E+11
         0.78200E+11
         0.78200E+11
         0.78200E+11
         0.78200E+11
         0.78200E+11
         0.78200E+11
         0.78200E+11
         0.78200E+11
         0.78200E+11
         0.78200E+11
         0.78200E+11
         0.78200E+11
         0.78200E+11
         0.78200E+11
         0.78200E+11
         0.78200E+11
         0.78200E+11
         0.78200E+11
         0.78200E+11
         0.78200E+11
         0.78200E+11
         0.78200E+11
         0.78200E+11
         0.78200E+11
         0.78200E+11
         0.78200E+11
         0.78200E+11
         0.78200E+11
         0.78200E+11
         0.78200E+11
         0.78200E+11
         0.78200E+11
         0.78200E+11
         0.78200E+11
         0.78200E+11
         0.78200E+11
         0.78200E+11
         0.78200E+11
         0.78200E+11
         0.78200E+11
         0.78200E+11
         0.78200E+11
         0.78200E+11
         0.78200E+11
         0.78200E+11
         0.78200E+11
         0.78200E+11
         0.78200E+11
         0.78200E+11
         0.78200E+11
         0.78200E+11
         0.78200E+11
         0.78200E+11
         0.78200E+11
         0.78200E+11
         0.78200E+11
         0.78200E+11
         0.78200E+11
         0.78200E+11
         0.78200E+11
         0.78200E+11
         0.78200E+11
         0.78200E+11
         0.78200E+11
         0.78200E+11
         0.78200E+11
         0.78200E+11
         0.78200E+11
         0.78200E+11
         0.78200E+11
         0.78200E+11
         0.78200E+11
         0.78200E+11
         0.78200E+11
         0.78200E+11
         0.78200E+11
         0.78200E+11
         0.78200E+11
         0.78200E+11
         0.78200E+11
         0.78200E+11
         0.78200E+11
         0.78200E+11
         0.78200E+11
         0.78200E+11
         0.78200E+11
         0.78200E+11
         0.78200E+11
         0.78200E+11
         0.78200E+11
         0.78200E+11
         0.78200E+11
         0.78200E+11
         0.78200E+11
         0.78200E+11
         0.78200E+11
         0.78200E+11
         0.78200E+11
         0.78200E+11
         0.78200E+11
         0.78200E+11
         0.78200E+11
         0.78200E+11
         0.78200E+11
         0.78200E+11
         0.78200E+11
         0.78200E+11
         0.78200E+11
         0.78200E+11
         0.78200E+11
         0.78200E+11
         0.78200E+11
         0.78200E+11
         0.78200E+11
         0.78200E+11
         0.78200E+11
         0.78200E+11
         0.78200E+11
         0.78200E+11
         0.78200E+11
         0.78200E+11
         0.78200E+11
         0.78200E+11
         0.78200E+11
         0.78200E+11
         0.78200E+11
         0.78200E+11
         0.78200E+11
         0.78200E+11
         0.78200E+11
         0.78200E+11
         0.78200E+11
         0.78200E+11
         0.78200E+11
         0.78200E+11
         0.78200E+11
         0.78200E+11
         0.78200E+11
         0.78200E+11
         0.78200E+11
         0.78200E+11
         0.78200E+11
         0.78200E+11
         0.78200E+11
         0.78200E+11
         0.78200E+11
         0.78200E+11
         0.78200E+11
         0.78200E+11
         0.78200E+11
         0.78200E+11
         0.78200E+11
         0.78200E+11
         0.78200E+11
         0.78200E+11
         0.78200E+11
         0.78200E+11
         0.78200E+11
         0.78200E+11
         0.78200E+11
         0.78200E+11
         0.78200E+11
         0.78200E+11
         0.78200E+11
         0.78200E+11
         0.78200E+11
         0.78200E+11
         0.78200E+11
         0.78200E+11
         0.78200E+11
         0.78200E+11
         0.78200E+11
         0.78200E+11
         0.78200E+11
         0.78200E+11
         0.78200E+11
         0.78200E+11
         0.78200E+11
         0.78200E+11
         0.78200E+11
         0.78200E+11
         0.78200E+11
         0.78200E+11
         0.78200E+11
         0.78200E+11
         0.78200E+11
         0.78200E+11
         0.78200E+11
         0.78200E+11
         0.78200E+11
         0.78200E+11
         0.78200E+11
         0.78200E+11
         0.78200E+11
         0.78200E+11
         0.78200E+11
         0.78200E+11
         0.78200E+11
         0.78200E+11
         0.78200E+11
         0.78200E+11
         0.78200E+11
         0.78200E+11
         0.78200E+11
         0.78200E+11
         0.78200E+11
         0.78200E+11
         0.78200E+11
         0.78200E+11
         0.78200E+11
         0.78200E+11
         0.78200E+11
         0.78200E+11
         0.78200E+11
         0.78200E+11
         0.78200E+11
         0.78200E+11
         0.78200E+11
         0.78200E+11
         0.78200E+11
         0.78200E+11
         0.78200E+11
         0.78200E+11
         0.78200E+11
         0.78200E+11
         0.78200E+11
         0.78200E+11
         0.78200E+11
         0.78200E+11
         0.78200E+11
         0.78200E+11
         0.78200E+11
         0.78200E+11
         0.78200E+11
         0.78200E+11
         0.78200E+11
         0.78200E+11
         0.78200E+11
         0.78200E+11
         0.78200E+11
         0.78200E+11
         0.78200E+11
         0.78200E+11
         0.78200E+11
         0.78200E+11
         0.78200E+11
         0.78200E+11
         0.78200E+11
         0.78200E+11
         0.78200E+11
         0.78200E+11
         0.78200E+11
         0.78200E+11
         0.78200E+11
         0.78200E+11
         0.78200E+11
         0.78200E+11
         0.78200E+11
         0.78200E+11
         0.78200E+11
         0.78200E+11
         0.78200E+11
         0.78200E+11
         0.78200E+11
         0.78200E+11
         0.78200E+11
         0.78200E+11
         0.78200E+11
         0.78200E+11
         0.78200E+11
         0.78200E+11
         0.78200E+11
         0.78200E+11
         0.78200E+11
         0.78200E+11
         0.78200E+11
         0.78200E+11
         0.78200E+11
         0.78200E+11
         0.78200E+11
         0.78200E+11
         0.78200E+11
         0.78200E+11
         0.78200E+11
         0.78200E+11
         0.78200E+11
         0.78200E+11
         0.78200E+11
         0.78200E+11
         0.78200E+11
         0.78200E+11
         0.78200E+11
         0.78200E+11
         0.78200E+11
         0.78200E+11
         0.78200E+11
         0.78200E+11
         0.78200E+11
         0.78200E+11
         0.78200E+11
         0.78200E+11
         0.78200E+11
         0.78200E+11
         0.78200E+11
         0.78200E+11
         0.78200E+11
         0.78200E+11
         0.78200E+11
         0.78200E+11
         0.78200E+11
         0.78200E+11
         0.78200E+11
         0.78200E+11
         0.78200E+11
         0.78200E+11
         0.78200E+11
         0.78200E+11
         0.78200E+11
         0.78200E+11
         0.78200E+11
         0.78200E+11
         0.78200E+11
         0.78200E+11
         0.78200E+11
         0.78200E+11
         0.78200E+11
         0.78200E+11
         0.78200E+11
         0.78200E+11
         0.78200E+11
         0.78200E+11
         0.78200E+11
         0.78200E+11
         0.78200E+11
         0.78200E+11
         0.78200E+11
         0.78200E+11
         0.78200E+11
         0.78200E+11
         0.78200E+11
         0.78200E+11
         0.78200E+11
         0.78200E+11
         0.78200E+11
         0.78200E+11
         0.78200E+11
         0.78200E+11
         0.78200E+11
         0.78200E+11
         0.78200E+11
         0.78200E+11
         0.78200E+11
         0.78200E+11
         0.78200E+11
         0.78200E+11
         0.78200E+11
         0.78200E+11
         0.78200E+11
         0.78200E+11
         0.78200E+11
         0.78200E+11
         0.78200E+11
         0.78200E+11
         0.78200E+11
         0.78200E+11
         0.78200E+11
         0.78200E+11
         0.78200E+11
         0.78200E+11
         0.78200E+11
         0.78200E+11
         0.78200E+11
         0.78200E+11
         0.78200E+11
         0.78200E+11
         0.78200E+11
         0.78200E+11
         0.78200E+11
         0.78200E+11
         0.78200E+11
         0.78200E+11
         0.78200E+11
         0.78200E+11
         0.78200E+11
         0.78200E+11
         0.78200E+11
         0.78200E+11
         0.78200E+11
         0.78200E+11
         0.78200E+11
         0.78200E+11
         0.78200E+11
         0.78200E+11
         0.78200E+11
         0.78200E+11
         0.78200E+11
         0.78200E+11
         0.78200E+11
         0.78200E+11
         0.78200E+11
         0.78200E+11
         0.78200E+11
         0.78200E+11
         0.78200E+11
         0.78200E+11
         0.78200E+11
         0.78200E+11
         0.78200E+11
         0.78200E+11
         0.78200E+11
         0.78200E+11
         0.78200E+11
         0.78200E+11
         0.78200E+11
         0.78200E+11
         0.78200E+11
         0.78200E+11
         0.78200E+11
         0.78200E+11
         0.78200E+11
         0.78200E+11
         0.78200E+11
         0.78200E+11
         0.78200E+11
         0.78200E+11
         0.78200E+11
         0.78200E+11
         0.78200E+11
         0.78200E+11
         0.78200E+11
         0.78200E+11
         0.78200E+11
         0.78200E+11
         0.78200E+11
         0.78200E+11
         0.78200E+11
         0.78200E+11
         0.78200E+11
         0.78200E+11
         0.78200E+11
         0.78200E+11
         0.78200E+11
         0.78200E+11
         0.78200E+11
         0.78200E+11
         0.78200E+11
         0.78200E+11
         0.78200E+11
         0.78200E+11
         0.78200E+11
         0.78200E+11
         0.78200E+11
         0.78200E+11
         0.78200E+11
         0.78200E+11
         0.78200E+11
         0.78200E+11
         0.78200E+11
         0.78200E+11
         0.78200E+11
         0.78200E+11
         0.78200E+11
         0.78200E+11
         0.78200E+11
         0.78200E+11
         0.78200E+11
         0.78200E+11
         0.78200E+11
         0.78200E+11
         0.78200E+11
         0.78200E+11
         0.78200E+11
         0.78200E+11
         0.78200E+11
         0.78200E+11
         0.78200E+11
         0.78200E+11
         0.78200E+11
         0.78200E+11
         0.78200E+11
         0.78200E+11
         0.78200E+11
         0.78200E+11
         0.78200E+11
         0.78200E+11
         0.78200E+11
         0.78200E+11
         0.78200E+11
         0.78200E+11
         0.78200E+11
         0.78200E+11
         0.78200E+11
         0.78200E+11
         0.78200E+11
         0.78200E+11
         0.78200E+11
         0.78200E+11
         0.78200E+11
         0.78200E+11
         0.78200E+11
         0.78200E+11
         0.78200E+11
         0.78200E+11
         0.78200E+11
         0.78200E+11
         0.78200E+11
         0.78200E+11
         0.78200E+11
         0.78200E+11
         0.78200E+11
         0.78200E+11
         0.78200E+11
         0.78200E+11
         0.78200E+11
         0.78200E+11
         0.78200E+11
         0.78200E+11
         0.78200E+11
         0.78200E+11
         0.78200E+11
         0.78200E+11
         0.78200E+11
         0.78200E+11
         0.78200E+11
         0.78200E+11
         0.78200E+11
         0.78200E+11
         0.78200E+11
         0.78200E+11
         0.78200E+11
         0.78200E+11
         0.78200E+11
         0.78200E+11
         0.78200E+11
         0.78200E+11
         0.78200E+11
         0.78200E+11
         0.78200E+11
         0.78200E+11
         0.78200E+11
         0.78200E+11
         0.78200E+11
         0.78200E+11
         0.78200E+11
         0.78200E+11
         0.78200E+11
         0.78200E+11
         0.78200E+11
         0.78200E+11
         0.78200E+11
         0.78200E+11
         0.78200E+11
         0.78200E+11
         0.78200E+11
         0.78200E+11
         0.78200E+11
         0.78200E+11
         0.78200E+11
         0.78200E+11
         0.78200E+11
         0.78200E+11
         0.78200E+11
         0.78200E+11
         0.78200E+11
         0.78200E+11
         0.78200E+11
         0.78200E+11
         0.78200E+11
         0.78200E+11
         0.78200E+11
         0.78200E+11
         0.78200E+11
         0.78200E+11
         0.78200E+11
         0.78200E+11
         0.78200E+11
         0.78200E+11
         0.78200E+11
         0.78200E+11
         0.78200E+11
         0.78200E+11
         0.78200E+11
         0.78200E+11
         0.78200E+11
         0.78200E+11
         0.78200E+11
         0.78200E+11
         0.78200E+11
         0.78200E+11
         0.78200E+11
         0.78200E+11
         0.78200E+11
         0.78200E+11
         0.78200E+11
         0.78200E+11
         0.78200E+11
         0.78200E+11
         0.78200E+11
         0.78200E+11
         0.78200E+11
         0.78200E+11
         0.78200E+11
         0.78200E+11
         0.78200E+11
         0.78200E+11
         0.78200E+11
         0.78200E+11
         0.78200E+11
         0.78200E+11
         0.78200E+11
         0.78200E+11
         0.78200E+11
         0.78200E+11
         0.78200E+11
         0.78200E+11
         0.78200E+11
         0.78200E+11
         0.78200E+11
         0.78200E+11
         0.78200E+11
         0.78200E+11
         0.78200E+11
         0.78200E+11
         0.78200E+11
         0.78200E+11
         0.78200E+11
         0.78200E+11
         0.78200E+11
         0.78200E+11
         0.78200E+11
         0.78200E+11
         0.78200E+11
         0.78200E+11
         0.78200E+11
         0.78200E+11
         0.78200E+11
         0.78200E+11
         0.78200E+11
         0.78200E+11
         0.78200E+11
         0.78200E+11
         0.78200E+11
         0.78200E+11
         0.78200E+11
         0.78200E+11
         0.78200E+11
         0.78200E+11
         0.78200E+11
         0.78200E+11
         0.78200E+11
         0.78200E+11
         0.78200E+11
         0.78200E+11
         0.78200E+11
         0.78200E+11
         0.78200E+11
         0.78200E+11
         0.78200E+11
         0.78200E+11
         0.78200E+11
         0.78200E+11
         0.78200E+11
         0.78200E+11
         0.78200E+11
         0.78200E+11
         0.78200E+11
         0.78200E+11
         0.78200E+11
         0.78200E+11
         0.78200E+11
         0.78200E+11
         0.78200E+11
         0.78200E+11
         0.78200E+11
         0.78200E+11
         0.78200E+11
         0.78200E+11
         0.78200E+11
         0.78200E+11
         0.78200E+11
         0.78200E+11
         0.78200E+11
         0.78200E+11
         0.78200E+11
         0.78200E+11
         0.78200E+11
         0.78200E+11
         0.78200E+11
         0.78200E+11
         0.78200E+11
         0.78200E+11
         0.78200E+11
         0.78200E+11
         0.78200E+11
         0.78200E+11
         0.78200E+11
         0.78200E+11
         0.78200E+11
         0.78200E+11
         0.78200E+11
         0.78200E+11
         0.78200E+11
         0.78200E+11
         0.78200E+11
         0.78200E+11
         0.78200E+11
         0.78200E+11
         0.78200E+11
         0.78200E+11
         0.78200E+11
         0.78200E+11
         0.78200E+11
         0.78200E+11
         0.78200E+11
         0.78200E+11
         0.78200E+11
         0.78200E+11
         0.78200E+11
         0.78200E+11
         0.78200E+11
         0.78200E+11
         0.78200E+11
         0.78200E+11
         0.78200E+11
         0.78200E+11
         0.78200E+11
         0.78200E+11
         0.78200E+11
         0.78200E+11
         0.78200E+11
         0.78200E+11
         0.78200E+11
         0.78200E+11
         0.78200E+11
         0.78200E+11
         0.78200E+11
         0.78200E+11
         0.78200E+11
         0.78200E+11
         0.78200E+11
         0.78200E+11
         0.78200E+11
         0.78200E+11
         0.78200E+11
         0.78200E+11
         0.78200E+11
         0.78200E+11
         0.78200E+11
         0.78200E+11
         0.78200E+11
         0.78200E+11
         0.78200E+11
         0.78200E+11
         0.78200E+11
         0.78200E+11
         0.78200E+11
         0.78200E+11
         0.78200E+11
         0.78200E+11
         0.78200E+11
         0.78200E+11
         0.78200E+11
         0.78200E+11
         0.78200E+11
         0.78200E+11
         0.78200E+11
         0.78200E+11
         0.78200E+11
         0.78200E+11
         0.78200E+11
         0.78200E+11
         0.78200E+11
         0.78200E+11
         0.78200E+11
         0.78200E+11
         0.78200E+11
         0.78200E+11
         0.78200E+11
         0.78200E+11
         0.78200E+11
         0.78200E+11
         0.78200E+11
         0.78200E+11
         0.78200E+11
         0.78200E+11
         0.78200E+11
         0.78200E+11
         0.78200E+11
         0.78200E+11
         0.78200E+11
         0.78200E+11
         0.78200E+11
         0.78200E+11
         0.78200E+11
         0.78200E+11
         0.78200E+11
         0.78200E+11
         0.78200E+11
         0.78200E+11
         0.78200E+11
         0.78200E+11
         0.78200E+11
         0.78200E+11
         0.78200E+11
         0.78200E+11
         0.78200E+11
         0.78200E+11
         0.78200E+11
         0.78200E+11
         0.78200E+11
         0.78200E+11
         0.78200E+11
         0.78200E+11
         0.78200E+11
         0.78200E+11
         0.78200E+11
         0.78200E+11
         0.78200E+11
         0.78200E+11
         0.78200E+11
         0.78200E+11
         0.78200E+11
         0.78200E+11
         0.78200E+11
         0.78200E+11
         0.78200E+11
         0.78200E+11
         0.78200E+11
         0.78200E+11
         0.78200E+11
         0.78200E+11
         0.78200E+11
         0.78200E+11
         0.78200E+11
         0.78200E+11
         0.78200E+11
         0.78200E+11
         0.78200E+11
         0.78200E+11
         0.78200E+11
         0.78200E+11
         0.78200E+11
         0.78200E+11
         0.78200E+11
         0.78200E+11
         0.78200E+11
         0.78200E+11
         0.78200E+11
         0.78200E+11
         0.78200E+11
         0.78200E+11
         0.78200E+11
         0.78200E+11
         0.78200E+11
         0.78200E+11
         0.78200E+11
         0.78200E+11
         0.78200E+11
         0.78200E+11
         0.78200E+11
         0.78200E+11
         0.78200E+11
         0.78200E+11
         0.78200E+11
         0.78200E+11
         0.78200E+11
         0.78200E+11
         0.78200E+11
         0.78200E+11
         0.78200E+11
         0.78200E+11
         0.78200E+11
         0.78200E+11
         0.78200E+11
         0.78200E+11
         0.78200E+11
         0.78200E+11
         0.78200E+11
         0.78200E+11
         0.78200E+11
         0.78200E+11
         0.78200E+11
         0.78200E+11
         0.78200E+11
         0.78200E+11
         0.78200E+11
         0.78200E+11
         0.78200E+11
         0.78200E+11
         0.78200E+11
         0.78200E+11
         0.78200E+11
         0.78200E+11
         0.78200E+11
         0.78200E+11
         0.78200E+11
         0.78200E+11
         0.78200E+11
         0.78200E+11
         0.78200E+11
         0.78200E+11
         0.78200E+11
         0.78200E+11
         0.78200E+11
         0.78200E+11
         0.78200E+11
         0.78200E+11
         0.78200E+11
         0.78200E+11
         0.78200E+11
         0.78200E+11
         0.78200E+11
         0.78200E+11
         0.78200E+11
         0.78200E+11
         0.78200E+11
         0.78200E+11
         0.78200E+11
         0.78200E+11
         0.78200E+11
         0.78200E+11
         0.78200E+11
         0.78200E+11
         0.78200E+11
         0.78200E+11
         0.78200E+11
         0.78200E+11
         0.78200E+11
         0.78200E+11
         0.78200E+11
         0.78200E+11
         0.78200E+11
         0.78200E+11
         0.78200E+11
         0.78200E+11
         0.78200E+11
         0.78200E+11
         0.78200E+11
         0.78200E+11
         0.78200E+11
         0.78200E+11
         0.78200E+11
         0.78200E+11
         0.78200E+11
         0.78200E+11
         0.78200E+11
         0.78200E+11
         0.78200E+11
         0.78200E+11
         0.78200E+11
         0.78200E+11
         0.78200E+11
         0.78200E+11
         0.78200E+11
         0.78200E+11
         0.78200E+11
         0.78200E+11
         0.78200E+11
         0.78200E+11
         0.78200E+11
         0.78200E+11
         0.78200E+11
         0.78200E+11
         0.78200E+11
         0.78200E+11
         0.78200E+11
         0.78200E+11
         0.78200E+11
         0.78200E+11
         0.78200E+11
         0.78200E+11
         0.78200E+11
         0.78200E+11
         0.78200E+11
         0.78200E+11
         0.78200E+11
         0.78200E+11
         0.78200E+11
         0.78200E+11
         0.78200E+11
         0.78200E+11
         0.78200E+11
         0.78200E+11
         0.78200E+11
         0.78200E+11
         0.78200E+11
         0.78200E+11
         0.78200E+11
         0.78200E+11
         0.78200E+11
         0.78200E+11
         0.78200E+11
         0.78200E+11
         0.78200E+11
         0.78200E+11
         0.78200E+11
         0.78200E+11
         0.78200E+11
         0.78200E+11
         0.78200E+11
         0.78200E+11
         0.78200E+11
         0.78200E+11
         0.78200E+11
         0.78200E+11
         0.78200E+11
         0.78200E+11
         0.78200E+11
         0.78200E+11
         0.78200E+11
         0.78200E+11
         0.78200E+11
         0.78200E+11
         0.78200E+11
         0.78200E+11
         0.78200E+11
         0.78200E+11
         0.78200E+11
         0.78200E+11
         0.78200E+11
         0.78200E+11
         0.78200E+11
         0.78200E+11
         0.78200E+11
         0.78200E+11
         0.78200E+11
         0.78200E+11
         0.78200E+11
         0.78200E+11
         0.78200E+11
         0.78200E+11
         0.78200E+11
         0.78200E+11
         0.78200E+11
         0.78200E+11
         0.78200E+11
         0.78200E+11
         0.78200E+11
         0.78200E+11
         0.78200E+11
         0.78200E+11
         0.78200E+11
         0.78200E+11
         0.78200E+11
         0.78200E+11
         0.78200E+11
         0.78200E+11
         0.78200E+11
         0.78200E+11
         0.78200E+11
         0.78200E+11
         0.78200E+11
         0.78200E+11
         0.78200E+11
         0.78200E+11
         0.78200E+11
         0.78200E+11
         0.78200E+11
         0.78200E+11
         0.78200E+11
         0.78200E+11
         0.78200E+11
         0.78200E+11
         0.78200E+11
         0.78200E+11
         0.78200E+11
         0.78200E+11
         0.78200E+11
         0.78200E+11
         0.78200E+11
         0.78200E+11
         0.78200E+11
         0.78200E+11
         0.78200E+11
         0.78200E+11
         0.78200E+11
         0.78200E+11
         0.78200E+11
         0.78200E+11
         0.78200E+11
         0.78200E+11
         0.78200E+11
         0.78200E+11
         0.78200E+11
         0.78200E+11
         0.78200E+11
         0.78200E+11
         0.78200E+11
         0.78200E+11
         0.78200E+11
         0.78200E+11
         0.78200E+11
         0.78200E+11
         0.78200E+11
         0.78200E+11
         0.78200E+11
         0.78200E+11
         0.78200E+11
         0.78200E+11
         0.78200E+11
         0.78200E+11
         0.78200E+11
         0.78200E+11
         0.78200E+11
         0.78200E+11
         0.78200E+11
         0.78200E+11
         0.78200E+11
         0.78200E+11
         0.78200E+11
         0.78200E+11
         0.78200E+11
         0.78200E+11
         0.78200E+11
         0.78200E+11
         0.78200E+11
         0.78200E+11
         0.78200E+11
         0.78200E+11
         0.78200E+11
         0.78200E+11
         0.78200E+11
         0.78200E+11
         0.78200E+11
         0.78200E+11
         0.78200E+11
         0.78200E+11
         0.78200E+11
         0.78200E+11
         0.78200E+11
         0.78200E+11
         0.78200E+11
         0.78200E+11
         0.78200E+11
         0.78200E+11
         0.78200E+11
         0.78200E+11
         0.78200E+11
         0.78200E+11
         0.78200E+11
         0.78200E+11
         0.78200E+11
         0.78200E+11
         0.78200E+11
         0.78200E+11
         0.78200E+11
         0.78200E+11
         0.78200E+11
         0.78200E+11
         0.78200E+11
         0.78200E+11
         0.78200E+11
         0.78200E+11
         0.78200E+11
         0.78200E+11
         0.78200E+11
         0.78200E+11
         0.78200E+11
         0.78200E+11
         0.78200E+11
         0.78200E+11
         0.78200E+11
         0.78200E+11
         0.78200E+11
         0.78200E+11
         0.78200E+11
         0.78200E+11
         0.78200E+11
         0.78200E+11
         0.78200E+11
         0.78200E+11
         0.78200E+11
         0.78200E+11
         0.78200E+11
         0.78200E+11
         0.78200E+11
         0.78200E+11
         0.78200E+11
         0.78200E+11
         0.78200E+11
         0.78200E+11
         0.78200E+11
         0.78200E+11
         0.78200E+11
         0.78200E+11
         0.78200E+11
         0.78200E+11
         0.78200E+11
         0.78200E+11
         0.78200E+11
         0.78200E+11
         0.78200E+11
         0.78200E+11
         0.78200E+11
         0.78200E+11
         0.78200E+11
         0.78200E+11
         0.78200E+11
         0.78200E+11
         0.78200E+11
         0.78200E+11
         0.78200E+11
         0.78200E+11
         0.78200E+11
         0.78200E+11
         0.78200E+11
         0.78200E+11
         0.78200E+11
         0.78200E+11
         0.78200E+11
         0.78200E+11
         0.78200E+11
         0.78200E+11
         0.78200E+11
         0.78200E+11
         0.78200E+11
         0.78200E+11
         0.78200E+11
         0.78200E+11
         0.78200E+11
         0.78200E+11
         0.78200E+11
         0.78200E+11
         0.78200E+11
         0.78200E+11
         0.78200E+11
         0.78200E+11
         0.78200E+11
         0.78200E+11
         0.78200E+11
         0.78200E+11
         0.78200E+11
         0.78200E+11
         0.78200E+11
         0.78200E+11
         0.78200E+11
         0.78200E+11
         0.78200E+11
         0.78200E+11
         0.78200E+11
         0.78200E+11
         0.78200E+11
         0.78200E+11
         0.78200E+11
         0.78200E+11
         0.78200E+11
         0.78200E+11
         0.78200E+11
         0.78200E+11
         0.78200E+11
         0.78200E+11
         0.78200E+11
         0.78200E+11
         0.78200E+11
         0.78200E+11
         0.78200E+11
         0.78200E+11
         0.78200E+11
         0.78200E+11
         0.78200E+11
         0.78200E+11
         0.78200E+11
         0.78200E+11
         0.78200E+11
         0.78200E+11
         0.78200E+11
         0.78200E+11
         0.78200E+11
         0.78200E+11
         0.78200E+11
         0.78200E+11
         0.78200E+11
         0.78200E+11
         0.78200E+11
         0.78200E+11
         0.78200E+11
         0.78200E+11
         0.78200E+11
         0.78200E+11
         0.78200E+11
         0.78200E+11
         0.78200E+11
         0.78200E+11
         0.78200E+11
         0.78200E+11
         0.78200E+11
         0.78200E+11
         0.78200E+11
         0.78200E+11
         0.78200E+11
         0.78200E+11
         0.78200E+11
         0.78200E+11
         0.78200E+11
         0.78200E+11
         0.78200E+11
         0.78200E+11
         0.78200E+11
         0.78200E+11
         0.78200E+11
         0.78200E+11
         0.78200E+11
         0.78200E+11
         0.78200E+11
         0.78200E+11
         0.78200E+11
         0.78200E+11
         0.78200E+11
         0.78200E+11
         0.78200E+11
         0.78200E+11
         0.78200E+11
         0.78200E+11
         0.78200E+11
         0.78200E+11
         0.78200E+11
         0.78200E+11
         0.78200E+11
         0.78200E+11
         0.78200E+11
         0.78200E+11
         0.78200E+11
         0.78200E+11
         0.78200E+11
         0.78200E+11
         0.78200E+11
         0.78200E+11
         0.78200E+11
         0.78200E+11
         0.78200E+11
         0.78200E+11
         0.78200E+11
         0.78200E+11
         0.78200E+11
         0.78200E+11
         0.78200E+11
         0.78200E+11
         0.78200E+11
         0.78200E+11
         0.78200E+11
         0.78200E+11
         0.78200E+11
         0.78200E+11
         0.78200E+11
         0.78200E+11
         0.78200E+11
         0.78200E+11
         0.78200E+11
         0.78200E+11
         0.78200E+11
         0.78200E+11
         0.78200E+11
         0.78200E+11
         0.78200E+11
         0.78200E+11
         0.78200E+11
         0.78200E+11
         0.78200E+11
         0.78200E+11
         0.78200E+11
         0.78200E+11
         0.78200E+11
         0.78200E+11
         0.78200E+11
         0.78200E+11
         0.78200E+11
         0.78200E+11
         0.78200E+11
         0.78200E+11
         0.78200E+11
         0.78200E+11
         0.78200E+11
         0.78200E+11
         0.78200E+11
         0.78200E+11
         0.78200E+11
         0.78200E+11
         0.78200E+11
         0.78200E+11
         0.78200E+11
         0.78200E+11
         0.78200E+11
         0.78200E+11
         0.78200E+11
         0.78200E+11
         0.78200E+11
         0.78200E+11
         0.78200E+11
         0.78200E+11
         0.78200E+11
         0.78200E+11
         0.78200E+11
         0.78200E+11
         0.78200E+11
         0.78200E+11
         0.78200E+11
         0.78200E+11
         0.78200E+11
         0.78200E+11
         0.78200E+11
         0.78200E+11
         0.78200E+11
         0.78200E+11
         0.78200E+11
         0.78200E+11
         0.78200E+11
         0.78200E+11
         0.78200E+11
         0.78200E+11
         0.78200E+11
         0.78200E+11
         0.78200E+11
         0.78200E+11
         0.78200E+11
         0.78200E+11
         0.78200E+11
         0.78200E+11
         0.78200E+11
         0.78200E+11
         0.78200E+11
         0.78200E+11
         0.78200E+11
         0.78200E+11
         0.78200E+11
         0.78200E+11
         0.78200E+11
         0.78200E+11
         0.78200E+11
         0.78200E+11
         0.78200E+11
         0.78200E+11
         0.78200E+11
         0.78200E+11
         0.78200E+11
         0.78200E+11
         0.78200E+11
         0.78200E+11
         0.78200E+11
         0.78200E+11
         0.78200E+11
         0.78200E+11
         0.78200E+11
         0.78200E+11
         0.78200E+11
         0.78200E+11
         0.78200E+11
         0.78200E+11
         0.78200E+11
         0.78200E+11
         0.78200E+11
         0.78200E+11
         0.78200E+11
         0.78200E+11
         0.78200E+11
         0.78200E+11
         0.78200E+11
         0.78200E+11
         0.78200E+11
         0.78200E+11
         0.78200E+11
         0.78200E+11
         0.78200E+11
         0.78200E+11
         0.78200E+11
         0.78200E+11
         0.78200E+11
         0.78200E+11
         0.78200E+11
         0.78200E+11
         0.78200E+11
         0.78200E+11
         0.78200E+11
         0.78200E+11
         0.78200E+11
         0.78200E+11
         0.78200E+11
         0.78200E+11
         0.78200E+11
         0.78200E+11
         0.78200E+11
         0.78200E+11
         0.78200E+11
         0.78200E+11
         0.78200E+11
         0.78200E+11
         0.78200E+11
         0.78200E+11
         0.78200E+11
         0.78200E+11
         0.78200E+11
         0.78200E+11
         0.78200E+11
         0.78200E+11
         0.78200E+11
         0.78200E+11
         0.78200E+11
         0.78200E+11
         0.78200E+11
         0.78200E+11
         0.78200E+11
         0.78200E+11
         0.78200E+11
         0.78200E+11
         0.78200E+11
         0.78200E+11
         0.78200E+11
         0.78200E+11
         0.78200E+11
         0.78200E+11
         0.78200E+11
         0.78200E+11
         0.78200E+11
         0.78200E+11
         0.78200E+11
         0.78200E+11
         0.78200E+11
         0.78200E+11
         0.78200E+11
         0.78200E+11
         0.78200E+11
         0.78200E+11
         0.78200E+11
         0.78200E+11
         0.78200E+11
         0.78200E+11
         0.78200E+11
         0.78200E+11
         0.78200E+11
         0.78200E+11
         0.78200E+11
         0.78200E+11
         0.78200E+11
         0.78200E+11
         0.78200E+11
         0.78200E+11
         0.78200E+11
         0.78200E+11
         0.78200E+11
         0.78200E+11
         0.78200E+11
         0.78200E+11
         0.78200E+11
         0.78200E+11
         0.78200E+11
         0.78200E+11
         0.78200E+11
         0.78200E+11
         0.78200E+11
         0.78200E+11
         0.78200E+11
         0.78200E+11
         0.78200E+11
         0.78200E+11
         0.78200E+11
         0.78200E+11
         0.78200E+11
         0.78200E+11
         0.78200E+11
         0.78200E+11
         0.78200E+11
         0.78200E+11
         0.78200E+11
         0.78200E+11
         0.78200E+11
         0.78200E+11
         0.78200E+11
         0.78200E+11
         0.78200E+11
         0.78200E+11
         0.78200E+11
         0.78200E+11
         0.78200E+11
         0.78200E+11
         0.78200E+11
         0.78200E+11
         0.78200E+11
         0.78200E+11
         0.78200E+11
         0.78200E+11
         0.78200E+11
         0.78200E+11
         0.78200E+11
         0.78200E+11
         0.78200E+11
         0.78200E+11
         0.78200E+11
         0.78200E+11
         0.78200E+11
         0.78200E+11
         0.78200E+11
         0.78200E+11
         0.78200E+11
         0.78200E+11
         0.78200E+11
         0.78200E+11
         0.78200E+11
         0.78200E+11
         0.78200E+11
         0.78200E+11
         0.78200E+11
         0.78200E+11
         0.78200E+11
         0.78200E+11
         0.78200E+11
         0.78200E+11
         0.78200E+11
         0.78200E+11
         0.78200E+11
         0.78200E+11
         0.78200E+11
         0.78200E+11
         0.78200E+11
         0.78200E+11
         0.78200E+11
         0.78200E+11
         0.78200E+11
         0.78200E+11
         0.78200E+11
         0.78200E+11
         0.78200E+11
         0.78200E+11
         0.78200E+11
         0.78200E+11
         0.78200E+11
         0.78200E+11
  
SCALARS                        density  double 1
LOOKUP_TABLE default
         0.27000E+04
         0.27000E+04
         0.27000E+04
         0.27000E+04
         0.27000E+04
         0.27000E+04
         0.27000E+04
         0.27000E+04
         0.27000E+04
         0.27000E+04
         0.27000E+04
         0.27000E+04
         0.27000E+04
         0.27000E+04
         0.27000E+04
         0.27000E+04
         0.27000E+04
         0.27000E+04
         0.27000E+04
         0.27000E+04
         0.27000E+04
         0.27000E+04
         0.27000E+04
         0.27000E+04
         0.27000E+04
         0.27000E+04
         0.27000E+04
         0.27000E+04
         0.27000E+04
         0.27000E+04
         0.27000E+04
         0.27000E+04
         0.27000E+04
         0.27000E+04
         0.27000E+04
         0.27000E+04
         0.27000E+04
         0.27000E+04
         0.27000E+04
         0.27000E+04
         0.27000E+04
         0.27000E+04
         0.27000E+04
         0.27000E+04
         0.27000E+04
         0.27000E+04
         0.27000E+04
         0.27000E+04
         0.27000E+04
         0.27000E+04
         0.27000E+04
         0.27000E+04
         0.27000E+04
         0.27000E+04
         0.27000E+04
         0.27000E+04
         0.27000E+04
         0.27000E+04
         0.27000E+04
         0.27000E+04
         0.27000E+04
         0.27000E+04
         0.27000E+04
         0.27000E+04
         0.27000E+04
         0.27000E+04
         0.27000E+04
         0.27000E+04
         0.27000E+04
         0.27000E+04
         0.27000E+04
         0.27000E+04
         0.27000E+04
         0.27000E+04
         0.27000E+04
         0.27000E+04
         0.27000E+04
         0.27000E+04
         0.27000E+04
         0.27000E+04
         0.27000E+04
         0.27000E+04
         0.27000E+04
         0.27000E+04
         0.27000E+04
         0.27000E+04
         0.27000E+04
         0.27000E+04
         0.27000E+04
         0.27000E+04
         0.27000E+04
         0.27000E+04
         0.27000E+04
         0.27000E+04
         0.27000E+04
         0.27000E+04
         0.27000E+04
         0.27000E+04
         0.27000E+04
         0.27000E+04
         0.27000E+04
         0.27000E+04
         0.27000E+04
         0.27000E+04
         0.27000E+04
         0.27000E+04
         0.27000E+04
         0.27000E+04
         0.27000E+04
         0.27000E+04
         0.27000E+04
         0.27000E+04
         0.27000E+04
         0.27000E+04
         0.27000E+04
         0.27000E+04
         0.27000E+04
         0.27000E+04
         0.27000E+04
         0.27000E+04
         0.27000E+04
         0.27000E+04
         0.27000E+04
         0.27000E+04
         0.27000E+04
         0.27000E+04
         0.27000E+04
         0.27000E+04
         0.27000E+04
         0.27000E+04
         0.27000E+04
         0.27000E+04
         0.27000E+04
         0.27000E+04
         0.27000E+04
         0.27000E+04
         0.27000E+04
         0.27000E+04
         0.27000E+04
         0.27000E+04
         0.27000E+04
         0.27000E+04
         0.27000E+04
         0.27000E+04
         0.27000E+04
         0.27000E+04
         0.27000E+04
         0.27000E+04
         0.27000E+04
         0.27000E+04
         0.27000E+04
         0.27000E+04
         0.27000E+04
         0.27000E+04
         0.27000E+04
         0.27000E+04
         0.27000E+04
         0.27000E+04
         0.27000E+04
         0.27000E+04
         0.27000E+04
         0.27000E+04
         0.27000E+04
         0.27000E+04
         0.27000E+04
         0.27000E+04
         0.27000E+04
         0.27000E+04
         0.27000E+04
         0.27000E+04
         0.27000E+04
         0.27000E+04
         0.27000E+04
         0.27000E+04
         0.27000E+04
         0.27000E+04
         0.27000E+04
         0.27000E+04
         0.27000E+04
         0.27000E+04
         0.27000E+04
         0.27000E+04
         0.27000E+04
         0.27000E+04
         0.27000E+04
         0.27000E+04
         0.27000E+04
         0.27000E+04
         0.27000E+04
         0.27000E+04
         0.27000E+04
         0.27000E+04
         0.27000E+04
         0.27000E+04
         0.27000E+04
         0.27000E+04
         0.27000E+04
         0.27000E+04
         0.27000E+04
         0.27000E+04
         0.27000E+04
         0.27000E+04
         0.27000E+04
         0.27000E+04
         0.27000E+04
         0.27000E+04
         0.27000E+04
         0.27000E+04
         0.27000E+04
         0.27000E+04
         0.27000E+04
         0.27000E+04
         0.27000E+04
         0.27000E+04
         0.27000E+04
         0.27000E+04
         0.27000E+04
         0.27000E+04
         0.27000E+04
         0.27000E+04
         0.27000E+04
         0.27000E+04
         0.27000E+04
         0.27000E+04
         0.27000E+04
         0.27000E+04
         0.27000E+04
         0.27000E+04
         0.27000E+04
         0.27000E+04
         0.27000E+04
         0.27000E+04
         0.27000E+04
         0.27000E+04
         0.27000E+04
         0.27000E+04
         0.27000E+04
         0.27000E+04
         0.27000E+04
         0.27000E+04
         0.27000E+04
         0.27000E+04
         0.27000E+04
         0.27000E+04
         0.27000E+04
         0.27000E+04
         0.27000E+04
         0.27000E+04
         0.27000E+04
         0.27000E+04
         0.27000E+04
         0.27000E+04
         0.27000E+04
         0.27000E+04
         0.27000E+04
         0.27000E+04
         0.27000E+04
         0.27000E+04
         0.27000E+04
         0.27000E+04
         0.27000E+04
         0.27000E+04
         0.27000E+04
         0.27000E+04
         0.27000E+04
         0.27000E+04
         0.27000E+04
         0.27000E+04
         0.27000E+04
         0.27000E+04
         0.27000E+04
         0.27000E+04
         0.27000E+04
         0.27000E+04
         0.27000E+04
         0.27000E+04
         0.27000E+04
         0.27000E+04
         0.27000E+04
         0.27000E+04
         0.27000E+04
         0.27000E+04
         0.27000E+04
         0.27000E+04
         0.27000E+04
         0.27000E+04
         0.27000E+04
         0.27000E+04
         0.27000E+04
         0.27000E+04
         0.27000E+04
         0.27000E+04
         0.27000E+04
         0.27000E+04
         0.27000E+04
         0.27000E+04
         0.27000E+04
         0.27000E+04
         0.27000E+04
         0.27000E+04
         0.27000E+04
         0.27000E+04
         0.27000E+04
         0.27000E+04
         0.27000E+04
         0.27000E+04
         0.27000E+04
         0.27000E+04
         0.27000E+04
         0.27000E+04
         0.27000E+04
         0.27000E+04
         0.27000E+04
         0.27000E+04
         0.27000E+04
         0.27000E+04
         0.27000E+04
         0.27000E+04
         0.27000E+04
         0.27000E+04
         0.27000E+04
         0.27000E+04
         0.27000E+04
         0.27000E+04
         0.27000E+04
         0.27000E+04
         0.27000E+04
         0.27000E+04
         0.27000E+04
         0.27000E+04
         0.27000E+04
         0.27000E+04
         0.27000E+04
         0.27000E+04
         0.27000E+04
         0.27000E+04
         0.27000E+04
         0.27000E+04
         0.27000E+04
         0.27000E+04
         0.27000E+04
         0.27000E+04
         0.27000E+04
         0.27000E+04
         0.27000E+04
         0.27000E+04
         0.27000E+04
         0.27000E+04
         0.27000E+04
         0.27000E+04
         0.27000E+04
         0.27000E+04
         0.27000E+04
         0.27000E+04
         0.27000E+04
         0.27000E+04
         0.27000E+04
         0.27000E+04
         0.27000E+04
         0.27000E+04
         0.27000E+04
         0.27000E+04
         0.27000E+04
         0.27000E+04
         0.27000E+04
         0.27000E+04
         0.27000E+04
         0.27000E+04
         0.27000E+04
         0.27000E+04
         0.27000E+04
         0.27000E+04
         0.27000E+04
         0.27000E+04
         0.27000E+04
         0.27000E+04
         0.27000E+04
         0.27000E+04
         0.27000E+04
         0.27000E+04
         0.27000E+04
         0.27000E+04
         0.27000E+04
         0.27000E+04
         0.27000E+04
         0.27000E+04
         0.27000E+04
         0.27000E+04
         0.27000E+04
         0.27000E+04
         0.27000E+04
         0.27000E+04
         0.27000E+04
         0.27000E+04
         0.27000E+04
         0.27000E+04
         0.27000E+04
         0.27000E+04
         0.27000E+04
         0.27000E+04
         0.27000E+04
         0.27000E+04
         0.27000E+04
         0.27000E+04
         0.27000E+04
         0.27000E+04
         0.27000E+04
         0.27000E+04
         0.27000E+04
         0.27000E+04
         0.27000E+04
         0.27000E+04
         0.27000E+04
         0.27000E+04
         0.27000E+04
         0.27000E+04
         0.27000E+04
         0.27000E+04
         0.27000E+04
         0.27000E+04
         0.27000E+04
         0.27000E+04
         0.27000E+04
         0.27000E+04
         0.27000E+04
         0.27000E+04
         0.27000E+04
         0.27000E+04
         0.27000E+04
         0.27000E+04
         0.27000E+04
         0.27000E+04
         0.27000E+04
         0.27000E+04
         0.27000E+04
         0.27000E+04
         0.27000E+04
         0.27000E+04
         0.27000E+04
         0.27000E+04
         0.27000E+04
         0.27000E+04
         0.27000E+04
         0.27000E+04
         0.27000E+04
         0.27000E+04
         0.27000E+04
         0.27000E+04
         0.27000E+04
         0.27000E+04
         0.27000E+04
         0.27000E+04
         0.27000E+04
         0.27000E+04
         0.27000E+04
         0.27000E+04
         0.27000E+04
         0.27000E+04
         0.27000E+04
         0.27000E+04
         0.27000E+04
         0.27000E+04
         0.27000E+04
         0.27000E+04
         0.27000E+04
         0.27000E+04
         0.27000E+04
         0.27000E+04
         0.27000E+04
         0.27000E+04
         0.27000E+04
         0.27000E+04
         0.27000E+04
         0.27000E+04
         0.27000E+04
         0.27000E+04
         0.27000E+04
         0.27000E+04
         0.27000E+04
         0.27000E+04
         0.27000E+04
         0.27000E+04
         0.27000E+04
         0.27000E+04
         0.27000E+04
         0.27000E+04
         0.27000E+04
         0.27000E+04
         0.27000E+04
         0.27000E+04
         0.27000E+04
         0.27000E+04
         0.27000E+04
         0.27000E+04
         0.27000E+04
         0.27000E+04
         0.27000E+04
         0.27000E+04
         0.27000E+04
         0.27000E+04
         0.27000E+04
         0.27000E+04
         0.27000E+04
         0.27000E+04
         0.27000E+04
         0.27000E+04
         0.27000E+04
         0.27000E+04
         0.27000E+04
         0.27000E+04
         0.27000E+04
         0.27000E+04
         0.27000E+04
         0.27000E+04
         0.27000E+04
         0.27000E+04
         0.27000E+04
         0.27000E+04
         0.27000E+04
         0.27000E+04
         0.27000E+04
         0.27000E+04
         0.27000E+04
         0.27000E+04
         0.27000E+04
         0.27000E+04
         0.27000E+04
         0.27000E+04
         0.27000E+04
         0.27000E+04
         0.27000E+04
         0.27000E+04
         0.27000E+04
         0.27000E+04
         0.27000E+04
         0.27000E+04
         0.27000E+04
         0.27000E+04
         0.27000E+04
         0.27000E+04
         0.27000E+04
         0.27000E+04
         0.27000E+04
         0.27000E+04
         0.27000E+04
         0.27000E+04
         0.27000E+04
         0.27000E+04
         0.27000E+04
         0.27000E+04
         0.27000E+04
         0.27000E+04
         0.27000E+04
         0.27000E+04
         0.27000E+04
         0.27000E+04
         0.27000E+04
         0.27000E+04
         0.27000E+04
         0.27000E+04
         0.27000E+04
         0.27000E+04
         0.27000E+04
         0.27000E+04
         0.27000E+04
         0.27000E+04
         0.27000E+04
         0.27000E+04
         0.27000E+04
         0.27000E+04
         0.27000E+04
         0.27000E+04
         0.27000E+04
         0.27000E+04
         0.27000E+04
         0.27000E+04
         0.27000E+04
         0.27000E+04
         0.27000E+04
         0.27000E+04
         0.27000E+04
         0.27000E+04
         0.27000E+04
         0.27000E+04
         0.27000E+04
         0.27000E+04
         0.27000E+04
         0.27000E+04
         0.27000E+04
         0.27000E+04
         0.27000E+04
         0.27000E+04
         0.27000E+04
         0.27000E+04
         0.27000E+04
         0.27000E+04
         0.27000E+04
         0.27000E+04
         0.27000E+04
         0.27000E+04
         0.27000E+04
         0.27000E+04
         0.27000E+04
         0.27000E+04
         0.27000E+04
         0.27000E+04
         0.27000E+04
         0.27000E+04
         0.27000E+04
         0.27000E+04
         0.27000E+04
         0.27000E+04
         0.27000E+04
         0.27000E+04
         0.27000E+04
         0.27000E+04
         0.27000E+04
         0.27000E+04
         0.27000E+04
         0.27000E+04
         0.27000E+04
         0.27000E+04
         0.27000E+04
         0.27000E+04
         0.27000E+04
         0.27000E+04
         0.27000E+04
         0.27000E+04
         0.27000E+04
         0.27000E+04
         0.27000E+04
         0.27000E+04
         0.27000E+04
         0.27000E+04
         0.27000E+04
         0.27000E+04
         0.27000E+04
         0.27000E+04
         0.27000E+04
         0.27000E+04
         0.27000E+04
         0.27000E+04
         0.27000E+04
         0.27000E+04
         0.27000E+04
         0.27000E+04
         0.27000E+04
         0.27000E+04
         0.27000E+04
         0.27000E+04
         0.27000E+04
         0.27000E+04
         0.27000E+04
         0.27000E+04
         0.27000E+04
         0.27000E+04
         0.27000E+04
         0.27000E+04
         0.27000E+04
         0.27000E+04
         0.27000E+04
         0.27000E+04
         0.27000E+04
         0.27000E+04
         0.27000E+04
         0.27000E+04
         0.27000E+04
         0.27000E+04
         0.27000E+04
         0.27000E+04
         0.27000E+04
         0.27000E+04
         0.27000E+04
         0.27000E+04
         0.27000E+04
         0.27000E+04
         0.27000E+04
         0.27000E+04
         0.27000E+04
         0.27000E+04
         0.27000E+04
         0.27000E+04
         0.27000E+04
         0.27000E+04
         0.27000E+04
         0.27000E+04
         0.27000E+04
         0.27000E+04
         0.27000E+04
         0.27000E+04
         0.27000E+04
         0.27000E+04
         0.27000E+04
         0.27000E+04
         0.27000E+04
         0.27000E+04
         0.27000E+04
         0.27000E+04
         0.27000E+04
         0.27000E+04
         0.27000E+04
         0.27000E+04
         0.27000E+04
         0.27000E+04
         0.27000E+04
         0.27000E+04
         0.27000E+04
         0.27000E+04
         0.27000E+04
         0.27000E+04
         0.27000E+04
         0.27000E+04
         0.27000E+04
         0.27000E+04
         0.27000E+04
         0.27000E+04
         0.27000E+04
         0.27000E+04
         0.27000E+04
         0.27000E+04
         0.27000E+04
         0.27000E+04
         0.27000E+04
         0.27000E+04
         0.27000E+04
         0.27000E+04
         0.27000E+04
         0.27000E+04
         0.27000E+04
         0.27000E+04
         0.27000E+04
         0.27000E+04
         0.27000E+04
         0.27000E+04
         0.27000E+04
         0.27000E+04
         0.27000E+04
         0.27000E+04
         0.27000E+04
         0.27000E+04
         0.27000E+04
         0.27000E+04
         0.27000E+04
         0.27000E+04
         0.27000E+04
         0.27000E+04
         0.27000E+04
         0.27000E+04
         0.27000E+04
         0.27000E+04
         0.27000E+04
         0.27000E+04
         0.27000E+04
         0.27000E+04
         0.27000E+04
         0.27000E+04
         0.27000E+04
         0.27000E+04
         0.27000E+04
         0.27000E+04
         0.27000E+04
         0.27000E+04
         0.27000E+04
         0.27000E+04
         0.27000E+04
         0.27000E+04
         0.27000E+04
         0.27000E+04
         0.27000E+04
         0.27000E+04
         0.27000E+04
         0.27000E+04
         0.27000E+04
         0.27000E+04
         0.27000E+04
         0.27000E+04
         0.27000E+04
         0.27000E+04
         0.27000E+04
         0.27000E+04
         0.27000E+04
         0.27000E+04
         0.27000E+04
         0.27000E+04
         0.27000E+04
         0.27000E+04
         0.27000E+04
         0.27000E+04
         0.27000E+04
         0.27000E+04
         0.27000E+04
         0.27000E+04
         0.27000E+04
         0.27000E+04
         0.27000E+04
         0.27000E+04
         0.27000E+04
         0.27000E+04
         0.27000E+04
         0.27000E+04
         0.27000E+04
         0.27000E+04
         0.27000E+04
         0.27000E+04
         0.27000E+04
         0.27000E+04
         0.27000E+04
         0.27000E+04
         0.27000E+04
         0.27000E+04
         0.27000E+04
         0.27000E+04
         0.27000E+04
         0.27000E+04
         0.27000E+04
         0.27000E+04
         0.27000E+04
         0.27000E+04
         0.27000E+04
         0.27000E+04
         0.27000E+04
         0.27000E+04
         0.27000E+04
         0.27000E+04
         0.27000E+04
         0.27000E+04
         0.27000E+04
         0.27000E+04
         0.27000E+04
         0.27000E+04
         0.27000E+04
         0.27000E+04
         0.27000E+04
         0.27000E+04
         0.27000E+04
         0.27000E+04
         0.27000E+04
         0.27000E+04
         0.27000E+04
         0.27000E+04
         0.27000E+04
         0.27000E+04
         0.27000E+04
         0.27000E+04
         0.27000E+04
         0.27000E+04
         0.27000E+04
         0.27000E+04
         0.27000E+04
         0.27000E+04
         0.27000E+04
         0.27000E+04
         0.27000E+04
         0.27000E+04
         0.27000E+04
         0.27000E+04
         0.27000E+04
         0.27000E+04
         0.27000E+04
         0.27000E+04
         0.27000E+04
         0.27000E+04
         0.27000E+04
         0.27000E+04
         0.27000E+04
         0.27000E+04
         0.27000E+04
         0.27000E+04
         0.27000E+04
         0.27000E+04
         0.27000E+04
         0.27000E+04
         0.27000E+04
         0.27000E+04
         0.27000E+04
         0.27000E+04
         0.27000E+04
         0.27000E+04
         0.27000E+04
         0.27000E+04
         0.27000E+04
         0.27000E+04
         0.27000E+04
         0.27000E+04
         0.27000E+04
         0.27000E+04
         0.27000E+04
         0.27000E+04
         0.27000E+04
         0.27000E+04
         0.27000E+04
         0.27000E+04
         0.27000E+04
         0.27000E+04
         0.27000E+04
         0.27000E+04
         0.27000E+04
         0.27000E+04
         0.27000E+04
         0.27000E+04
         0.27000E+04
         0.27000E+04
         0.27000E+04
         0.27000E+04
         0.27000E+04
         0.27000E+04
         0.27000E+04
         0.27000E+04
         0.27000E+04
         0.27000E+04
         0.27000E+04
         0.27000E+04
         0.27000E+04
         0.27000E+04
         0.27000E+04
         0.27000E+04
         0.27000E+04
         0.27000E+04
         0.27000E+04
         0.27000E+04
         0.27000E+04
         0.27000E+04
         0.27000E+04
         0.27000E+04
         0.27000E+04
         0.27000E+04
         0.27000E+04
         0.27000E+04
         0.27000E+04
         0.27000E+04
         0.27000E+04
         0.27000E+04
         0.27000E+04
         0.27000E+04
         0.27000E+04
         0.27000E+04
         0.27000E+04
         0.27000E+04
         0.27000E+04
         0.27000E+04
         0.27000E+04
         0.27000E+04
         0.27000E+04
         0.27000E+04
         0.27000E+04
         0.27000E+04
         0.27000E+04
         0.27000E+04
         0.27000E+04
         0.27000E+04
         0.27000E+04
         0.27000E+04
         0.27000E+04
         0.27000E+04
         0.27000E+04
         0.27000E+04
         0.27000E+04
         0.27000E+04
         0.27000E+04
         0.27000E+04
         0.27000E+04
         0.27000E+04
         0.27000E+04
         0.27000E+04
         0.27000E+04
         0.27000E+04
         0.27000E+04
         0.27000E+04
         0.27000E+04
         0.27000E+04
         0.27000E+04
         0.27000E+04
         0.27000E+04
         0.27000E+04
         0.27000E+04
         0.27000E+04
         0.27000E+04
         0.27000E+04
         0.27000E+04
         0.27000E+04
         0.27000E+04
         0.27000E+04
         0.27000E+04
         0.27000E+04
         0.27000E+04
         0.27000E+04
         0.27000E+04
         0.27000E+04
         0.27000E+04
         0.27000E+04
         0.27000E+04
         0.27000E+04
         0.27000E+04
         0.27000E+04
         0.27000E+04
         0.27000E+04
         0.27000E+04
         0.27000E+04
         0.27000E+04
         0.27000E+04
         0.27000E+04
         0.27000E+04
         0.27000E+04
         0.27000E+04
         0.27000E+04
         0.27000E+04
         0.27000E+04
         0.27000E+04
         0.27000E+04
         0.27000E+04
         0.27000E+04
         0.27000E+04
         0.27000E+04
         0.27000E+04
         0.27000E+04
         0.27000E+04
         0.27000E+04
         0.27000E+04
         0.27000E+04
         0.27000E+04
         0.27000E+04
         0.27000E+04
         0.27000E+04
         0.27000E+04
         0.27000E+04
         0.27000E+04
         0.27000E+04
         0.27000E+04
         0.27000E+04
         0.27000E+04
         0.27000E+04
         0.27000E+04
         0.27000E+04
         0.27000E+04
         0.27000E+04
         0.27000E+04
         0.27000E+04
         0.27000E+04
         0.27000E+04
         0.27000E+04
         0.27000E+04
         0.27000E+04
         0.27000E+04
         0.27000E+04
         0.27000E+04
         0.27000E+04
         0.27000E+04
         0.27000E+04
         0.27000E+04
         0.27000E+04
         0.27000E+04
         0.27000E+04
         0.27000E+04
         0.27000E+04
         0.27000E+04
         0.27000E+04
         0.27000E+04
         0.27000E+04
         0.27000E+04
         0.27000E+04
         0.27000E+04
         0.27000E+04
         0.27000E+04
         0.27000E+04
         0.27000E+04
         0.27000E+04
         0.27000E+04
         0.27000E+04
         0.27000E+04
         0.27000E+04
         0.27000E+04
         0.27000E+04
         0.27000E+04
         0.27000E+04
         0.27000E+04
         0.27000E+04
         0.27000E+04
         0.27000E+04
         0.27000E+04
         0.27000E+04
         0.27000E+04
         0.27000E+04
         0.27000E+04
         0.27000E+04
         0.27000E+04
         0.27000E+04
         0.27000E+04
         0.27000E+04
         0.27000E+04
         0.27000E+04
         0.27000E+04
         0.27000E+04
         0.27000E+04
         0.27000E+04
         0.27000E+04
         0.27000E+04
         0.27000E+04
         0.27000E+04
         0.27000E+04
         0.27000E+04
         0.27000E+04
         0.27000E+04
         0.27000E+04
         0.27000E+04
         0.27000E+04
         0.27000E+04
         0.27000E+04
         0.27000E+04
         0.27000E+04
         0.27000E+04
         0.27000E+04
         0.27000E+04
         0.27000E+04
         0.27000E+04
         0.27000E+04
         0.27000E+04
         0.27000E+04
         0.27000E+04
         0.27000E+04
         0.27000E+04
         0.27000E+04
         0.27000E+04
         0.27000E+04
         0.27000E+04
         0.27000E+04
         0.27000E+04
         0.27000E+04
         0.27000E+04
         0.27000E+04
         0.27000E+04
         0.27000E+04
         0.27000E+04
         0.27000E+04
         0.27000E+04
         0.27000E+04
         0.27000E+04
         0.27000E+04
         0.27000E+04
         0.27000E+04
         0.27000E+04
         0.27000E+04
         0.27000E+04
         0.27000E+04
         0.27000E+04
         0.27000E+04
         0.27000E+04
         0.27000E+04
         0.27000E+04
         0.27000E+04
         0.27000E+04
         0.27000E+04
         0.27000E+04
         0.27000E+04
         0.27000E+04
         0.27000E+04
         0.27000E+04
         0.27000E+04
         0.27000E+04
         0.27000E+04
         0.27000E+04
         0.27000E+04
         0.27000E+04
         0.27000E+04
         0.27000E+04
         0.27000E+04
         0.27000E+04
         0.27000E+04
         0.27000E+04
         0.27000E+04
         0.27000E+04
         0.27000E+04
         0.27000E+04
         0.27000E+04
         0.27000E+04
         0.27000E+04
         0.27000E+04
         0.27000E+04
         0.27000E+04
         0.27000E+04
         0.27000E+04
         0.27000E+04
         0.27000E+04
         0.27000E+04
         0.27000E+04
         0.27000E+04
         0.27000E+04
         0.27000E+04
         0.27000E+04
         0.27000E+04
         0.27000E+04
         0.27000E+04
         0.27000E+04
         0.27000E+04
         0.27000E+04
         0.27000E+04
         0.27000E+04
         0.27000E+04
         0.27000E+04
         0.27000E+04
         0.27000E+04
         0.27000E+04
         0.27000E+04
         0.27000E+04
         0.27000E+04
         0.27000E+04
         0.27000E+04
         0.27000E+04
         0.27000E+04
         0.27000E+04
         0.27000E+04
         0.27000E+04
         0.27000E+04
         0.27000E+04
         0.27000E+04
         0.27000E+04
         0.27000E+04
         0.27000E+04
         0.27000E+04
         0.27000E+04
         0.27000E+04
         0.27000E+04
         0.27000E+04
         0.27000E+04
         0.27000E+04
         0.27000E+04
         0.27000E+04
         0.27000E+04
         0.27000E+04
         0.27000E+04
         0.27000E+04
         0.27000E+04
         0.27000E+04
         0.27000E+04
         0.27000E+04
         0.27000E+04
         0.27000E+04
         0.27000E+04
         0.27000E+04
         0.27000E+04
         0.27000E+04
         0.27000E+04
         0.27000E+04
         0.27000E+04
         0.27000E+04
         0.27000E+04
         0.27000E+04
         0.27000E+04
         0.27000E+04
         0.27000E+04
         0.27000E+04
         0.27000E+04
         0.27000E+04
         0.27000E+04
         0.27000E+04
         0.27000E+04
         0.27000E+04
         0.27000E+04
         0.27000E+04
         0.27000E+04
         0.27000E+04
         0.27000E+04
         0.27000E+04
         0.27000E+04
         0.27000E+04
         0.27000E+04
         0.27000E+04
         0.27000E+04
         0.27000E+04
         0.27000E+04
         0.27000E+04
         0.27000E+04
         0.27000E+04
         0.27000E+04
         0.27000E+04
         0.27000E+04
         0.27000E+04
         0.27000E+04
         0.27000E+04
         0.27000E+04
         0.27000E+04
         0.27000E+04
         0.27000E+04
         0.27000E+04
         0.27000E+04
         0.27000E+04
         0.27000E+04
         0.27000E+04
         0.27000E+04
         0.27000E+04
         0.27000E+04
         0.27000E+04
         0.27000E+04
         0.27000E+04
         0.27000E+04
         0.27000E+04
         0.27000E+04
         0.27000E+04
         0.27000E+04
         0.27000E+04
         0.27000E+04
         0.27000E+04
         0.27000E+04
         0.27000E+04
         0.27000E+04
         0.27000E+04
         0.27000E+04
         0.27000E+04
         0.27000E+04
         0.27000E+04
         0.27000E+04
         0.27000E+04
         0.27000E+04
         0.27000E+04
         0.27000E+04
         0.27000E+04
         0.27000E+04
         0.27000E+04
         0.27000E+04
         0.27000E+04
         0.27000E+04
         0.27000E+04
         0.27000E+04
         0.27000E+04
         0.27000E+04
         0.27000E+04
         0.27000E+04
         0.27000E+04
         0.27000E+04
         0.27000E+04
         0.27000E+04
         0.27000E+04
         0.27000E+04
         0.27000E+04
         0.27000E+04
         0.27000E+04
         0.27000E+04
         0.27000E+04
         0.27000E+04
         0.27000E+04
         0.27000E+04
         0.27000E+04
         0.27000E+04
         0.27000E+04
         0.27000E+04
         0.27000E+04
         0.27000E+04
         0.27000E+04
         0.27000E+04
         0.27000E+04
         0.27000E+04
         0.27000E+04
         0.27000E+04
         0.27000E+04
         0.27000E+04
         0.27000E+04
         0.27000E+04
         0.27000E+04
         0.27000E+04
         0.27000E+04
         0.27000E+04
         0.27000E+04
         0.27000E+04
         0.27000E+04
         0.27000E+04
         0.27000E+04
         0.27000E+04
         0.27000E+04
         0.27000E+04
         0.27000E+04
         0.27000E+04
         0.27000E+04
         0.27000E+04
         0.27000E+04
         0.27000E+04
         0.27000E+04
         0.27000E+04
         0.27000E+04
         0.27000E+04
         0.27000E+04
         0.27000E+04
         0.27000E+04
         0.27000E+04
         0.27000E+04
         0.27000E+04
         0.27000E+04
         0.27000E+04
         0.27000E+04
         0.27000E+04
         0.27000E+04
         0.27000E+04
         0.27000E+04
         0.27000E+04
         0.27000E+04
         0.27000E+04
         0.27000E+04
         0.27000E+04
         0.27000E+04
         0.27000E+04
         0.27000E+04
         0.27000E+04
         0.27000E+04
         0.27000E+04
         0.27000E+04
         0.27000E+04
         0.27000E+04
         0.27000E+04
         0.27000E+04
         0.27000E+04
         0.27000E+04
         0.27000E+04
         0.27000E+04
         0.27000E+04
         0.27000E+04
         0.27000E+04
         0.27000E+04
         0.27000E+04
         0.27000E+04
         0.27000E+04
         0.27000E+04
         0.27000E+04
         0.27000E+04
         0.27000E+04
         0.27000E+04
         0.27000E+04
         0.27000E+04
         0.27000E+04
         0.27000E+04
         0.27000E+04
         0.27000E+04
         0.27000E+04
         0.27000E+04
         0.27000E+04
         0.27000E+04
         0.27000E+04
         0.27000E+04
         0.27000E+04
         0.27000E+04
         0.27000E+04
         0.27000E+04
         0.27000E+04
         0.27000E+04
         0.27000E+04
         0.27000E+04
         0.27000E+04
         0.27000E+04
         0.27000E+04
         0.27000E+04
         0.27000E+04
         0.27000E+04
         0.27000E+04
         0.27000E+04
         0.27000E+04
         0.27000E+04
         0.27000E+04
         0.27000E+04
         0.27000E+04
         0.27000E+04
         0.27000E+04
         0.27000E+04
         0.27000E+04
         0.27000E+04
         0.27000E+04
         0.27000E+04
         0.27000E+04
         0.27000E+04
         0.27000E+04
         0.27000E+04
         0.27000E+04
         0.27000E+04
         0.27000E+04
         0.27000E+04
         0.27000E+04
         0.27000E+04
         0.27000E+04
         0.27000E+04
         0.27000E+04
         0.27000E+04
         0.27000E+04
         0.27000E+04
         0.27000E+04
         0.27000E+04
         0.27000E+04
         0.27000E+04
         0.27000E+04
         0.27000E+04
         0.27000E+04
         0.27000E+04
         0.27000E+04
         0.27000E+04
         0.27000E+04
         0.27000E+04
         0.27000E+04
         0.27000E+04
         0.27000E+04
         0.27000E+04
         0.27000E+04
         0.27000E+04
         0.27000E+04
         0.27000E+04
         0.27000E+04
         0.27000E+04
         0.27000E+04
         0.27000E+04
         0.27000E+04
         0.27000E+04
         0.27000E+04
         0.27000E+04
         0.27000E+04
         0.27000E+04
         0.27000E+04
         0.27000E+04
         0.27000E+04
         0.27000E+04
         0.27000E+04
         0.27000E+04
         0.27000E+04
         0.27000E+04
         0.27000E+04
         0.27000E+04
         0.27000E+04
         0.27000E+04
         0.27000E+04
         0.27000E+04
         0.27000E+04
         0.27000E+04
         0.27000E+04
         0.27000E+04
         0.27000E+04
         0.27000E+04
         0.27000E+04
         0.27000E+04
         0.27000E+04
         0.27000E+04
         0.27000E+04
         0.27000E+04
         0.27000E+04
         0.27000E+04
         0.27000E+04
         0.27000E+04
         0.27000E+04
         0.27000E+04
         0.27000E+04
         0.27000E+04
         0.27000E+04
         0.27000E+04
         0.27000E+04
         0.27000E+04
         0.27000E+04
         0.27000E+04
         0.27000E+04
         0.27000E+04
         0.27000E+04
         0.27000E+04
         0.27000E+04
         0.27000E+04
         0.27000E+04
         0.27000E+04
         0.27000E+04
         0.27000E+04
         0.27000E+04
         0.27000E+04
         0.27000E+04
         0.27000E+04
         0.27000E+04
         0.27000E+04
         0.27000E+04
         0.27000E+04
         0.27000E+04
         0.27000E+04
         0.27000E+04
         0.27000E+04
         0.27000E+04
         0.27000E+04
         0.27000E+04
         0.27000E+04
         0.27000E+04
         0.27000E+04
         0.27000E+04
         0.27000E+04
         0.27000E+04
         0.27000E+04
         0.27000E+04
         0.27000E+04
         0.27000E+04
         0.27000E+04
         0.27000E+04
         0.27000E+04
         0.27000E+04
         0.27000E+04
         0.27000E+04
         0.27000E+04
         0.27000E+04
         0.27000E+04
         0.27000E+04
         0.27000E+04
         0.27000E+04
         0.27000E+04
         0.27000E+04
         0.27000E+04
         0.27000E+04
         0.27000E+04
         0.27000E+04
         0.27000E+04
         0.27000E+04
         0.27000E+04
         0.27000E+04
         0.27000E+04
         0.27000E+04
         0.27000E+04
         0.27000E+04
         0.27000E+04
         0.27000E+04
         0.27000E+04
         0.27000E+04
         0.27000E+04
         0.27000E+04
         0.27000E+04
         0.27000E+04
         0.27000E+04
         0.27000E+04
         0.27000E+04
         0.27000E+04
         0.27000E+04
         0.27000E+04
         0.27000E+04
         0.27000E+04
         0.27000E+04
         0.27000E+04
         0.27000E+04
         0.27000E+04
         0.27000E+04
         0.27000E+04
         0.27000E+04
         0.27000E+04
         0.27000E+04
         0.27000E+04
         0.27000E+04
         0.27000E+04
         0.27000E+04
         0.27000E+04
         0.27000E+04
         0.27000E+04
         0.27000E+04
         0.27000E+04
         0.27000E+04
         0.27000E+04
         0.27000E+04
         0.27000E+04
         0.27000E+04
         0.27000E+04
         0.27000E+04
         0.27000E+04
         0.27000E+04
         0.27000E+04
         0.27000E+04
         0.27000E+04
         0.27000E+04
         0.27000E+04
         0.27000E+04
         0.27000E+04
         0.27000E+04
         0.27000E+04
         0.27000E+04
         0.27000E+04
         0.27000E+04
         0.27000E+04
         0.27000E+04
         0.27000E+04
         0.27000E+04
         0.27000E+04
         0.27000E+04
         0.27000E+04
         0.27000E+04
         0.27000E+04
         0.27000E+04
         0.27000E+04
         0.27000E+04
         0.27000E+04
         0.27000E+04
         0.27000E+04
         0.27000E+04
         0.27000E+04
         0.27000E+04
         0.27000E+04
         0.27000E+04
         0.27000E+04
         0.27000E+04
         0.27000E+04
         0.27000E+04
         0.27000E+04
         0.27000E+04
         0.27000E+04
         0.27000E+04
         0.27000E+04
         0.27000E+04
         0.27000E+04
         0.27000E+04
         0.27000E+04
         0.27000E+04
         0.27000E+04
         0.27000E+04
         0.27000E+04
         0.27000E+04
         0.27000E+04
         0.27000E+04
         0.27000E+04
         0.27000E+04
         0.27000E+04
         0.27000E+04
         0.27000E+04
         0.27000E+04
         0.27000E+04
         0.27000E+04
         0.27000E+04
         0.27000E+04
         0.27000E+04
         0.27000E+04
         0.27000E+04
         0.27000E+04
         0.27000E+04
         0.27000E+04
         0.27000E+04
         0.27000E+04
         0.27000E+04
         0.27000E+04
         0.27000E+04
         0.27000E+04
         0.27000E+04
         0.27000E+04
         0.27000E+04
         0.27000E+04
         0.27000E+04
         0.27000E+04
         0.27000E+04
         0.27000E+04
         0.27000E+04
         0.27000E+04
         0.27000E+04
         0.27000E+04
         0.27000E+04
         0.27000E+04
         0.27000E+04
         0.27000E+04
         0.27000E+04
         0.27000E+04
         0.27000E+04
         0.27000E+04
         0.27000E+04
         0.27000E+04
         0.27000E+04
         0.27000E+04
         0.27000E+04
         0.27000E+04
         0.27000E+04
         0.27000E+04
         0.27000E+04
         0.27000E+04
         0.27000E+04
         0.27000E+04
         0.27000E+04
         0.27000E+04
         0.27000E+04
         0.27000E+04
         0.27000E+04
         0.27000E+04
         0.27000E+04
         0.27000E+04
         0.27000E+04
         0.27000E+04
         0.27000E+04
         0.27000E+04
         0.27000E+04
         0.27000E+04
         0.27000E+04
         0.27000E+04
         0.27000E+04
         0.27000E+04
         0.27000E+04
         0.27000E+04
         0.27000E+04
         0.27000E+04
         0.27000E+04
         0.27000E+04
         0.27000E+04
         0.27000E+04
         0.27000E+04
         0.27000E+04
         0.27000E+04
         0.27000E+04
         0.27000E+04
         0.27000E+04
         0.27000E+04
         0.27000E+04
         0.27000E+04
         0.27000E+04
         0.27000E+04
         0.27000E+04
         0.27000E+04
         0.27000E+04
         0.27000E+04
         0.27000E+04
         0.27000E+04
         0.27000E+04
         0.27000E+04
         0.27000E+04
         0.27000E+04
         0.27000E+04
         0.27000E+04
         0.27000E+04
         0.27000E+04
         0.27000E+04
         0.27000E+04
         0.27000E+04
         0.27000E+04
         0.27000E+04
         0.27000E+04
         0.27000E+04
         0.27000E+04
         0.27000E+04
         0.27000E+04
         0.27000E+04
         0.27000E+04
         0.27000E+04
         0.27000E+04
         0.27000E+04
         0.27000E+04
         0.27000E+04
         0.27000E+04
         0.27000E+04
         0.27000E+04
         0.27000E+04
         0.27000E+04
         0.27000E+04
         0.27000E+04
         0.27000E+04
         0.27000E+04
         0.27000E+04
         0.27000E+04
         0.27000E+04
         0.27000E+04
         0.27000E+04
         0.27000E+04
         0.27000E+04
         0.27000E+04
         0.27000E+04
         0.27000E+04
         0.27000E+04
         0.27000E+04
         0.27000E+04
         0.27000E+04
         0.27000E+04
         0.27000E+04
         0.27000E+04
         0.27000E+04
         0.27000E+04
         0.27000E+04
         0.27000E+04
         0.27000E+04
         0.27000E+04
         0.27000E+04
         0.27000E+04
         0.27000E+04
         0.27000E+04
         0.27000E+04
         0.27000E+04
         0.27000E+04
         0.27000E+04
         0.27000E+04
         0.27000E+04
         0.27000E+04
         0.27000E+04
         0.27000E+04
         0.27000E+04
         0.27000E+04
         0.27000E+04
         0.27000E+04
         0.27000E+04
         0.27000E+04
         0.27000E+04
         0.27000E+04
         0.27000E+04
         0.27000E+04
         0.27000E+04
         0.27000E+04
         0.27000E+04
         0.27000E+04
         0.27000E+04
         0.27000E+04
         0.27000E+04
         0.27000E+04
         0.27000E+04
         0.27000E+04
         0.27000E+04
         0.27000E+04
         0.27000E+04
         0.27000E+04
         0.27000E+04
         0.27000E+04
         0.27000E+04
         0.27000E+04
         0.27000E+04
         0.27000E+04
         0.27000E+04
         0.27000E+04
         0.27000E+04
         0.27000E+04
         0.27000E+04
         0.27000E+04
         0.27000E+04
         0.27000E+04
         0.27000E+04
         0.27000E+04
         0.27000E+04
         0.27000E+04
         0.27000E+04
         0.27000E+04
         0.27000E+04
         0.27000E+04
         0.27000E+04
         0.27000E+04
         0.27000E+04
         0.27000E+04
         0.27000E+04
         0.27000E+04
         0.27000E+04
         0.27000E+04
         0.27000E+04
         0.27000E+04
         0.27000E+04
         0.27000E+04
         0.27000E+04
         0.27000E+04
         0.27000E+04
         0.27000E+04
         0.27000E+04
         0.27000E+04
         0.27000E+04
         0.27000E+04
         0.27000E+04
         0.27000E+04
         0.27000E+04
         0.27000E+04
         0.27000E+04
         0.27000E+04
         0.27000E+04
         0.27000E+04
         0.27000E+04
         0.27000E+04
         0.27000E+04
         0.27000E+04
