# vtk DataFile Version 2.0
               (MEGA VTK FILE)
ASCII
DATASET UNSTRUCTURED_GRID
POINTS       1950    double
  0.10378E-02  0.67292E-03 -0.14680E-01
  0.17452E-02  0.12308E-02 -0.14674E-01
  0.23177E-02  0.59151E-03 -0.14673E-01
  0.16698E-02 -0.33775E-03 -0.14685E-01
  0.10379E-02  0.67237E-03 -0.11750E-01
  0.17453E-02  0.12301E-02 -0.11750E-01
  0.23178E-02  0.59098E-03 -0.11750E-01
  0.16700E-02 -0.33851E-03 -0.11750E-01
  0.30377E-02  0.14882E-03 -0.14661E-01
  0.27791E-02 -0.67643E-03 -0.14675E-01
  0.30377E-02  0.14846E-03 -0.11750E-01
  0.27788E-02 -0.67692E-03 -0.11750E-01
  0.12850E-02  0.18412E-02 -0.14667E-01
  0.65139E-03  0.14576E-02 -0.14676E-01
  0.12851E-02  0.18410E-02 -0.11750E-01
  0.65164E-03  0.14566E-02 -0.11750E-01
  0.12757E-03  0.29933E-03 -0.14681E-01
 -0.12822E-03  0.11672E-02 -0.14682E-01
  0.12783E-03  0.29819E-03 -0.11750E-01
 -0.12804E-03  0.11655E-02 -0.11750E-01
  0.94500E-03  0.22748E-02 -0.14662E-01
  0.11327E-02  0.28286E-02 -0.14657E-01
  0.17490E-02  0.24238E-02 -0.14660E-01
  0.94533E-03  0.22746E-02 -0.11750E-01
  0.11330E-02  0.28291E-02 -0.11750E-01
  0.17494E-02  0.24236E-02 -0.11750E-01
  0.40588E-03  0.21685E-02 -0.14673E-01
  0.39779E-03  0.29366E-02 -0.14670E-01
  0.40594E-03  0.21684E-02 -0.11750E-01
  0.39781E-03  0.29369E-02 -0.11750E-01
 -0.76303E-03 -0.10033E-02 -0.14686E-01
 -0.86604E-03  0.78969E-04 -0.14689E-01
  0.46119E-03 -0.70318E-03 -0.14684E-01
 -0.76268E-03 -0.10032E-02 -0.11750E-01
 -0.86593E-03  0.78160E-04 -0.11750E-01
  0.46164E-03 -0.70391E-03 -0.11750E-01
 -0.18300E-02 -0.71196E-03 -0.14673E-01
 -0.18440E-02  0.82749E-04 -0.14686E-01
 -0.18297E-02 -0.71210E-03 -0.11750E-01
 -0.18441E-02  0.82626E-04 -0.11750E-01
 -0.27238E-02 -0.77865E-03 -0.14670E-01
 -0.28028E-02  0.40713E-04 -0.14680E-01
 -0.27238E-02 -0.77882E-03 -0.11750E-01
 -0.28031E-02  0.40439E-04 -0.11750E-01
 -0.25365E-02 -0.15195E-02 -0.14660E-01
 -0.19287E-02 -0.13230E-02 -0.14665E-01
 -0.25363E-02 -0.15195E-02 -0.11750E-01
 -0.19283E-02 -0.13231E-02 -0.11750E-01
 -0.99363E-03  0.98847E-03 -0.14690E-01
 -0.99377E-03  0.98712E-03 -0.11750E-01
 -0.14380E-02 -0.17325E-02 -0.14672E-01
 -0.14377E-02 -0.17325E-02 -0.11750E-01
 -0.31574E-03  0.20220E-02 -0.14685E-01
 -0.31594E-03  0.20217E-02 -0.11750E-01
 -0.11068E-02  0.18615E-02 -0.14689E-01
 -0.11071E-02  0.18616E-02 -0.11750E-01
 -0.18845E-02  0.17175E-02 -0.14678E-01
 -0.18713E-02  0.90940E-03 -0.14687E-01
 -0.18846E-02  0.17175E-02 -0.11750E-01
 -0.18714E-02  0.90916E-03 -0.11750E-01
 -0.15871E-03 -0.19800E-02 -0.14683E-01
 -0.94089E-03 -0.23489E-02 -0.14672E-01
 -0.15844E-03 -0.19800E-02 -0.11750E-01
 -0.94029E-03 -0.23489E-02 -0.11750E-01
  0.78856E-03 -0.17074E-02 -0.14682E-01
  0.78922E-03 -0.17074E-02 -0.11750E-01
  0.17211E-02 -0.14894E-02 -0.14677E-01
  0.17211E-02 -0.14892E-02 -0.11750E-01
  0.32050E-02  0.76036E-03 -0.14644E-01
  0.28046E-02  0.12477E-02 -0.14657E-01
  0.32047E-02  0.75936E-03 -0.11750E-01
  0.28047E-02  0.12473E-02 -0.11750E-01
  0.23059E-02  0.18665E-02 -0.14663E-01
  0.23060E-02  0.18664E-02 -0.11750E-01
 -0.40614E-03  0.29038E-02 -0.14677E-01
 -0.40627E-03  0.29049E-02 -0.11750E-01
 -0.12092E-02  0.27207E-02 -0.14676E-01
 -0.12092E-02  0.27212E-02 -0.11750E-01
 -0.19448E-02  0.24642E-02 -0.14663E-01
 -0.19448E-02  0.24645E-02 -0.11750E-01
 -0.25029E-02  0.22359E-02 -0.14648E-01
 -0.26371E-02  0.16503E-02 -0.14667E-01
 -0.25029E-02  0.22359E-02 -0.11750E-01
 -0.26372E-02  0.16503E-02 -0.11750E-01
 -0.27671E-02  0.87493E-03 -0.14681E-01
 -0.27674E-02  0.87466E-03 -0.11750E-01
 -0.21123E-02 -0.21373E-02 -0.14661E-01
 -0.21122E-02 -0.21373E-02 -0.11750E-01
 -0.16087E-02 -0.26931E-02 -0.14656E-01
 -0.16087E-02 -0.26931E-02 -0.11750E-01
 -0.11939E-02 -0.31291E-02 -0.14642E-01
 -0.58641E-03 -0.30382E-02 -0.14660E-01
 -0.11937E-02 -0.31291E-02 -0.11750E-01
 -0.58606E-03 -0.30382E-02 -0.11750E-01
  0.20912E-03 -0.28748E-02 -0.14673E-01
  0.20952E-03 -0.28748E-02 -0.11750E-01
  0.10586E-02 -0.26423E-02 -0.14671E-01
  0.10589E-02 -0.26420E-02 -0.11750E-01
  0.18413E-02 -0.23707E-02 -0.14661E-01
  0.18413E-02 -0.23705E-02 -0.11750E-01
  0.24544E-02 -0.21445E-02 -0.14647E-01
  0.26022E-02 -0.15105E-02 -0.14664E-01
  0.24543E-02 -0.21439E-02 -0.11750E-01
  0.26021E-02 -0.15106E-02 -0.11750E-01
  0.37964E-02  0.93572E-03 -0.14607E-01
  0.39100E-02  0.00000E+00 -0.14613E-01
  0.37964E-02  0.93572E-03 -0.11750E-01
  0.39100E-02  0.00000E+00 -0.11750E-01
  0.34621E-02  0.18171E-02 -0.14612E-01
  0.34621E-02  0.18171E-02 -0.11750E-01
  0.29267E-02  0.25928E-02 -0.14608E-01
  0.29267E-02  0.25928E-02 -0.11750E-01
  0.22211E-02  0.32179E-02 -0.14608E-01
  0.22211E-02  0.32179E-02 -0.11750E-01
  0.13865E-02  0.36559E-02 -0.14607E-01
  0.13865E-02  0.36559E-02 -0.11750E-01
  0.47130E-03  0.38815E-02 -0.14611E-01
  0.47130E-03  0.38815E-02 -0.11750E-01
 -0.47130E-03  0.38815E-02 -0.14613E-01
 -0.47130E-03  0.38815E-02 -0.11750E-01
 -0.13865E-02  0.36559E-02 -0.14612E-01
 -0.13865E-02  0.36559E-02 -0.11750E-01
 -0.22211E-02  0.32179E-02 -0.14611E-01
 -0.22211E-02  0.32179E-02 -0.11750E-01
 -0.29267E-02  0.25928E-02 -0.14605E-01
 -0.29267E-02  0.25928E-02 -0.11750E-01
 -0.34621E-02  0.18171E-02 -0.14613E-01
 -0.34621E-02  0.18171E-02 -0.11750E-01
 -0.37964E-02  0.93572E-03 -0.14615E-01
 -0.37964E-02  0.93572E-03 -0.11750E-01
 -0.39100E-02  0.22152E-17 -0.14615E-01
 -0.39100E-02 -0.47884E-18 -0.11750E-01
 -0.37964E-02 -0.93572E-03 -0.14612E-01
 -0.37964E-02 -0.93572E-03 -0.11750E-01
 -0.34621E-02 -0.18171E-02 -0.14609E-01
 -0.34621E-02 -0.18171E-02 -0.11750E-01
 -0.29267E-02 -0.25928E-02 -0.14607E-01
 -0.29267E-02 -0.25928E-02 -0.11750E-01
 -0.22211E-02 -0.32179E-02 -0.14612E-01
 -0.22211E-02 -0.32179E-02 -0.11750E-01
 -0.13865E-02 -0.36559E-02 -0.14607E-01
 -0.13865E-02 -0.36559E-02 -0.11750E-01
 -0.47130E-03 -0.38815E-02 -0.14614E-01
 -0.47130E-03 -0.38815E-02 -0.11750E-01
  0.47130E-03 -0.38815E-02 -0.14612E-01
  0.47130E-03 -0.38815E-02 -0.11750E-01
  0.13865E-02 -0.36559E-02 -0.14610E-01
  0.13865E-02 -0.36559E-02 -0.11750E-01
  0.22211E-02 -0.32179E-02 -0.14613E-01
  0.22211E-02 -0.32179E-02 -0.11750E-01
  0.29267E-02 -0.25928E-02 -0.14608E-01
  0.29267E-02 -0.25928E-02 -0.11750E-01
  0.34621E-02 -0.18171E-02 -0.14613E-01
  0.34621E-02 -0.18171E-02 -0.11750E-01
  0.37964E-02 -0.93572E-03 -0.14613E-01
  0.37964E-02 -0.93572E-03 -0.11750E-01
  0.10376E-02  0.67348E-03 -0.15302E-01
  0.17450E-02  0.12314E-02 -0.15301E-01
  0.23175E-02  0.59203E-03 -0.15301E-01
  0.16696E-02 -0.33700E-03 -0.15302E-01
  0.30377E-02  0.14918E-03 -0.15299E-01
  0.27795E-02 -0.67594E-03 -0.15301E-01
  0.12849E-02  0.18414E-02 -0.15300E-01
  0.65115E-03  0.14586E-02 -0.15301E-01
  0.12731E-03  0.30048E-03 -0.15302E-01
 -0.12841E-03  0.11690E-02 -0.15302E-01
  0.94467E-03  0.22749E-02 -0.15299E-01
  0.11323E-02  0.28282E-02 -0.15298E-01
  0.17487E-02  0.24239E-02 -0.15299E-01
  0.40583E-03  0.21685E-02 -0.15301E-01
  0.39777E-03  0.29364E-02 -0.15300E-01
 -0.76338E-03 -0.10035E-02 -0.15302E-01
 -0.86615E-03  0.79778E-04 -0.15303E-01
  0.46074E-03 -0.70245E-03 -0.15302E-01
 -0.18303E-02 -0.71182E-03 -0.15301E-01
 -0.18439E-02  0.82873E-04 -0.15303E-01
 -0.27238E-02 -0.77848E-03 -0.15300E-01
 -0.28025E-02  0.40986E-04 -0.15302E-01
 -0.25366E-02 -0.15194E-02 -0.15299E-01
 -0.19292E-02 -0.13228E-02 -0.15299E-01
 -0.99349E-03  0.98983E-03 -0.15303E-01
 -0.14384E-02 -0.17324E-02 -0.15300E-01
 -0.31554E-03  0.20223E-02 -0.15302E-01
 -0.11064E-02  0.18614E-02 -0.15303E-01
 -0.18845E-02  0.17175E-02 -0.15301E-01
 -0.18712E-02  0.90964E-03 -0.15303E-01
 -0.15899E-03 -0.19800E-02 -0.15302E-01
 -0.94149E-03 -0.23489E-02 -0.15300E-01
  0.78790E-03 -0.17074E-02 -0.15302E-01
  0.17210E-02 -0.14896E-02 -0.15301E-01
  0.32053E-02  0.76137E-03 -0.15296E-01
  0.28046E-02  0.12481E-02 -0.15298E-01
  0.23058E-02  0.18665E-02 -0.15299E-01
 -0.40600E-03  0.29027E-02 -0.15301E-01
 -0.12092E-02  0.27202E-02 -0.15301E-01
 -0.19447E-02  0.24640E-02 -0.15299E-01
 -0.25028E-02  0.22359E-02 -0.15297E-01
 -0.26370E-02  0.16503E-02 -0.15300E-01
 -0.27668E-02  0.87519E-03 -0.15302E-01
 -0.21125E-02 -0.21373E-02 -0.15299E-01
 -0.16088E-02 -0.26932E-02 -0.15298E-01
 -0.11940E-02 -0.31291E-02 -0.15296E-01
 -0.58676E-03 -0.30382E-02 -0.15299E-01
  0.20871E-03 -0.28748E-02 -0.15301E-01
  0.10583E-02 -0.26426E-02 -0.15300E-01
  0.18413E-02 -0.23709E-02 -0.15299E-01
  0.24545E-02 -0.21450E-02 -0.15297E-01
  0.26022E-02 -0.15104E-02 -0.15299E-01
  0.37964E-02  0.93572E-03 -0.15292E-01
  0.39100E-02  0.00000E+00 -0.15293E-01
  0.34621E-02  0.18171E-02 -0.15293E-01
  0.29267E-02  0.25928E-02 -0.15293E-01
  0.22211E-02  0.32179E-02 -0.15293E-01
  0.13865E-02  0.36559E-02 -0.15293E-01
  0.47130E-03  0.38815E-02 -0.15293E-01
 -0.47130E-03  0.38815E-02 -0.15294E-01
 -0.13865E-02  0.36559E-02 -0.15293E-01
 -0.22211E-02  0.32179E-02 -0.15293E-01
 -0.29267E-02  0.25928E-02 -0.15292E-01
 -0.34621E-02  0.18171E-02 -0.15293E-01
 -0.37964E-02  0.93572E-03 -0.15294E-01
 -0.39100E-02 -0.47884E-18 -0.15294E-01
 -0.37964E-02 -0.93572E-03 -0.15293E-01
 -0.34621E-02 -0.18171E-02 -0.15293E-01
 -0.29267E-02 -0.25928E-02 -0.15293E-01
 -0.22211E-02 -0.32179E-02 -0.15293E-01
 -0.13865E-02 -0.36559E-02 -0.15293E-01
 -0.47130E-03 -0.38815E-02 -0.15294E-01
  0.47130E-03 -0.38815E-02 -0.15294E-01
  0.13865E-02 -0.36559E-02 -0.15293E-01
  0.22211E-02 -0.32179E-02 -0.15294E-01
  0.29267E-02 -0.25928E-02 -0.15293E-01
  0.34621E-02 -0.18171E-02 -0.15294E-01
  0.37964E-02 -0.93572E-03 -0.15294E-01
  0.10375E-02  0.67403E-03 -0.14454E-01
  0.17448E-02  0.12321E-02 -0.14454E-01
  0.23174E-02  0.59255E-03 -0.14454E-01
  0.16694E-02 -0.33624E-03 -0.14454E-01
  0.30377E-02  0.14955E-03 -0.14454E-01
  0.27798E-02 -0.67544E-03 -0.14454E-01
  0.12848E-02  0.18415E-02 -0.14454E-01
  0.65090E-03  0.14596E-02 -0.14454E-01
  0.12705E-03  0.30163E-03 -0.14454E-01
 -0.12859E-03  0.11707E-02 -0.14454E-01
  0.94434E-03  0.22750E-02 -0.14454E-01
  0.11320E-02  0.28277E-02 -0.14454E-01
  0.17483E-02  0.24241E-02 -0.14454E-01
  0.40577E-03  0.21685E-02 -0.14454E-01
  0.39776E-03  0.29361E-02 -0.14454E-01
 -0.76374E-03 -0.10036E-02 -0.14454E-01
 -0.86626E-03  0.80588E-04 -0.14454E-01
  0.46029E-03 -0.70173E-03 -0.14454E-01
 -0.18306E-02 -0.71168E-03 -0.14454E-01
 -0.18438E-02  0.82996E-04 -0.14454E-01
 -0.27238E-02 -0.77831E-03 -0.14454E-01
 -0.28022E-02  0.41259E-04 -0.14454E-01
 -0.25368E-02 -0.15194E-02 -0.14454E-01
 -0.19296E-02 -0.13227E-02 -0.14454E-01
 -0.99334E-03  0.99119E-03 -0.14454E-01
 -0.14387E-02 -0.17324E-02 -0.14454E-01
 -0.31534E-03  0.20226E-02 -0.14454E-01
 -0.11061E-02  0.18613E-02 -0.14454E-01
 -0.18844E-02  0.17175E-02 -0.14454E-01
 -0.18710E-02  0.90988E-03 -0.14454E-01
 -0.15926E-03 -0.19801E-02 -0.14454E-01
 -0.94209E-03 -0.23490E-02 -0.14454E-01
  0.78724E-03 -0.17074E-02 -0.14454E-01
  0.17210E-02 -0.14899E-02 -0.14454E-01
  0.32056E-02  0.76237E-03 -0.14454E-01
  0.28046E-02  0.12485E-02 -0.14454E-01
  0.23057E-02  0.18666E-02 -0.14454E-01
 -0.40586E-03  0.29017E-02 -0.14454E-01
 -0.12092E-02  0.27198E-02 -0.14454E-01
 -0.19447E-02  0.24638E-02 -0.14454E-01
 -0.25028E-02  0.22359E-02 -0.14454E-01
 -0.26369E-02  0.16503E-02 -0.14454E-01
 -0.27665E-02  0.87545E-03 -0.14454E-01
 -0.21126E-02 -0.21374E-02 -0.14454E-01
 -0.16088E-02 -0.26932E-02 -0.14454E-01
 -0.11941E-02 -0.31291E-02 -0.14454E-01
 -0.58711E-03 -0.30382E-02 -0.14454E-01
  0.20830E-03 -0.28748E-02 -0.14454E-01
  0.10580E-02 -0.26428E-02 -0.14454E-01
  0.18414E-02 -0.23711E-02 -0.14454E-01
  0.24546E-02 -0.21456E-02 -0.14454E-01
  0.26023E-02 -0.15103E-02 -0.14454E-01
  0.37964E-02  0.93572E-03 -0.14454E-01
  0.39100E-02  0.00000E+00 -0.14454E-01
  0.34621E-02  0.18171E-02 -0.14454E-01
  0.29267E-02  0.25928E-02 -0.14454E-01
  0.22211E-02  0.32179E-02 -0.14454E-01
  0.13865E-02  0.36559E-02 -0.14454E-01
  0.47130E-03  0.38815E-02 -0.14454E-01
 -0.47130E-03  0.38815E-02 -0.14454E-01
 -0.13865E-02  0.36559E-02 -0.14454E-01
 -0.22211E-02  0.32179E-02 -0.14454E-01
 -0.29267E-02  0.25928E-02 -0.14454E-01
 -0.34621E-02  0.18171E-02 -0.14454E-01
 -0.37964E-02  0.93572E-03 -0.14454E-01
 -0.39100E-02  0.39516E-17 -0.14454E-01
 -0.37964E-02 -0.93572E-03 -0.14454E-01
 -0.34621E-02 -0.18171E-02 -0.14454E-01
 -0.29267E-02 -0.25928E-02 -0.14454E-01
 -0.22211E-02 -0.32179E-02 -0.14454E-01
 -0.13865E-02 -0.36559E-02 -0.14454E-01
 -0.47130E-03 -0.38815E-02 -0.14454E-01
  0.47130E-03 -0.38815E-02 -0.14454E-01
  0.13865E-02 -0.36559E-02 -0.14454E-01
  0.22211E-02 -0.32179E-02 -0.14454E-01
  0.29267E-02 -0.25928E-02 -0.14454E-01
  0.34621E-02 -0.18171E-02 -0.14454E-01
  0.37964E-02 -0.93572E-03 -0.14454E-01
  0.10374E-02  0.67459E-03 -0.13475E-01
  0.17446E-02  0.12328E-02 -0.13475E-01
  0.23173E-02  0.59308E-03 -0.13475E-01
  0.16692E-02 -0.33549E-03 -0.13475E-01
  0.30376E-02  0.14991E-03 -0.13475E-01
  0.27801E-02 -0.67495E-03 -0.13475E-01
  0.12847E-02  0.18417E-02 -0.13475E-01
  0.65065E-03  0.14606E-02 -0.13475E-01
  0.12678E-03  0.30278E-03 -0.13475E-01
 -0.12878E-03  0.11725E-02 -0.13475E-01
  0.94401E-03  0.22752E-02 -0.13475E-01
  0.11316E-02  0.28273E-02 -0.13475E-01
  0.17479E-02  0.24242E-02 -0.13475E-01
  0.40572E-03  0.21686E-02 -0.13475E-01
  0.39774E-03  0.29359E-02 -0.13475E-01
 -0.76409E-03 -0.10038E-02 -0.13475E-01
 -0.86637E-03  0.81397E-04 -0.13475E-01
  0.45985E-03 -0.70100E-03 -0.13475E-01
 -0.18309E-02 -0.71154E-03 -0.13475E-01
 -0.18437E-02  0.83120E-04 -0.13475E-01
 -0.27237E-02 -0.77814E-03 -0.13475E-01
 -0.28020E-02  0.41533E-04 -0.13475E-01
 -0.25369E-02 -0.15193E-02 -0.13475E-01
 -0.19300E-02 -0.13227E-02 -0.13475E-01
 -0.99320E-03  0.99254E-03 -0.13475E-01
 -0.14391E-02 -0.17324E-02 -0.13475E-01
 -0.31514E-03  0.20228E-02 -0.13475E-01
 -0.11057E-02  0.18611E-02 -0.13475E-01
 -0.18844E-02  0.17175E-02 -0.13475E-01
 -0.18709E-02  0.91012E-03 -0.13475E-01
 -0.15954E-03 -0.19801E-02 -0.13475E-01
 -0.94269E-03 -0.23490E-02 -0.13475E-01
  0.78658E-03 -0.17074E-02 -0.13475E-01
  0.17209E-02 -0.14901E-02 -0.13475E-01
  0.32060E-02  0.76338E-03 -0.13475E-01
  0.28046E-02  0.12490E-02 -0.13475E-01
  0.23056E-02  0.18666E-02 -0.13475E-01
 -0.40572E-03  0.29006E-02 -0.13475E-01
 -0.12092E-02  0.27193E-02 -0.13475E-01
 -0.19446E-02  0.24636E-02 -0.13475E-01
 -0.25028E-02  0.22359E-02 -0.13475E-01
 -0.26368E-02  0.16503E-02 -0.13475E-01
 -0.27662E-02  0.87571E-03 -0.13475E-01
 -0.21128E-02 -0.21374E-02 -0.13475E-01
 -0.16088E-02 -0.26932E-02 -0.13475E-01
 -0.11942E-02 -0.31291E-02 -0.13475E-01
 -0.58746E-03 -0.30382E-02 -0.13475E-01
  0.20790E-03 -0.28748E-02 -0.13475E-01
  0.10577E-02 -0.26431E-02 -0.13475E-01
  0.18414E-02 -0.23713E-02 -0.13475E-01
  0.24548E-02 -0.21461E-02 -0.13475E-01
  0.26024E-02 -0.15102E-02 -0.13475E-01
  0.37964E-02  0.93572E-03 -0.13475E-01
  0.39100E-02  0.00000E+00 -0.13475E-01
  0.34621E-02  0.18171E-02 -0.13475E-01
  0.29267E-02  0.25928E-02 -0.13475E-01
  0.22211E-02  0.32179E-02 -0.13475E-01
  0.13865E-02  0.36559E-02 -0.13475E-01
  0.47130E-03  0.38815E-02 -0.13475E-01
 -0.47130E-03  0.38815E-02 -0.13475E-01
 -0.13865E-02  0.36559E-02 -0.13475E-01
 -0.22211E-02  0.32179E-02 -0.13475E-01
 -0.29267E-02  0.25928E-02 -0.13475E-01
 -0.34621E-02  0.18171E-02 -0.13475E-01
 -0.37964E-02  0.93572E-03 -0.13475E-01
 -0.39100E-02 -0.47884E-18 -0.13475E-01
 -0.37964E-02 -0.93572E-03 -0.13475E-01
 -0.34621E-02 -0.18171E-02 -0.13475E-01
 -0.29267E-02 -0.25928E-02 -0.13475E-01
 -0.22211E-02 -0.32179E-02 -0.13475E-01
 -0.13865E-02 -0.36559E-02 -0.13475E-01
 -0.47130E-03 -0.38815E-02 -0.13475E-01
  0.47130E-03 -0.38815E-02 -0.13475E-01
  0.13865E-02 -0.36559E-02 -0.13475E-01
  0.22211E-02 -0.32179E-02 -0.13475E-01
  0.29267E-02 -0.25928E-02 -0.13475E-01
  0.34621E-02 -0.18171E-02 -0.13475E-01
  0.37964E-02 -0.93572E-03 -0.13475E-01
  0.10373E-02  0.67514E-03 -0.12495E-01
  0.17445E-02  0.12334E-02 -0.12495E-01
  0.23172E-02  0.59360E-03 -0.12495E-01
  0.16689E-02 -0.33474E-03 -0.12495E-01
  0.30376E-02  0.15027E-03 -0.12495E-01
  0.27805E-02 -0.67446E-03 -0.12495E-01
  0.12846E-02  0.18419E-02 -0.12495E-01
  0.65041E-03  0.14616E-02 -0.12495E-01
  0.12652E-03  0.30393E-03 -0.12495E-01
 -0.12896E-03  0.11742E-02 -0.12495E-01
  0.94367E-03  0.22753E-02 -0.12495E-01
  0.11313E-02  0.28269E-02 -0.12495E-01
  0.17475E-02  0.24244E-02 -0.12495E-01
  0.40566E-03  0.21686E-02 -0.12495E-01
  0.39772E-03  0.29356E-02 -0.12495E-01
 -0.76444E-03 -0.10039E-02 -0.12495E-01
 -0.86648E-03  0.82206E-04 -0.12495E-01
  0.45940E-03 -0.70028E-03 -0.12495E-01
 -0.18312E-02 -0.71140E-03 -0.12495E-01
 -0.18436E-02  0.83243E-04 -0.12495E-01
 -0.27237E-02 -0.77797E-03 -0.12495E-01
 -0.28017E-02  0.41806E-04 -0.12495E-01
 -0.25371E-02 -0.15193E-02 -0.12495E-01
 -0.19305E-02 -0.13226E-02 -0.12495E-01
 -0.99305E-03  0.99390E-03 -0.12495E-01
 -0.14394E-02 -0.17323E-02 -0.12495E-01
 -0.31494E-03  0.20231E-02 -0.12495E-01
 -0.11054E-02  0.18610E-02 -0.12495E-01
 -0.18843E-02  0.17175E-02 -0.12495E-01
 -0.18708E-02  0.91036E-03 -0.12495E-01
 -0.15981E-03 -0.19801E-02 -0.12495E-01
 -0.94328E-03 -0.23490E-02 -0.12495E-01
  0.78592E-03 -0.17074E-02 -0.12495E-01
  0.17209E-02 -0.14904E-02 -0.12495E-01
  0.32063E-02  0.76439E-03 -0.12495E-01
  0.28045E-02  0.12494E-02 -0.12495E-01
  0.23055E-02  0.18666E-02 -0.12495E-01
 -0.40558E-03  0.28995E-02 -0.12495E-01
 -0.12092E-02  0.27188E-02 -0.12495E-01
 -0.19446E-02  0.24633E-02 -0.12495E-01
 -0.25027E-02  0.22359E-02 -0.12495E-01
 -0.26367E-02  0.16503E-02 -0.12495E-01
 -0.27658E-02  0.87597E-03 -0.12495E-01
 -0.21129E-02 -0.21374E-02 -0.12495E-01
 -0.16089E-02 -0.26932E-02 -0.12495E-01
 -0.11943E-02 -0.31291E-02 -0.12495E-01
 -0.58781E-03 -0.30382E-02 -0.12495E-01
  0.20749E-03 -0.28748E-02 -0.12495E-01
  0.10574E-02 -0.26434E-02 -0.12495E-01
  0.18415E-02 -0.23715E-02 -0.12495E-01
  0.24549E-02 -0.21467E-02 -0.12495E-01
  0.26025E-02 -0.15101E-02 -0.12495E-01
  0.37964E-02  0.93572E-03 -0.12495E-01
  0.39100E-02  0.00000E+00 -0.12495E-01
  0.34621E-02  0.18171E-02 -0.12495E-01
  0.29267E-02  0.25928E-02 -0.12495E-01
  0.22211E-02  0.32179E-02 -0.12495E-01
  0.13865E-02  0.36559E-02 -0.12495E-01
  0.47130E-03  0.38815E-02 -0.12495E-01
 -0.47130E-03  0.38815E-02 -0.12495E-01
 -0.13865E-02  0.36559E-02 -0.12495E-01
 -0.22211E-02  0.32179E-02 -0.12495E-01
 -0.29267E-02  0.25928E-02 -0.12495E-01
 -0.34621E-02  0.18171E-02 -0.12495E-01
 -0.37964E-02  0.93572E-03 -0.12495E-01
 -0.39100E-02 -0.47884E-18 -0.12495E-01
 -0.37964E-02 -0.93572E-03 -0.12495E-01
 -0.34621E-02 -0.18171E-02 -0.12495E-01
 -0.29267E-02 -0.25928E-02 -0.12495E-01
 -0.22211E-02 -0.32179E-02 -0.12495E-01
 -0.13865E-02 -0.36559E-02 -0.12495E-01
 -0.47130E-03 -0.38815E-02 -0.12495E-01
  0.47130E-03 -0.38815E-02 -0.12495E-01
  0.13865E-02 -0.36559E-02 -0.12495E-01
  0.22211E-02 -0.32179E-02 -0.12495E-01
  0.29267E-02 -0.25928E-02 -0.12495E-01
  0.34621E-02 -0.18171E-02 -0.12495E-01
  0.37964E-02 -0.93572E-03 -0.12495E-01
  0.10372E-02  0.67570E-03 -0.11516E-01
  0.17443E-02  0.12341E-02 -0.11516E-01
  0.23171E-02  0.59412E-03 -0.11516E-01
  0.16687E-02 -0.33398E-03 -0.11516E-01
  0.30376E-02  0.15064E-03 -0.11516E-01
  0.27808E-02 -0.67396E-03 -0.11516E-01
  0.12845E-02  0.18421E-02 -0.11516E-01
  0.65016E-03  0.14626E-02 -0.11516E-01
  0.12626E-03  0.30507E-03 -0.11516E-01
 -0.12915E-03  0.11760E-02 -0.11516E-01
  0.94334E-03  0.22754E-02 -0.11516E-01
  0.11310E-02  0.28264E-02 -0.11516E-01
  0.17471E-02  0.24245E-02 -0.11516E-01
  0.40561E-03  0.21686E-02 -0.11516E-01
  0.39770E-03  0.29353E-02 -0.11516E-01
 -0.76480E-03 -0.10040E-02 -0.11516E-01
 -0.86659E-03  0.83015E-04 -0.11516E-01
  0.45895E-03 -0.69955E-03 -0.11516E-01
 -0.18315E-02 -0.71126E-03 -0.11516E-01
 -0.18435E-02  0.83367E-04 -0.11516E-01
 -0.27237E-02 -0.77780E-03 -0.11516E-01
 -0.28014E-02  0.42080E-04 -0.11516E-01
 -0.25372E-02 -0.15192E-02 -0.11516E-01
 -0.19309E-02 -0.13224E-02 -0.11516E-01
 -0.99291E-03  0.99526E-03 -0.11516E-01
 -0.14398E-02 -0.17323E-02 -0.11516E-01
 -0.31474E-03  0.20234E-02 -0.11516E-01
 -0.11051E-02  0.18609E-02 -0.11516E-01
 -0.18843E-02  0.17175E-02 -0.11516E-01
 -0.18706E-02  0.91060E-03 -0.11516E-01
 -0.16009E-03 -0.19801E-02 -0.11516E-01
 -0.94388E-03 -0.23490E-02 -0.11516E-01
  0.78526E-03 -0.17074E-02 -0.11516E-01
  0.17208E-02 -0.14906E-02 -0.11516E-01
  0.32066E-02  0.76539E-03 -0.11516E-01
  0.28045E-02  0.12498E-02 -0.11516E-01
  0.23053E-02  0.18667E-02 -0.11516E-01
 -0.40545E-03  0.28984E-02 -0.11516E-01
 -0.12092E-02  0.27184E-02 -0.11516E-01
 -0.19446E-02  0.24631E-02 -0.11516E-01
 -0.25027E-02  0.22359E-02 -0.11516E-01
 -0.26366E-02  0.16503E-02 -0.11516E-01
 -0.27655E-02  0.87623E-03 -0.11516E-01
 -0.21130E-02 -0.21374E-02 -0.11516E-01
 -0.16089E-02 -0.26932E-02 -0.11516E-01
 -0.11944E-02 -0.31291E-02 -0.11516E-01
 -0.58816E-03 -0.30382E-02 -0.11516E-01
  0.20709E-03 -0.28748E-02 -0.11516E-01
  0.10571E-02 -0.26436E-02 -0.11516E-01
  0.18415E-02 -0.23717E-02 -0.11516E-01
  0.24550E-02 -0.21472E-02 -0.11516E-01
  0.26025E-02 -0.15100E-02 -0.11516E-01
  0.37964E-02  0.93572E-03 -0.11516E-01
  0.39100E-02  0.00000E+00 -0.11516E-01
  0.34621E-02  0.18171E-02 -0.11516E-01
  0.29267E-02  0.25928E-02 -0.11516E-01
  0.22211E-02  0.32179E-02 -0.11516E-01
  0.13865E-02  0.36559E-02 -0.11516E-01
  0.47130E-03  0.38815E-02 -0.11516E-01
 -0.47130E-03  0.38815E-02 -0.11516E-01
 -0.13865E-02  0.36559E-02 -0.11516E-01
 -0.22211E-02  0.32179E-02 -0.11516E-01
 -0.29267E-02  0.25928E-02 -0.11516E-01
 -0.34621E-02  0.18171E-02 -0.11516E-01
 -0.37964E-02  0.93572E-03 -0.11516E-01
 -0.39100E-02 -0.47884E-18 -0.11516E-01
 -0.37964E-02 -0.93572E-03 -0.11516E-01
 -0.34621E-02 -0.18171E-02 -0.11516E-01
 -0.29267E-02 -0.25928E-02 -0.11516E-01
 -0.22211E-02 -0.32179E-02 -0.11516E-01
 -0.13865E-02 -0.36559E-02 -0.11516E-01
 -0.47130E-03 -0.38815E-02 -0.11516E-01
  0.47130E-03 -0.38815E-02 -0.11516E-01
  0.13865E-02 -0.36559E-02 -0.11516E-01
  0.22211E-02 -0.32179E-02 -0.11516E-01
  0.29267E-02 -0.25928E-02 -0.11516E-01
  0.34621E-02 -0.18171E-02 -0.11516E-01
  0.37964E-02 -0.93572E-03 -0.11516E-01
  0.10371E-02  0.67625E-03 -0.10537E-01
  0.17441E-02  0.12348E-02 -0.10537E-01
  0.23169E-02  0.59465E-03 -0.10537E-01
  0.16685E-02 -0.33323E-03 -0.10537E-01
  0.30376E-02  0.15100E-03 -0.10537E-01
  0.27812E-02 -0.67347E-03 -0.10537E-01
  0.12844E-02  0.18423E-02 -0.10537E-01
  0.64992E-03  0.14636E-02 -0.10537E-01
  0.12600E-03  0.30622E-03 -0.10537E-01
 -0.12933E-03  0.11777E-02 -0.10537E-01
  0.94301E-03  0.22755E-02 -0.10537E-01
  0.11306E-02  0.28260E-02 -0.10537E-01
  0.17467E-02  0.24247E-02 -0.10537E-01
  0.40556E-03  0.21687E-02 -0.10537E-01
  0.39769E-03  0.29351E-02 -0.10537E-01
 -0.76515E-03 -0.10042E-02 -0.10537E-01
 -0.86670E-03  0.83825E-04 -0.10537E-01
  0.45850E-03 -0.69882E-03 -0.10537E-01
 -0.18318E-02 -0.71112E-03 -0.10537E-01
 -0.18434E-02  0.83490E-04 -0.10537E-01
 -0.27236E-02 -0.77763E-03 -0.10537E-01
 -0.28011E-02  0.42353E-04 -0.10537E-01
 -0.25374E-02 -0.15192E-02 -0.10537E-01
 -0.19313E-02 -0.13223E-02 -0.10537E-01
 -0.99277E-03  0.99661E-03 -0.10537E-01
 -0.14401E-02 -0.17322E-02 -0.10537E-01
 -0.31454E-03  0.20237E-02 -0.10537E-01
 -0.11047E-02  0.18607E-02 -0.10537E-01
 -0.18842E-02  0.17175E-02 -0.10537E-01
 -0.18705E-02  0.91084E-03 -0.10537E-01
 -0.16036E-03 -0.19801E-02 -0.10537E-01
 -0.94448E-03 -0.23491E-02 -0.10537E-01
  0.78460E-03 -0.17074E-02 -0.10537E-01
  0.17208E-02 -0.14909E-02 -0.10537E-01
  0.32070E-02  0.76640E-03 -0.10537E-01
  0.28045E-02  0.12503E-02 -0.10537E-01
  0.23052E-02  0.18667E-02 -0.10537E-01
 -0.40531E-03  0.28974E-02 -0.10537E-01
 -0.12092E-02  0.27179E-02 -0.10537E-01
 -0.19445E-02  0.24629E-02 -0.10537E-01
 -0.25027E-02  0.22359E-02 -0.10537E-01
 -0.26366E-02  0.16503E-02 -0.10537E-01
 -0.27652E-02  0.87650E-03 -0.10537E-01
 -0.21132E-02 -0.21374E-02 -0.10537E-01
 -0.16090E-02 -0.26933E-02 -0.10537E-01
 -0.11946E-02 -0.31291E-02 -0.10537E-01
 -0.58851E-03 -0.30382E-02 -0.10537E-01
  0.20668E-03 -0.28749E-02 -0.10537E-01
  0.10567E-02 -0.26439E-02 -0.10537E-01
  0.18416E-02 -0.23719E-02 -0.10537E-01
  0.24551E-02 -0.21478E-02 -0.10537E-01
  0.26026E-02 -0.15099E-02 -0.10537E-01
  0.37964E-02  0.93572E-03 -0.10537E-01
  0.39100E-02  0.00000E+00 -0.10537E-01
  0.34621E-02  0.18171E-02 -0.10537E-01
  0.29267E-02  0.25928E-02 -0.10537E-01
  0.22211E-02  0.32179E-02 -0.10537E-01
  0.13865E-02  0.36559E-02 -0.10537E-01
  0.47130E-03  0.38815E-02 -0.10537E-01
 -0.47130E-03  0.38815E-02 -0.10537E-01
 -0.13865E-02  0.36559E-02 -0.10537E-01
 -0.22211E-02  0.32179E-02 -0.10537E-01
 -0.29267E-02  0.25928E-02 -0.10537E-01
 -0.34621E-02  0.18171E-02 -0.10537E-01
 -0.37964E-02  0.93572E-03 -0.10537E-01
 -0.39100E-02 -0.47884E-18 -0.10537E-01
 -0.37964E-02 -0.93572E-03 -0.10537E-01
 -0.34621E-02 -0.18171E-02 -0.10537E-01
 -0.29267E-02 -0.25928E-02 -0.10537E-01
 -0.22211E-02 -0.32179E-02 -0.10537E-01
 -0.13865E-02 -0.36559E-02 -0.10537E-01
 -0.47130E-03 -0.38815E-02 -0.10537E-01
  0.47130E-03 -0.38815E-02 -0.10537E-01
  0.13865E-02 -0.36559E-02 -0.10537E-01
  0.22211E-02 -0.32179E-02 -0.10537E-01
  0.29267E-02 -0.25928E-02 -0.10537E-01
  0.34621E-02 -0.18171E-02 -0.10537E-01
  0.37964E-02 -0.93572E-03 -0.10537E-01
  0.10370E-02  0.67680E-03 -0.95579E-02
  0.17439E-02  0.12354E-02 -0.95579E-02
  0.23168E-02  0.59517E-03 -0.95579E-02
  0.16683E-02 -0.33247E-03 -0.95579E-02
  0.30375E-02  0.15136E-03 -0.95579E-02
  0.27815E-02 -0.67298E-03 -0.95579E-02
  0.12843E-02  0.18425E-02 -0.95579E-02
  0.64967E-03  0.14646E-02 -0.95579E-02
  0.12573E-03  0.30737E-03 -0.95579E-02
 -0.12952E-03  0.11795E-02 -0.95579E-02
  0.94268E-03  0.22757E-02 -0.95579E-02
  0.11303E-02  0.28255E-02 -0.95579E-02
  0.17463E-02  0.24248E-02 -0.95579E-02
  0.40550E-03  0.21687E-02 -0.95579E-02
  0.39767E-03  0.29348E-02 -0.95579E-02
 -0.76551E-03 -0.10043E-02 -0.95579E-02
 -0.86680E-03  0.84634E-04 -0.95579E-02
  0.45806E-03 -0.69810E-03 -0.95579E-02
 -0.18321E-02 -0.71098E-03 -0.95579E-02
 -0.18433E-02  0.83614E-04 -0.95579E-02
 -0.27236E-02 -0.77746E-03 -0.95579E-02
 -0.28009E-02  0.42626E-04 -0.95579E-02
 -0.25375E-02 -0.15191E-02 -0.95579E-02
 -0.19317E-02 -0.13223E-02 -0.95579E-02
 -0.99262E-03  0.99797E-03 -0.95579E-02
 -0.14405E-02 -0.17322E-02 -0.95579E-02
 -0.31434E-03  0.20240E-02 -0.95579E-02
 -0.11044E-02  0.18606E-02 -0.95579E-02
 -0.18842E-02  0.17175E-02 -0.95579E-02
 -0.18704E-02  0.91108E-03 -0.95579E-02
 -0.16064E-03 -0.19802E-02 -0.95579E-02
 -0.94508E-03 -0.23491E-02 -0.95579E-02
  0.78394E-03 -0.17074E-02 -0.95579E-02
  0.17208E-02 -0.14911E-02 -0.95579E-02
  0.32073E-02  0.76740E-03 -0.95579E-02
  0.28045E-02  0.12507E-02 -0.95579E-02
  0.23051E-02  0.18668E-02 -0.95579E-02
 -0.40517E-03  0.28963E-02 -0.95579E-02
 -0.12092E-02  0.27174E-02 -0.95579E-02
 -0.19445E-02  0.24627E-02 -0.95579E-02
 -0.25026E-02  0.22358E-02 -0.95579E-02
 -0.26365E-02  0.16503E-02 -0.95579E-02
 -0.27649E-02  0.87676E-03 -0.95579E-02
 -0.21133E-02 -0.21374E-02 -0.95579E-02
 -0.16090E-02 -0.26933E-02 -0.95579E-02
 -0.11947E-02 -0.31291E-02 -0.95579E-02
 -0.58886E-03 -0.30382E-02 -0.95579E-02
  0.20627E-03 -0.28749E-02 -0.95579E-02
  0.10564E-02 -0.26442E-02 -0.95579E-02
  0.18416E-02 -0.23721E-02 -0.95579E-02
  0.24553E-02 -0.21483E-02 -0.95579E-02
  0.26027E-02 -0.15097E-02 -0.95579E-02
  0.37964E-02  0.93572E-03 -0.95579E-02
  0.39100E-02  0.00000E+00 -0.95579E-02
  0.34621E-02  0.18171E-02 -0.95579E-02
  0.29267E-02  0.25928E-02 -0.95579E-02
  0.22211E-02  0.32179E-02 -0.95579E-02
  0.13865E-02  0.36559E-02 -0.95579E-02
  0.47130E-03  0.38815E-02 -0.95579E-02
 -0.47130E-03  0.38815E-02 -0.95579E-02
 -0.13865E-02  0.36559E-02 -0.95579E-02
 -0.22211E-02  0.32179E-02 -0.95579E-02
 -0.29267E-02  0.25928E-02 -0.95579E-02
 -0.34621E-02  0.18171E-02 -0.95579E-02
 -0.37964E-02  0.93572E-03 -0.95579E-02
 -0.39100E-02 -0.47884E-18 -0.95579E-02
 -0.37964E-02 -0.93572E-03 -0.95579E-02
 -0.34621E-02 -0.18171E-02 -0.95579E-02
 -0.29267E-02 -0.25928E-02 -0.95579E-02
 -0.22211E-02 -0.32179E-02 -0.95579E-02
 -0.13865E-02 -0.36559E-02 -0.95579E-02
 -0.47130E-03 -0.38815E-02 -0.95579E-02
  0.47130E-03 -0.38815E-02 -0.95579E-02
  0.13865E-02 -0.36559E-02 -0.95579E-02
  0.22211E-02 -0.32179E-02 -0.95579E-02
  0.29267E-02 -0.25928E-02 -0.95579E-02
  0.34621E-02 -0.18171E-02 -0.95579E-02
  0.37964E-02 -0.93572E-03 -0.95579E-02
  0.10368E-02  0.67736E-03 -0.85788E-02
  0.17438E-02  0.12361E-02 -0.85788E-02
  0.23167E-02  0.59570E-03 -0.85788E-02
  0.16681E-02 -0.33172E-03 -0.85788E-02
  0.30375E-02  0.15173E-03 -0.85788E-02
  0.27819E-02 -0.67248E-03 -0.85788E-02
  0.12842E-02  0.18427E-02 -0.85788E-02
  0.64943E-03  0.14656E-02 -0.85788E-02
  0.12547E-03  0.30852E-03 -0.85788E-02
 -0.12970E-03  0.11812E-02 -0.85788E-02
  0.94235E-03  0.22758E-02 -0.85788E-02
  0.11300E-02  0.28251E-02 -0.85788E-02
  0.17459E-02  0.24249E-02 -0.85788E-02
  0.40545E-03  0.21688E-02 -0.85788E-02
  0.39766E-03  0.29345E-02 -0.85788E-02
 -0.76586E-03 -0.10044E-02 -0.85788E-02
 -0.86691E-03  0.85443E-04 -0.85788E-02
  0.45761E-03 -0.69737E-03 -0.85788E-02
 -0.18324E-02 -0.71084E-03 -0.85788E-02
 -0.18432E-02  0.83737E-04 -0.85788E-02
 -0.27236E-02 -0.77729E-03 -0.85788E-02
 -0.28006E-02  0.42899E-04 -0.85788E-02
 -0.25377E-02 -0.15191E-02 -0.85788E-02
 -0.19322E-02 -0.13222E-02 -0.85788E-02
 -0.99248E-03  0.99932E-03 -0.85788E-02
 -0.14408E-02 -0.17322E-02 -0.85788E-02
 -0.31414E-03  0.20243E-02 -0.85788E-02
 -0.11040E-02  0.18605E-02 -0.85788E-02
 -0.18841E-02  0.17175E-02 -0.85788E-02
 -0.18703E-02  0.91132E-03 -0.85788E-02
 -0.16091E-03 -0.19802E-02 -0.85788E-02
 -0.94568E-03 -0.23491E-02 -0.85788E-02
  0.78328E-03 -0.17074E-02 -0.85788E-02
  0.17207E-02 -0.14914E-02 -0.85788E-02
  0.32076E-02  0.76841E-03 -0.85788E-02
  0.28044E-02  0.12511E-02 -0.85788E-02
  0.23050E-02  0.18668E-02 -0.85788E-02
 -0.40503E-03  0.28952E-02 -0.85788E-02
 -0.12092E-02  0.27170E-02 -0.85788E-02
 -0.19445E-02  0.24624E-02 -0.85788E-02
 -0.25026E-02  0.22358E-02 -0.85788E-02
 -0.26364E-02  0.16503E-02 -0.85788E-02
 -0.27646E-02  0.87702E-03 -0.85788E-02
 -0.21134E-02 -0.21374E-02 -0.85788E-02
 -0.16091E-02 -0.26933E-02 -0.85788E-02
 -0.11948E-02 -0.31291E-02 -0.85788E-02
 -0.58921E-03 -0.30382E-02 -0.85788E-02
  0.20587E-03 -0.28749E-02 -0.85788E-02
  0.10561E-02 -0.26444E-02 -0.85788E-02
  0.18416E-02 -0.23723E-02 -0.85788E-02
  0.24554E-02 -0.21489E-02 -0.85788E-02
  0.26027E-02 -0.15096E-02 -0.85788E-02
  0.37964E-02  0.93572E-03 -0.85788E-02
  0.39100E-02  0.00000E+00 -0.85788E-02
  0.34621E-02  0.18171E-02 -0.85788E-02
  0.29267E-02  0.25928E-02 -0.85788E-02
  0.22211E-02  0.32179E-02 -0.85788E-02
  0.13865E-02  0.36559E-02 -0.85788E-02
  0.47130E-03  0.38815E-02 -0.85788E-02
 -0.47130E-03  0.38815E-02 -0.85788E-02
 -0.13865E-02  0.36559E-02 -0.85788E-02
 -0.22211E-02  0.32179E-02 -0.85788E-02
 -0.29267E-02  0.25928E-02 -0.85788E-02
 -0.34621E-02  0.18171E-02 -0.85788E-02
 -0.37964E-02  0.93572E-03 -0.85788E-02
 -0.39100E-02 -0.47884E-18 -0.85788E-02
 -0.37964E-02 -0.93572E-03 -0.85788E-02
 -0.34621E-02 -0.18171E-02 -0.85788E-02
 -0.29267E-02 -0.25928E-02 -0.85788E-02
 -0.22211E-02 -0.32179E-02 -0.85788E-02
 -0.13865E-02 -0.36559E-02 -0.85788E-02
 -0.47130E-03 -0.38815E-02 -0.85788E-02
  0.47130E-03 -0.38815E-02 -0.85788E-02
  0.13865E-02 -0.36559E-02 -0.85788E-02
  0.22211E-02 -0.32179E-02 -0.85788E-02
  0.29267E-02 -0.25928E-02 -0.85788E-02
  0.34621E-02 -0.18171E-02 -0.85788E-02
  0.37964E-02 -0.93572E-03 -0.85788E-02
  0.10367E-02  0.67791E-03 -0.75996E-02
  0.17436E-02  0.12368E-02 -0.75996E-02
  0.23166E-02  0.59622E-03 -0.75996E-02
  0.16679E-02 -0.33096E-03 -0.75996E-02
  0.30375E-02  0.15209E-03 -0.75996E-02
  0.27822E-02 -0.67199E-03 -0.75996E-02
  0.12841E-02  0.18429E-02 -0.75996E-02
  0.64918E-03  0.14666E-02 -0.75996E-02
  0.12521E-03  0.30967E-03 -0.75996E-02
 -0.12989E-03  0.11830E-02 -0.75996E-02
  0.94202E-03  0.22759E-02 -0.75996E-02
  0.11296E-02  0.28247E-02 -0.75996E-02
  0.17455E-02  0.24251E-02 -0.75996E-02
  0.40539E-03  0.21688E-02 -0.75996E-02
  0.39764E-03  0.29343E-02 -0.75996E-02
 -0.76621E-03 -0.10046E-02 -0.75996E-02
 -0.86702E-03  0.86253E-04 -0.75996E-02
  0.45716E-03 -0.69665E-03 -0.75996E-02
 -0.18326E-02 -0.71070E-03 -0.75996E-02
 -0.18431E-02  0.83861E-04 -0.75996E-02
 -0.27235E-02 -0.77712E-03 -0.75996E-02
 -0.28003E-02  0.43173E-04 -0.75996E-02
 -0.25379E-02 -0.15190E-02 -0.75996E-02
 -0.19326E-02 -0.13220E-02 -0.75996E-02
 -0.99233E-03  0.10007E-02 -0.75996E-02
 -0.14412E-02 -0.17321E-02 -0.75996E-02
 -0.31394E-03  0.20245E-02 -0.75996E-02
 -0.11037E-02  0.18603E-02 -0.75996E-02
 -0.18841E-02  0.17175E-02 -0.75996E-02
 -0.18701E-02  0.91156E-03 -0.75996E-02
 -0.16119E-03 -0.19802E-02 -0.75996E-02
 -0.94628E-03 -0.23491E-02 -0.75996E-02
  0.78262E-03 -0.17074E-02 -0.75996E-02
  0.17207E-02 -0.14916E-02 -0.75996E-02
  0.32079E-02  0.76941E-03 -0.75996E-02
  0.28044E-02  0.12515E-02 -0.75996E-02
  0.23049E-02  0.18668E-02 -0.75996E-02
 -0.40490E-03  0.28942E-02 -0.75996E-02
 -0.12093E-02  0.27165E-02 -0.75996E-02
 -0.19444E-02  0.24622E-02 -0.75996E-02
 -0.25026E-02  0.22358E-02 -0.75996E-02
 -0.26363E-02  0.16503E-02 -0.75996E-02
 -0.27643E-02  0.87728E-03 -0.75996E-02
 -0.21136E-02 -0.21374E-02 -0.75996E-02
 -0.16091E-02 -0.26933E-02 -0.75996E-02
 -0.11949E-02 -0.31291E-02 -0.75996E-02
 -0.58956E-03 -0.30382E-02 -0.75996E-02
  0.20546E-03 -0.28749E-02 -0.75996E-02
  0.10558E-02 -0.26447E-02 -0.75996E-02
  0.18417E-02 -0.23725E-02 -0.75996E-02
  0.24555E-02 -0.21494E-02 -0.75996E-02
  0.26028E-02 -0.15095E-02 -0.75996E-02
  0.37964E-02  0.93572E-03 -0.75996E-02
  0.39100E-02  0.00000E+00 -0.75996E-02
  0.34621E-02  0.18171E-02 -0.75996E-02
  0.29267E-02  0.25928E-02 -0.75996E-02
  0.22211E-02  0.32179E-02 -0.75996E-02
  0.13865E-02  0.36559E-02 -0.75996E-02
  0.47130E-03  0.38815E-02 -0.75996E-02
 -0.47130E-03  0.38815E-02 -0.75996E-02
 -0.13865E-02  0.36559E-02 -0.75996E-02
 -0.22211E-02  0.32179E-02 -0.75996E-02
 -0.29267E-02  0.25928E-02 -0.75996E-02
 -0.34621E-02  0.18171E-02 -0.75996E-02
 -0.37964E-02  0.93572E-03 -0.75996E-02
 -0.39100E-02 -0.47884E-18 -0.75996E-02
 -0.37964E-02 -0.93572E-03 -0.75996E-02
 -0.34621E-02 -0.18171E-02 -0.75996E-02
 -0.29267E-02 -0.25928E-02 -0.75996E-02
 -0.22211E-02 -0.32179E-02 -0.75996E-02
 -0.13865E-02 -0.36559E-02 -0.75996E-02
 -0.47130E-03 -0.38815E-02 -0.75996E-02
  0.47130E-03 -0.38815E-02 -0.75996E-02
  0.13865E-02 -0.36559E-02 -0.75996E-02
  0.22211E-02 -0.32179E-02 -0.75996E-02
  0.29267E-02 -0.25928E-02 -0.75996E-02
  0.34621E-02 -0.18171E-02 -0.75996E-02
  0.37964E-02 -0.93572E-03 -0.75996E-02
  0.10366E-02  0.67847E-03 -0.66204E-02
  0.17434E-02  0.12374E-02 -0.66204E-02
  0.23164E-02  0.59674E-03 -0.66204E-02
  0.16677E-02 -0.33021E-03 -0.66204E-02
  0.30375E-02  0.15245E-03 -0.66204E-02
  0.27825E-02 -0.67150E-03 -0.66204E-02
  0.12840E-02  0.18430E-02 -0.66204E-02
  0.64894E-03  0.14676E-02 -0.66204E-02
  0.12495E-03  0.31081E-03 -0.66204E-02
 -0.13007E-03  0.11847E-02 -0.66204E-02
  0.94169E-03  0.22761E-02 -0.66204E-02
  0.11293E-02  0.28242E-02 -0.66204E-02
  0.17451E-02  0.24252E-02 -0.66204E-02
  0.40534E-03  0.21688E-02 -0.66204E-02
  0.39762E-03  0.29340E-02 -0.66204E-02
 -0.76657E-03 -0.10047E-02 -0.66204E-02
 -0.86713E-03  0.87062E-04 -0.66204E-02
  0.45671E-03 -0.69592E-03 -0.66204E-02
 -0.18329E-02 -0.71056E-03 -0.66204E-02
 -0.18430E-02  0.83985E-04 -0.66204E-02
 -0.27235E-02 -0.77695E-03 -0.66204E-02
 -0.28001E-02  0.43446E-04 -0.66204E-02
 -0.25380E-02 -0.15190E-02 -0.66204E-02
 -0.19330E-02 -0.13219E-02 -0.66204E-02
 -0.99219E-03  0.10020E-02 -0.66204E-02
 -0.14415E-02 -0.17321E-02 -0.66204E-02
 -0.31374E-03  0.20248E-02 -0.66204E-02
 -0.11033E-02  0.18602E-02 -0.66204E-02
 -0.18840E-02  0.17175E-02 -0.66204E-02
 -0.18700E-02  0.91180E-03 -0.66204E-02
 -0.16146E-03 -0.19803E-02 -0.66204E-02
 -0.94687E-03 -0.23491E-02 -0.66204E-02
  0.78195E-03 -0.17073E-02 -0.66204E-02
  0.17207E-02 -0.14919E-02 -0.66204E-02
  0.32083E-02  0.77042E-03 -0.66204E-02
  0.28044E-02  0.12520E-02 -0.66204E-02
  0.23048E-02  0.18669E-02 -0.66204E-02
 -0.40476E-03  0.28931E-02 -0.66204E-02
 -0.12093E-02  0.27160E-02 -0.66204E-02
 -0.19444E-02  0.24620E-02 -0.66204E-02
 -0.25026E-02  0.22358E-02 -0.66204E-02
 -0.26362E-02  0.16503E-02 -0.66204E-02
 -0.27640E-02  0.87754E-03 -0.66204E-02
 -0.21137E-02 -0.21374E-02 -0.66204E-02
 -0.16091E-02 -0.26933E-02 -0.66204E-02
 -0.11950E-02 -0.31291E-02 -0.66204E-02
 -0.58991E-03 -0.30382E-02 -0.66204E-02
  0.20505E-03 -0.28749E-02 -0.66204E-02
  0.10555E-02 -0.26450E-02 -0.66204E-02
  0.18417E-02 -0.23727E-02 -0.66204E-02
  0.24556E-02 -0.21500E-02 -0.66204E-02
  0.26029E-02 -0.15094E-02 -0.66204E-02
  0.37964E-02  0.93572E-03 -0.66204E-02
  0.39100E-02  0.00000E+00 -0.66204E-02
  0.34621E-02  0.18171E-02 -0.66204E-02
  0.29267E-02  0.25928E-02 -0.66204E-02
  0.22211E-02  0.32179E-02 -0.66204E-02
  0.13865E-02  0.36559E-02 -0.66204E-02
  0.47130E-03  0.38815E-02 -0.66204E-02
 -0.47130E-03  0.38815E-02 -0.66204E-02
 -0.13865E-02  0.36559E-02 -0.66204E-02
 -0.22211E-02  0.32179E-02 -0.66204E-02
 -0.29267E-02  0.25928E-02 -0.66204E-02
 -0.34621E-02  0.18171E-02 -0.66204E-02
 -0.37964E-02  0.93572E-03 -0.66204E-02
 -0.39100E-02  0.39516E-17 -0.66204E-02
 -0.37964E-02 -0.93572E-03 -0.66204E-02
 -0.34621E-02 -0.18171E-02 -0.66204E-02
 -0.29267E-02 -0.25928E-02 -0.66204E-02
 -0.22211E-02 -0.32179E-02 -0.66204E-02
 -0.13865E-02 -0.36559E-02 -0.66204E-02
 -0.47130E-03 -0.38815E-02 -0.66204E-02
  0.47130E-03 -0.38815E-02 -0.66204E-02
  0.13865E-02 -0.36559E-02 -0.66204E-02
  0.22211E-02 -0.32179E-02 -0.66204E-02
  0.29267E-02 -0.25928E-02 -0.66204E-02
  0.34621E-02 -0.18171E-02 -0.66204E-02
  0.37964E-02 -0.93572E-03 -0.66204E-02
  0.10365E-02  0.67902E-03 -0.56413E-02
  0.17432E-02  0.12381E-02 -0.56413E-02
  0.23163E-02  0.59727E-03 -0.56413E-02
  0.16675E-02 -0.32945E-03 -0.56413E-02
  0.30374E-02  0.15282E-03 -0.56413E-02
  0.27829E-02 -0.67100E-03 -0.56413E-02
  0.12839E-02  0.18432E-02 -0.56413E-02
  0.64869E-03  0.14686E-02 -0.56413E-02
  0.12468E-03  0.31196E-03 -0.56413E-02
 -0.13026E-03  0.11865E-02 -0.56413E-02
  0.94135E-03  0.22762E-02 -0.56413E-02
  0.11289E-02  0.28238E-02 -0.56413E-02
  0.17447E-02  0.24254E-02 -0.56413E-02
  0.40528E-03  0.21688E-02 -0.56413E-02
  0.39760E-03  0.29337E-02 -0.56413E-02
 -0.76692E-03 -0.10049E-02 -0.56413E-02
 -0.86724E-03  0.87871E-04 -0.56413E-02
  0.45626E-03 -0.69519E-03 -0.56413E-02
 -0.18332E-02 -0.71042E-03 -0.56413E-02
 -0.18430E-02  0.84108E-04 -0.56413E-02
 -0.27235E-02 -0.77678E-03 -0.56413E-02
 -0.27998E-02  0.43720E-04 -0.56413E-02
 -0.25382E-02 -0.15189E-02 -0.56413E-02
 -0.19334E-02 -0.13219E-02 -0.56413E-02
 -0.99205E-03  0.10034E-02 -0.56413E-02
 -0.14419E-02 -0.17320E-02 -0.56413E-02
 -0.31354E-03  0.20251E-02 -0.56413E-02
 -0.11030E-02  0.18601E-02 -0.56413E-02
 -0.18840E-02  0.17175E-02 -0.56413E-02
 -0.18699E-02  0.91204E-03 -0.56413E-02
 -0.16174E-03 -0.19803E-02 -0.56413E-02
 -0.94747E-03 -0.23492E-02 -0.56413E-02
  0.78129E-03 -0.17073E-02 -0.56413E-02
  0.17206E-02 -0.14921E-02 -0.56413E-02
  0.32086E-02  0.77142E-03 -0.56413E-02
  0.28044E-02  0.12524E-02 -0.56413E-02
  0.23047E-02  0.18669E-02 -0.56413E-02
 -0.40462E-03  0.28920E-02 -0.56413E-02
 -0.12093E-02  0.27155E-02 -0.56413E-02
 -0.19444E-02  0.24618E-02 -0.56413E-02
 -0.25025E-02  0.22358E-02 -0.56413E-02
 -0.26361E-02  0.16503E-02 -0.56413E-02
 -0.27637E-02  0.87781E-03 -0.56413E-02
 -0.21139E-02 -0.21374E-02 -0.56413E-02
 -0.16092E-02 -0.26934E-02 -0.56413E-02
 -0.11951E-02 -0.31291E-02 -0.56413E-02
 -0.59025E-03 -0.30382E-02 -0.56413E-02
  0.20465E-03 -0.28749E-02 -0.56413E-02
  0.10552E-02 -0.26452E-02 -0.56413E-02
  0.18418E-02 -0.23729E-02 -0.56413E-02
  0.24558E-02 -0.21505E-02 -0.56413E-02
  0.26030E-02 -0.15093E-02 -0.56413E-02
  0.37964E-02  0.93572E-03 -0.56413E-02
  0.39100E-02  0.00000E+00 -0.56413E-02
  0.34621E-02  0.18171E-02 -0.56413E-02
  0.29267E-02  0.25928E-02 -0.56413E-02
  0.22211E-02  0.32179E-02 -0.56413E-02
  0.13865E-02  0.36559E-02 -0.56413E-02
  0.47130E-03  0.38815E-02 -0.56413E-02
 -0.47130E-03  0.38815E-02 -0.56413E-02
 -0.13865E-02  0.36559E-02 -0.56413E-02
 -0.22211E-02  0.32179E-02 -0.56413E-02
 -0.29267E-02  0.25928E-02 -0.56413E-02
 -0.34621E-02  0.18171E-02 -0.56413E-02
 -0.37964E-02  0.93572E-03 -0.56413E-02
 -0.39100E-02 -0.47884E-18 -0.56413E-02
 -0.37964E-02 -0.93572E-03 -0.56413E-02
 -0.34621E-02 -0.18171E-02 -0.56413E-02
 -0.29267E-02 -0.25928E-02 -0.56413E-02
 -0.22211E-02 -0.32179E-02 -0.56413E-02
 -0.13865E-02 -0.36559E-02 -0.56413E-02
 -0.47130E-03 -0.38815E-02 -0.56413E-02
  0.47130E-03 -0.38815E-02 -0.56413E-02
  0.13865E-02 -0.36559E-02 -0.56413E-02
  0.22211E-02 -0.32179E-02 -0.56413E-02
  0.29267E-02 -0.25928E-02 -0.56413E-02
  0.34621E-02 -0.18171E-02 -0.56413E-02
  0.37964E-02 -0.93572E-03 -0.56413E-02
  0.10364E-02  0.67958E-03 -0.46621E-02
  0.17430E-02  0.12387E-02 -0.46621E-02
  0.23162E-02  0.59779E-03 -0.46621E-02
  0.16672E-02 -0.32870E-03 -0.46621E-02
  0.30374E-02  0.15318E-03 -0.46621E-02
  0.27832E-02 -0.67051E-03 -0.46621E-02
  0.12838E-02  0.18434E-02 -0.46621E-02
  0.64845E-03  0.14696E-02 -0.46621E-02
  0.12442E-03  0.31311E-03 -0.46621E-02
 -0.13044E-03  0.11882E-02 -0.46621E-02
  0.94102E-03  0.22763E-02 -0.46621E-02
  0.11286E-02  0.28233E-02 -0.46621E-02
  0.17443E-02  0.24255E-02 -0.46621E-02
  0.40523E-03  0.21689E-02 -0.46621E-02
  0.39759E-03  0.29335E-02 -0.46621E-02
 -0.76727E-03 -0.10050E-02 -0.46621E-02
 -0.86735E-03  0.88681E-04 -0.46621E-02
  0.45582E-03 -0.69447E-03 -0.46621E-02
 -0.18335E-02 -0.71028E-03 -0.46621E-02
 -0.18429E-02  0.84232E-04 -0.46621E-02
 -0.27235E-02 -0.77661E-03 -0.46621E-02
 -0.27995E-02  0.43993E-04 -0.46621E-02
 -0.25383E-02 -0.15189E-02 -0.46621E-02
 -0.19339E-02 -0.13218E-02 -0.46621E-02
 -0.99190E-03  0.10048E-02 -0.46621E-02
 -0.14422E-02 -0.17320E-02 -0.46621E-02
 -0.31334E-03  0.20254E-02 -0.46621E-02
 -0.11026E-02  0.18599E-02 -0.46621E-02
 -0.18839E-02  0.17175E-02 -0.46621E-02
 -0.18697E-02  0.91228E-03 -0.46621E-02
 -0.16201E-03 -0.19803E-02 -0.46621E-02
 -0.94807E-03 -0.23492E-02 -0.46621E-02
  0.78063E-03 -0.17073E-02 -0.46621E-02
  0.17206E-02 -0.14923E-02 -0.46621E-02
  0.32089E-02  0.77243E-03 -0.46621E-02
  0.28043E-02  0.12528E-02 -0.46621E-02
  0.23046E-02  0.18670E-02 -0.46621E-02
 -0.40448E-03  0.28910E-02 -0.46621E-02
 -0.12093E-02  0.27151E-02 -0.46621E-02
 -0.19443E-02  0.24615E-02 -0.46621E-02
 -0.25025E-02  0.22358E-02 -0.46621E-02
 -0.26360E-02  0.16503E-02 -0.46621E-02
 -0.27633E-02  0.87807E-03 -0.46621E-02
 -0.21140E-02 -0.21374E-02 -0.46621E-02
 -0.16092E-02 -0.26934E-02 -0.46621E-02
 -0.11953E-02 -0.31291E-02 -0.46621E-02
 -0.59060E-03 -0.30382E-02 -0.46621E-02
  0.20424E-03 -0.28749E-02 -0.46621E-02
  0.10549E-02 -0.26455E-02 -0.46621E-02
  0.18418E-02 -0.23732E-02 -0.46621E-02
  0.24559E-02 -0.21511E-02 -0.46621E-02
  0.26030E-02 -0.15092E-02 -0.46621E-02
  0.37964E-02  0.93572E-03 -0.46621E-02
  0.39100E-02  0.00000E+00 -0.46621E-02
  0.34621E-02  0.18171E-02 -0.46621E-02
  0.29267E-02  0.25928E-02 -0.46621E-02
  0.22211E-02  0.32179E-02 -0.46621E-02
  0.13865E-02  0.36559E-02 -0.46621E-02
  0.47130E-03  0.38815E-02 -0.46621E-02
 -0.47130E-03  0.38815E-02 -0.46621E-02
 -0.13865E-02  0.36559E-02 -0.46621E-02
 -0.22211E-02  0.32179E-02 -0.46621E-02
 -0.29267E-02  0.25928E-02 -0.46621E-02
 -0.34621E-02  0.18171E-02 -0.46621E-02
 -0.37964E-02  0.93572E-03 -0.46621E-02
 -0.39100E-02  0.22152E-17 -0.46621E-02
 -0.37964E-02 -0.93572E-03 -0.46621E-02
 -0.34621E-02 -0.18171E-02 -0.46621E-02
 -0.29267E-02 -0.25928E-02 -0.46621E-02
 -0.22211E-02 -0.32179E-02 -0.46621E-02
 -0.13865E-02 -0.36559E-02 -0.46621E-02
 -0.47130E-03 -0.38815E-02 -0.46621E-02
  0.47130E-03 -0.38815E-02 -0.46621E-02
  0.13865E-02 -0.36559E-02 -0.46621E-02
  0.22211E-02 -0.32179E-02 -0.46621E-02
  0.29267E-02 -0.25928E-02 -0.46621E-02
  0.34621E-02 -0.18171E-02 -0.46621E-02
  0.37964E-02 -0.93572E-03 -0.46621E-02
  0.10363E-02  0.68013E-03 -0.36829E-02
  0.17429E-02  0.12394E-02 -0.36829E-02
  0.23161E-02  0.59831E-03 -0.36829E-02
  0.16670E-02 -0.32794E-03 -0.36829E-02
  0.30374E-02  0.15354E-03 -0.36829E-02
  0.27836E-02 -0.67002E-03 -0.36829E-02
  0.12837E-02  0.18436E-02 -0.36829E-02
  0.64820E-03  0.14706E-02 -0.36829E-02
  0.12416E-03  0.31426E-03 -0.36829E-02
 -0.13063E-03  0.11900E-02 -0.36829E-02
  0.94069E-03  0.22765E-02 -0.36829E-02
  0.11282E-02  0.28229E-02 -0.36829E-02
  0.17439E-02  0.24257E-02 -0.36829E-02
  0.40518E-03  0.21689E-02 -0.36829E-02
  0.39757E-03  0.29332E-02 -0.36829E-02
 -0.76763E-03 -0.10051E-02 -0.36829E-02
 -0.86746E-03  0.89490E-04 -0.36829E-02
  0.45537E-03 -0.69374E-03 -0.36829E-02
 -0.18338E-02 -0.71013E-03 -0.36829E-02
 -0.18428E-02  0.84355E-04 -0.36829E-02
 -0.27234E-02 -0.77644E-03 -0.36829E-02
 -0.27992E-02  0.44266E-04 -0.36829E-02
 -0.25385E-02 -0.15188E-02 -0.36829E-02
 -0.19343E-02 -0.13216E-02 -0.36829E-02
 -0.99176E-03  0.10061E-02 -0.36829E-02
 -0.14425E-02 -0.17320E-02 -0.36829E-02
 -0.31314E-03  0.20257E-02 -0.36829E-02
 -0.11023E-02  0.18598E-02 -0.36829E-02
 -0.18839E-02  0.17175E-02 -0.36829E-02
 -0.18696E-02  0.91252E-03 -0.36829E-02
 -0.16229E-03 -0.19803E-02 -0.36829E-02
 -0.94867E-03 -0.23492E-02 -0.36829E-02
  0.77997E-03 -0.17073E-02 -0.36829E-02
  0.17205E-02 -0.14926E-02 -0.36829E-02
  0.32092E-02  0.77343E-03 -0.36829E-02
  0.28043E-02  0.12533E-02 -0.36829E-02
  0.23044E-02  0.18670E-02 -0.36829E-02
 -0.40434E-03  0.28899E-02 -0.36829E-02
 -0.12093E-02  0.27146E-02 -0.36829E-02
 -0.19443E-02  0.24613E-02 -0.36829E-02
 -0.25025E-02  0.22358E-02 -0.36829E-02
 -0.26359E-02  0.16503E-02 -0.36829E-02
 -0.27630E-02  0.87833E-03 -0.36829E-02
 -0.21141E-02 -0.21374E-02 -0.36829E-02
 -0.16093E-02 -0.26934E-02 -0.36829E-02
 -0.11954E-02 -0.31291E-02 -0.36829E-02
 -0.59095E-03 -0.30382E-02 -0.36829E-02
  0.20384E-03 -0.28750E-02 -0.36829E-02
  0.10546E-02 -0.26458E-02 -0.36829E-02
  0.18419E-02 -0.23734E-02 -0.36829E-02
  0.24560E-02 -0.21516E-02 -0.36829E-02
  0.26031E-02 -0.15091E-02 -0.36829E-02
  0.37964E-02  0.93572E-03 -0.36829E-02
  0.39100E-02  0.00000E+00 -0.36829E-02
  0.34621E-02  0.18171E-02 -0.36829E-02
  0.29267E-02  0.25928E-02 -0.36829E-02
  0.22211E-02  0.32179E-02 -0.36829E-02
  0.13865E-02  0.36559E-02 -0.36829E-02
  0.47130E-03  0.38815E-02 -0.36829E-02
 -0.47130E-03  0.38815E-02 -0.36829E-02
 -0.13865E-02  0.36559E-02 -0.36829E-02
 -0.22211E-02  0.32179E-02 -0.36829E-02
 -0.29267E-02  0.25928E-02 -0.36829E-02
 -0.34621E-02  0.18171E-02 -0.36829E-02
 -0.37964E-02  0.93572E-03 -0.36829E-02
 -0.39100E-02 -0.47884E-18 -0.36829E-02
 -0.37964E-02 -0.93572E-03 -0.36829E-02
 -0.34621E-02 -0.18171E-02 -0.36829E-02
 -0.29267E-02 -0.25928E-02 -0.36829E-02
 -0.22211E-02 -0.32179E-02 -0.36829E-02
 -0.13865E-02 -0.36559E-02 -0.36829E-02
 -0.47130E-03 -0.38815E-02 -0.36829E-02
  0.47130E-03 -0.38815E-02 -0.36829E-02
  0.13865E-02 -0.36559E-02 -0.36829E-02
  0.22211E-02 -0.32179E-02 -0.36829E-02
  0.29267E-02 -0.25928E-02 -0.36829E-02
  0.34621E-02 -0.18171E-02 -0.36829E-02
  0.37964E-02 -0.93572E-03 -0.36829E-02
  0.10362E-02  0.68068E-03 -0.27038E-02
  0.17427E-02  0.12401E-02 -0.27038E-02
  0.23160E-02  0.59884E-03 -0.27038E-02
  0.16668E-02 -0.32719E-03 -0.27038E-02
  0.30373E-02  0.15391E-03 -0.27038E-02
  0.27839E-02 -0.66953E-03 -0.27038E-02
  0.12836E-02  0.18438E-02 -0.27038E-02
  0.64796E-03  0.14716E-02 -0.27038E-02
  0.12390E-03  0.31541E-03 -0.27038E-02
 -0.13082E-03  0.11917E-02 -0.27038E-02
  0.94036E-03  0.22766E-02 -0.27038E-02
  0.11279E-02  0.28225E-02 -0.27038E-02
  0.17435E-02  0.24258E-02 -0.27038E-02
  0.40512E-03  0.21690E-02 -0.27038E-02
  0.39755E-03  0.29330E-02 -0.27038E-02
 -0.76798E-03 -0.10053E-02 -0.27038E-02
 -0.86756E-03  0.90299E-04 -0.27038E-02
  0.45492E-03 -0.69302E-03 -0.27038E-02
 -0.18341E-02 -0.70999E-03 -0.27038E-02
 -0.18427E-02  0.84479E-04 -0.27038E-02
 -0.27234E-02 -0.77627E-03 -0.27038E-02
 -0.27990E-02  0.44540E-04 -0.27038E-02
 -0.25386E-02 -0.15188E-02 -0.27038E-02
 -0.19347E-02 -0.13215E-02 -0.27038E-02
 -0.99161E-03  0.10075E-02 -0.27038E-02
 -0.14429E-02 -0.17319E-02 -0.27038E-02
 -0.31294E-03  0.20260E-02 -0.27038E-02
 -0.11019E-02  0.18597E-02 -0.27038E-02
 -0.18838E-02  0.17175E-02 -0.27038E-02
 -0.18695E-02  0.91276E-03 -0.27038E-02
 -0.16256E-03 -0.19804E-02 -0.27038E-02
 -0.94927E-03 -0.23493E-02 -0.27038E-02
  0.77931E-03 -0.17073E-02 -0.27038E-02
  0.17205E-02 -0.14928E-02 -0.27038E-02
  0.32096E-02  0.77444E-03 -0.27038E-02
  0.28043E-02  0.12537E-02 -0.27038E-02
  0.23043E-02  0.18670E-02 -0.27038E-02
 -0.40420E-03  0.28888E-02 -0.27038E-02
 -0.12093E-02  0.27141E-02 -0.27038E-02
 -0.19443E-02  0.24611E-02 -0.27038E-02
 -0.25024E-02  0.22358E-02 -0.27038E-02
 -0.26358E-02  0.16503E-02 -0.27038E-02
 -0.27627E-02  0.87859E-03 -0.27038E-02
 -0.21143E-02 -0.21374E-02 -0.27038E-02
 -0.16093E-02 -0.26934E-02 -0.27038E-02
 -0.11955E-02 -0.31291E-02 -0.27038E-02
 -0.59130E-03 -0.30382E-02 -0.27038E-02
  0.20343E-03 -0.28750E-02 -0.27038E-02
  0.10543E-02 -0.26460E-02 -0.27038E-02
  0.18419E-02 -0.23736E-02 -0.27038E-02
  0.24561E-02 -0.21521E-02 -0.27038E-02
  0.26032E-02 -0.15090E-02 -0.27038E-02
  0.37964E-02  0.93572E-03 -0.27038E-02
  0.39100E-02  0.00000E+00 -0.27038E-02
  0.34621E-02  0.18171E-02 -0.27038E-02
  0.29267E-02  0.25928E-02 -0.27038E-02
  0.22211E-02  0.32179E-02 -0.27038E-02
  0.13865E-02  0.36559E-02 -0.27038E-02
  0.47130E-03  0.38815E-02 -0.27038E-02
 -0.47130E-03  0.38815E-02 -0.27038E-02
 -0.13865E-02  0.36559E-02 -0.27038E-02
 -0.22211E-02  0.32179E-02 -0.27038E-02
 -0.29267E-02  0.25928E-02 -0.27038E-02
 -0.34621E-02  0.18171E-02 -0.27038E-02
 -0.37964E-02  0.93572E-03 -0.27038E-02
 -0.39100E-02  0.22152E-17 -0.27038E-02
 -0.37964E-02 -0.93572E-03 -0.27038E-02
 -0.34621E-02 -0.18171E-02 -0.27038E-02
 -0.29267E-02 -0.25928E-02 -0.27038E-02
 -0.22211E-02 -0.32179E-02 -0.27038E-02
 -0.13865E-02 -0.36559E-02 -0.27038E-02
 -0.47130E-03 -0.38815E-02 -0.27038E-02
  0.47130E-03 -0.38815E-02 -0.27038E-02
  0.13865E-02 -0.36559E-02 -0.27038E-02
  0.22211E-02 -0.32179E-02 -0.27038E-02
  0.29267E-02 -0.25928E-02 -0.27038E-02
  0.34621E-02 -0.18171E-02 -0.27038E-02
  0.37964E-02 -0.93572E-03 -0.27038E-02
  0.10360E-02  0.68124E-03 -0.17246E-02
  0.17425E-02  0.12407E-02 -0.17246E-02
  0.23158E-02  0.59936E-03 -0.17246E-02
  0.16666E-02 -0.32643E-03 -0.17246E-02
  0.30373E-02  0.15427E-03 -0.17246E-02
  0.27842E-02 -0.66903E-03 -0.17246E-02
  0.12835E-02  0.18440E-02 -0.17246E-02
  0.64771E-03  0.14727E-02 -0.17246E-02
  0.12363E-03  0.31656E-03 -0.17246E-02
 -0.13100E-03  0.11935E-02 -0.17246E-02
  0.94003E-03  0.22767E-02 -0.17246E-02
  0.11276E-02  0.28220E-02 -0.17246E-02
  0.17432E-02  0.24260E-02 -0.17246E-02
  0.40507E-03  0.21690E-02 -0.17246E-02
  0.39754E-03  0.29327E-02 -0.17246E-02
 -0.76834E-03 -0.10054E-02 -0.17246E-02
 -0.86767E-03  0.91108E-04 -0.17246E-02
  0.45447E-03 -0.69229E-03 -0.17246E-02
 -0.18344E-02 -0.70985E-03 -0.17246E-02
 -0.18426E-02  0.84602E-04 -0.17246E-02
 -0.27234E-02 -0.77610E-03 -0.17246E-02
 -0.27987E-02  0.44813E-04 -0.17246E-02
 -0.25388E-02 -0.15187E-02 -0.17246E-02
 -0.19352E-02 -0.13215E-02 -0.17246E-02
 -0.99147E-03  0.10088E-02 -0.17246E-02
 -0.14433E-02 -0.17319E-02 -0.17246E-02
 -0.31274E-03  0.20262E-02 -0.17246E-02
 -0.11016E-02  0.18595E-02 -0.17246E-02
 -0.18838E-02  0.17175E-02 -0.17246E-02
 -0.18694E-02  0.91300E-03 -0.17246E-02
 -0.16284E-03 -0.19804E-02 -0.17246E-02
 -0.94986E-03 -0.23493E-02 -0.17246E-02
  0.77865E-03 -0.17073E-02 -0.17246E-02
  0.17205E-02 -0.14931E-02 -0.17246E-02
  0.32099E-02  0.77544E-03 -0.17246E-02
  0.28042E-02  0.12541E-02 -0.17246E-02
  0.23042E-02  0.18671E-02 -0.17246E-02
 -0.40407E-03  0.28877E-02 -0.17246E-02
 -0.12093E-02  0.27137E-02 -0.17246E-02
 -0.19442E-02  0.24609E-02 -0.17246E-02
 -0.25024E-02  0.22358E-02 -0.17246E-02
 -0.26358E-02  0.16503E-02 -0.17246E-02
 -0.27624E-02  0.87885E-03 -0.17246E-02
 -0.21144E-02 -0.21374E-02 -0.17246E-02
 -0.16094E-02 -0.26934E-02 -0.17246E-02
 -0.11956E-02 -0.31291E-02 -0.17246E-02
 -0.59165E-03 -0.30382E-02 -0.17246E-02
  0.20302E-03 -0.28750E-02 -0.17246E-02
  0.10540E-02 -0.26463E-02 -0.17246E-02
  0.18419E-02 -0.23738E-02 -0.17246E-02
  0.24563E-02 -0.21527E-02 -0.17246E-02
  0.26033E-02 -0.15088E-02 -0.17246E-02
  0.37964E-02  0.93572E-03 -0.17246E-02
  0.39100E-02  0.00000E+00 -0.17246E-02
  0.34621E-02  0.18171E-02 -0.17246E-02
  0.29267E-02  0.25928E-02 -0.17246E-02
  0.22211E-02  0.32179E-02 -0.17246E-02
  0.13865E-02  0.36559E-02 -0.17246E-02
  0.47130E-03  0.38815E-02 -0.17246E-02
 -0.47130E-03  0.38815E-02 -0.17246E-02
 -0.13865E-02  0.36559E-02 -0.17246E-02
 -0.22211E-02  0.32179E-02 -0.17246E-02
 -0.29267E-02  0.25928E-02 -0.17246E-02
 -0.34621E-02  0.18171E-02 -0.17246E-02
 -0.37964E-02  0.93572E-03 -0.17246E-02
 -0.39100E-02 -0.47884E-18 -0.17246E-02
 -0.37964E-02 -0.93572E-03 -0.17246E-02
 -0.34621E-02 -0.18171E-02 -0.17246E-02
 -0.29267E-02 -0.25928E-02 -0.17246E-02
 -0.22211E-02 -0.32179E-02 -0.17246E-02
 -0.13865E-02 -0.36559E-02 -0.17246E-02
 -0.47130E-03 -0.38815E-02 -0.17246E-02
  0.47130E-03 -0.38815E-02 -0.17246E-02
  0.13865E-02 -0.36559E-02 -0.17246E-02
  0.22211E-02 -0.32179E-02 -0.17246E-02
  0.29267E-02 -0.25928E-02 -0.17246E-02
  0.34621E-02 -0.18171E-02 -0.17246E-02
  0.37964E-02 -0.93572E-03 -0.17246E-02
  0.10359E-02  0.68179E-03 -0.74544E-03
  0.17423E-02  0.12414E-02 -0.74544E-03
  0.23157E-02  0.59988E-03 -0.74544E-03
  0.16664E-02 -0.32568E-03 -0.74544E-03
  0.30373E-02  0.15463E-03 -0.74544E-03
  0.27846E-02 -0.66854E-03 -0.74544E-03
  0.12834E-02  0.18442E-02 -0.74544E-03
  0.64747E-03  0.14736E-02 -0.74544E-03
  0.12337E-03  0.31770E-03 -0.74544E-03
 -0.13118E-03  0.11952E-02 -0.74544E-03
  0.93970E-03  0.22768E-02 -0.74544E-03
  0.11272E-02  0.28216E-02 -0.74544E-03
  0.17428E-02  0.24261E-02 -0.74544E-03
  0.40501E-03  0.21690E-02 -0.74544E-03
  0.39752E-03  0.29324E-02 -0.74544E-03
 -0.76869E-03 -0.10056E-02 -0.74544E-03
 -0.86778E-03  0.91918E-04 -0.74544E-03
  0.45402E-03 -0.69156E-03 -0.74544E-03
 -0.18347E-02 -0.70971E-03 -0.74544E-03
 -0.18425E-02  0.84726E-04 -0.74544E-03
 -0.27234E-02 -0.77593E-03 -0.74544E-03
 -0.27984E-02  0.45086E-04 -0.74544E-03
 -0.25389E-02 -0.15187E-02 -0.74544E-03
 -0.19356E-02 -0.13213E-02 -0.74544E-03
 -0.99133E-03  0.10102E-02 -0.74544E-03
 -0.14436E-02 -0.17318E-02 -0.74544E-03
 -0.31254E-03  0.20265E-02 -0.74544E-03
 -0.11013E-02  0.18594E-02 -0.74544E-03
 -0.18837E-02  0.17175E-02 -0.74544E-03
 -0.18692E-02  0.91324E-03 -0.74544E-03
 -0.16311E-03 -0.19804E-02 -0.74544E-03
 -0.95046E-03 -0.23493E-02 -0.74544E-03
  0.77799E-03 -0.17073E-02 -0.74544E-03
  0.17204E-02 -0.14933E-02 -0.74544E-03
  0.32102E-02  0.77645E-03 -0.74544E-03
  0.28042E-02  0.12545E-02 -0.74544E-03
  0.23041E-02  0.18671E-02 -0.74544E-03
 -0.40393E-03  0.28867E-02 -0.74544E-03
 -0.12093E-02  0.27132E-02 -0.74544E-03
 -0.19442E-02  0.24606E-02 -0.74544E-03
 -0.25024E-02  0.22358E-02 -0.74544E-03
 -0.26357E-02  0.16503E-02 -0.74544E-03
 -0.27621E-02  0.87912E-03 -0.74544E-03
 -0.21146E-02 -0.21374E-02 -0.74544E-03
 -0.16094E-02 -0.26935E-02 -0.74544E-03
 -0.11957E-02 -0.31291E-02 -0.74544E-03
 -0.59200E-03 -0.30381E-02 -0.74544E-03
  0.20262E-03 -0.28750E-02 -0.74544E-03
  0.10536E-02 -0.26466E-02 -0.74544E-03
  0.18420E-02 -0.23740E-02 -0.74544E-03
  0.24564E-02 -0.21533E-02 -0.74544E-03
  0.26033E-02 -0.15087E-02 -0.74544E-03
  0.37964E-02  0.93572E-03 -0.74544E-03
  0.39100E-02  0.00000E+00 -0.74544E-03
  0.34621E-02  0.18171E-02 -0.74544E-03
  0.29267E-02  0.25928E-02 -0.74544E-03
  0.22211E-02  0.32179E-02 -0.74544E-03
  0.13865E-02  0.36559E-02 -0.74544E-03
  0.47130E-03  0.38815E-02 -0.74544E-03
 -0.47130E-03  0.38815E-02 -0.74544E-03
 -0.13865E-02  0.36559E-02 -0.74544E-03
 -0.22211E-02  0.32179E-02 -0.74544E-03
 -0.29267E-02  0.25928E-02 -0.74544E-03
 -0.34621E-02  0.18171E-02 -0.74544E-03
 -0.37964E-02  0.93572E-03 -0.74544E-03
 -0.39100E-02 -0.47884E-18 -0.74544E-03
 -0.37964E-02 -0.93572E-03 -0.74544E-03
 -0.34621E-02 -0.18171E-02 -0.74544E-03
 -0.29267E-02 -0.25928E-02 -0.74544E-03
 -0.22211E-02 -0.32179E-02 -0.74544E-03
 -0.13865E-02 -0.36559E-02 -0.74544E-03
 -0.47130E-03 -0.38815E-02 -0.74544E-03
  0.47130E-03 -0.38815E-02 -0.74544E-03
  0.13865E-02 -0.36559E-02 -0.74544E-03
  0.22211E-02 -0.32179E-02 -0.74544E-03
  0.29267E-02 -0.25928E-02 -0.74544E-03
  0.34621E-02 -0.18171E-02 -0.74544E-03
  0.37964E-02 -0.93572E-03 -0.74544E-03
  0.10358E-02  0.68235E-03  0.23373E-03
  0.17422E-02  0.12421E-02  0.23373E-03
  0.23156E-02  0.60041E-03  0.23373E-03
  0.16662E-02 -0.32493E-03  0.23373E-03
  0.30373E-02  0.15500E-03  0.23373E-03
  0.27849E-02 -0.66805E-03  0.23373E-03
  0.12833E-02  0.18444E-02  0.23373E-03
  0.64722E-03  0.14747E-02  0.23373E-03
  0.12311E-03  0.31885E-03  0.23373E-03
 -0.13137E-03  0.11970E-02  0.23373E-03
  0.93937E-03  0.22770E-02  0.23373E-03
  0.11269E-02  0.28211E-02  0.23373E-03
  0.17424E-02  0.24262E-02  0.23373E-03
  0.40496E-03  0.21691E-02  0.23373E-03
  0.39750E-03  0.29322E-02  0.23373E-03
 -0.76904E-03 -0.10057E-02  0.23373E-03
 -0.86789E-03  0.92727E-04  0.23373E-03
  0.45358E-03 -0.69084E-03  0.23373E-03
 -0.18350E-02 -0.70957E-03  0.23373E-03
 -0.18424E-02  0.84849E-04  0.23373E-03
 -0.27233E-02 -0.77576E-03  0.23373E-03
 -0.27981E-02  0.45359E-04  0.23373E-03
 -0.25391E-02 -0.15186E-02  0.23373E-03
 -0.19360E-02 -0.13212E-02  0.23373E-03
 -0.99118E-03  0.10115E-02  0.23373E-03
 -0.14440E-02 -0.17318E-02  0.23373E-03
 -0.31234E-03  0.20268E-02  0.23373E-03
 -0.11009E-02  0.18593E-02  0.23373E-03
 -0.18836E-02  0.17175E-02  0.23373E-03
 -0.18691E-02  0.91347E-03  0.23373E-03
 -0.16339E-03 -0.19804E-02  0.23373E-03
 -0.95106E-03 -0.23493E-02  0.23373E-03
  0.77733E-03 -0.17073E-02  0.23373E-03
  0.17204E-02 -0.14936E-02  0.23373E-03
  0.32105E-02  0.77745E-03  0.23373E-03
  0.28042E-02  0.12550E-02  0.23373E-03
  0.23040E-02  0.18671E-02  0.23373E-03
 -0.40379E-03  0.28856E-02  0.23373E-03
 -0.12093E-02  0.27127E-02  0.23373E-03
 -0.19441E-02  0.24604E-02  0.23373E-03
 -0.25023E-02  0.22358E-02  0.23373E-03
 -0.26356E-02  0.16503E-02  0.23373E-03
 -0.27618E-02  0.87938E-03  0.23373E-03
 -0.21147E-02 -0.21374E-02  0.23373E-03
 -0.16094E-02 -0.26935E-02  0.23373E-03
 -0.11958E-02 -0.31291E-02  0.23373E-03
 -0.59235E-03 -0.30381E-02  0.23373E-03
  0.20221E-03 -0.28750E-02  0.23373E-03
  0.10533E-02 -0.26468E-02  0.23373E-03
  0.18420E-02 -0.23742E-02  0.23373E-03
  0.24565E-02 -0.21538E-02  0.23373E-03
  0.26034E-02 -0.15086E-02  0.23373E-03
  0.37964E-02  0.93572E-03  0.23373E-03
  0.39100E-02  0.00000E+00  0.23373E-03
  0.34621E-02  0.18171E-02  0.23373E-03
  0.29267E-02  0.25928E-02  0.23373E-03
  0.22211E-02  0.32179E-02  0.23373E-03
  0.13865E-02  0.36559E-02  0.23373E-03
  0.47130E-03  0.38815E-02  0.23373E-03
 -0.47130E-03  0.38815E-02  0.23373E-03
 -0.13865E-02  0.36559E-02  0.23373E-03
 -0.22211E-02  0.32179E-02  0.23373E-03
 -0.29267E-02  0.25928E-02  0.23373E-03
 -0.34621E-02  0.18171E-02  0.23373E-03
 -0.37964E-02  0.93572E-03  0.23373E-03
 -0.39100E-02 -0.47884E-18  0.23373E-03
 -0.37964E-02 -0.93572E-03  0.23373E-03
 -0.34621E-02 -0.18171E-02  0.23373E-03
 -0.29267E-02 -0.25928E-02  0.23373E-03
 -0.22211E-02 -0.32179E-02  0.23373E-03
 -0.13865E-02 -0.36559E-02  0.23373E-03
 -0.47130E-03 -0.38815E-02  0.23373E-03
  0.47130E-03 -0.38815E-02  0.23373E-03
  0.13865E-02 -0.36559E-02  0.23373E-03
  0.22211E-02 -0.32179E-02  0.23373E-03
  0.29267E-02 -0.25928E-02  0.23373E-03
  0.34621E-02 -0.18171E-02  0.23373E-03
  0.37964E-02 -0.93572E-03  0.23373E-03
  0.10357E-02  0.68290E-03  0.12129E-02
  0.17420E-02  0.12427E-02  0.12129E-02
  0.23155E-02  0.60093E-03  0.12129E-02
  0.16660E-02 -0.32417E-03  0.12129E-02
  0.30372E-02  0.15536E-03  0.12129E-02
  0.27853E-02 -0.66755E-03  0.12129E-02
  0.12832E-02  0.18445E-02  0.12129E-02
  0.64698E-03  0.14757E-02  0.12129E-02
  0.12285E-03  0.32000E-03  0.12129E-02
 -0.13155E-03  0.11987E-02  0.12129E-02
  0.93903E-03  0.22771E-02  0.12129E-02
  0.11266E-02  0.28207E-02  0.12129E-02
  0.17420E-02  0.24264E-02  0.12129E-02
  0.40490E-03  0.21691E-02  0.12129E-02
  0.39749E-03  0.29319E-02  0.12129E-02
 -0.76940E-03 -0.10058E-02  0.12129E-02
 -0.86800E-03  0.93536E-04  0.12129E-02
  0.45313E-03 -0.69011E-03  0.12129E-02
 -0.18353E-02 -0.70943E-03  0.12129E-02
 -0.18423E-02  0.84973E-04  0.12129E-02
 -0.27233E-02 -0.77559E-03  0.12129E-02
 -0.27979E-02  0.45633E-04  0.12129E-02
 -0.25393E-02 -0.15186E-02  0.12129E-02
 -0.19365E-02 -0.13212E-02  0.12129E-02
 -0.99104E-03  0.10129E-02  0.12129E-02
 -0.14443E-02 -0.17318E-02  0.12129E-02
 -0.31214E-03  0.20271E-02  0.12129E-02
 -0.11006E-02  0.18592E-02  0.12129E-02
 -0.18836E-02  0.17175E-02  0.12129E-02
 -0.18690E-02  0.91371E-03  0.12129E-02
 -0.16366E-03 -0.19805E-02  0.12129E-02
 -0.95166E-03 -0.23493E-02  0.12129E-02
  0.77667E-03 -0.17073E-02  0.12129E-02
  0.17203E-02 -0.14938E-02  0.12129E-02
  0.32109E-02  0.77846E-03  0.12129E-02
  0.28042E-02  0.12554E-02  0.12129E-02
  0.23039E-02  0.18672E-02  0.12129E-02
 -0.40365E-03  0.28845E-02  0.12129E-02
 -0.12093E-02  0.27122E-02  0.12129E-02
 -0.19441E-02  0.24602E-02  0.12129E-02
 -0.25023E-02  0.22358E-02  0.12129E-02
 -0.26355E-02  0.16502E-02  0.12129E-02
 -0.27615E-02  0.87964E-03  0.12129E-02
 -0.21148E-02 -0.21374E-02  0.12129E-02
 -0.16095E-02 -0.26935E-02  0.12129E-02
 -0.11960E-02 -0.31291E-02  0.12129E-02
 -0.59270E-03 -0.30381E-02  0.12129E-02
  0.20180E-03 -0.28750E-02  0.12129E-02
  0.10530E-02 -0.26471E-02  0.12129E-02
  0.18421E-02 -0.23744E-02  0.12129E-02
  0.24566E-02 -0.21543E-02  0.12129E-02
  0.26035E-02 -0.15085E-02  0.12129E-02
  0.37964E-02  0.93572E-03  0.12129E-02
  0.39100E-02  0.00000E+00  0.12129E-02
  0.34621E-02  0.18171E-02  0.12129E-02
  0.29267E-02  0.25928E-02  0.12129E-02
  0.22211E-02  0.32179E-02  0.12129E-02
  0.13865E-02  0.36559E-02  0.12129E-02
  0.47130E-03  0.38815E-02  0.12129E-02
 -0.47130E-03  0.38815E-02  0.12129E-02
 -0.13865E-02  0.36559E-02  0.12129E-02
 -0.22211E-02  0.32179E-02  0.12129E-02
 -0.29267E-02  0.25928E-02  0.12129E-02
 -0.34621E-02  0.18171E-02  0.12129E-02
 -0.37964E-02  0.93572E-03  0.12129E-02
 -0.39100E-02 -0.47884E-18  0.12129E-02
 -0.37964E-02 -0.93572E-03  0.12129E-02
 -0.34621E-02 -0.18171E-02  0.12129E-02
 -0.29267E-02 -0.25928E-02  0.12129E-02
 -0.22211E-02 -0.32179E-02  0.12129E-02
 -0.13865E-02 -0.36559E-02  0.12129E-02
 -0.47130E-03 -0.38815E-02  0.12129E-02
  0.47130E-03 -0.38815E-02  0.12129E-02
  0.13865E-02 -0.36559E-02  0.12129E-02
  0.22211E-02 -0.32179E-02  0.12129E-02
  0.29267E-02 -0.25928E-02  0.12129E-02
  0.34621E-02 -0.18171E-02  0.12129E-02
  0.37964E-02 -0.93572E-03  0.12129E-02
  0.10356E-02  0.68346E-03  0.21921E-02
  0.17418E-02  0.12434E-02  0.21921E-02
  0.23153E-02  0.60145E-03  0.21921E-02
  0.16657E-02 -0.32342E-03  0.21921E-02
  0.30372E-02  0.15572E-03  0.21921E-02
  0.27856E-02 -0.66706E-03  0.21921E-02
  0.12830E-02  0.18447E-02  0.21921E-02
  0.64673E-03  0.14767E-02  0.21921E-02
  0.12259E-03  0.32115E-03  0.21921E-02
 -0.13174E-03  0.12005E-02  0.21921E-02
  0.93870E-03  0.22772E-02  0.21921E-02
  0.11262E-02  0.28203E-02  0.21921E-02
  0.17416E-02  0.24265E-02  0.21921E-02
  0.40485E-03  0.21691E-02  0.21921E-02
  0.39747E-03  0.29316E-02  0.21921E-02
 -0.76975E-03 -0.10060E-02  0.21921E-02
 -0.86811E-03  0.94345E-04  0.21921E-02
  0.45268E-03 -0.68939E-03  0.21921E-02
 -0.18356E-02 -0.70929E-03  0.21921E-02
 -0.18422E-02  0.85096E-04  0.21921E-02
 -0.27233E-02 -0.77542E-03  0.21921E-02
 -0.27976E-02  0.45906E-04  0.21921E-02
 -0.25394E-02 -0.15185E-02  0.21921E-02
 -0.19369E-02 -0.13211E-02  0.21921E-02
 -0.99090E-03  0.10142E-02  0.21921E-02
 -0.14446E-02 -0.17317E-02  0.21921E-02
 -0.31194E-03  0.20274E-02  0.21921E-02
 -0.11002E-02  0.18590E-02  0.21921E-02
 -0.18835E-02  0.17175E-02  0.21921E-02
 -0.18689E-02  0.91395E-03  0.21921E-02
 -0.16394E-03 -0.19805E-02  0.21921E-02
 -0.95226E-03 -0.23494E-02  0.21921E-02
  0.77601E-03 -0.17073E-02  0.21921E-02
  0.17203E-02 -0.14941E-02  0.21921E-02
  0.32112E-02  0.77946E-03  0.21921E-02
  0.28042E-02  0.12558E-02  0.21921E-02
  0.23038E-02  0.18672E-02  0.21921E-02
 -0.40352E-03  0.28835E-02  0.21921E-02
 -0.12093E-02  0.27118E-02  0.21921E-02
 -0.19441E-02  0.24600E-02  0.21921E-02
 -0.25023E-02  0.22358E-02  0.21921E-02
 -0.26354E-02  0.16502E-02  0.21921E-02
 -0.27612E-02  0.87990E-03  0.21921E-02
 -0.21150E-02 -0.21374E-02  0.21921E-02
 -0.16095E-02 -0.26935E-02  0.21921E-02
 -0.11961E-02 -0.31291E-02  0.21921E-02
 -0.59305E-03 -0.30381E-02  0.21921E-02
  0.20140E-03 -0.28750E-02  0.21921E-02
  0.10527E-02 -0.26474E-02  0.21921E-02
  0.18421E-02 -0.23746E-02  0.21921E-02
  0.24568E-02 -0.21549E-02  0.21921E-02
  0.26036E-02 -0.15084E-02  0.21921E-02
  0.37964E-02  0.93572E-03  0.21921E-02
  0.39100E-02  0.00000E+00  0.21921E-02
  0.34621E-02  0.18171E-02  0.21921E-02
  0.29267E-02  0.25928E-02  0.21921E-02
  0.22211E-02  0.32179E-02  0.21921E-02
  0.13865E-02  0.36559E-02  0.21921E-02
  0.47130E-03  0.38815E-02  0.21921E-02
 -0.47130E-03  0.38815E-02  0.21921E-02
 -0.13865E-02  0.36559E-02  0.21921E-02
 -0.22211E-02  0.32179E-02  0.21921E-02
 -0.29267E-02  0.25928E-02  0.21921E-02
 -0.34621E-02  0.18171E-02  0.21921E-02
 -0.37964E-02  0.93572E-03  0.21921E-02
 -0.39100E-02  0.22152E-17  0.21921E-02
 -0.37964E-02 -0.93572E-03  0.21921E-02
 -0.34621E-02 -0.18171E-02  0.21921E-02
 -0.29267E-02 -0.25928E-02  0.21921E-02
 -0.22211E-02 -0.32179E-02  0.21921E-02
 -0.13865E-02 -0.36559E-02  0.21921E-02
 -0.47130E-03 -0.38815E-02  0.21921E-02
  0.47130E-03 -0.38815E-02  0.21921E-02
  0.13865E-02 -0.36559E-02  0.21921E-02
  0.22211E-02 -0.32179E-02  0.21921E-02
  0.29267E-02 -0.25928E-02  0.21921E-02
  0.34621E-02 -0.18171E-02  0.21921E-02
  0.37964E-02 -0.93572E-03  0.21921E-02
  0.10355E-02  0.68401E-03  0.31712E-02
  0.17416E-02  0.12440E-02  0.31712E-02
  0.23152E-02  0.60198E-03  0.31712E-02
  0.16655E-02 -0.32266E-03  0.31712E-02
  0.30372E-02  0.15609E-03  0.31712E-02
  0.27860E-02 -0.66657E-03  0.31712E-02
  0.12829E-02  0.18449E-02  0.31712E-02
  0.64649E-03  0.14777E-02  0.31712E-02
  0.12232E-03  0.32230E-03  0.31712E-02
 -0.13193E-03  0.12022E-02  0.31712E-02
  0.93837E-03  0.22774E-02  0.31712E-02
  0.11259E-02  0.28198E-02  0.31712E-02
  0.17412E-02  0.24267E-02  0.31712E-02
  0.40480E-03  0.21692E-02  0.31712E-02
  0.39745E-03  0.29314E-02  0.31712E-02
 -0.77011E-03 -0.10061E-02  0.31712E-02
 -0.86822E-03  0.95155E-04  0.31712E-02
  0.45223E-03 -0.68866E-03  0.31712E-02
 -0.18359E-02 -0.70915E-03  0.31712E-02
 -0.18421E-02  0.85220E-04  0.31712E-02
 -0.27232E-02 -0.77525E-03  0.31712E-02
 -0.27973E-02  0.46180E-04  0.31712E-02
 -0.25396E-02 -0.15185E-02  0.31712E-02
 -0.19373E-02 -0.13210E-02  0.31712E-02
 -0.99075E-03  0.10156E-02  0.31712E-02
 -0.14450E-02 -0.17317E-02  0.31712E-02
 -0.31173E-03  0.20277E-02  0.31712E-02
 -0.10999E-02  0.18589E-02  0.31712E-02
 -0.18835E-02  0.17175E-02  0.31712E-02
 -0.18687E-02  0.91419E-03  0.31712E-02
 -0.16421E-03 -0.19805E-02  0.31712E-02
 -0.95285E-03 -0.23494E-02  0.31712E-02
  0.77535E-03 -0.17073E-02  0.31712E-02
  0.17202E-02 -0.14943E-02  0.31712E-02
  0.32115E-02  0.78047E-03  0.31712E-02
  0.28041E-02  0.12563E-02  0.31712E-02
  0.23037E-02  0.18672E-02  0.31712E-02
 -0.40338E-03  0.28824E-02  0.31712E-02
 -0.12093E-02  0.27113E-02  0.31712E-02
 -0.19440E-02  0.24597E-02  0.31712E-02
 -0.25023E-02  0.22358E-02  0.31712E-02
 -0.26353E-02  0.16502E-02  0.31712E-02
 -0.27609E-02  0.88016E-03  0.31712E-02
 -0.21151E-02 -0.21374E-02  0.31712E-02
 -0.16096E-02 -0.26935E-02  0.31712E-02
 -0.11962E-02 -0.31291E-02  0.31712E-02
 -0.59340E-03 -0.30381E-02  0.31712E-02
  0.20099E-03 -0.28751E-02  0.31712E-02
  0.10524E-02 -0.26476E-02  0.31712E-02
  0.18422E-02 -0.23748E-02  0.31712E-02
  0.24569E-02 -0.21554E-02  0.31712E-02
  0.26036E-02 -0.15083E-02  0.31712E-02
  0.37964E-02  0.93572E-03  0.31712E-02
  0.39100E-02  0.00000E+00  0.31712E-02
  0.34621E-02  0.18171E-02  0.31712E-02
  0.29267E-02  0.25928E-02  0.31712E-02
  0.22211E-02  0.32179E-02  0.31712E-02
  0.13865E-02  0.36559E-02  0.31712E-02
  0.47130E-03  0.38815E-02  0.31712E-02
 -0.47130E-03  0.38815E-02  0.31712E-02
 -0.13865E-02  0.36559E-02  0.31712E-02
 -0.22211E-02  0.32179E-02  0.31712E-02
 -0.29267E-02  0.25928E-02  0.31712E-02
 -0.34621E-02  0.18171E-02  0.31712E-02
 -0.37964E-02  0.93572E-03  0.31712E-02
 -0.39100E-02 -0.47884E-18  0.31712E-02
 -0.37964E-02 -0.93572E-03  0.31712E-02
 -0.34621E-02 -0.18171E-02  0.31712E-02
 -0.29267E-02 -0.25928E-02  0.31712E-02
 -0.22211E-02 -0.32179E-02  0.31712E-02
 -0.13865E-02 -0.36559E-02  0.31712E-02
 -0.47130E-03 -0.38815E-02  0.31712E-02
  0.47130E-03 -0.38815E-02  0.31712E-02
  0.13865E-02 -0.36559E-02  0.31712E-02
  0.22211E-02 -0.32179E-02  0.31712E-02
  0.29267E-02 -0.25928E-02  0.31712E-02
  0.34621E-02 -0.18171E-02  0.31712E-02
  0.37964E-02 -0.93572E-03  0.31712E-02
  0.10354E-02  0.68457E-03  0.41504E-02
  0.17414E-02  0.12447E-02  0.41504E-02
  0.23151E-02  0.60250E-03  0.41504E-02
  0.16653E-02 -0.32191E-03  0.41504E-02
  0.30372E-02  0.15645E-03  0.41504E-02
  0.27863E-02 -0.66607E-03  0.41504E-02
  0.12829E-02  0.18451E-02  0.41504E-02
  0.64624E-03  0.14787E-02  0.41504E-02
  0.12206E-03  0.32345E-03  0.41504E-02
 -0.13211E-03  0.12040E-02  0.41504E-02
  0.93804E-03  0.22775E-02  0.41504E-02
  0.11255E-02  0.28194E-02  0.41504E-02
  0.17408E-02  0.24268E-02  0.41504E-02
  0.40474E-03  0.21692E-02  0.41504E-02
  0.39744E-03  0.29311E-02  0.41504E-02
 -0.77046E-03 -0.10062E-02  0.41504E-02
 -0.86832E-03  0.95964E-04  0.41504E-02
  0.45179E-03 -0.68793E-03  0.41504E-02
 -0.18362E-02 -0.70901E-03  0.41504E-02
 -0.18420E-02  0.85343E-04  0.41504E-02
 -0.27232E-02 -0.77507E-03  0.41504E-02
 -0.27970E-02  0.46453E-04  0.41504E-02
 -0.25397E-02 -0.15184E-02  0.41504E-02
 -0.19377E-02 -0.13209E-02  0.41504E-02
 -0.99061E-03  0.10169E-02  0.41504E-02
 -0.14453E-02 -0.17316E-02  0.41504E-02
 -0.31153E-03  0.20280E-02  0.41504E-02
 -0.10995E-02  0.18588E-02  0.41504E-02
 -0.18834E-02  0.17175E-02  0.41504E-02
 -0.18686E-02  0.91443E-03  0.41504E-02
 -0.16449E-03 -0.19806E-02  0.41504E-02
 -0.95345E-03 -0.23494E-02  0.41504E-02
  0.77469E-03 -0.17073E-02  0.41504E-02
  0.17202E-02 -0.14945E-02  0.41504E-02
  0.32119E-02  0.78148E-03  0.41504E-02
  0.28041E-02  0.12567E-02  0.41504E-02
  0.23036E-02  0.18673E-02  0.41504E-02
 -0.40324E-03  0.28813E-02  0.41504E-02
 -0.12093E-02  0.27108E-02  0.41504E-02
 -0.19440E-02  0.24595E-02  0.41504E-02
 -0.25022E-02  0.22358E-02  0.41504E-02
 -0.26352E-02  0.16502E-02  0.41504E-02
 -0.27606E-02  0.88043E-03  0.41504E-02
 -0.21152E-02 -0.21374E-02  0.41504E-02
 -0.16096E-02 -0.26936E-02  0.41504E-02
 -0.11963E-02 -0.31291E-02  0.41504E-02
 -0.59375E-03 -0.30381E-02  0.41504E-02
  0.20059E-03 -0.28751E-02  0.41504E-02
  0.10521E-02 -0.26479E-02  0.41504E-02
  0.18422E-02 -0.23750E-02  0.41504E-02
  0.24570E-02 -0.21560E-02  0.41504E-02
  0.26037E-02 -0.15082E-02  0.41504E-02
  0.37964E-02  0.93572E-03  0.41504E-02
  0.39100E-02  0.00000E+00  0.41504E-02
  0.34621E-02  0.18171E-02  0.41504E-02
  0.29267E-02  0.25928E-02  0.41504E-02
  0.22211E-02  0.32179E-02  0.41504E-02
  0.13865E-02  0.36559E-02  0.41504E-02
  0.47130E-03  0.38815E-02  0.41504E-02
 -0.47130E-03  0.38815E-02  0.41504E-02
 -0.13865E-02  0.36559E-02  0.41504E-02
 -0.22211E-02  0.32179E-02  0.41504E-02
 -0.29267E-02  0.25928E-02  0.41504E-02
 -0.34621E-02  0.18171E-02  0.41504E-02
 -0.37964E-02  0.93572E-03  0.41504E-02
 -0.39100E-02 -0.47884E-18  0.41504E-02
 -0.37964E-02 -0.93572E-03  0.41504E-02
 -0.34621E-02 -0.18171E-02  0.41504E-02
 -0.29267E-02 -0.25928E-02  0.41504E-02
 -0.22211E-02 -0.32179E-02  0.41504E-02
 -0.13865E-02 -0.36559E-02  0.41504E-02
 -0.47130E-03 -0.38815E-02  0.41504E-02
  0.47130E-03 -0.38815E-02  0.41504E-02
  0.13865E-02 -0.36559E-02  0.41504E-02
  0.22211E-02 -0.32179E-02  0.41504E-02
  0.29267E-02 -0.25928E-02  0.41504E-02
  0.34621E-02 -0.18171E-02  0.41504E-02
  0.37964E-02 -0.93572E-03  0.41504E-02
  0.10352E-02  0.68512E-03  0.51295E-02
  0.17413E-02  0.12454E-02  0.51295E-02
  0.23150E-02  0.60302E-03  0.51295E-02
  0.16651E-02 -0.32115E-03  0.51295E-02
  0.30371E-02  0.15681E-03  0.51295E-02
  0.27866E-02 -0.66558E-03  0.51295E-02
  0.12827E-02  0.18453E-02  0.51295E-02
  0.64600E-03  0.14797E-02  0.51295E-02
  0.12180E-03  0.32459E-03  0.51295E-02
 -0.13230E-03  0.12058E-02  0.51295E-02
  0.93771E-03  0.22776E-02  0.51295E-02
  0.11252E-02  0.28189E-02  0.51295E-02
  0.17404E-02  0.24270E-02  0.51295E-02
  0.40469E-03  0.21693E-02  0.51295E-02
  0.39742E-03  0.29308E-02  0.51295E-02
 -0.77081E-03 -0.10064E-02  0.51295E-02
 -0.86843E-03  0.96773E-04  0.51295E-02
  0.45134E-03 -0.68721E-03  0.51295E-02
 -0.18365E-02 -0.70887E-03  0.51295E-02
 -0.18419E-02  0.85467E-04  0.51295E-02
 -0.27232E-02 -0.77490E-03  0.51295E-02
 -0.27968E-02  0.46726E-04  0.51295E-02
 -0.25399E-02 -0.15184E-02  0.51295E-02
 -0.19382E-02 -0.13208E-02  0.51295E-02
 -0.99046E-03  0.10183E-02  0.51295E-02
 -0.14457E-02 -0.17316E-02  0.51295E-02
 -0.31133E-03  0.20283E-02  0.51295E-02
 -0.10992E-02  0.18586E-02  0.51295E-02
 -0.18834E-02  0.17175E-02  0.51295E-02
 -0.18685E-02  0.91467E-03  0.51295E-02
 -0.16476E-03 -0.19806E-02  0.51295E-02
 -0.95405E-03 -0.23494E-02  0.51295E-02
  0.77402E-03 -0.17073E-02  0.51295E-02
  0.17202E-02 -0.14948E-02  0.51295E-02
  0.32122E-02  0.78248E-03  0.51295E-02
  0.28041E-02  0.12571E-02  0.51295E-02
  0.23034E-02  0.18673E-02  0.51295E-02
 -0.40310E-03  0.28802E-02  0.51295E-02
 -0.12093E-02  0.27103E-02  0.51295E-02
 -0.19440E-02  0.24593E-02  0.51295E-02
 -0.25022E-02  0.22358E-02  0.51295E-02
 -0.26351E-02  0.16502E-02  0.51295E-02
 -0.27602E-02  0.88069E-03  0.51295E-02
 -0.21154E-02 -0.21374E-02  0.51295E-02
 -0.16097E-02 -0.26936E-02  0.51295E-02
 -0.11964E-02 -0.31291E-02  0.51295E-02
 -0.59409E-03 -0.30381E-02  0.51295E-02
  0.20018E-03 -0.28751E-02  0.51295E-02
  0.10518E-02 -0.26482E-02  0.51295E-02
  0.18422E-02 -0.23752E-02  0.51295E-02
  0.24571E-02 -0.21565E-02  0.51295E-02
  0.26038E-02 -0.15081E-02  0.51295E-02
  0.37964E-02  0.93572E-03  0.51295E-02
  0.39100E-02  0.00000E+00  0.51295E-02
  0.34621E-02  0.18171E-02  0.51295E-02
  0.29267E-02  0.25928E-02  0.51295E-02
  0.22211E-02  0.32179E-02  0.51295E-02
  0.13865E-02  0.36559E-02  0.51295E-02
  0.47130E-03  0.38815E-02  0.51295E-02
 -0.47130E-03  0.38815E-02  0.51295E-02
 -0.13865E-02  0.36559E-02  0.51295E-02
 -0.22211E-02  0.32179E-02  0.51295E-02
 -0.29267E-02  0.25928E-02  0.51295E-02
 -0.34621E-02  0.18171E-02  0.51295E-02
 -0.37964E-02  0.93572E-03  0.51295E-02
 -0.39100E-02 -0.47884E-18  0.51295E-02
 -0.37964E-02 -0.93572E-03  0.51295E-02
 -0.34621E-02 -0.18171E-02  0.51295E-02
 -0.29267E-02 -0.25928E-02  0.51295E-02
 -0.22211E-02 -0.32179E-02  0.51295E-02
 -0.13865E-02 -0.36559E-02  0.51295E-02
 -0.47130E-03 -0.38815E-02  0.51295E-02
  0.47130E-03 -0.38815E-02  0.51295E-02
  0.13865E-02 -0.36559E-02  0.51295E-02
  0.22211E-02 -0.32179E-02  0.51295E-02
  0.29267E-02 -0.25928E-02  0.51295E-02
  0.34621E-02 -0.18171E-02  0.51295E-02
  0.37964E-02 -0.93572E-03  0.51295E-02
  0.10351E-02  0.68567E-03  0.61087E-02
  0.17411E-02  0.12460E-02  0.61087E-02
  0.23149E-02  0.60355E-03  0.61087E-02
  0.16649E-02 -0.32040E-03  0.61087E-02
  0.30371E-02  0.15718E-03  0.61087E-02
  0.27870E-02 -0.66509E-03  0.61087E-02
  0.12826E-02  0.18455E-02  0.61087E-02
  0.64575E-03  0.14807E-02  0.61087E-02
  0.12154E-03  0.32574E-03  0.61087E-02
 -0.13248E-03  0.12075E-02  0.61087E-02
  0.93738E-03  0.22777E-02  0.61087E-02
  0.11249E-02  0.28185E-02  0.61087E-02
  0.17400E-02  0.24271E-02  0.61087E-02
  0.40463E-03  0.21693E-02  0.61087E-02
  0.39740E-03  0.29306E-02  0.61087E-02
 -0.77117E-03 -0.10065E-02  0.61087E-02
 -0.86854E-03  0.97583E-04  0.61087E-02
  0.45089E-03 -0.68648E-03  0.61087E-02
 -0.18368E-02 -0.70873E-03  0.61087E-02
 -0.18418E-02  0.85591E-04  0.61087E-02
 -0.27232E-02 -0.77474E-03  0.61087E-02
 -0.27965E-02  0.47000E-04  0.61087E-02
 -0.25400E-02 -0.15183E-02  0.61087E-02
 -0.19386E-02 -0.13207E-02  0.61087E-02
 -0.99032E-03  0.10197E-02  0.61087E-02
 -0.14460E-02 -0.17316E-02  0.61087E-02
 -0.31113E-03  0.20285E-02  0.61087E-02
 -0.10988E-02  0.18585E-02  0.61087E-02
 -0.18833E-02  0.17175E-02  0.61087E-02
 -0.18683E-02  0.91491E-03  0.61087E-02
 -0.16504E-03 -0.19806E-02  0.61087E-02
 -0.95465E-03 -0.23495E-02  0.61087E-02
  0.77336E-03 -0.17073E-02  0.61087E-02
  0.17201E-02 -0.14950E-02  0.61087E-02
  0.32125E-02  0.78348E-03  0.61087E-02
  0.28041E-02  0.12576E-02  0.61087E-02
  0.23033E-02  0.18674E-02  0.61087E-02
 -0.40296E-03  0.28792E-02  0.61087E-02
 -0.12093E-02  0.27099E-02  0.61087E-02
 -0.19439E-02  0.24591E-02  0.61087E-02
 -0.25022E-02  0.22358E-02  0.61087E-02
 -0.26350E-02  0.16502E-02  0.61087E-02
 -0.27599E-02  0.88095E-03  0.61087E-02
 -0.21155E-02 -0.21374E-02  0.61087E-02
 -0.16097E-02 -0.26936E-02  0.61087E-02
 -0.11965E-02 -0.31290E-02  0.61087E-02
 -0.59444E-03 -0.30381E-02  0.61087E-02
  0.19977E-03 -0.28751E-02  0.61087E-02
  0.10515E-02 -0.26484E-02  0.61087E-02
  0.18423E-02 -0.23754E-02  0.61087E-02
  0.24573E-02 -0.21571E-02  0.61087E-02
  0.26039E-02 -0.15080E-02  0.61087E-02
  0.37964E-02  0.93572E-03  0.61087E-02
  0.39100E-02  0.00000E+00  0.61087E-02
  0.34621E-02  0.18171E-02  0.61087E-02
  0.29267E-02  0.25928E-02  0.61087E-02
  0.22211E-02  0.32179E-02  0.61087E-02
  0.13865E-02  0.36559E-02  0.61087E-02
  0.47130E-03  0.38815E-02  0.61087E-02
 -0.47130E-03  0.38815E-02  0.61087E-02
 -0.13865E-02  0.36559E-02  0.61087E-02
 -0.22211E-02  0.32179E-02  0.61087E-02
 -0.29267E-02  0.25928E-02  0.61087E-02
 -0.34621E-02  0.18171E-02  0.61087E-02
 -0.37964E-02  0.93572E-03  0.61087E-02
 -0.39100E-02  0.47884E-18  0.61087E-02
 -0.37964E-02 -0.93572E-03  0.61087E-02
 -0.34621E-02 -0.18171E-02  0.61087E-02
 -0.29267E-02 -0.25928E-02  0.61087E-02
 -0.22211E-02 -0.32179E-02  0.61087E-02
 -0.13865E-02 -0.36559E-02  0.61087E-02
 -0.47130E-03 -0.38815E-02  0.61087E-02
  0.47130E-03 -0.38815E-02  0.61087E-02
  0.13865E-02 -0.36559E-02  0.61087E-02
  0.22211E-02 -0.32179E-02  0.61087E-02
  0.29267E-02 -0.25928E-02  0.61087E-02
  0.34621E-02 -0.18171E-02  0.61087E-02
  0.37964E-02 -0.93572E-03  0.61087E-02
  
CELLS       3486               17724
       1       0
       1       1
       1       2
       1       3
       1       4
       1       5
       1       6
       1       7
       1       8
       1       9
       1      10
       1      11
       1      12
       1      13
       1      14
       1      15
       1      16
       1      17
       1      18
       1      19
       1      20
       1      21
       1      22
       1      23
       1      24
       1      25
       1      26
       1      27
       1      28
       1      29
       1      30
       1      31
       1      32
       1      33
       1      34
       1      35
       1      36
       1      37
       1      38
       1      39
       1      40
       1      41
       1      42
       1      43
       1      44
       1      45
       1      46
       1      47
       1      48
       1      49
       1      50
       1      51
       1      52
       1      53
       1      54
       1      55
       1      56
       1      57
       1      58
       1      59
       1      60
       1      61
       1      62
       1      63
       1      64
       1      65
       1      66
       1      67
       1      68
       1      69
       1      70
       1      71
       1      72
       1      73
       1      74
       1      75
       1      76
       1      77
       1      78
       1      79
       1      80
       1      81
       1      82
       1      83
       1      84
       1      85
       1      86
       1      87
       1      88
       1      89
       1      90
       1      91
       1      92
       1      93
       1      94
       1      95
       1      96
       1      97
       1      98
       1      99
       1     100
       1     101
       1     102
       1     103
       1     104
       1     105
       1     106
       1     107
       1     108
       1     109
       1     110
       1     111
       1     112
       1     113
       1     114
       1     115
       1     116
       1     117
       1     118
       1     119
       1     120
       1     121
       1     122
       1     123
       1     124
       1     125
       1     126
       1     127
       1     128
       1     129
       1     130
       1     131
       1     132
       1     133
       1     134
       1     135
       1     136
       1     137
       1     138
       1     139
       1     140
       1     141
       1     142
       1     143
       1     144
       1     145
       1     146
       1     147
       1     148
       1     149
       1     150
       1     151
       1     152
       1     153
       1     154
       1     155
       1     156
       1     157
       1     158
       1     159
       1     160
       1     161
       1     162
       1     163
       1     164
       1     165
       1     166
       1     167
       1     168
       1     169
       1     170
       1     171
       1     172
       1     173
       1     174
       1     175
       1     176
       1     177
       1     178
       1     179
       1     180
       1     181
       1     182
       1     183
       1     184
       1     185
       1     186
       1     187
       1     188
       1     189
       1     190
       1     191
       1     192
       1     193
       1     194
       1     195
       1     196
       1     197
       1     198
       1     199
       1     200
       1     201
       1     202
       1     203
       1     204
       1     205
       1     206
       1     207
       1     208
       1     209
       1     210
       1     211
       1     212
       1     213
       1     214
       1     215
       1     216
       1     217
       1     218
       1     219
       1     220
       1     221
       1     222
       1     223
       1     224
       1     225
       1     226
       1     227
       1     228
       1     229
       1     230
       1     231
       1     232
       1     233
       1     234
       1     235
       1     236
       1     237
       1     238
       1     239
       1     240
       1     241
       1     242
       1     243
       1     244
       1     245
       1     246
       1     247
       1     248
       1     249
       1     250
       1     251
       1     252
       1     253
       1     254
       1     255
       1     256
       1     257
       1     258
       1     259
       1     260
       1     261
       1     262
       1     263
       1     264
       1     265
       1     266
       1     267
       1     268
       1     269
       1     270
       1     271
       1     272
       1     273
       1     274
       1     275
       1     276
       1     277
       1     278
       1     279
       1     280
       1     281
       1     282
       1     283
       1     284
       1     285
       1     286
       1     287
       1     288
       1     289
       1     290
       1     291
       1     292
       1     293
       1     294
       1     295
       1     296
       1     297
       1     298
       1     299
       1     300
       1     301
       1     302
       1     303
       1     304
       1     305
       1     306
       1     307
       1     308
       1     309
       1     310
       1     311
       1     312
       1     313
       1     314
       1     315
       1     316
       1     317
       1     318
       1     319
       1     320
       1     321
       1     322
       1     323
       1     324
       1     325
       1     326
       1     327
       1     328
       1     329
       1     330
       1     331
       1     332
       1     333
       1     334
       1     335
       1     336
       1     337
       1     338
       1     339
       1     340
       1     341
       1     342
       1     343
       1     344
       1     345
       1     346
       1     347
       1     348
       1     349
       1     350
       1     351
       1     352
       1     353
       1     354
       1     355
       1     356
       1     357
       1     358
       1     359
       1     360
       1     361
       1     362
       1     363
       1     364
       1     365
       1     366
       1     367
       1     368
       1     369
       1     370
       1     371
       1     372
       1     373
       1     374
       1     375
       1     376
       1     377
       1     378
       1     379
       1     380
       1     381
       1     382
       1     383
       1     384
       1     385
       1     386
       1     387
       1     388
       1     389
       1     390
       1     391
       1     392
       1     393
       1     394
       1     395
       1     396
       1     397
       1     398
       1     399
       1     400
       1     401
       1     402
       1     403
       1     404
       1     405
       1     406
       1     407
       1     408
       1     409
       1     410
       1     411
       1     412
       1     413
       1     414
       1     415
       1     416
       1     417
       1     418
       1     419
       1     420
       1     421
       1     422
       1     423
       1     424
       1     425
       1     426
       1     427
       1     428
       1     429
       1     430
       1     431
       1     432
       1     433
       1     434
       1     435
       1     436
       1     437
       1     438
       1     439
       1     440
       1     441
       1     442
       1     443
       1     444
       1     445
       1     446
       1     447
       1     448
       1     449
       1     450
       1     451
       1     452
       1     453
       1     454
       1     455
       1     456
       1     457
       1     458
       1     459
       1     460
       1     461
       1     462
       1     463
       1     464
       1     465
       1     466
       1     467
       1     468
       1     469
       1     470
       1     471
       1     472
       1     473
       1     474
       1     475
       1     476
       1     477
       1     478
       1     479
       1     480
       1     481
       1     482
       1     483
       1     484
       1     485
       1     486
       1     487
       1     488
       1     489
       1     490
       1     491
       1     492
       1     493
       1     494
       1     495
       1     496
       1     497
       1     498
       1     499
       1     500
       1     501
       1     502
       1     503
       1     504
       1     505
       1     506
       1     507
       1     508
       1     509
       1     510
       1     511
       1     512
       1     513
       1     514
       1     515
       1     516
       1     517
       1     518
       1     519
       1     520
       1     521
       1     522
       1     523
       1     524
       1     525
       1     526
       1     527
       1     528
       1     529
       1     530
       1     531
       1     532
       1     533
       1     534
       1     535
       1     536
       1     537
       1     538
       1     539
       1     540
       1     541
       1     542
       1     543
       1     544
       1     545
       1     546
       1     547
       1     548
       1     549
       1     550
       1     551
       1     552
       1     553
       1     554
       1     555
       1     556
       1     557
       1     558
       1     559
       1     560
       1     561
       1     562
       1     563
       1     564
       1     565
       1     566
       1     567
       1     568
       1     569
       1     570
       1     571
       1     572
       1     573
       1     574
       1     575
       1     576
       1     577
       1     578
       1     579
       1     580
       1     581
       1     582
       1     583
       1     584
       1     585
       1     586
       1     587
       1     588
       1     589
       1     590
       1     591
       1     592
       1     593
       1     594
       1     595
       1     596
       1     597
       1     598
       1     599
       1     600
       1     601
       1     602
       1     603
       1     604
       1     605
       1     606
       1     607
       1     608
       1     609
       1     610
       1     611
       1     612
       1     613
       1     614
       1     615
       1     616
       1     617
       1     618
       1     619
       1     620
       1     621
       1     622
       1     623
       1     624
       1     625
       1     626
       1     627
       1     628
       1     629
       1     630
       1     631
       1     632
       1     633
       1     634
       1     635
       1     636
       1     637
       1     638
       1     639
       1     640
       1     641
       1     642
       1     643
       1     644
       1     645
       1     646
       1     647
       1     648
       1     649
       1     650
       1     651
       1     652
       1     653
       1     654
       1     655
       1     656
       1     657
       1     658
       1     659
       1     660
       1     661
       1     662
       1     663
       1     664
       1     665
       1     666
       1     667
       1     668
       1     669
       1     670
       1     671
       1     672
       1     673
       1     674
       1     675
       1     676
       1     677
       1     678
       1     679
       1     680
       1     681
       1     682
       1     683
       1     684
       1     685
       1     686
       1     687
       1     688
       1     689
       1     690
       1     691
       1     692
       1     693
       1     694
       1     695
       1     696
       1     697
       1     698
       1     699
       1     700
       1     701
       1     702
       1     703
       1     704
       1     705
       1     706
       1     707
       1     708
       1     709
       1     710
       1     711
       1     712
       1     713
       1     714
       1     715
       1     716
       1     717
       1     718
       1     719
       1     720
       1     721
       1     722
       1     723
       1     724
       1     725
       1     726
       1     727
       1     728
       1     729
       1     730
       1     731
       1     732
       1     733
       1     734
       1     735
       1     736
       1     737
       1     738
       1     739
       1     740
       1     741
       1     742
       1     743
       1     744
       1     745
       1     746
       1     747
       1     748
       1     749
       1     750
       1     751
       1     752
       1     753
       1     754
       1     755
       1     756
       1     757
       1     758
       1     759
       1     760
       1     761
       1     762
       1     763
       1     764
       1     765
       1     766
       1     767
       1     768
       1     769
       1     770
       1     771
       1     772
       1     773
       1     774
       1     775
       1     776
       1     777
       1     778
       1     779
       1     780
       1     781
       1     782
       1     783
       1     784
       1     785
       1     786
       1     787
       1     788
       1     789
       1     790
       1     791
       1     792
       1     793
       1     794
       1     795
       1     796
       1     797
       1     798
       1     799
       1     800
       1     801
       1     802
       1     803
       1     804
       1     805
       1     806
       1     807
       1     808
       1     809
       1     810
       1     811
       1     812
       1     813
       1     814
       1     815
       1     816
       1     817
       1     818
       1     819
       1     820
       1     821
       1     822
       1     823
       1     824
       1     825
       1     826
       1     827
       1     828
       1     829
       1     830
       1     831
       1     832
       1     833
       1     834
       1     835
       1     836
       1     837
       1     838
       1     839
       1     840
       1     841
       1     842
       1     843
       1     844
       1     845
       1     846
       1     847
       1     848
       1     849
       1     850
       1     851
       1     852
       1     853
       1     854
       1     855
       1     856
       1     857
       1     858
       1     859
       1     860
       1     861
       1     862
       1     863
       1     864
       1     865
       1     866
       1     867
       1     868
       1     869
       1     870
       1     871
       1     872
       1     873
       1     874
       1     875
       1     876
       1     877
       1     878
       1     879
       1     880
       1     881
       1     882
       1     883
       1     884
       1     885
       1     886
       1     887
       1     888
       1     889
       1     890
       1     891
       1     892
       1     893
       1     894
       1     895
       1     896
       1     897
       1     898
       1     899
       1     900
       1     901
       1     902
       1     903
       1     904
       1     905
       1     906
       1     907
       1     908
       1     909
       1     910
       1     911
       1     912
       1     913
       1     914
       1     915
       1     916
       1     917
       1     918
       1     919
       1     920
       1     921
       1     922
       1     923
       1     924
       1     925
       1     926
       1     927
       1     928
       1     929
       1     930
       1     931
       1     932
       1     933
       1     934
       1     935
       1     936
       1     937
       1     938
       1     939
       1     940
       1     941
       1     942
       1     943
       1     944
       1     945
       1     946
       1     947
       1     948
       1     949
       1     950
       1     951
       1     952
       1     953
       1     954
       1     955
       1     956
       1     957
       1     958
       1     959
       1     960
       1     961
       1     962
       1     963
       1     964
       1     965
       1     966
       1     967
       1     968
       1     969
       1     970
       1     971
       1     972
       1     973
       1     974
       1     975
       1     976
       1     977
       1     978
       1     979
       1     980
       1     981
       1     982
       1     983
       1     984
       1     985
       1     986
       1     987
       1     988
       1     989
       1     990
       1     991
       1     992
       1     993
       1     994
       1     995
       1     996
       1     997
       1     998
       1     999
       1    1000
       1    1001
       1    1002
       1    1003
       1    1004
       1    1005
       1    1006
       1    1007
       1    1008
       1    1009
       1    1010
       1    1011
       1    1012
       1    1013
       1    1014
       1    1015
       1    1016
       1    1017
       1    1018
       1    1019
       1    1020
       1    1021
       1    1022
       1    1023
       1    1024
       1    1025
       1    1026
       1    1027
       1    1028
       1    1029
       1    1030
       1    1031
       1    1032
       1    1033
       1    1034
       1    1035
       1    1036
       1    1037
       1    1038
       1    1039
       1    1040
       1    1041
       1    1042
       1    1043
       1    1044
       1    1045
       1    1046
       1    1047
       1    1048
       1    1049
       1    1050
       1    1051
       1    1052
       1    1053
       1    1054
       1    1055
       1    1056
       1    1057
       1    1058
       1    1059
       1    1060
       1    1061
       1    1062
       1    1063
       1    1064
       1    1065
       1    1066
       1    1067
       1    1068
       1    1069
       1    1070
       1    1071
       1    1072
       1    1073
       1    1074
       1    1075
       1    1076
       1    1077
       1    1078
       1    1079
       1    1080
       1    1081
       1    1082
       1    1083
       1    1084
       1    1085
       1    1086
       1    1087
       1    1088
       1    1089
       1    1090
       1    1091
       1    1092
       1    1093
       1    1094
       1    1095
       1    1096
       1    1097
       1    1098
       1    1099
       1    1100
       1    1101
       1    1102
       1    1103
       1    1104
       1    1105
       1    1106
       1    1107
       1    1108
       1    1109
       1    1110
       1    1111
       1    1112
       1    1113
       1    1114
       1    1115
       1    1116
       1    1117
       1    1118
       1    1119
       1    1120
       1    1121
       1    1122
       1    1123
       1    1124
       1    1125
       1    1126
       1    1127
       1    1128
       1    1129
       1    1130
       1    1131
       1    1132
       1    1133
       1    1134
       1    1135
       1    1136
       1    1137
       1    1138
       1    1139
       1    1140
       1    1141
       1    1142
       1    1143
       1    1144
       1    1145
       1    1146
       1    1147
       1    1148
       1    1149
       1    1150
       1    1151
       1    1152
       1    1153
       1    1154
       1    1155
       1    1156
       1    1157
       1    1158
       1    1159
       1    1160
       1    1161
       1    1162
       1    1163
       1    1164
       1    1165
       1    1166
       1    1167
       1    1168
       1    1169
       1    1170
       1    1171
       1    1172
       1    1173
       1    1174
       1    1175
       1    1176
       1    1177
       1    1178
       1    1179
       1    1180
       1    1181
       1    1182
       1    1183
       1    1184
       1    1185
       1    1186
       1    1187
       1    1188
       1    1189
       1    1190
       1    1191
       1    1192
       1    1193
       1    1194
       1    1195
       1    1196
       1    1197
       1    1198
       1    1199
       1    1200
       1    1201
       1    1202
       1    1203
       1    1204
       1    1205
       1    1206
       1    1207
       1    1208
       1    1209
       1    1210
       1    1211
       1    1212
       1    1213
       1    1214
       1    1215
       1    1216
       1    1217
       1    1218
       1    1219
       1    1220
       1    1221
       1    1222
       1    1223
       1    1224
       1    1225
       1    1226
       1    1227
       1    1228
       1    1229
       1    1230
       1    1231
       1    1232
       1    1233
       1    1234
       1    1235
       1    1236
       1    1237
       1    1238
       1    1239
       1    1240
       1    1241
       1    1242
       1    1243
       1    1244
       1    1245
       1    1246
       1    1247
       1    1248
       1    1249
       1    1250
       1    1251
       1    1252
       1    1253
       1    1254
       1    1255
       1    1256
       1    1257
       1    1258
       1    1259
       1    1260
       1    1261
       1    1262
       1    1263
       1    1264
       1    1265
       1    1266
       1    1267
       1    1268
       1    1269
       1    1270
       1    1271
       1    1272
       1    1273
       1    1274
       1    1275
       1    1276
       1    1277
       1    1278
       1    1279
       1    1280
       1    1281
       1    1282
       1    1283
       1    1284
       1    1285
       1    1286
       1    1287
       1    1288
       1    1289
       1    1290
       1    1291
       1    1292
       1    1293
       1    1294
       1    1295
       1    1296
       1    1297
       1    1298
       1    1299
       1    1300
       1    1301
       1    1302
       1    1303
       1    1304
       1    1305
       1    1306
       1    1307
       1    1308
       1    1309
       1    1310
       1    1311
       1    1312
       1    1313
       1    1314
       1    1315
       1    1316
       1    1317
       1    1318
       1    1319
       1    1320
       1    1321
       1    1322
       1    1323
       1    1324
       1    1325
       1    1326
       1    1327
       1    1328
       1    1329
       1    1330
       1    1331
       1    1332
       1    1333
       1    1334
       1    1335
       1    1336
       1    1337
       1    1338
       1    1339
       1    1340
       1    1341
       1    1342
       1    1343
       1    1344
       1    1345
       1    1346
       1    1347
       1    1348
       1    1349
       1    1350
       1    1351
       1    1352
       1    1353
       1    1354
       1    1355
       1    1356
       1    1357
       1    1358
       1    1359
       1    1360
       1    1361
       1    1362
       1    1363
       1    1364
       1    1365
       1    1366
       1    1367
       1    1368
       1    1369
       1    1370
       1    1371
       1    1372
       1    1373
       1    1374
       1    1375
       1    1376
       1    1377
       1    1378
       1    1379
       1    1380
       1    1381
       1    1382
       1    1383
       1    1384
       1    1385
       1    1386
       1    1387
       1    1388
       1    1389
       1    1390
       1    1391
       1    1392
       1    1393
       1    1394
       1    1395
       1    1396
       1    1397
       1    1398
       1    1399
       1    1400
       1    1401
       1    1402
       1    1403
       1    1404
       1    1405
       1    1406
       1    1407
       1    1408
       1    1409
       1    1410
       1    1411
       1    1412
       1    1413
       1    1414
       1    1415
       1    1416
       1    1417
       1    1418
       1    1419
       1    1420
       1    1421
       1    1422
       1    1423
       1    1424
       1    1425
       1    1426
       1    1427
       1    1428
       1    1429
       1    1430
       1    1431
       1    1432
       1    1433
       1    1434
       1    1435
       1    1436
       1    1437
       1    1438
       1    1439
       1    1440
       1    1441
       1    1442
       1    1443
       1    1444
       1    1445
       1    1446
       1    1447
       1    1448
       1    1449
       1    1450
       1    1451
       1    1452
       1    1453
       1    1454
       1    1455
       1    1456
       1    1457
       1    1458
       1    1459
       1    1460
       1    1461
       1    1462
       1    1463
       1    1464
       1    1465
       1    1466
       1    1467
       1    1468
       1    1469
       1    1470
       1    1471
       1    1472
       1    1473
       1    1474
       1    1475
       1    1476
       1    1477
       1    1478
       1    1479
       1    1480
       1    1481
       1    1482
       1    1483
       1    1484
       1    1485
       1    1486
       1    1487
       1    1488
       1    1489
       1    1490
       1    1491
       1    1492
       1    1493
       1    1494
       1    1495
       1    1496
       1    1497
       1    1498
       1    1499
       1    1500
       1    1501
       1    1502
       1    1503
       1    1504
       1    1505
       1    1506
       1    1507
       1    1508
       1    1509
       1    1510
       1    1511
       1    1512
       1    1513
       1    1514
       1    1515
       1    1516
       1    1517
       1    1518
       1    1519
       1    1520
       1    1521
       1    1522
       1    1523
       1    1524
       1    1525
       1    1526
       1    1527
       1    1528
       1    1529
       1    1530
       1    1531
       1    1532
       1    1533
       1    1534
       1    1535
       1    1536
       1    1537
       1    1538
       1    1539
       1    1540
       1    1541
       1    1542
       1    1543
       1    1544
       1    1545
       1    1546
       1    1547
       1    1548
       1    1549
       1    1550
       1    1551
       1    1552
       1    1553
       1    1554
       1    1555
       1    1556
       1    1557
       1    1558
       1    1559
       1    1560
       1    1561
       1    1562
       1    1563
       1    1564
       1    1565
       1    1566
       1    1567
       1    1568
       1    1569
       1    1570
       1    1571
       1    1572
       1    1573
       1    1574
       1    1575
       1    1576
       1    1577
       1    1578
       1    1579
       1    1580
       1    1581
       1    1582
       1    1583
       1    1584
       1    1585
       1    1586
       1    1587
       1    1588
       1    1589
       1    1590
       1    1591
       1    1592
       1    1593
       1    1594
       1    1595
       1    1596
       1    1597
       1    1598
       1    1599
       1    1600
       1    1601
       1    1602
       1    1603
       1    1604
       1    1605
       1    1606
       1    1607
       1    1608
       1    1609
       1    1610
       1    1611
       1    1612
       1    1613
       1    1614
       1    1615
       1    1616
       1    1617
       1    1618
       1    1619
       1    1620
       1    1621
       1    1622
       1    1623
       1    1624
       1    1625
       1    1626
       1    1627
       1    1628
       1    1629
       1    1630
       1    1631
       1    1632
       1    1633
       1    1634
       1    1635
       1    1636
       1    1637
       1    1638
       1    1639
       1    1640
       1    1641
       1    1642
       1    1643
       1    1644
       1    1645
       1    1646
       1    1647
       1    1648
       1    1649
       1    1650
       1    1651
       1    1652
       1    1653
       1    1654
       1    1655
       1    1656
       1    1657
       1    1658
       1    1659
       1    1660
       1    1661
       1    1662
       1    1663
       1    1664
       1    1665
       1    1666
       1    1667
       1    1668
       1    1669
       1    1670
       1    1671
       1    1672
       1    1673
       1    1674
       1    1675
       1    1676
       1    1677
       1    1678
       1    1679
       1    1680
       1    1681
       1    1682
       1    1683
       1    1684
       1    1685
       1    1686
       1    1687
       1    1688
       1    1689
       1    1690
       1    1691
       1    1692
       1    1693
       1    1694
       1    1695
       1    1696
       1    1697
       1    1698
       1    1699
       1    1700
       1    1701
       1    1702
       1    1703
       1    1704
       1    1705
       1    1706
       1    1707
       1    1708
       1    1709
       1    1710
       1    1711
       1    1712
       1    1713
       1    1714
       1    1715
       1    1716
       1    1717
       1    1718
       1    1719
       1    1720
       1    1721
       1    1722
       1    1723
       1    1724
       1    1725
       1    1726
       1    1727
       1    1728
       1    1729
       1    1730
       1    1731
       1    1732
       1    1733
       1    1734
       1    1735
       1    1736
       1    1737
       1    1738
       1    1739
       1    1740
       1    1741
       1    1742
       1    1743
       1    1744
       1    1745
       1    1746
       1    1747
       1    1748
       1    1749
       1    1750
       1    1751
       1    1752
       1    1753
       1    1754
       1    1755
       1    1756
       1    1757
       1    1758
       1    1759
       1    1760
       1    1761
       1    1762
       1    1763
       1    1764
       1    1765
       1    1766
       1    1767
       1    1768
       1    1769
       1    1770
       1    1771
       1    1772
       1    1773
       1    1774
       1    1775
       1    1776
       1    1777
       1    1778
       1    1779
       1    1780
       1    1781
       1    1782
       1    1783
       1    1784
       1    1785
       1    1786
       1    1787
       1    1788
       1    1789
       1    1790
       1    1791
       1    1792
       1    1793
       1    1794
       1    1795
       1    1796
       1    1797
       1    1798
       1    1799
       1    1800
       1    1801
       1    1802
       1    1803
       1    1804
       1    1805
       1    1806
       1    1807
       1    1808
       1    1809
       1    1810
       1    1811
       1    1812
       1    1813
       1    1814
       1    1815
       1    1816
       1    1817
       1    1818
       1    1819
       1    1820
       1    1821
       1    1822
       1    1823
       1    1824
       1    1825
       1    1826
       1    1827
       1    1828
       1    1829
       1    1830
       1    1831
       1    1832
       1    1833
       1    1834
       1    1835
       1    1836
       1    1837
       1    1838
       1    1839
       1    1840
       1    1841
       1    1842
       1    1843
       1    1844
       1    1845
       1    1846
       1    1847
       1    1848
       1    1849
       1    1850
       1    1851
       1    1852
       1    1853
       1    1854
       1    1855
       1    1856
       1    1857
       1    1858
       1    1859
       1    1860
       1    1861
       1    1862
       1    1863
       1    1864
       1    1865
       1    1866
       1    1867
       1    1868
       1    1869
       1    1870
       1    1871
       1    1872
       1    1873
       1    1874
       1    1875
       1    1876
       1    1877
       1    1878
       1    1879
       1    1880
       1    1881
       1    1882
       1    1883
       1    1884
       1    1885
       1    1886
       1    1887
       1    1888
       1    1889
       1    1890
       1    1891
       1    1892
       1    1893
       1    1894
       1    1895
       1    1896
       1    1897
       1    1898
       1    1899
       1    1900
       1    1901
       1    1902
       1    1903
       1    1904
       1    1905
       1    1906
       1    1907
       1    1908
       1    1909
       1    1910
       1    1911
       1    1912
       1    1913
       1    1914
       1    1915
       1    1916
       1    1917
       1    1918
       1    1919
       1    1920
       1    1921
       1    1922
       1    1923
       1    1924
       1    1925
       1    1926
       1    1927
       1    1928
       1    1929
       1    1930
       1    1931
       1    1932
       1    1933
       1    1934
       1    1935
       1    1936
       1    1937
       1    1938
       1    1939
       1    1940
       1    1941
       1    1942
       1    1943
       1    1944
       1    1945
       1    1946
       1    1947
       1    1948
       1    1949
       8       0       1       2       3       4       5       6       7
       8       2       8       9       3       6      10      11       7
       8      12       1       0      13      14       5       4      15
       8       0      16      17      13       4      18      19      15
       8      20      21      22      12      23      24      25      14
       8      26      27      21      20      28      29      24      23
       8      13      26      20      12      15      28      23      14
       8      30      31      16      32      33      34      18      35
       8      36      37      31      30      38      39      34      33
       8      40      41      37      36      42      43      39      38
       8      44      40      36      45      46      42      38      47
       8      48      17      16      31      49      19      18      34
       8      30      50      45      36      33      51      47      38
       8       0       3      32      16       4       7      35      18
       8      52      26      13      17      53      28      15      19
       8      54      52      17      48      55      53      19      49
       8      56      54      48      57      58      55      49      59
       8      37      57      48      31      39      59      49      34
       8      60      61      50      30      62      63      51      33
       8      64      60      30      32      65      62      33      35
       8      66      64      32       3      67      65      35       7
       8      68       8       2      69      70      10       6      71
       8      72      69       2       1      73      71       6       5
       8      22      72       1      12      25      73       5      14
       8      74      27      26      52      75      29      28      53
       8      76      74      52      54      77      75      53      55
       8      78      76      54      56      79      77      55      58
       8      80      78      56      81      82      79      58      83
       8      84      81      56      57      85      83      58      59
       8      41      84      57      37      43      85      59      39
       8      86      44      45      50      87      46      47      51
       8      88      86      50      61      89      87      51      63
       8      90      88      61      91      92      89      63      93
       8      94      91      61      60      95      93      63      62
       8      96      94      60      64      97      95      62      65
       8      98      96      64      66      99      97      65      67
       8     100      98      66     101     102      99      67     103
       8       9     101      66       3      11     103      67       7
       8     104     105       8      68     106     107      10      70
       8     108     104      68      69     109     106      70      71
       8     110     108      69      72     111     109      71      73
       8     112     110      72      22     113     111      73      25
       8     114     112      22      21     115     113      25      24
       8     116     114      21      27     117     115      24      29
       8     118     116      27      74     119     117      29      75
       8     120     118      74      76     121     119      75      77
       8     122     120      76      78     123     121      77      79
       8     124     122      78      80     125     123      79      82
       8     126     124      80      81     127     125      82      83
       8     128     126      81      84     129     127      83      85
       8     130     128      84      41     131     129      85      43
       8     132     130      41      40     133     131      43      42
       8     134     132      40      44     135     133      42      46
       8     136     134      44      86     137     135      46      87
       8     138     136      86      88     139     137      87      89
       8     140     138      88      90     141     139      89      92
       8     142     140      90      91     143     141      92      93
       8     144     142      91      94     145     143      93      95
       8     146     144      94      96     147     145      95      97
       8     148     146      96      98     149     147      97      99
       8     150     148      98     100     151     149      99     102
       8     152     150     100     101     153     151     102     103
       8     154     152     101       9     155     153     103      11
       8     105     154       9       8     107     155      11      10
       8     156     157     158     159       0       1       2       3
       8     158     160     161     159       2       8       9       3
       8     162     157     156     163      12       1       0      13
       8     156     164     165     163       0      16      17      13
       8     166     167     168     162      20      21      22      12
       8     169     170     167     166      26      27      21      20
       8     163     169     166     162      13      26      20      12
       8     171     172     164     173      30      31      16      32
       8     174     175     172     171      36      37      31      30
       8     176     177     175     174      40      41      37      36
       8     178     176     174     179      44      40      36      45
       8     180     165     164     172      48      17      16      31
       8     171     181     179     174      30      50      45      36
       8     156     159     173     164       0       3      32      16
       8     182     169     163     165      52      26      13      17
       8     183     182     165     180      54      52      17      48
       8     184     183     180     185      56      54      48      57
       8     175     185     180     172      37      57      48      31
       8     186     187     181     171      60      61      50      30
       8     188     186     171     173      64      60      30      32
       8     189     188     173     159      66      64      32       3
       8     190     160     158     191      68       8       2      69
       8     192     191     158     157      72      69       2       1
       8     168     192     157     162      22      72       1      12
       8     193     170     169     182      74      27      26      52
       8     194     193     182     183      76      74      52      54
       8     195     194     183     184      78      76      54      56
       8     196     195     184     197      80      78      56      81
       8     198     197     184     185      84      81      56      57
       8     177     198     185     175      41      84      57      37
       8     199     178     179     181      86      44      45      50
       8     200     199     181     187      88      86      50      61
       8     201     200     187     202      90      88      61      91
       8     203     202     187     186      94      91      61      60
       8     204     203     186     188      96      94      60      64
       8     205     204     188     189      98      96      64      66
       8     206     205     189     207     100      98      66     101
       8     161     207     189     159       9     101      66       3
       8     208     209     160     190     104     105       8      68
       8     210     208     190     191     108     104      68      69
       8     211     210     191     192     110     108      69      72
       8     212     211     192     168     112     110      72      22
       8     213     212     168     167     114     112      22      21
       8     214     213     167     170     116     114      21      27
       8     215     214     170     193     118     116      27      74
       8     216     215     193     194     120     118      74      76
       8     217     216     194     195     122     120      76      78
       8     218     217     195     196     124     122      78      80
       8     219     218     196     197     126     124      80      81
       8     220     219     197     198     128     126      81      84
       8     221     220     198     177     130     128      84      41
       8     222     221     177     176     132     130      41      40
       8     223     222     176     178     134     132      40      44
       8     224     223     178     199     136     134      44      86
       8     225     224     199     200     138     136      86      88
       8     226     225     200     201     140     138      88      90
       8     227     226     201     202     142     140      90      91
       8     228     227     202     203     144     142      91      94
       8     229     228     203     204     146     144      94      96
       8     230     229     204     205     148     146      96      98
       8     231     230     205     206     150     148      98     100
       8     232     231     206     207     152     150     100     101
       8     233     232     207     161     154     152     101       9
       8     209     233     161     160     105     154       9       8
       8     234     235     236     237     156     157     158     159
       8     236     238     239     237     158     160     161     159
       8     240     235     234     241     162     157     156     163
       8     234     242     243     241     156     164     165     163
       8     244     245     246     240     166     167     168     162
       8     247     248     245     244     169     170     167     166
       8     241     247     244     240     163     169     166     162
       8     249     250     242     251     171     172     164     173
       8     252     253     250     249     174     175     172     171
       8     254     255     253     252     176     177     175     174
       8     256     254     252     257     178     176     174     179
       8     258     243     242     250     180     165     164     172
       8     249     259     257     252     171     181     179     174
       8     234     237     251     242     156     159     173     164
       8     260     247     241     243     182     169     163     165
       8     261     260     243     258     183     182     165     180
       8     262     261     258     263     184     183     180     185
       8     253     263     258     250     175     185     180     172
       8     264     265     259     249     186     187     181     171
       8     266     264     249     251     188     186     171     173
       8     267     266     251     237     189     188     173     159
       8     268     238     236     269     190     160     158     191
       8     270     269     236     235     192     191     158     157
       8     246     270     235     240     168     192     157     162
       8     271     248     247     260     193     170     169     182
       8     272     271     260     261     194     193     182     183
       8     273     272     261     262     195     194     183     184
       8     274     273     262     275     196     195     184     197
       8     276     275     262     263     198     197     184     185
       8     255     276     263     253     177     198     185     175
       8     277     256     257     259     199     178     179     181
       8     278     277     259     265     200     199     181     187
       8     279     278     265     280     201     200     187     202
       8     281     280     265     264     203     202     187     186
       8     282     281     264     266     204     203     186     188
       8     283     282     266     267     205     204     188     189
       8     284     283     267     285     206     205     189     207
       8     239     285     267     237     161     207     189     159
       8     286     287     238     268     208     209     160     190
       8     288     286     268     269     210     208     190     191
       8     289     288     269     270     211     210     191     192
       8     290     289     270     246     212     211     192     168
       8     291     290     246     245     213     212     168     167
       8     292     291     245     248     214     213     167     170
       8     293     292     248     271     215     214     170     193
       8     294     293     271     272     216     215     193     194
       8     295     294     272     273     217     216     194     195
       8     296     295     273     274     218     217     195     196
       8     297     296     274     275     219     218     196     197
       8     298     297     275     276     220     219     197     198
       8     299     298     276     255     221     220     198     177
       8     300     299     255     254     222     221     177     176
       8     301     300     254     256     223     222     176     178
       8     302     301     256     277     224     223     178     199
       8     303     302     277     278     225     224     199     200
       8     304     303     278     279     226     225     200     201
       8     305     304     279     280     227     226     201     202
       8     306     305     280     281     228     227     202     203
       8     307     306     281     282     229     228     203     204
       8     308     307     282     283     230     229     204     205
       8     309     308     283     284     231     230     205     206
       8     310     309     284     285     232     231     206     207
       8     311     310     285     239     233     232     207     161
       8     287     311     239     238     209     233     161     160
       8     312     313     314     315     234     235     236     237
       8     314     316     317     315     236     238     239     237
       8     318     313     312     319     240     235     234     241
       8     312     320     321     319     234     242     243     241
       8     322     323     324     318     244     245     246     240
       8     325     326     323     322     247     248     245     244
       8     319     325     322     318     241     247     244     240
       8     327     328     320     329     249     250     242     251
       8     330     331     328     327     252     253     250     249
       8     332     333     331     330     254     255     253     252
       8     334     332     330     335     256     254     252     257
       8     336     321     320     328     258     243     242     250
       8     327     337     335     330     249     259     257     252
       8     312     315     329     320     234     237     251     242
       8     338     325     319     321     260     247     241     243
       8     339     338     321     336     261     260     243     258
       8     340     339     336     341     262     261     258     263
       8     331     341     336     328     253     263     258     250
       8     342     343     337     327     264     265     259     249
       8     344     342     327     329     266     264     249     251
       8     345     344     329     315     267     266     251     237
       8     346     316     314     347     268     238     236     269
       8     348     347     314     313     270     269     236     235
       8     324     348     313     318     246     270     235     240
       8     349     326     325     338     271     248     247     260
       8     350     349     338     339     272     271     260     261
       8     351     350     339     340     273     272     261     262
       8     352     351     340     353     274     273     262     275
       8     354     353     340     341     276     275     262     263
       8     333     354     341     331     255     276     263     253
       8     355     334     335     337     277     256     257     259
       8     356     355     337     343     278     277     259     265
       8     357     356     343     358     279     278     265     280
       8     359     358     343     342     281     280     265     264
       8     360     359     342     344     282     281     264     266
       8     361     360     344     345     283     282     266     267
       8     362     361     345     363     284     283     267     285
       8     317     363     345     315     239     285     267     237
       8     364     365     316     346     286     287     238     268
       8     366     364     346     347     288     286     268     269
       8     367     366     347     348     289     288     269     270
       8     368     367     348     324     290     289     270     246
       8     369     368     324     323     291     290     246     245
       8     370     369     323     326     292     291     245     248
       8     371     370     326     349     293     292     248     271
       8     372     371     349     350     294     293     271     272
       8     373     372     350     351     295     294     272     273
       8     374     373     351     352     296     295     273     274
       8     375     374     352     353     297     296     274     275
       8     376     375     353     354     298     297     275     276
       8     377     376     354     333     299     298     276     255
       8     378     377     333     332     300     299     255     254
       8     379     378     332     334     301     300     254     256
       8     380     379     334     355     302     301     256     277
       8     381     380     355     356     303     302     277     278
       8     382     381     356     357     304     303     278     279
       8     383     382     357     358     305     304     279     280
       8     384     383     358     359     306     305     280     281
       8     385     384     359     360     307     306     281     282
       8     386     385     360     361     308     307     282     283
       8     387     386     361     362     309     308     283     284
       8     388     387     362     363     310     309     284     285
       8     389     388     363     317     311     310     285     239
       8     365     389     317     316     287     311     239     238
       8     390     391     392     393     312     313     314     315
       8     392     394     395     393     314     316     317     315
       8     396     391     390     397     318     313     312     319
       8     390     398     399     397     312     320     321     319
       8     400     401     402     396     322     323     324     318
       8     403     404     401     400     325     326     323     322
       8     397     403     400     396     319     325     322     318
       8     405     406     398     407     327     328     320     329
       8     408     409     406     405     330     331     328     327
       8     410     411     409     408     332     333     331     330
       8     412     410     408     413     334     332     330     335
       8     414     399     398     406     336     321     320     328
       8     405     415     413     408     327     337     335     330
       8     390     393     407     398     312     315     329     320
       8     416     403     397     399     338     325     319     321
       8     417     416     399     414     339     338     321     336
       8     418     417     414     419     340     339     336     341
       8     409     419     414     406     331     341     336     328
       8     420     421     415     405     342     343     337     327
       8     422     420     405     407     344     342     327     329
       8     423     422     407     393     345     344     329     315
       8     424     394     392     425     346     316     314     347
       8     426     425     392     391     348     347     314     313
       8     402     426     391     396     324     348     313     318
       8     427     404     403     416     349     326     325     338
       8     428     427     416     417     350     349     338     339
       8     429     428     417     418     351     350     339     340
       8     430     429     418     431     352     351     340     353
       8     432     431     418     419     354     353     340     341
       8     411     432     419     409     333     354     341     331
       8     433     412     413     415     355     334     335     337
       8     434     433     415     421     356     355     337     343
       8     435     434     421     436     357     356     343     358
       8     437     436     421     420     359     358     343     342
       8     438     437     420     422     360     359     342     344
       8     439     438     422     423     361     360     344     345
       8     440     439     423     441     362     361     345     363
       8     395     441     423     393     317     363     345     315
       8     442     443     394     424     364     365     316     346
       8     444     442     424     425     366     364     346     347
       8     445     444     425     426     367     366     347     348
       8     446     445     426     402     368     367     348     324
       8     447     446     402     401     369     368     324     323
       8     448     447     401     404     370     369     323     326
       8     449     448     404     427     371     370     326     349
       8     450     449     427     428     372     371     349     350
       8     451     450     428     429     373     372     350     351
       8     452     451     429     430     374     373     351     352
       8     453     452     430     431     375     374     352     353
       8     454     453     431     432     376     375     353     354
       8     455     454     432     411     377     376     354     333
       8     456     455     411     410     378     377     333     332
       8     457     456     410     412     379     378     332     334
       8     458     457     412     433     380     379     334     355
       8     459     458     433     434     381     380     355     356
       8     460     459     434     435     382     381     356     357
       8     461     460     435     436     383     382     357     358
       8     462     461     436     437     384     383     358     359
       8     463     462     437     438     385     384     359     360
       8     464     463     438     439     386     385     360     361
       8     465     464     439     440     387     386     361     362
       8     466     465     440     441     388     387     362     363
       8     467     466     441     395     389     388     363     317
       8     443     467     395     394     365     389     317     316
       8     468     469     470     471     390     391     392     393
       8     470     472     473     471     392     394     395     393
       8     474     469     468     475     396     391     390     397
       8     468     476     477     475     390     398     399     397
       8     478     479     480     474     400     401     402     396
       8     481     482     479     478     403     404     401     400
       8     475     481     478     474     397     403     400     396
       8     483     484     476     485     405     406     398     407
       8     486     487     484     483     408     409     406     405
       8     488     489     487     486     410     411     409     408
       8     490     488     486     491     412     410     408     413
       8     492     477     476     484     414     399     398     406
       8     483     493     491     486     405     415     413     408
       8     468     471     485     476     390     393     407     398
       8     494     481     475     477     416     403     397     399
       8     495     494     477     492     417     416     399     414
       8     496     495     492     497     418     417     414     419
       8     487     497     492     484     409     419     414     406
       8     498     499     493     483     420     421     415     405
       8     500     498     483     485     422     420     405     407
       8     501     500     485     471     423     422     407     393
       8     502     472     470     503     424     394     392     425
       8     504     503     470     469     426     425     392     391
       8     480     504     469     474     402     426     391     396
       8     505     482     481     494     427     404     403     416
       8     506     505     494     495     428     427     416     417
       8     507     506     495     496     429     428     417     418
       8     508     507     496     509     430     429     418     431
       8     510     509     496     497     432     431     418     419
       8     489     510     497     487     411     432     419     409
       8     511     490     491     493     433     412     413     415
       8     512     511     493     499     434     433     415     421
       8     513     512     499     514     435     434     421     436
       8     515     514     499     498     437     436     421     420
       8     516     515     498     500     438     437     420     422
       8     517     516     500     501     439     438     422     423
       8     518     517     501     519     440     439     423     441
       8     473     519     501     471     395     441     423     393
       8     520     521     472     502     442     443     394     424
       8     522     520     502     503     444     442     424     425
       8     523     522     503     504     445     444     425     426
       8     524     523     504     480     446     445     426     402
       8     525     524     480     479     447     446     402     401
       8     526     525     479     482     448     447     401     404
       8     527     526     482     505     449     448     404     427
       8     528     527     505     506     450     449     427     428
       8     529     528     506     507     451     450     428     429
       8     530     529     507     508     452     451     429     430
       8     531     530     508     509     453     452     430     431
       8     532     531     509     510     454     453     431     432
       8     533     532     510     489     455     454     432     411
       8     534     533     489     488     456     455     411     410
       8     535     534     488     490     457     456     410     412
       8     536     535     490     511     458     457     412     433
       8     537     536     511     512     459     458     433     434
       8     538     537     512     513     460     459     434     435
       8     539     538     513     514     461     460     435     436
       8     540     539     514     515     462     461     436     437
       8     541     540     515     516     463     462     437     438
       8     542     541     516     517     464     463     438     439
       8     543     542     517     518     465     464     439     440
       8     544     543     518     519     466     465     440     441
       8     545     544     519     473     467     466     441     395
       8     521     545     473     472     443     467     395     394
       8     546     547     548     549     468     469     470     471
       8     548     550     551     549     470     472     473     471
       8     552     547     546     553     474     469     468     475
       8     546     554     555     553     468     476     477     475
       8     556     557     558     552     478     479     480     474
       8     559     560     557     556     481     482     479     478
       8     553     559     556     552     475     481     478     474
       8     561     562     554     563     483     484     476     485
       8     564     565     562     561     486     487     484     483
       8     566     567     565     564     488     489     487     486
       8     568     566     564     569     490     488     486     491
       8     570     555     554     562     492     477     476     484
       8     561     571     569     564     483     493     491     486
       8     546     549     563     554     468     471     485     476
       8     572     559     553     555     494     481     475     477
       8     573     572     555     570     495     494     477     492
       8     574     573     570     575     496     495     492     497
       8     565     575     570     562     487     497     492     484
       8     576     577     571     561     498     499     493     483
       8     578     576     561     563     500     498     483     485
       8     579     578     563     549     501     500     485     471
       8     580     550     548     581     502     472     470     503
       8     582     581     548     547     504     503     470     469
       8     558     582     547     552     480     504     469     474
       8     583     560     559     572     505     482     481     494
       8     584     583     572     573     506     505     494     495
       8     585     584     573     574     507     506     495     496
       8     586     585     574     587     508     507     496     509
       8     588     587     574     575     510     509     496     497
       8     567     588     575     565     489     510     497     487
       8     589     568     569     571     511     490     491     493
       8     590     589     571     577     512     511     493     499
       8     591     590     577     592     513     512     499     514
       8     593     592     577     576     515     514     499     498
       8     594     593     576     578     516     515     498     500
       8     595     594     578     579     517     516     500     501
       8     596     595     579     597     518     517     501     519
       8     551     597     579     549     473     519     501     471
       8     598     599     550     580     520     521     472     502
       8     600     598     580     581     522     520     502     503
       8     601     600     581     582     523     522     503     504
       8     602     601     582     558     524     523     504     480
       8     603     602     558     557     525     524     480     479
       8     604     603     557     560     526     525     479     482
       8     605     604     560     583     527     526     482     505
       8     606     605     583     584     528     527     505     506
       8     607     606     584     585     529     528     506     507
       8     608     607     585     586     530     529     507     508
       8     609     608     586     587     531     530     508     509
       8     610     609     587     588     532     531     509     510
       8     611     610     588     567     533     532     510     489
       8     612     611     567     566     534     533     489     488
       8     613     612     566     568     535     534     488     490
       8     614     613     568     589     536     535     490     511
       8     615     614     589     590     537     536     511     512
       8     616     615     590     591     538     537     512     513
       8     617     616     591     592     539     538     513     514
       8     618     617     592     593     540     539     514     515
       8     619     618     593     594     541     540     515     516
       8     620     619     594     595     542     541     516     517
       8     621     620     595     596     543     542     517     518
       8     622     621     596     597     544     543     518     519
       8     623     622     597     551     545     544     519     473
       8     599     623     551     550     521     545     473     472
       8     624     625     626     627     546     547     548     549
       8     626     628     629     627     548     550     551     549
       8     630     625     624     631     552     547     546     553
       8     624     632     633     631     546     554     555     553
       8     634     635     636     630     556     557     558     552
       8     637     638     635     634     559     560     557     556
       8     631     637     634     630     553     559     556     552
       8     639     640     632     641     561     562     554     563
       8     642     643     640     639     564     565     562     561
       8     644     645     643     642     566     567     565     564
       8     646     644     642     647     568     566     564     569
       8     648     633     632     640     570     555     554     562
       8     639     649     647     642     561     571     569     564
       8     624     627     641     632     546     549     563     554
       8     650     637     631     633     572     559     553     555
       8     651     650     633     648     573     572     555     570
       8     652     651     648     653     574     573     570     575
       8     643     653     648     640     565     575     570     562
       8     654     655     649     639     576     577     571     561
       8     656     654     639     641     578     576     561     563
       8     657     656     641     627     579     578     563     549
       8     658     628     626     659     580     550     548     581
       8     660     659     626     625     582     581     548     547
       8     636     660     625     630     558     582     547     552
       8     661     638     637     650     583     560     559     572
       8     662     661     650     651     584     583     572     573
       8     663     662     651     652     585     584     573     574
       8     664     663     652     665     586     585     574     587
       8     666     665     652     653     588     587     574     575
       8     645     666     653     643     567     588     575     565
       8     667     646     647     649     589     568     569     571
       8     668     667     649     655     590     589     571     577
       8     669     668     655     670     591     590     577     592
       8     671     670     655     654     593     592     577     576
       8     672     671     654     656     594     593     576     578
       8     673     672     656     657     595     594     578     579
       8     674     673     657     675     596     595     579     597
       8     629     675     657     627     551     597     579     549
       8     676     677     628     658     598     599     550     580
       8     678     676     658     659     600     598     580     581
       8     679     678     659     660     601     600     581     582
       8     680     679     660     636     602     601     582     558
       8     681     680     636     635     603     602     558     557
       8     682     681     635     638     604     603     557     560
       8     683     682     638     661     605     604     560     583
       8     684     683     661     662     606     605     583     584
       8     685     684     662     663     607     606     584     585
       8     686     685     663     664     608     607     585     586
       8     687     686     664     665     609     608     586     587
       8     688     687     665     666     610     609     587     588
       8     689     688     666     645     611     610     588     567
       8     690     689     645     644     612     611     567     566
       8     691     690     644     646     613     612     566     568
       8     692     691     646     667     614     613     568     589
       8     693     692     667     668     615     614     589     590
       8     694     693     668     669     616     615     590     591
       8     695     694     669     670     617     616     591     592
       8     696     695     670     671     618     617     592     593
       8     697     696     671     672     619     618     593     594
       8     698     697     672     673     620     619     594     595
       8     699     698     673     674     621     620     595     596
       8     700     699     674     675     622     621     596     597
       8     701     700     675     629     623     622     597     551
       8     677     701     629     628     599     623     551     550
       8     702     703     704     705     624     625     626     627
       8     704     706     707     705     626     628     629     627
       8     708     703     702     709     630     625     624     631
       8     702     710     711     709     624     632     633     631
       8     712     713     714     708     634     635     636     630
       8     715     716     713     712     637     638     635     634
       8     709     715     712     708     631     637     634     630
       8     717     718     710     719     639     640     632     641
       8     720     721     718     717     642     643     640     639
       8     722     723     721     720     644     645     643     642
       8     724     722     720     725     646     644     642     647
       8     726     711     710     718     648     633     632     640
       8     717     727     725     720     639     649     647     642
       8     702     705     719     710     624     627     641     632
       8     728     715     709     711     650     637     631     633
       8     729     728     711     726     651     650     633     648
       8     730     729     726     731     652     651     648     653
       8     721     731     726     718     643     653     648     640
       8     732     733     727     717     654     655     649     639
       8     734     732     717     719     656     654     639     641
       8     735     734     719     705     657     656     641     627
       8     736     706     704     737     658     628     626     659
       8     738     737     704     703     660     659     626     625
       8     714     738     703     708     636     660     625     630
       8     739     716     715     728     661     638     637     650
       8     740     739     728     729     662     661     650     651
       8     741     740     729     730     663     662     651     652
       8     742     741     730     743     664     663     652     665
       8     744     743     730     731     666     665     652     653
       8     723     744     731     721     645     666     653     643
       8     745     724     725     727     667     646     647     649
       8     746     745     727     733     668     667     649     655
       8     747     746     733     748     669     668     655     670
       8     749     748     733     732     671     670     655     654
       8     750     749     732     734     672     671     654     656
       8     751     750     734     735     673     672     656     657
       8     752     751     735     753     674     673     657     675
       8     707     753     735     705     629     675     657     627
       8     754     755     706     736     676     677     628     658
       8     756     754     736     737     678     676     658     659
       8     757     756     737     738     679     678     659     660
       8     758     757     738     714     680     679     660     636
       8     759     758     714     713     681     680     636     635
       8     760     759     713     716     682     681     635     638
       8     761     760     716     739     683     682     638     661
       8     762     761     739     740     684     683     661     662
       8     763     762     740     741     685     684     662     663
       8     764     763     741     742     686     685     663     664
       8     765     764     742     743     687     686     664     665
       8     766     765     743     744     688     687     665     666
       8     767     766     744     723     689     688     666     645
       8     768     767     723     722     690     689     645     644
       8     769     768     722     724     691     690     644     646
       8     770     769     724     745     692     691     646     667
       8     771     770     745     746     693     692     667     668
       8     772     771     746     747     694     693     668     669
       8     773     772     747     748     695     694     669     670
       8     774     773     748     749     696     695     670     671
       8     775     774     749     750     697     696     671     672
       8     776     775     750     751     698     697     672     673
       8     777     776     751     752     699     698     673     674
       8     778     777     752     753     700     699     674     675
       8     779     778     753     707     701     700     675     629
       8     755     779     707     706     677     701     629     628
       8     780     781     782     783     702     703     704     705
       8     782     784     785     783     704     706     707     705
       8     786     781     780     787     708     703     702     709
       8     780     788     789     787     702     710     711     709
       8     790     791     792     786     712     713     714     708
       8     793     794     791     790     715     716     713     712
       8     787     793     790     786     709     715     712     708
       8     795     796     788     797     717     718     710     719
       8     798     799     796     795     720     721     718     717
       8     800     801     799     798     722     723     721     720
       8     802     800     798     803     724     722     720     725
       8     804     789     788     796     726     711     710     718
       8     795     805     803     798     717     727     725     720
       8     780     783     797     788     702     705     719     710
       8     806     793     787     789     728     715     709     711
       8     807     806     789     804     729     728     711     726
       8     808     807     804     809     730     729     726     731
       8     799     809     804     796     721     731     726     718
       8     810     811     805     795     732     733     727     717
       8     812     810     795     797     734     732     717     719
       8     813     812     797     783     735     734     719     705
       8     814     784     782     815     736     706     704     737
       8     816     815     782     781     738     737     704     703
       8     792     816     781     786     714     738     703     708
       8     817     794     793     806     739     716     715     728
       8     818     817     806     807     740     739     728     729
       8     819     818     807     808     741     740     729     730
       8     820     819     808     821     742     741     730     743
       8     822     821     808     809     744     743     730     731
       8     801     822     809     799     723     744     731     721
       8     823     802     803     805     745     724     725     727
       8     824     823     805     811     746     745     727     733
       8     825     824     811     826     747     746     733     748
       8     827     826     811     810     749     748     733     732
       8     828     827     810     812     750     749     732     734
       8     829     828     812     813     751     750     734     735
       8     830     829     813     831     752     751     735     753
       8     785     831     813     783     707     753     735     705
       8     832     833     784     814     754     755     706     736
       8     834     832     814     815     756     754     736     737
       8     835     834     815     816     757     756     737     738
       8     836     835     816     792     758     757     738     714
       8     837     836     792     791     759     758     714     713
       8     838     837     791     794     760     759     713     716
       8     839     838     794     817     761     760     716     739
       8     840     839     817     818     762     761     739     740
       8     841     840     818     819     763     762     740     741
       8     842     841     819     820     764     763     741     742
       8     843     842     820     821     765     764     742     743
       8     844     843     821     822     766     765     743     744
       8     845     844     822     801     767     766     744     723
       8     846     845     801     800     768     767     723     722
       8     847     846     800     802     769     768     722     724
       8     848     847     802     823     770     769     724     745
       8     849     848     823     824     771     770     745     746
       8     850     849     824     825     772     771     746     747
       8     851     850     825     826     773     772     747     748
       8     852     851     826     827     774     773     748     749
       8     853     852     827     828     775     774     749     750
       8     854     853     828     829     776     775     750     751
       8     855     854     829     830     777     776     751     752
       8     856     855     830     831     778     777     752     753
       8     857     856     831     785     779     778     753     707
       8     833     857     785     784     755     779     707     706
       8     858     859     860     861     780     781     782     783
       8     860     862     863     861     782     784     785     783
       8     864     859     858     865     786     781     780     787
       8     858     866     867     865     780     788     789     787
       8     868     869     870     864     790     791     792     786
       8     871     872     869     868     793     794     791     790
       8     865     871     868     864     787     793     790     786
       8     873     874     866     875     795     796     788     797
       8     876     877     874     873     798     799     796     795
       8     878     879     877     876     800     801     799     798
       8     880     878     876     881     802     800     798     803
       8     882     867     866     874     804     789     788     796
       8     873     883     881     876     795     805     803     798
       8     858     861     875     866     780     783     797     788
       8     884     871     865     867     806     793     787     789
       8     885     884     867     882     807     806     789     804
       8     886     885     882     887     808     807     804     809
       8     877     887     882     874     799     809     804     796
       8     888     889     883     873     810     811     805     795
       8     890     888     873     875     812     810     795     797
       8     891     890     875     861     813     812     797     783
       8     892     862     860     893     814     784     782     815
       8     894     893     860     859     816     815     782     781
       8     870     894     859     864     792     816     781     786
       8     895     872     871     884     817     794     793     806
       8     896     895     884     885     818     817     806     807
       8     897     896     885     886     819     818     807     808
       8     898     897     886     899     820     819     808     821
       8     900     899     886     887     822     821     808     809
       8     879     900     887     877     801     822     809     799
       8     901     880     881     883     823     802     803     805
       8     902     901     883     889     824     823     805     811
       8     903     902     889     904     825     824     811     826
       8     905     904     889     888     827     826     811     810
       8     906     905     888     890     828     827     810     812
       8     907     906     890     891     829     828     812     813
       8     908     907     891     909     830     829     813     831
       8     863     909     891     861     785     831     813     783
       8     910     911     862     892     832     833     784     814
       8     912     910     892     893     834     832     814     815
       8     913     912     893     894     835     834     815     816
       8     914     913     894     870     836     835     816     792
       8     915     914     870     869     837     836     792     791
       8     916     915     869     872     838     837     791     794
       8     917     916     872     895     839     838     794     817
       8     918     917     895     896     840     839     817     818
       8     919     918     896     897     841     840     818     819
       8     920     919     897     898     842     841     819     820
       8     921     920     898     899     843     842     820     821
       8     922     921     899     900     844     843     821     822
       8     923     922     900     879     845     844     822     801
       8     924     923     879     878     846     845     801     800
       8     925     924     878     880     847     846     800     802
       8     926     925     880     901     848     847     802     823
       8     927     926     901     902     849     848     823     824
       8     928     927     902     903     850     849     824     825
       8     929     928     903     904     851     850     825     826
       8     930     929     904     905     852     851     826     827
       8     931     930     905     906     853     852     827     828
       8     932     931     906     907     854     853     828     829
       8     933     932     907     908     855     854     829     830
       8     934     933     908     909     856     855     830     831
       8     935     934     909     863     857     856     831     785
       8     911     935     863     862     833     857     785     784
       8     936     937     938     939     858     859     860     861
       8     938     940     941     939     860     862     863     861
       8     942     937     936     943     864     859     858     865
       8     936     944     945     943     858     866     867     865
       8     946     947     948     942     868     869     870     864
       8     949     950     947     946     871     872     869     868
       8     943     949     946     942     865     871     868     864
       8     951     952     944     953     873     874     866     875
       8     954     955     952     951     876     877     874     873
       8     956     957     955     954     878     879     877     876
       8     958     956     954     959     880     878     876     881
       8     960     945     944     952     882     867     866     874
       8     951     961     959     954     873     883     881     876
       8     936     939     953     944     858     861     875     866
       8     962     949     943     945     884     871     865     867
       8     963     962     945     960     885     884     867     882
       8     964     963     960     965     886     885     882     887
       8     955     965     960     952     877     887     882     874
       8     966     967     961     951     888     889     883     873
       8     968     966     951     953     890     888     873     875
       8     969     968     953     939     891     890     875     861
       8     970     940     938     971     892     862     860     893
       8     972     971     938     937     894     893     860     859
       8     948     972     937     942     870     894     859     864
       8     973     950     949     962     895     872     871     884
       8     974     973     962     963     896     895     884     885
       8     975     974     963     964     897     896     885     886
       8     976     975     964     977     898     897     886     899
       8     978     977     964     965     900     899     886     887
       8     957     978     965     955     879     900     887     877
       8     979     958     959     961     901     880     881     883
       8     980     979     961     967     902     901     883     889
       8     981     980     967     982     903     902     889     904
       8     983     982     967     966     905     904     889     888
       8     984     983     966     968     906     905     888     890
       8     985     984     968     969     907     906     890     891
       8     986     985     969     987     908     907     891     909
       8     941     987     969     939     863     909     891     861
       8     988     989     940     970     910     911     862     892
       8     990     988     970     971     912     910     892     893
       8     991     990     971     972     913     912     893     894
       8     992     991     972     948     914     913     894     870
       8     993     992     948     947     915     914     870     869
       8     994     993     947     950     916     915     869     872
       8     995     994     950     973     917     916     872     895
       8     996     995     973     974     918     917     895     896
       8     997     996     974     975     919     918     896     897
       8     998     997     975     976     920     919     897     898
       8     999     998     976     977     921     920     898     899
       8    1000     999     977     978     922     921     899     900
       8    1001    1000     978     957     923     922     900     879
       8    1002    1001     957     956     924     923     879     878
       8    1003    1002     956     958     925     924     878     880
       8    1004    1003     958     979     926     925     880     901
       8    1005    1004     979     980     927     926     901     902
       8    1006    1005     980     981     928     927     902     903
       8    1007    1006     981     982     929     928     903     904
       8    1008    1007     982     983     930     929     904     905
       8    1009    1008     983     984     931     930     905     906
       8    1010    1009     984     985     932     931     906     907
       8    1011    1010     985     986     933     932     907     908
       8    1012    1011     986     987     934     933     908     909
       8    1013    1012     987     941     935     934     909     863
       8     989    1013     941     940     911     935     863     862
       8    1014    1015    1016    1017     936     937     938     939
       8    1016    1018    1019    1017     938     940     941     939
       8    1020    1015    1014    1021     942     937     936     943
       8    1014    1022    1023    1021     936     944     945     943
       8    1024    1025    1026    1020     946     947     948     942
       8    1027    1028    1025    1024     949     950     947     946
       8    1021    1027    1024    1020     943     949     946     942
       8    1029    1030    1022    1031     951     952     944     953
       8    1032    1033    1030    1029     954     955     952     951
       8    1034    1035    1033    1032     956     957     955     954
       8    1036    1034    1032    1037     958     956     954     959
       8    1038    1023    1022    1030     960     945     944     952
       8    1029    1039    1037    1032     951     961     959     954
       8    1014    1017    1031    1022     936     939     953     944
       8    1040    1027    1021    1023     962     949     943     945
       8    1041    1040    1023    1038     963     962     945     960
       8    1042    1041    1038    1043     964     963     960     965
       8    1033    1043    1038    1030     955     965     960     952
       8    1044    1045    1039    1029     966     967     961     951
       8    1046    1044    1029    1031     968     966     951     953
       8    1047    1046    1031    1017     969     968     953     939
       8    1048    1018    1016    1049     970     940     938     971
       8    1050    1049    1016    1015     972     971     938     937
       8    1026    1050    1015    1020     948     972     937     942
       8    1051    1028    1027    1040     973     950     949     962
       8    1052    1051    1040    1041     974     973     962     963
       8    1053    1052    1041    1042     975     974     963     964
       8    1054    1053    1042    1055     976     975     964     977
       8    1056    1055    1042    1043     978     977     964     965
       8    1035    1056    1043    1033     957     978     965     955
       8    1057    1036    1037    1039     979     958     959     961
       8    1058    1057    1039    1045     980     979     961     967
       8    1059    1058    1045    1060     981     980     967     982
       8    1061    1060    1045    1044     983     982     967     966
       8    1062    1061    1044    1046     984     983     966     968
       8    1063    1062    1046    1047     985     984     968     969
       8    1064    1063    1047    1065     986     985     969     987
       8    1019    1065    1047    1017     941     987     969     939
       8    1066    1067    1018    1048     988     989     940     970
       8    1068    1066    1048    1049     990     988     970     971
       8    1069    1068    1049    1050     991     990     971     972
       8    1070    1069    1050    1026     992     991     972     948
       8    1071    1070    1026    1025     993     992     948     947
       8    1072    1071    1025    1028     994     993     947     950
       8    1073    1072    1028    1051     995     994     950     973
       8    1074    1073    1051    1052     996     995     973     974
       8    1075    1074    1052    1053     997     996     974     975
       8    1076    1075    1053    1054     998     997     975     976
       8    1077    1076    1054    1055     999     998     976     977
       8    1078    1077    1055    1056    1000     999     977     978
       8    1079    1078    1056    1035    1001    1000     978     957
       8    1080    1079    1035    1034    1002    1001     957     956
       8    1081    1080    1034    1036    1003    1002     956     958
       8    1082    1081    1036    1057    1004    1003     958     979
       8    1083    1082    1057    1058    1005    1004     979     980
       8    1084    1083    1058    1059    1006    1005     980     981
       8    1085    1084    1059    1060    1007    1006     981     982
       8    1086    1085    1060    1061    1008    1007     982     983
       8    1087    1086    1061    1062    1009    1008     983     984
       8    1088    1087    1062    1063    1010    1009     984     985
       8    1089    1088    1063    1064    1011    1010     985     986
       8    1090    1089    1064    1065    1012    1011     986     987
       8    1091    1090    1065    1019    1013    1012     987     941
       8    1067    1091    1019    1018     989    1013     941     940
       8    1092    1093    1094    1095    1014    1015    1016    1017
       8    1094    1096    1097    1095    1016    1018    1019    1017
       8    1098    1093    1092    1099    1020    1015    1014    1021
       8    1092    1100    1101    1099    1014    1022    1023    1021
       8    1102    1103    1104    1098    1024    1025    1026    1020
       8    1105    1106    1103    1102    1027    1028    1025    1024
       8    1099    1105    1102    1098    1021    1027    1024    1020
       8    1107    1108    1100    1109    1029    1030    1022    1031
       8    1110    1111    1108    1107    1032    1033    1030    1029
       8    1112    1113    1111    1110    1034    1035    1033    1032
       8    1114    1112    1110    1115    1036    1034    1032    1037
       8    1116    1101    1100    1108    1038    1023    1022    1030
       8    1107    1117    1115    1110    1029    1039    1037    1032
       8    1092    1095    1109    1100    1014    1017    1031    1022
       8    1118    1105    1099    1101    1040    1027    1021    1023
       8    1119    1118    1101    1116    1041    1040    1023    1038
       8    1120    1119    1116    1121    1042    1041    1038    1043
       8    1111    1121    1116    1108    1033    1043    1038    1030
       8    1122    1123    1117    1107    1044    1045    1039    1029
       8    1124    1122    1107    1109    1046    1044    1029    1031
       8    1125    1124    1109    1095    1047    1046    1031    1017
       8    1126    1096    1094    1127    1048    1018    1016    1049
       8    1128    1127    1094    1093    1050    1049    1016    1015
       8    1104    1128    1093    1098    1026    1050    1015    1020
       8    1129    1106    1105    1118    1051    1028    1027    1040
       8    1130    1129    1118    1119    1052    1051    1040    1041
       8    1131    1130    1119    1120    1053    1052    1041    1042
       8    1132    1131    1120    1133    1054    1053    1042    1055
       8    1134    1133    1120    1121    1056    1055    1042    1043
       8    1113    1134    1121    1111    1035    1056    1043    1033
       8    1135    1114    1115    1117    1057    1036    1037    1039
       8    1136    1135    1117    1123    1058    1057    1039    1045
       8    1137    1136    1123    1138    1059    1058    1045    1060
       8    1139    1138    1123    1122    1061    1060    1045    1044
       8    1140    1139    1122    1124    1062    1061    1044    1046
       8    1141    1140    1124    1125    1063    1062    1046    1047
       8    1142    1141    1125    1143    1064    1063    1047    1065
       8    1097    1143    1125    1095    1019    1065    1047    1017
       8    1144    1145    1096    1126    1066    1067    1018    1048
       8    1146    1144    1126    1127    1068    1066    1048    1049
       8    1147    1146    1127    1128    1069    1068    1049    1050
       8    1148    1147    1128    1104    1070    1069    1050    1026
       8    1149    1148    1104    1103    1071    1070    1026    1025
       8    1150    1149    1103    1106    1072    1071    1025    1028
       8    1151    1150    1106    1129    1073    1072    1028    1051
       8    1152    1151    1129    1130    1074    1073    1051    1052
       8    1153    1152    1130    1131    1075    1074    1052    1053
       8    1154    1153    1131    1132    1076    1075    1053    1054
       8    1155    1154    1132    1133    1077    1076    1054    1055
       8    1156    1155    1133    1134    1078    1077    1055    1056
       8    1157    1156    1134    1113    1079    1078    1056    1035
       8    1158    1157    1113    1112    1080    1079    1035    1034
       8    1159    1158    1112    1114    1081    1080    1034    1036
       8    1160    1159    1114    1135    1082    1081    1036    1057
       8    1161    1160    1135    1136    1083    1082    1057    1058
       8    1162    1161    1136    1137    1084    1083    1058    1059
       8    1163    1162    1137    1138    1085    1084    1059    1060
       8    1164    1163    1138    1139    1086    1085    1060    1061
       8    1165    1164    1139    1140    1087    1086    1061    1062
       8    1166    1165    1140    1141    1088    1087    1062    1063
       8    1167    1166    1141    1142    1089    1088    1063    1064
       8    1168    1167    1142    1143    1090    1089    1064    1065
       8    1169    1168    1143    1097    1091    1090    1065    1019
       8    1145    1169    1097    1096    1067    1091    1019    1018
       8    1170    1171    1172    1173    1092    1093    1094    1095
       8    1172    1174    1175    1173    1094    1096    1097    1095
       8    1176    1171    1170    1177    1098    1093    1092    1099
       8    1170    1178    1179    1177    1092    1100    1101    1099
       8    1180    1181    1182    1176    1102    1103    1104    1098
       8    1183    1184    1181    1180    1105    1106    1103    1102
       8    1177    1183    1180    1176    1099    1105    1102    1098
       8    1185    1186    1178    1187    1107    1108    1100    1109
       8    1188    1189    1186    1185    1110    1111    1108    1107
       8    1190    1191    1189    1188    1112    1113    1111    1110
       8    1192    1190    1188    1193    1114    1112    1110    1115
       8    1194    1179    1178    1186    1116    1101    1100    1108
       8    1185    1195    1193    1188    1107    1117    1115    1110
       8    1170    1173    1187    1178    1092    1095    1109    1100
       8    1196    1183    1177    1179    1118    1105    1099    1101
       8    1197    1196    1179    1194    1119    1118    1101    1116
       8    1198    1197    1194    1199    1120    1119    1116    1121
       8    1189    1199    1194    1186    1111    1121    1116    1108
       8    1200    1201    1195    1185    1122    1123    1117    1107
       8    1202    1200    1185    1187    1124    1122    1107    1109
       8    1203    1202    1187    1173    1125    1124    1109    1095
       8    1204    1174    1172    1205    1126    1096    1094    1127
       8    1206    1205    1172    1171    1128    1127    1094    1093
       8    1182    1206    1171    1176    1104    1128    1093    1098
       8    1207    1184    1183    1196    1129    1106    1105    1118
       8    1208    1207    1196    1197    1130    1129    1118    1119
       8    1209    1208    1197    1198    1131    1130    1119    1120
       8    1210    1209    1198    1211    1132    1131    1120    1133
       8    1212    1211    1198    1199    1134    1133    1120    1121
       8    1191    1212    1199    1189    1113    1134    1121    1111
       8    1213    1192    1193    1195    1135    1114    1115    1117
       8    1214    1213    1195    1201    1136    1135    1117    1123
       8    1215    1214    1201    1216    1137    1136    1123    1138
       8    1217    1216    1201    1200    1139    1138    1123    1122
       8    1218    1217    1200    1202    1140    1139    1122    1124
       8    1219    1218    1202    1203    1141    1140    1124    1125
       8    1220    1219    1203    1221    1142    1141    1125    1143
       8    1175    1221    1203    1173    1097    1143    1125    1095
       8    1222    1223    1174    1204    1144    1145    1096    1126
       8    1224    1222    1204    1205    1146    1144    1126    1127
       8    1225    1224    1205    1206    1147    1146    1127    1128
       8    1226    1225    1206    1182    1148    1147    1128    1104
       8    1227    1226    1182    1181    1149    1148    1104    1103
       8    1228    1227    1181    1184    1150    1149    1103    1106
       8    1229    1228    1184    1207    1151    1150    1106    1129
       8    1230    1229    1207    1208    1152    1151    1129    1130
       8    1231    1230    1208    1209    1153    1152    1130    1131
       8    1232    1231    1209    1210    1154    1153    1131    1132
       8    1233    1232    1210    1211    1155    1154    1132    1133
       8    1234    1233    1211    1212    1156    1155    1133    1134
       8    1235    1234    1212    1191    1157    1156    1134    1113
       8    1236    1235    1191    1190    1158    1157    1113    1112
       8    1237    1236    1190    1192    1159    1158    1112    1114
       8    1238    1237    1192    1213    1160    1159    1114    1135
       8    1239    1238    1213    1214    1161    1160    1135    1136
       8    1240    1239    1214    1215    1162    1161    1136    1137
       8    1241    1240    1215    1216    1163    1162    1137    1138
       8    1242    1241    1216    1217    1164    1163    1138    1139
       8    1243    1242    1217    1218    1165    1164    1139    1140
       8    1244    1243    1218    1219    1166    1165    1140    1141
       8    1245    1244    1219    1220    1167    1166    1141    1142
       8    1246    1245    1220    1221    1168    1167    1142    1143
       8    1247    1246    1221    1175    1169    1168    1143    1097
       8    1223    1247    1175    1174    1145    1169    1097    1096
       8    1248    1249    1250    1251    1170    1171    1172    1173
       8    1250    1252    1253    1251    1172    1174    1175    1173
       8    1254    1249    1248    1255    1176    1171    1170    1177
       8    1248    1256    1257    1255    1170    1178    1179    1177
       8    1258    1259    1260    1254    1180    1181    1182    1176
       8    1261    1262    1259    1258    1183    1184    1181    1180
       8    1255    1261    1258    1254    1177    1183    1180    1176
       8    1263    1264    1256    1265    1185    1186    1178    1187
       8    1266    1267    1264    1263    1188    1189    1186    1185
       8    1268    1269    1267    1266    1190    1191    1189    1188
       8    1270    1268    1266    1271    1192    1190    1188    1193
       8    1272    1257    1256    1264    1194    1179    1178    1186
       8    1263    1273    1271    1266    1185    1195    1193    1188
       8    1248    1251    1265    1256    1170    1173    1187    1178
       8    1274    1261    1255    1257    1196    1183    1177    1179
       8    1275    1274    1257    1272    1197    1196    1179    1194
       8    1276    1275    1272    1277    1198    1197    1194    1199
       8    1267    1277    1272    1264    1189    1199    1194    1186
       8    1278    1279    1273    1263    1200    1201    1195    1185
       8    1280    1278    1263    1265    1202    1200    1185    1187
       8    1281    1280    1265    1251    1203    1202    1187    1173
       8    1282    1252    1250    1283    1204    1174    1172    1205
       8    1284    1283    1250    1249    1206    1205    1172    1171
       8    1260    1284    1249    1254    1182    1206    1171    1176
       8    1285    1262    1261    1274    1207    1184    1183    1196
       8    1286    1285    1274    1275    1208    1207    1196    1197
       8    1287    1286    1275    1276    1209    1208    1197    1198
       8    1288    1287    1276    1289    1210    1209    1198    1211
       8    1290    1289    1276    1277    1212    1211    1198    1199
       8    1269    1290    1277    1267    1191    1212    1199    1189
       8    1291    1270    1271    1273    1213    1192    1193    1195
       8    1292    1291    1273    1279    1214    1213    1195    1201
       8    1293    1292    1279    1294    1215    1214    1201    1216
       8    1295    1294    1279    1278    1217    1216    1201    1200
       8    1296    1295    1278    1280    1218    1217    1200    1202
       8    1297    1296    1280    1281    1219    1218    1202    1203
       8    1298    1297    1281    1299    1220    1219    1203    1221
       8    1253    1299    1281    1251    1175    1221    1203    1173
       8    1300    1301    1252    1282    1222    1223    1174    1204
       8    1302    1300    1282    1283    1224    1222    1204    1205
       8    1303    1302    1283    1284    1225    1224    1205    1206
       8    1304    1303    1284    1260    1226    1225    1206    1182
       8    1305    1304    1260    1259    1227    1226    1182    1181
       8    1306    1305    1259    1262    1228    1227    1181    1184
       8    1307    1306    1262    1285    1229    1228    1184    1207
       8    1308    1307    1285    1286    1230    1229    1207    1208
       8    1309    1308    1286    1287    1231    1230    1208    1209
       8    1310    1309    1287    1288    1232    1231    1209    1210
       8    1311    1310    1288    1289    1233    1232    1210    1211
       8    1312    1311    1289    1290    1234    1233    1211    1212
       8    1313    1312    1290    1269    1235    1234    1212    1191
       8    1314    1313    1269    1268    1236    1235    1191    1190
       8    1315    1314    1268    1270    1237    1236    1190    1192
       8    1316    1315    1270    1291    1238    1237    1192    1213
       8    1317    1316    1291    1292    1239    1238    1213    1214
       8    1318    1317    1292    1293    1240    1239    1214    1215
       8    1319    1318    1293    1294    1241    1240    1215    1216
       8    1320    1319    1294    1295    1242    1241    1216    1217
       8    1321    1320    1295    1296    1243    1242    1217    1218
       8    1322    1321    1296    1297    1244    1243    1218    1219
       8    1323    1322    1297    1298    1245    1244    1219    1220
       8    1324    1323    1298    1299    1246    1245    1220    1221
       8    1325    1324    1299    1253    1247    1246    1221    1175
       8    1301    1325    1253    1252    1223    1247    1175    1174
       8    1326    1327    1328    1329    1248    1249    1250    1251
       8    1328    1330    1331    1329    1250    1252    1253    1251
       8    1332    1327    1326    1333    1254    1249    1248    1255
       8    1326    1334    1335    1333    1248    1256    1257    1255
       8    1336    1337    1338    1332    1258    1259    1260    1254
       8    1339    1340    1337    1336    1261    1262    1259    1258
       8    1333    1339    1336    1332    1255    1261    1258    1254
       8    1341    1342    1334    1343    1263    1264    1256    1265
       8    1344    1345    1342    1341    1266    1267    1264    1263
       8    1346    1347    1345    1344    1268    1269    1267    1266
       8    1348    1346    1344    1349    1270    1268    1266    1271
       8    1350    1335    1334    1342    1272    1257    1256    1264
       8    1341    1351    1349    1344    1263    1273    1271    1266
       8    1326    1329    1343    1334    1248    1251    1265    1256
       8    1352    1339    1333    1335    1274    1261    1255    1257
       8    1353    1352    1335    1350    1275    1274    1257    1272
       8    1354    1353    1350    1355    1276    1275    1272    1277
       8    1345    1355    1350    1342    1267    1277    1272    1264
       8    1356    1357    1351    1341    1278    1279    1273    1263
       8    1358    1356    1341    1343    1280    1278    1263    1265
       8    1359    1358    1343    1329    1281    1280    1265    1251
       8    1360    1330    1328    1361    1282    1252    1250    1283
       8    1362    1361    1328    1327    1284    1283    1250    1249
       8    1338    1362    1327    1332    1260    1284    1249    1254
       8    1363    1340    1339    1352    1285    1262    1261    1274
       8    1364    1363    1352    1353    1286    1285    1274    1275
       8    1365    1364    1353    1354    1287    1286    1275    1276
       8    1366    1365    1354    1367    1288    1287    1276    1289
       8    1368    1367    1354    1355    1290    1289    1276    1277
       8    1347    1368    1355    1345    1269    1290    1277    1267
       8    1369    1348    1349    1351    1291    1270    1271    1273
       8    1370    1369    1351    1357    1292    1291    1273    1279
       8    1371    1370    1357    1372    1293    1292    1279    1294
       8    1373    1372    1357    1356    1295    1294    1279    1278
       8    1374    1373    1356    1358    1296    1295    1278    1280
       8    1375    1374    1358    1359    1297    1296    1280    1281
       8    1376    1375    1359    1377    1298    1297    1281    1299
       8    1331    1377    1359    1329    1253    1299    1281    1251
       8    1378    1379    1330    1360    1300    1301    1252    1282
       8    1380    1378    1360    1361    1302    1300    1282    1283
       8    1381    1380    1361    1362    1303    1302    1283    1284
       8    1382    1381    1362    1338    1304    1303    1284    1260
       8    1383    1382    1338    1337    1305    1304    1260    1259
       8    1384    1383    1337    1340    1306    1305    1259    1262
       8    1385    1384    1340    1363    1307    1306    1262    1285
       8    1386    1385    1363    1364    1308    1307    1285    1286
       8    1387    1386    1364    1365    1309    1308    1286    1287
       8    1388    1387    1365    1366    1310    1309    1287    1288
       8    1389    1388    1366    1367    1311    1310    1288    1289
       8    1390    1389    1367    1368    1312    1311    1289    1290
       8    1391    1390    1368    1347    1313    1312    1290    1269
       8    1392    1391    1347    1346    1314    1313    1269    1268
       8    1393    1392    1346    1348    1315    1314    1268    1270
       8    1394    1393    1348    1369    1316    1315    1270    1291
       8    1395    1394    1369    1370    1317    1316    1291    1292
       8    1396    1395    1370    1371    1318    1317    1292    1293
       8    1397    1396    1371    1372    1319    1318    1293    1294
       8    1398    1397    1372    1373    1320    1319    1294    1295
       8    1399    1398    1373    1374    1321    1320    1295    1296
       8    1400    1399    1374    1375    1322    1321    1296    1297
       8    1401    1400    1375    1376    1323    1322    1297    1298
       8    1402    1401    1376    1377    1324    1323    1298    1299
       8    1403    1402    1377    1331    1325    1324    1299    1253
       8    1379    1403    1331    1330    1301    1325    1253    1252
       8    1404    1405    1406    1407    1326    1327    1328    1329
       8    1406    1408    1409    1407    1328    1330    1331    1329
       8    1410    1405    1404    1411    1332    1327    1326    1333
       8    1404    1412    1413    1411    1326    1334    1335    1333
       8    1414    1415    1416    1410    1336    1337    1338    1332
       8    1417    1418    1415    1414    1339    1340    1337    1336
       8    1411    1417    1414    1410    1333    1339    1336    1332
       8    1419    1420    1412    1421    1341    1342    1334    1343
       8    1422    1423    1420    1419    1344    1345    1342    1341
       8    1424    1425    1423    1422    1346    1347    1345    1344
       8    1426    1424    1422    1427    1348    1346    1344    1349
       8    1428    1413    1412    1420    1350    1335    1334    1342
       8    1419    1429    1427    1422    1341    1351    1349    1344
       8    1404    1407    1421    1412    1326    1329    1343    1334
       8    1430    1417    1411    1413    1352    1339    1333    1335
       8    1431    1430    1413    1428    1353    1352    1335    1350
       8    1432    1431    1428    1433    1354    1353    1350    1355
       8    1423    1433    1428    1420    1345    1355    1350    1342
       8    1434    1435    1429    1419    1356    1357    1351    1341
       8    1436    1434    1419    1421    1358    1356    1341    1343
       8    1437    1436    1421    1407    1359    1358    1343    1329
       8    1438    1408    1406    1439    1360    1330    1328    1361
       8    1440    1439    1406    1405    1362    1361    1328    1327
       8    1416    1440    1405    1410    1338    1362    1327    1332
       8    1441    1418    1417    1430    1363    1340    1339    1352
       8    1442    1441    1430    1431    1364    1363    1352    1353
       8    1443    1442    1431    1432    1365    1364    1353    1354
       8    1444    1443    1432    1445    1366    1365    1354    1367
       8    1446    1445    1432    1433    1368    1367    1354    1355
       8    1425    1446    1433    1423    1347    1368    1355    1345
       8    1447    1426    1427    1429    1369    1348    1349    1351
       8    1448    1447    1429    1435    1370    1369    1351    1357
       8    1449    1448    1435    1450    1371    1370    1357    1372
       8    1451    1450    1435    1434    1373    1372    1357    1356
       8    1452    1451    1434    1436    1374    1373    1356    1358
       8    1453    1452    1436    1437    1375    1374    1358    1359
       8    1454    1453    1437    1455    1376    1375    1359    1377
       8    1409    1455    1437    1407    1331    1377    1359    1329
       8    1456    1457    1408    1438    1378    1379    1330    1360
       8    1458    1456    1438    1439    1380    1378    1360    1361
       8    1459    1458    1439    1440    1381    1380    1361    1362
       8    1460    1459    1440    1416    1382    1381    1362    1338
       8    1461    1460    1416    1415    1383    1382    1338    1337
       8    1462    1461    1415    1418    1384    1383    1337    1340
       8    1463    1462    1418    1441    1385    1384    1340    1363
       8    1464    1463    1441    1442    1386    1385    1363    1364
       8    1465    1464    1442    1443    1387    1386    1364    1365
       8    1466    1465    1443    1444    1388    1387    1365    1366
       8    1467    1466    1444    1445    1389    1388    1366    1367
       8    1468    1467    1445    1446    1390    1389    1367    1368
       8    1469    1468    1446    1425    1391    1390    1368    1347
       8    1470    1469    1425    1424    1392    1391    1347    1346
       8    1471    1470    1424    1426    1393    1392    1346    1348
       8    1472    1471    1426    1447    1394    1393    1348    1369
       8    1473    1472    1447    1448    1395    1394    1369    1370
       8    1474    1473    1448    1449    1396    1395    1370    1371
       8    1475    1474    1449    1450    1397    1396    1371    1372
       8    1476    1475    1450    1451    1398    1397    1372    1373
       8    1477    1476    1451    1452    1399    1398    1373    1374
       8    1478    1477    1452    1453    1400    1399    1374    1375
       8    1479    1478    1453    1454    1401    1400    1375    1376
       8    1480    1479    1454    1455    1402    1401    1376    1377
       8    1481    1480    1455    1409    1403    1402    1377    1331
       8    1457    1481    1409    1408    1379    1403    1331    1330
       8    1482    1483    1484    1485    1404    1405    1406    1407
       8    1484    1486    1487    1485    1406    1408    1409    1407
       8    1488    1483    1482    1489    1410    1405    1404    1411
       8    1482    1490    1491    1489    1404    1412    1413    1411
       8    1492    1493    1494    1488    1414    1415    1416    1410
       8    1495    1496    1493    1492    1417    1418    1415    1414
       8    1489    1495    1492    1488    1411    1417    1414    1410
       8    1497    1498    1490    1499    1419    1420    1412    1421
       8    1500    1501    1498    1497    1422    1423    1420    1419
       8    1502    1503    1501    1500    1424    1425    1423    1422
       8    1504    1502    1500    1505    1426    1424    1422    1427
       8    1506    1491    1490    1498    1428    1413    1412    1420
       8    1497    1507    1505    1500    1419    1429    1427    1422
       8    1482    1485    1499    1490    1404    1407    1421    1412
       8    1508    1495    1489    1491    1430    1417    1411    1413
       8    1509    1508    1491    1506    1431    1430    1413    1428
       8    1510    1509    1506    1511    1432    1431    1428    1433
       8    1501    1511    1506    1498    1423    1433    1428    1420
       8    1512    1513    1507    1497    1434    1435    1429    1419
       8    1514    1512    1497    1499    1436    1434    1419    1421
       8    1515    1514    1499    1485    1437    1436    1421    1407
       8    1516    1486    1484    1517    1438    1408    1406    1439
       8    1518    1517    1484    1483    1440    1439    1406    1405
       8    1494    1518    1483    1488    1416    1440    1405    1410
       8    1519    1496    1495    1508    1441    1418    1417    1430
       8    1520    1519    1508    1509    1442    1441    1430    1431
       8    1521    1520    1509    1510    1443    1442    1431    1432
       8    1522    1521    1510    1523    1444    1443    1432    1445
       8    1524    1523    1510    1511    1446    1445    1432    1433
       8    1503    1524    1511    1501    1425    1446    1433    1423
       8    1525    1504    1505    1507    1447    1426    1427    1429
       8    1526    1525    1507    1513    1448    1447    1429    1435
       8    1527    1526    1513    1528    1449    1448    1435    1450
       8    1529    1528    1513    1512    1451    1450    1435    1434
       8    1530    1529    1512    1514    1452    1451    1434    1436
       8    1531    1530    1514    1515    1453    1452    1436    1437
       8    1532    1531    1515    1533    1454    1453    1437    1455
       8    1487    1533    1515    1485    1409    1455    1437    1407
       8    1534    1535    1486    1516    1456    1457    1408    1438
       8    1536    1534    1516    1517    1458    1456    1438    1439
       8    1537    1536    1517    1518    1459    1458    1439    1440
       8    1538    1537    1518    1494    1460    1459    1440    1416
       8    1539    1538    1494    1493    1461    1460    1416    1415
       8    1540    1539    1493    1496    1462    1461    1415    1418
       8    1541    1540    1496    1519    1463    1462    1418    1441
       8    1542    1541    1519    1520    1464    1463    1441    1442
       8    1543    1542    1520    1521    1465    1464    1442    1443
       8    1544    1543    1521    1522    1466    1465    1443    1444
       8    1545    1544    1522    1523    1467    1466    1444    1445
       8    1546    1545    1523    1524    1468    1467    1445    1446
       8    1547    1546    1524    1503    1469    1468    1446    1425
       8    1548    1547    1503    1502    1470    1469    1425    1424
       8    1549    1548    1502    1504    1471    1470    1424    1426
       8    1550    1549    1504    1525    1472    1471    1426    1447
       8    1551    1550    1525    1526    1473    1472    1447    1448
       8    1552    1551    1526    1527    1474    1473    1448    1449
       8    1553    1552    1527    1528    1475    1474    1449    1450
       8    1554    1553    1528    1529    1476    1475    1450    1451
       8    1555    1554    1529    1530    1477    1476    1451    1452
       8    1556    1555    1530    1531    1478    1477    1452    1453
       8    1557    1556    1531    1532    1479    1478    1453    1454
       8    1558    1557    1532    1533    1480    1479    1454    1455
       8    1559    1558    1533    1487    1481    1480    1455    1409
       8    1535    1559    1487    1486    1457    1481    1409    1408
       8    1560    1561    1562    1563    1482    1483    1484    1485
       8    1562    1564    1565    1563    1484    1486    1487    1485
       8    1566    1561    1560    1567    1488    1483    1482    1489
       8    1560    1568    1569    1567    1482    1490    1491    1489
       8    1570    1571    1572    1566    1492    1493    1494    1488
       8    1573    1574    1571    1570    1495    1496    1493    1492
       8    1567    1573    1570    1566    1489    1495    1492    1488
       8    1575    1576    1568    1577    1497    1498    1490    1499
       8    1578    1579    1576    1575    1500    1501    1498    1497
       8    1580    1581    1579    1578    1502    1503    1501    1500
       8    1582    1580    1578    1583    1504    1502    1500    1505
       8    1584    1569    1568    1576    1506    1491    1490    1498
       8    1575    1585    1583    1578    1497    1507    1505    1500
       8    1560    1563    1577    1568    1482    1485    1499    1490
       8    1586    1573    1567    1569    1508    1495    1489    1491
       8    1587    1586    1569    1584    1509    1508    1491    1506
       8    1588    1587    1584    1589    1510    1509    1506    1511
       8    1579    1589    1584    1576    1501    1511    1506    1498
       8    1590    1591    1585    1575    1512    1513    1507    1497
       8    1592    1590    1575    1577    1514    1512    1497    1499
       8    1593    1592    1577    1563    1515    1514    1499    1485
       8    1594    1564    1562    1595    1516    1486    1484    1517
       8    1596    1595    1562    1561    1518    1517    1484    1483
       8    1572    1596    1561    1566    1494    1518    1483    1488
       8    1597    1574    1573    1586    1519    1496    1495    1508
       8    1598    1597    1586    1587    1520    1519    1508    1509
       8    1599    1598    1587    1588    1521    1520    1509    1510
       8    1600    1599    1588    1601    1522    1521    1510    1523
       8    1602    1601    1588    1589    1524    1523    1510    1511
       8    1581    1602    1589    1579    1503    1524    1511    1501
       8    1603    1582    1583    1585    1525    1504    1505    1507
       8    1604    1603    1585    1591    1526    1525    1507    1513
       8    1605    1604    1591    1606    1527    1526    1513    1528
       8    1607    1606    1591    1590    1529    1528    1513    1512
       8    1608    1607    1590    1592    1530    1529    1512    1514
       8    1609    1608    1592    1593    1531    1530    1514    1515
       8    1610    1609    1593    1611    1532    1531    1515    1533
       8    1565    1611    1593    1563    1487    1533    1515    1485
       8    1612    1613    1564    1594    1534    1535    1486    1516
       8    1614    1612    1594    1595    1536    1534    1516    1517
       8    1615    1614    1595    1596    1537    1536    1517    1518
       8    1616    1615    1596    1572    1538    1537    1518    1494
       8    1617    1616    1572    1571    1539    1538    1494    1493
       8    1618    1617    1571    1574    1540    1539    1493    1496
       8    1619    1618    1574    1597    1541    1540    1496    1519
       8    1620    1619    1597    1598    1542    1541    1519    1520
       8    1621    1620    1598    1599    1543    1542    1520    1521
       8    1622    1621    1599    1600    1544    1543    1521    1522
       8    1623    1622    1600    1601    1545    1544    1522    1523
       8    1624    1623    1601    1602    1546    1545    1523    1524
       8    1625    1624    1602    1581    1547    1546    1524    1503
       8    1626    1625    1581    1580    1548    1547    1503    1502
       8    1627    1626    1580    1582    1549    1548    1502    1504
       8    1628    1627    1582    1603    1550    1549    1504    1525
       8    1629    1628    1603    1604    1551    1550    1525    1526
       8    1630    1629    1604    1605    1552    1551    1526    1527
       8    1631    1630    1605    1606    1553    1552    1527    1528
       8    1632    1631    1606    1607    1554    1553    1528    1529
       8    1633    1632    1607    1608    1555    1554    1529    1530
       8    1634    1633    1608    1609    1556    1555    1530    1531
       8    1635    1634    1609    1610    1557    1556    1531    1532
       8    1636    1635    1610    1611    1558    1557    1532    1533
       8    1637    1636    1611    1565    1559    1558    1533    1487
       8    1613    1637    1565    1564    1535    1559    1487    1486
       8    1638    1639    1640    1641    1560    1561    1562    1563
       8    1640    1642    1643    1641    1562    1564    1565    1563
       8    1644    1639    1638    1645    1566    1561    1560    1567
       8    1638    1646    1647    1645    1560    1568    1569    1567
       8    1648    1649    1650    1644    1570    1571    1572    1566
       8    1651    1652    1649    1648    1573    1574    1571    1570
       8    1645    1651    1648    1644    1567    1573    1570    1566
       8    1653    1654    1646    1655    1575    1576    1568    1577
       8    1656    1657    1654    1653    1578    1579    1576    1575
       8    1658    1659    1657    1656    1580    1581    1579    1578
       8    1660    1658    1656    1661    1582    1580    1578    1583
       8    1662    1647    1646    1654    1584    1569    1568    1576
       8    1653    1663    1661    1656    1575    1585    1583    1578
       8    1638    1641    1655    1646    1560    1563    1577    1568
       8    1664    1651    1645    1647    1586    1573    1567    1569
       8    1665    1664    1647    1662    1587    1586    1569    1584
       8    1666    1665    1662    1667    1588    1587    1584    1589
       8    1657    1667    1662    1654    1579    1589    1584    1576
       8    1668    1669    1663    1653    1590    1591    1585    1575
       8    1670    1668    1653    1655    1592    1590    1575    1577
       8    1671    1670    1655    1641    1593    1592    1577    1563
       8    1672    1642    1640    1673    1594    1564    1562    1595
       8    1674    1673    1640    1639    1596    1595    1562    1561
       8    1650    1674    1639    1644    1572    1596    1561    1566
       8    1675    1652    1651    1664    1597    1574    1573    1586
       8    1676    1675    1664    1665    1598    1597    1586    1587
       8    1677    1676    1665    1666    1599    1598    1587    1588
       8    1678    1677    1666    1679    1600    1599    1588    1601
       8    1680    1679    1666    1667    1602    1601    1588    1589
       8    1659    1680    1667    1657    1581    1602    1589    1579
       8    1681    1660    1661    1663    1603    1582    1583    1585
       8    1682    1681    1663    1669    1604    1603    1585    1591
       8    1683    1682    1669    1684    1605    1604    1591    1606
       8    1685    1684    1669    1668    1607    1606    1591    1590
       8    1686    1685    1668    1670    1608    1607    1590    1592
       8    1687    1686    1670    1671    1609    1608    1592    1593
       8    1688    1687    1671    1689    1610    1609    1593    1611
       8    1643    1689    1671    1641    1565    1611    1593    1563
       8    1690    1691    1642    1672    1612    1613    1564    1594
       8    1692    1690    1672    1673    1614    1612    1594    1595
       8    1693    1692    1673    1674    1615    1614    1595    1596
       8    1694    1693    1674    1650    1616    1615    1596    1572
       8    1695    1694    1650    1649    1617    1616    1572    1571
       8    1696    1695    1649    1652    1618    1617    1571    1574
       8    1697    1696    1652    1675    1619    1618    1574    1597
       8    1698    1697    1675    1676    1620    1619    1597    1598
       8    1699    1698    1676    1677    1621    1620    1598    1599
       8    1700    1699    1677    1678    1622    1621    1599    1600
       8    1701    1700    1678    1679    1623    1622    1600    1601
       8    1702    1701    1679    1680    1624    1623    1601    1602
       8    1703    1702    1680    1659    1625    1624    1602    1581
       8    1704    1703    1659    1658    1626    1625    1581    1580
       8    1705    1704    1658    1660    1627    1626    1580    1582
       8    1706    1705    1660    1681    1628    1627    1582    1603
       8    1707    1706    1681    1682    1629    1628    1603    1604
       8    1708    1707    1682    1683    1630    1629    1604    1605
       8    1709    1708    1683    1684    1631    1630    1605    1606
       8    1710    1709    1684    1685    1632    1631    1606    1607
       8    1711    1710    1685    1686    1633    1632    1607    1608
       8    1712    1711    1686    1687    1634    1633    1608    1609
       8    1713    1712    1687    1688    1635    1634    1609    1610
       8    1714    1713    1688    1689    1636    1635    1610    1611
       8    1715    1714    1689    1643    1637    1636    1611    1565
       8    1691    1715    1643    1642    1613    1637    1565    1564
       8    1716    1717    1718    1719    1638    1639    1640    1641
       8    1718    1720    1721    1719    1640    1642    1643    1641
       8    1722    1717    1716    1723    1644    1639    1638    1645
       8    1716    1724    1725    1723    1638    1646    1647    1645
       8    1726    1727    1728    1722    1648    1649    1650    1644
       8    1729    1730    1727    1726    1651    1652    1649    1648
       8    1723    1729    1726    1722    1645    1651    1648    1644
       8    1731    1732    1724    1733    1653    1654    1646    1655
       8    1734    1735    1732    1731    1656    1657    1654    1653
       8    1736    1737    1735    1734    1658    1659    1657    1656
       8    1738    1736    1734    1739    1660    1658    1656    1661
       8    1740    1725    1724    1732    1662    1647    1646    1654
       8    1731    1741    1739    1734    1653    1663    1661    1656
       8    1716    1719    1733    1724    1638    1641    1655    1646
       8    1742    1729    1723    1725    1664    1651    1645    1647
       8    1743    1742    1725    1740    1665    1664    1647    1662
       8    1744    1743    1740    1745    1666    1665    1662    1667
       8    1735    1745    1740    1732    1657    1667    1662    1654
       8    1746    1747    1741    1731    1668    1669    1663    1653
       8    1748    1746    1731    1733    1670    1668    1653    1655
       8    1749    1748    1733    1719    1671    1670    1655    1641
       8    1750    1720    1718    1751    1672    1642    1640    1673
       8    1752    1751    1718    1717    1674    1673    1640    1639
       8    1728    1752    1717    1722    1650    1674    1639    1644
       8    1753    1730    1729    1742    1675    1652    1651    1664
       8    1754    1753    1742    1743    1676    1675    1664    1665
       8    1755    1754    1743    1744    1677    1676    1665    1666
       8    1756    1755    1744    1757    1678    1677    1666    1679
       8    1758    1757    1744    1745    1680    1679    1666    1667
       8    1737    1758    1745    1735    1659    1680    1667    1657
       8    1759    1738    1739    1741    1681    1660    1661    1663
       8    1760    1759    1741    1747    1682    1681    1663    1669
       8    1761    1760    1747    1762    1683    1682    1669    1684
       8    1763    1762    1747    1746    1685    1684    1669    1668
       8    1764    1763    1746    1748    1686    1685    1668    1670
       8    1765    1764    1748    1749    1687    1686    1670    1671
       8    1766    1765    1749    1767    1688    1687    1671    1689
       8    1721    1767    1749    1719    1643    1689    1671    1641
       8    1768    1769    1720    1750    1690    1691    1642    1672
       8    1770    1768    1750    1751    1692    1690    1672    1673
       8    1771    1770    1751    1752    1693    1692    1673    1674
       8    1772    1771    1752    1728    1694    1693    1674    1650
       8    1773    1772    1728    1727    1695    1694    1650    1649
       8    1774    1773    1727    1730    1696    1695    1649    1652
       8    1775    1774    1730    1753    1697    1696    1652    1675
       8    1776    1775    1753    1754    1698    1697    1675    1676
       8    1777    1776    1754    1755    1699    1698    1676    1677
       8    1778    1777    1755    1756    1700    1699    1677    1678
       8    1779    1778    1756    1757    1701    1700    1678    1679
       8    1780    1779    1757    1758    1702    1701    1679    1680
       8    1781    1780    1758    1737    1703    1702    1680    1659
       8    1782    1781    1737    1736    1704    1703    1659    1658
       8    1783    1782    1736    1738    1705    1704    1658    1660
       8    1784    1783    1738    1759    1706    1705    1660    1681
       8    1785    1784    1759    1760    1707    1706    1681    1682
       8    1786    1785    1760    1761    1708    1707    1682    1683
       8    1787    1786    1761    1762    1709    1708    1683    1684
       8    1788    1787    1762    1763    1710    1709    1684    1685
       8    1789    1788    1763    1764    1711    1710    1685    1686
       8    1790    1789    1764    1765    1712    1711    1686    1687
       8    1791    1790    1765    1766    1713    1712    1687    1688
       8    1792    1791    1766    1767    1714    1713    1688    1689
       8    1793    1792    1767    1721    1715    1714    1689    1643
       8    1769    1793    1721    1720    1691    1715    1643    1642
       8    1794    1795    1796    1797    1716    1717    1718    1719
       8    1796    1798    1799    1797    1718    1720    1721    1719
       8    1800    1795    1794    1801    1722    1717    1716    1723
       8    1794    1802    1803    1801    1716    1724    1725    1723
       8    1804    1805    1806    1800    1726    1727    1728    1722
       8    1807    1808    1805    1804    1729    1730    1727    1726
       8    1801    1807    1804    1800    1723    1729    1726    1722
       8    1809    1810    1802    1811    1731    1732    1724    1733
       8    1812    1813    1810    1809    1734    1735    1732    1731
       8    1814    1815    1813    1812    1736    1737    1735    1734
       8    1816    1814    1812    1817    1738    1736    1734    1739
       8    1818    1803    1802    1810    1740    1725    1724    1732
       8    1809    1819    1817    1812    1731    1741    1739    1734
       8    1794    1797    1811    1802    1716    1719    1733    1724
       8    1820    1807    1801    1803    1742    1729    1723    1725
       8    1821    1820    1803    1818    1743    1742    1725    1740
       8    1822    1821    1818    1823    1744    1743    1740    1745
       8    1813    1823    1818    1810    1735    1745    1740    1732
       8    1824    1825    1819    1809    1746    1747    1741    1731
       8    1826    1824    1809    1811    1748    1746    1731    1733
       8    1827    1826    1811    1797    1749    1748    1733    1719
       8    1828    1798    1796    1829    1750    1720    1718    1751
       8    1830    1829    1796    1795    1752    1751    1718    1717
       8    1806    1830    1795    1800    1728    1752    1717    1722
       8    1831    1808    1807    1820    1753    1730    1729    1742
       8    1832    1831    1820    1821    1754    1753    1742    1743
       8    1833    1832    1821    1822    1755    1754    1743    1744
       8    1834    1833    1822    1835    1756    1755    1744    1757
       8    1836    1835    1822    1823    1758    1757    1744    1745
       8    1815    1836    1823    1813    1737    1758    1745    1735
       8    1837    1816    1817    1819    1759    1738    1739    1741
       8    1838    1837    1819    1825    1760    1759    1741    1747
       8    1839    1838    1825    1840    1761    1760    1747    1762
       8    1841    1840    1825    1824    1763    1762    1747    1746
       8    1842    1841    1824    1826    1764    1763    1746    1748
       8    1843    1842    1826    1827    1765    1764    1748    1749
       8    1844    1843    1827    1845    1766    1765    1749    1767
       8    1799    1845    1827    1797    1721    1767    1749    1719
       8    1846    1847    1798    1828    1768    1769    1720    1750
       8    1848    1846    1828    1829    1770    1768    1750    1751
       8    1849    1848    1829    1830    1771    1770    1751    1752
       8    1850    1849    1830    1806    1772    1771    1752    1728
       8    1851    1850    1806    1805    1773    1772    1728    1727
       8    1852    1851    1805    1808    1774    1773    1727    1730
       8    1853    1852    1808    1831    1775    1774    1730    1753
       8    1854    1853    1831    1832    1776    1775    1753    1754
       8    1855    1854    1832    1833    1777    1776    1754    1755
       8    1856    1855    1833    1834    1778    1777    1755    1756
       8    1857    1856    1834    1835    1779    1778    1756    1757
       8    1858    1857    1835    1836    1780    1779    1757    1758
       8    1859    1858    1836    1815    1781    1780    1758    1737
       8    1860    1859    1815    1814    1782    1781    1737    1736
       8    1861    1860    1814    1816    1783    1782    1736    1738
       8    1862    1861    1816    1837    1784    1783    1738    1759
       8    1863    1862    1837    1838    1785    1784    1759    1760
       8    1864    1863    1838    1839    1786    1785    1760    1761
       8    1865    1864    1839    1840    1787    1786    1761    1762
       8    1866    1865    1840    1841    1788    1787    1762    1763
       8    1867    1866    1841    1842    1789    1788    1763    1764
       8    1868    1867    1842    1843    1790    1789    1764    1765
       8    1869    1868    1843    1844    1791    1790    1765    1766
       8    1870    1869    1844    1845    1792    1791    1766    1767
       8    1871    1870    1845    1799    1793    1792    1767    1721
       8    1847    1871    1799    1798    1769    1793    1721    1720
       8    1872    1873    1874    1875    1794    1795    1796    1797
       8    1874    1876    1877    1875    1796    1798    1799    1797
       8    1878    1873    1872    1879    1800    1795    1794    1801
       8    1872    1880    1881    1879    1794    1802    1803    1801
       8    1882    1883    1884    1878    1804    1805    1806    1800
       8    1885    1886    1883    1882    1807    1808    1805    1804
       8    1879    1885    1882    1878    1801    1807    1804    1800
       8    1887    1888    1880    1889    1809    1810    1802    1811
       8    1890    1891    1888    1887    1812    1813    1810    1809
       8    1892    1893    1891    1890    1814    1815    1813    1812
       8    1894    1892    1890    1895    1816    1814    1812    1817
       8    1896    1881    1880    1888    1818    1803    1802    1810
       8    1887    1897    1895    1890    1809    1819    1817    1812
       8    1872    1875    1889    1880    1794    1797    1811    1802
       8    1898    1885    1879    1881    1820    1807    1801    1803
       8    1899    1898    1881    1896    1821    1820    1803    1818
       8    1900    1899    1896    1901    1822    1821    1818    1823
       8    1891    1901    1896    1888    1813    1823    1818    1810
       8    1902    1903    1897    1887    1824    1825    1819    1809
       8    1904    1902    1887    1889    1826    1824    1809    1811
       8    1905    1904    1889    1875    1827    1826    1811    1797
       8    1906    1876    1874    1907    1828    1798    1796    1829
       8    1908    1907    1874    1873    1830    1829    1796    1795
       8    1884    1908    1873    1878    1806    1830    1795    1800
       8    1909    1886    1885    1898    1831    1808    1807    1820
       8    1910    1909    1898    1899    1832    1831    1820    1821
       8    1911    1910    1899    1900    1833    1832    1821    1822
       8    1912    1911    1900    1913    1834    1833    1822    1835
       8    1914    1913    1900    1901    1836    1835    1822    1823
       8    1893    1914    1901    1891    1815    1836    1823    1813
       8    1915    1894    1895    1897    1837    1816    1817    1819
       8    1916    1915    1897    1903    1838    1837    1819    1825
       8    1917    1916    1903    1918    1839    1838    1825    1840
       8    1919    1918    1903    1902    1841    1840    1825    1824
       8    1920    1919    1902    1904    1842    1841    1824    1826
       8    1921    1920    1904    1905    1843    1842    1826    1827
       8    1922    1921    1905    1923    1844    1843    1827    1845
       8    1877    1923    1905    1875    1799    1845    1827    1797
       8    1924    1925    1876    1906    1846    1847    1798    1828
       8    1926    1924    1906    1907    1848    1846    1828    1829
       8    1927    1926    1907    1908    1849    1848    1829    1830
       8    1928    1927    1908    1884    1850    1849    1830    1806
       8    1929    1928    1884    1883    1851    1850    1806    1805
       8    1930    1929    1883    1886    1852    1851    1805    1808
       8    1931    1930    1886    1909    1853    1852    1808    1831
       8    1932    1931    1909    1910    1854    1853    1831    1832
       8    1933    1932    1910    1911    1855    1854    1832    1833
       8    1934    1933    1911    1912    1856    1855    1833    1834
       8    1935    1934    1912    1913    1857    1856    1834    1835
       8    1936    1935    1913    1914    1858    1857    1835    1836
       8    1937    1936    1914    1893    1859    1858    1836    1815
       8    1938    1937    1893    1892    1860    1859    1815    1814
       8    1939    1938    1892    1894    1861    1860    1814    1816
       8    1940    1939    1894    1915    1862    1861    1816    1837
       8    1941    1940    1915    1916    1863    1862    1837    1838
       8    1942    1941    1916    1917    1864    1863    1838    1839
       8    1943    1942    1917    1918    1865    1864    1839    1840
       8    1944    1943    1918    1919    1866    1865    1840    1841
       8    1945    1944    1919    1920    1867    1866    1841    1842
       8    1946    1945    1920    1921    1868    1867    1842    1843
       8    1947    1946    1921    1922    1869    1868    1843    1844
       8    1948    1947    1922    1923    1870    1869    1844    1845
       8    1949    1948    1923    1877    1871    1870    1845    1799
       8    1925    1949    1877    1876    1847    1871    1799    1798
  
CELL_TYPES    3486
       1
       1
       1
       1
       1
       1
       1
       1
       1
       1
       1
       1
       1
       1
       1
       1
       1
       1
       1
       1
       1
       1
       1
       1
       1
       1
       1
       1
       1
       1
       1
       1
       1
       1
       1
       1
       1
       1
       1
       1
       1
       1
       1
       1
       1
       1
       1
       1
       1
       1
       1
       1
       1
       1
       1
       1
       1
       1
       1
       1
       1
       1
       1
       1
       1
       1
       1
       1
       1
       1
       1
       1
       1
       1
       1
       1
       1
       1
       1
       1
       1
       1
       1
       1
       1
       1
       1
       1
       1
       1
       1
       1
       1
       1
       1
       1
       1
       1
       1
       1
       1
       1
       1
       1
       1
       1
       1
       1
       1
       1
       1
       1
       1
       1
       1
       1
       1
       1
       1
       1
       1
       1
       1
       1
       1
       1
       1
       1
       1
       1
       1
       1
       1
       1
       1
       1
       1
       1
       1
       1
       1
       1
       1
       1
       1
       1
       1
       1
       1
       1
       1
       1
       1
       1
       1
       1
       1
       1
       1
       1
       1
       1
       1
       1
       1
       1
       1
       1
       1
       1
       1
       1
       1
       1
       1
       1
       1
       1
       1
       1
       1
       1
       1
       1
       1
       1
       1
       1
       1
       1
       1
       1
       1
       1
       1
       1
       1
       1
       1
       1
       1
       1
       1
       1
       1
       1
       1
       1
       1
       1
       1
       1
       1
       1
       1
       1
       1
       1
       1
       1
       1
       1
       1
       1
       1
       1
       1
       1
       1
       1
       1
       1
       1
       1
       1
       1
       1
       1
       1
       1
       1
       1
       1
       1
       1
       1
       1
       1
       1
       1
       1
       1
       1
       1
       1
       1
       1
       1
       1
       1
       1
       1
       1
       1
       1
       1
       1
       1
       1
       1
       1
       1
       1
       1
       1
       1
       1
       1
       1
       1
       1
       1
       1
       1
       1
       1
       1
       1
       1
       1
       1
       1
       1
       1
       1
       1
       1
       1
       1
       1
       1
       1
       1
       1
       1
       1
       1
       1
       1
       1
       1
       1
       1
       1
       1
       1
       1
       1
       1
       1
       1
       1
       1
       1
       1
       1
       1
       1
       1
       1
       1
       1
       1
       1
       1
       1
       1
       1
       1
       1
       1
       1
       1
       1
       1
       1
       1
       1
       1
       1
       1
       1
       1
       1
       1
       1
       1
       1
       1
       1
       1
       1
       1
       1
       1
       1
       1
       1
       1
       1
       1
       1
       1
       1
       1
       1
       1
       1
       1
       1
       1
       1
       1
       1
       1
       1
       1
       1
       1
       1
       1
       1
       1
       1
       1
       1
       1
       1
       1
       1
       1
       1
       1
       1
       1
       1
       1
       1
       1
       1
       1
       1
       1
       1
       1
       1
       1
       1
       1
       1
       1
       1
       1
       1
       1
       1
       1
       1
       1
       1
       1
       1
       1
       1
       1
       1
       1
       1
       1
       1
       1
       1
       1
       1
       1
       1
       1
       1
       1
       1
       1
       1
       1
       1
       1
       1
       1
       1
       1
       1
       1
       1
       1
       1
       1
       1
       1
       1
       1
       1
       1
       1
       1
       1
       1
       1
       1
       1
       1
       1
       1
       1
       1
       1
       1
       1
       1
       1
       1
       1
       1
       1
       1
       1
       1
       1
       1
       1
       1
       1
       1
       1
       1
       1
       1
       1
       1
       1
       1
       1
       1
       1
       1
       1
       1
       1
       1
       1
       1
       1
       1
       1
       1
       1
       1
       1
       1
       1
       1
       1
       1
       1
       1
       1
       1
       1
       1
       1
       1
       1
       1
       1
       1
       1
       1
       1
       1
       1
       1
       1
       1
       1
       1
       1
       1
       1
       1
       1
       1
       1
       1
       1
       1
       1
       1
       1
       1
       1
       1
       1
       1
       1
       1
       1
       1
       1
       1
       1
       1
       1
       1
       1
       1
       1
       1
       1
       1
       1
       1
       1
       1
       1
       1
       1
       1
       1
       1
       1
       1
       1
       1
       1
       1
       1
       1
       1
       1
       1
       1
       1
       1
       1
       1
       1
       1
       1
       1
       1
       1
       1
       1
       1
       1
       1
       1
       1
       1
       1
       1
       1
       1
       1
       1
       1
       1
       1
       1
       1
       1
       1
       1
       1
       1
       1
       1
       1
       1
       1
       1
       1
       1
       1
       1
       1
       1
       1
       1
       1
       1
       1
       1
       1
       1
       1
       1
       1
       1
       1
       1
       1
       1
       1
       1
       1
       1
       1
       1
       1
       1
       1
       1
       1
       1
       1
       1
       1
       1
       1
       1
       1
       1
       1
       1
       1
       1
       1
       1
       1
       1
       1
       1
       1
       1
       1
       1
       1
       1
       1
       1
       1
       1
       1
       1
       1
       1
       1
       1
       1
       1
       1
       1
       1
       1
       1
       1
       1
       1
       1
       1
       1
       1
       1
       1
       1
       1
       1
       1
       1
       1
       1
       1
       1
       1
       1
       1
       1
       1
       1
       1
       1
       1
       1
       1
       1
       1
       1
       1
       1
       1
       1
       1
       1
       1
       1
       1
       1
       1
       1
       1
       1
       1
       1
       1
       1
       1
       1
       1
       1
       1
       1
       1
       1
       1
       1
       1
       1
       1
       1
       1
       1
       1
       1
       1
       1
       1
       1
       1
       1
       1
       1
       1
       1
       1
       1
       1
       1
       1
       1
       1
       1
       1
       1
       1
       1
       1
       1
       1
       1
       1
       1
       1
       1
       1
       1
       1
       1
       1
       1
       1
       1
       1
       1
       1
       1
       1
       1
       1
       1
       1
       1
       1
       1
       1
       1
       1
       1
       1
       1
       1
       1
       1
       1
       1
       1
       1
       1
       1
       1
       1
       1
       1
       1
       1
       1
       1
       1
       1
       1
       1
       1
       1
       1
       1
       1
       1
       1
       1
       1
       1
       1
       1
       1
       1
       1
       1
       1
       1
       1
       1
       1
       1
       1
       1
       1
       1
       1
       1
       1
       1
       1
       1
       1
       1
       1
       1
       1
       1
       1
       1
       1
       1
       1
       1
       1
       1
       1
       1
       1
       1
       1
       1
       1
       1
       1
       1
       1
       1
       1
       1
       1
       1
       1
       1
       1
       1
       1
       1
       1
       1
       1
       1
       1
       1
       1
       1
       1
       1
       1
       1
       1
       1
       1
       1
       1
       1
       1
       1
       1
       1
       1
       1
       1
       1
       1
       1
       1
       1
       1
       1
       1
       1
       1
       1
       1
       1
       1
       1
       1
       1
       1
       1
       1
       1
       1
       1
       1
       1
       1
       1
       1
       1
       1
       1
       1
       1
       1
       1
       1
       1
       1
       1
       1
       1
       1
       1
       1
       1
       1
       1
       1
       1
       1
       1
       1
       1
       1
       1
       1
       1
       1
       1
       1
       1
       1
       1
       1
       1
       1
       1
       1
       1
       1
       1
       1
       1
       1
       1
       1
       1
       1
       1
       1
       1
       1
       1
       1
       1
       1
       1
       1
       1
       1
       1
       1
       1
       1
       1
       1
       1
       1
       1
       1
       1
       1
       1
       1
       1
       1
       1
       1
       1
       1
       1
       1
       1
       1
       1
       1
       1
       1
       1
       1
       1
       1
       1
       1
       1
       1
       1
       1
       1
       1
       1
       1
       1
       1
       1
       1
       1
       1
       1
       1
       1
       1
       1
       1
       1
       1
       1
       1
       1
       1
       1
       1
       1
       1
       1
       1
       1
       1
       1
       1
       1
       1
       1
       1
       1
       1
       1
       1
       1
       1
       1
       1
       1
       1
       1
       1
       1
       1
       1
       1
       1
       1
       1
       1
       1
       1
       1
       1
       1
       1
       1
       1
       1
       1
       1
       1
       1
       1
       1
       1
       1
       1
       1
       1
       1
       1
       1
       1
       1
       1
       1
       1
       1
       1
       1
       1
       1
       1
       1
       1
       1
       1
       1
       1
       1
       1
       1
       1
       1
       1
       1
       1
       1
       1
       1
       1
       1
       1
       1
       1
       1
       1
       1
       1
       1
       1
       1
       1
       1
       1
       1
       1
       1
       1
       1
       1
       1
       1
       1
       1
       1
       1
       1
       1
       1
       1
       1
       1
       1
       1
       1
       1
       1
       1
       1
       1
       1
       1
       1
       1
       1
       1
       1
       1
       1
       1
       1
       1
       1
       1
       1
       1
       1
       1
       1
       1
       1
       1
       1
       1
       1
       1
       1
       1
       1
       1
       1
       1
       1
       1
       1
       1
       1
       1
       1
       1
       1
       1
       1
       1
       1
       1
       1
       1
       1
       1
       1
       1
       1
       1
       1
       1
       1
       1
       1
       1
       1
       1
       1
       1
       1
       1
       1
       1
       1
       1
       1
       1
       1
       1
       1
       1
       1
       1
       1
       1
       1
       1
       1
       1
       1
       1
       1
       1
       1
       1
       1
       1
       1
       1
       1
       1
       1
       1
       1
       1
       1
       1
       1
       1
       1
       1
       1
       1
       1
       1
       1
       1
       1
       1
       1
       1
       1
       1
       1
       1
       1
       1
       1
       1
       1
       1
       1
       1
       1
       1
       1
       1
       1
       1
       1
       1
       1
       1
       1
       1
       1
       1
       1
       1
       1
       1
       1
       1
       1
       1
       1
       1
       1
       1
       1
       1
       1
       1
       1
       1
       1
       1
       1
       1
       1
       1
       1
       1
       1
       1
       1
       1
       1
       1
       1
       1
       1
       1
       1
       1
       1
       1
       1
       1
       1
       1
       1
       1
       1
       1
       1
       1
       1
       1
       1
       1
       1
       1
       1
       1
       1
       1
       1
       1
       1
       1
       1
       1
       1
       1
       1
       1
       1
       1
       1
       1
       1
       1
       1
       1
       1
       1
       1
       1
       1
       1
       1
       1
       1
       1
       1
       1
       1
       1
       1
       1
       1
       1
       1
       1
       1
       1
       1
       1
       1
       1
       1
       1
       1
       1
       1
       1
       1
       1
       1
       1
       1
       1
       1
       1
       1
       1
       1
       1
       1
       1
       1
       1
       1
       1
       1
       1
       1
       1
       1
       1
       1
       1
       1
       1
       1
       1
       1
       1
       1
       1
       1
       1
       1
       1
       1
       1
       1
       1
       1
       1
       1
       1
       1
       1
       1
       1
       1
       1
       1
       1
       1
       1
       1
       1
       1
       1
       1
       1
       1
       1
       1
       1
       1
       1
       1
       1
       1
       1
       1
       1
       1
       1
       1
       1
       1
       1
       1
       1
       1
       1
       1
       1
       1
       1
       1
       1
       1
       1
       1
       1
       1
       1
       1
       1
       1
       1
       1
       1
       1
       1
       1
       1
       1
       1
       1
       1
       1
       1
       1
       1
       1
       1
       1
       1
       1
       1
       1
       1
       1
       1
       1
       1
       1
       1
       1
       1
       1
       1
       1
       1
       1
       1
       1
       1
       1
       1
       1
       1
       1
       1
       1
       1
       1
       1
       1
       1
       1
       1
       1
       1
       1
       1
       1
       1
       1
       1
       1
       1
       1
       1
       1
       1
       1
       1
       1
       1
       1
       1
       1
       1
       1
       1
       1
       1
       1
       1
       1
       1
       1
       1
       1
       1
       1
       1
       1
       1
       1
       1
       1
       1
       1
       1
       1
       1
       1
       1
       1
       1
       1
       1
       1
       1
       1
       1
       1
       1
       1
       1
       1
       1
       1
       1
       1
       1
       1
       1
       1
       1
       1
       1
       1
       1
       1
       1
       1
       1
       1
       1
       1
       1
       1
       1
       1
       1
       1
       1
       1
       1
       1
       1
       1
       1
       1
       1
       1
       1
       1
       1
       1
       1
       1
       1
       1
       1
       1
       1
       1
       1
       1
       1
       1
       1
       1
       1
       1
       1
       1
       1
       1
       1
       1
       1
       1
       1
       1
       1
       1
       1
       1
       1
       1
       1
       1
       1
       1
       1
       1
       1
       1
       1
       1
       1
       1
       1
       1
       1
       1
       1
       1
       1
       1
       1
       1
       1
       1
       1
       1
       1
       1
       1
       1
       1
       1
       1
       1
       1
       1
       1
       1
       1
       1
       1
       1
       1
       1
       1
       1
       1
       1
       1
       1
       1
       1
       1
       1
       1
       1
       1
       1
       1
       1
       1
       1
       1
       1
       1
       1
       1
       1
       1
       1
       1
       1
       1
       1
       1
       1
       1
       1
       1
       1
       1
       1
       1
       1
       1
       1
       1
       1
       1
       1
       1
       1
       1
       1
       1
       1
       1
       1
       1
       1
       1
       1
       1
       1
       1
       1
       1
       1
       1
       1
       1
       1
       1
       1
       1
       1
       1
       1
       1
       1
       1
       1
       1
       1
       1
       1
       1
       1
       1
       1
       1
       1
       1
       1
       1
       1
       1
       1
       1
       1
       1
       1
       1
       1
       1
       1
       1
       1
       1
       1
       1
       1
       1
       1
       1
       1
       1
       1
       1
       1
       1
       1
       1
       1
       1
       1
       1
       1
       1
       1
       1
       1
       1
       1
       1
      12
      12
      12
      12
      12
      12
      12
      12
      12
      12
      12
      12
      12
      12
      12
      12
      12
      12
      12
      12
      12
      12
      12
      12
      12
      12
      12
      12
      12
      12
      12
      12
      12
      12
      12
      12
      12
      12
      12
      12
      12
      12
      12
      12
      12
      12
      12
      12
      12
      12
      12
      12
      12
      12
      12
      12
      12
      12
      12
      12
      12
      12
      12
      12
      12
      12
      12
      12
      12
      12
      12
      12
      12
      12
      12
      12
      12
      12
      12
      12
      12
      12
      12
      12
      12
      12
      12
      12
      12
      12
      12
      12
      12
      12
      12
      12
      12
      12
      12
      12
      12
      12
      12
      12
      12
      12
      12
      12
      12
      12
      12
      12
      12
      12
      12
      12
      12
      12
      12
      12
      12
      12
      12
      12
      12
      12
      12
      12
      12
      12
      12
      12
      12
      12
      12
      12
      12
      12
      12
      12
      12
      12
      12
      12
      12
      12
      12
      12
      12
      12
      12
      12
      12
      12
      12
      12
      12
      12
      12
      12
      12
      12
      12
      12
      12
      12
      12
      12
      12
      12
      12
      12
      12
      12
      12
      12
      12
      12
      12
      12
      12
      12
      12
      12
      12
      12
      12
      12
      12
      12
      12
      12
      12
      12
      12
      12
      12
      12
      12
      12
      12
      12
      12
      12
      12
      12
      12
      12
      12
      12
      12
      12
      12
      12
      12
      12
      12
      12
      12
      12
      12
      12
      12
      12
      12
      12
      12
      12
      12
      12
      12
      12
      12
      12
      12
      12
      12
      12
      12
      12
      12
      12
      12
      12
      12
      12
      12
      12
      12
      12
      12
      12
      12
      12
      12
      12
      12
      12
      12
      12
      12
      12
      12
      12
      12
      12
      12
      12
      12
      12
      12
      12
      12
      12
      12
      12
      12
      12
      12
      12
      12
      12
      12
      12
      12
      12
      12
      12
      12
      12
      12
      12
      12
      12
      12
      12
      12
      12
      12
      12
      12
      12
      12
      12
      12
      12
      12
      12
      12
      12
      12
      12
      12
      12
      12
      12
      12
      12
      12
      12
      12
      12
      12
      12
      12
      12
      12
      12
      12
      12
      12
      12
      12
      12
      12
      12
      12
      12
      12
      12
      12
      12
      12
      12
      12
      12
      12
      12
      12
      12
      12
      12
      12
      12
      12
      12
      12
      12
      12
      12
      12
      12
      12
      12
      12
      12
      12
      12
      12
      12
      12
      12
      12
      12
      12
      12
      12
      12
      12
      12
      12
      12
      12
      12
      12
      12
      12
      12
      12
      12
      12
      12
      12
      12
      12
      12
      12
      12
      12
      12
      12
      12
      12
      12
      12
      12
      12
      12
      12
      12
      12
      12
      12
      12
      12
      12
      12
      12
      12
      12
      12
      12
      12
      12
      12
      12
      12
      12
      12
      12
      12
      12
      12
      12
      12
      12
      12
      12
      12
      12
      12
      12
      12
      12
      12
      12
      12
      12
      12
      12
      12
      12
      12
      12
      12
      12
      12
      12
      12
      12
      12
      12
      12
      12
      12
      12
      12
      12
      12
      12
      12
      12
      12
      12
      12
      12
      12
      12
      12
      12
      12
      12
      12
      12
      12
      12
      12
      12
      12
      12
      12
      12
      12
      12
      12
      12
      12
      12
      12
      12
      12
      12
      12
      12
      12
      12
      12
      12
      12
      12
      12
      12
      12
      12
      12
      12
      12
      12
      12
      12
      12
      12
      12
      12
      12
      12
      12
      12
      12
      12
      12
      12
      12
      12
      12
      12
      12
      12
      12
      12
      12
      12
      12
      12
      12
      12
      12
      12
      12
      12
      12
      12
      12
      12
      12
      12
      12
      12
      12
      12
      12
      12
      12
      12
      12
      12
      12
      12
      12
      12
      12
      12
      12
      12
      12
      12
      12
      12
      12
      12
      12
      12
      12
      12
      12
      12
      12
      12
      12
      12
      12
      12
      12
      12
      12
      12
      12
      12
      12
      12
      12
      12
      12
      12
      12
      12
      12
      12
      12
      12
      12
      12
      12
      12
      12
      12
      12
      12
      12
      12
      12
      12
      12
      12
      12
      12
      12
      12
      12
      12
      12
      12
      12
      12
      12
      12
      12
      12
      12
      12
      12
      12
      12
      12
      12
      12
      12
      12
      12
      12
      12
      12
      12
      12
      12
      12
      12
      12
      12
      12
      12
      12
      12
      12
      12
      12
      12
      12
      12
      12
      12
      12
      12
      12
      12
      12
      12
      12
      12
      12
      12
      12
      12
      12
      12
      12
      12
      12
      12
      12
      12
      12
      12
      12
      12
      12
      12
      12
      12
      12
      12
      12
      12
      12
      12
      12
      12
      12
      12
      12
      12
      12
      12
      12
      12
      12
      12
      12
      12
      12
      12
      12
      12
      12
      12
      12
      12
      12
      12
      12
      12
      12
      12
      12
      12
      12
      12
      12
      12
      12
      12
      12
      12
      12
      12
      12
      12
      12
      12
      12
      12
      12
      12
      12
      12
      12
      12
      12
      12
      12
      12
      12
      12
      12
      12
      12
      12
      12
      12
      12
      12
      12
      12
      12
      12
      12
      12
      12
      12
      12
      12
      12
      12
      12
      12
      12
      12
      12
      12
      12
      12
      12
      12
      12
      12
      12
      12
      12
      12
      12
      12
      12
      12
      12
      12
      12
      12
      12
      12
      12
      12
      12
      12
      12
      12
      12
      12
      12
      12
      12
      12
      12
      12
      12
      12
      12
      12
      12
      12
      12
      12
      12
      12
      12
      12
      12
      12
      12
      12
      12
      12
      12
      12
      12
      12
      12
      12
      12
      12
      12
      12
      12
      12
      12
      12
      12
      12
      12
      12
      12
      12
      12
      12
      12
      12
      12
      12
      12
      12
      12
      12
      12
      12
      12
      12
      12
      12
      12
      12
      12
      12
      12
      12
      12
      12
      12
      12
      12
      12
      12
      12
      12
      12
      12
      12
      12
      12
      12
      12
      12
      12
      12
      12
      12
      12
      12
      12
      12
      12
      12
      12
      12
      12
      12
      12
      12
      12
      12
      12
      12
      12
      12
      12
      12
      12
      12
      12
      12
      12
      12
      12
      12
      12
      12
      12
      12
      12
      12
      12
      12
      12
      12
      12
      12
      12
      12
      12
      12
      12
      12
      12
      12
      12
      12
      12
      12
      12
      12
      12
      12
      12
      12
      12
      12
      12
      12
      12
      12
      12
      12
      12
      12
      12
      12
      12
      12
      12
      12
      12
      12
      12
      12
      12
      12
      12
      12
      12
      12
      12
      12
      12
      12
      12
      12
      12
      12
      12
      12
      12
      12
      12
      12
      12
      12
      12
      12
      12
      12
      12
      12
      12
      12
      12
      12
      12
      12
      12
      12
      12
      12
      12
      12
      12
      12
      12
      12
      12
      12
      12
      12
      12
      12
      12
      12
      12
      12
      12
      12
      12
      12
      12
      12
      12
      12
      12
      12
      12
      12
      12
      12
      12
      12
      12
      12
      12
      12
      12
      12
      12
      12
      12
      12
      12
      12
      12
      12
      12
      12
      12
      12
      12
      12
      12
      12
      12
      12
      12
      12
      12
      12
      12
      12
      12
      12
      12
      12
      12
      12
      12
      12
      12
      12
      12
      12
      12
      12
      12
      12
      12
      12
      12
      12
      12
      12
      12
      12
      12
      12
      12
      12
      12
      12
      12
      12
      12
      12
      12
      12
      12
      12
      12
      12
      12
      12
      12
      12
      12
      12
      12
      12
      12
      12
      12
      12
      12
      12
      12
      12
      12
      12
      12
      12
      12
      12
      12
      12
      12
      12
      12
      12
      12
      12
      12
      12
      12
      12
      12
      12
      12
      12
      12
      12
      12
      12
      12
      12
      12
      12
      12
      12
      12
      12
      12
      12
      12
      12
      12
      12
      12
      12
      12
      12
      12
      12
      12
      12
      12
      12
      12
      12
      12
      12
      12
      12
      12
      12
      12
      12
      12
      12
      12
      12
      12
      12
      12
      12
      12
      12
      12
      12
      12
      12
      12
      12
      12
      12
      12
      12
      12
      12
      12
      12
      12
      12
      12
      12
      12
      12
      12
      12
      12
      12
      12
      12
      12
      12
      12
      12
      12
      12
      12
      12
      12
      12
      12
      12
      12
      12
      12
      12
      12
      12
      12
      12
      12
      12
      12
      12
      12
      12
      12
      12
      12
      12
      12
      12
      12
      12
      12
      12
      12
      12
      12
      12
      12
      12
      12
      12
      12
      12
      12
      12
      12
      12
      12
      12
      12
      12
      12
      12
      12
      12
      12
      12
      12
      12
      12
      12
      12
      12
      12
      12
      12
      12
      12
      12
      12
      12
      12
      12
      12
      12
      12
      12
      12
      12
      12
      12
      12
      12
      12
      12
      12
      12
      12
      12
      12
      12
      12
      12
      12
      12
      12
      12
      12
      12
      12
      12
      12
      12
      12
      12
      12
      12
      12
      12
      12
      12
      12
      12
      12
      12
      12
      12
      12
      12
      12
      12
      12
      12
      12
      12
      12
      12
      12
      12
      12
      12
      12
      12
      12
      12
      12
      12
      12
      12
      12
      12
      12
      12
      12
      12
      12
      12
      12
      12
      12
      12
      12
      12
      12
      12
      12
      12
      12
      12
      12
      12
      12
      12
      12
      12
      12
      12
      12
      12
      12
      12
      12
      12
      12
      12
      12
      12
      12
      12
      12
      12
      12
      12
      12
      12
      12
      12
      12
      12
      12
      12
      12
      12
      12
      12
      12
      12
      12
      12
      12
      12
      12
      12
      12
      12
      12
      12
      12
      12
      12
      12
      12
      12
      12
      12
      12
      12
      12
      12
      12
      12
      12
      12
      12
      12
      12
      12
      12
      12
      12
      12
      12
      12
      12
      12
      12
      12
      12
      12
      12
      12
      12
      12
      12
      12
      12
      12
      12
      12
      12
      12
      12
      12
      12
      12
      12
      12
      12
      12
      12
      12
      12
      12
      12
      12
      12
      12
      12
      12
      12
      12
      12
      12
      12
      12
      12
      12
      12
      12
      12
      12
      12
      12
      12
      12
      12
      12
      12
      12
      12
      12
      12
      12
      12
      12
      12
      12
      12
      12
  
  
POINT_DATA       1950
  
SCALARS                  material_type  double 1
LOOKUP_TABLE default
                   2
                   2
                   2
                   2
                   2
                   2
                   2
                   2
                   2
                   2
                   2
                   2
                   2
                   2
                   2
                   2
                   2
                   2
                   2
                   2
                   2
                   2
                   2
                   2
                   2
                   2
                   2
                   2
                   2
                   2
                   2
                   2
                   2
                   2
                   2
                   2
                   2
                   2
                   2
                   2
                   2
                   2
                   2
                   2
                   2
                   2
                   2
                   2
                   2
                   2
                   2
                   2
                   2
                   2
                   2
                   2
                   2
                   2
                   2
                   2
                   2
                   2
                   2
                   2
                   2
                   2
                   2
                   2
                   2
                   2
                   2
                   2
                   2
                   2
                   2
                   2
                   2
                   2
                   2
                   2
                   2
                   2
                   2
                   2
                   2
                   2
                   2
                   2
                   2
                   2
                   2
                   2
                   2
                   2
                   2
                   2
                   2
                   2
                   2
                   2
                   2
                   2
                   2
                   2
                   2
                   2
                   2
                   2
                   2
                   2
                   2
                   2
                   2
                   2
                   2
                   2
                   2
                   2
                   2
                   2
                   2
                   2
                   2
                   2
                   2
                   2
                   2
                   2
                   2
                   2
                   2
                   2
                   2
                   2
                   2
                   2
                   2
                   2
                   2
                   2
                   2
                   2
                   2
                   2
                   2
                   2
                   2
                   2
                   2
                   2
                   2
                   2
                   2
                   2
                   2
                   2
                   2
                   2
                   2
                   2
                   2
                   2
                   2
                   2
                   2
                   2
                   2
                   2
                   2
                   2
                   2
                   2
                   2
                   2
                   2
                   2
                   2
                   2
                   2
                   2
                   2
                   2
                   2
                   2
                   2
                   2
                   2
                   2
                   2
                   2
                   2
                   2
                   2
                   2
                   2
                   2
                   2
                   2
                   2
                   2
                   2
                   2
                   2
                   2
                   2
                   2
                   2
                   2
                   2
                   2
                   2
                   2
                   2
                   2
                   2
                   2
                   2
                   2
                   2
                   2
                   2
                   2
                   2
                   2
                   2
                   2
                   2
                   2
                   2
                   2
                   2
                   2
                   2
                   2
                   2
                   2
                   2
                   2
                   2
                   2
                   2
                   2
                   2
                   2
                   2
                   2
                   2
                   2
                   2
                   2
                   2
                   2
                   2
                   2
                   2
                   2
                   2
                   2
                   2
                   2
                   2
                   2
                   2
                   2
                   2
                   2
                   2
                   2
                   2
                   2
                   2
                   2
                   2
                   2
                   2
                   2
                   2
                   2
                   2
                   2
                   2
                   2
                   2
                   2
                   2
                   2
                   2
                   2
                   2
                   2
                   2
                   2
                   2
                   2
                   2
                   2
                   2
                   2
                   2
                   2
                   2
                   2
                   2
                   2
                   2
                   2
                   2
                   2
                   2
                   2
                   2
                   2
                   2
                   2
                   2
                   2
                   2
                   2
                   2
                   2
                   2
                   2
                   2
                   2
                   2
                   2
                   2
                   2
                   2
                   2
                   2
                   2
                   2
                   2
                   2
                   2
                   2
                   2
                   2
                   2
                   2
                   2
                   2
                   2
                   2
                   2
                   2
                   2
                   2
                   2
                   2
                   2
                   2
                   2
                   2
                   2
                   2
                   2
                   2
                   2
                   2
                   2
                   2
                   2
                   2
                   2
                   2
                   2
                   2
                   2
                   2
                   2
                   2
                   2
                   2
                   2
                   2
                   2
                   2
                   2
                   2
                   2
                   2
                   2
                   2
                   2
                   2
                   2
                   2
                   2
                   2
                   2
                   2
                   2
                   2
                   2
                   2
                   2
                   2
                   2
                   2
                   2
                   2
                   2
                   2
                   2
                   2
                   2
                   2
                   2
                   2
                   2
                   2
                   2
                   2
                   2
                   2
                   2
                   2
                   2
                   2
                   2
                   2
                   2
                   2
                   2
                   2
                   2
                   2
                   2
                   2
                   2
                   2
                   2
                   2
                   2
                   2
                   2
                   2
                   2
                   2
                   2
                   2
                   2
                   2
                   2
                   2
                   2
                   2
                   2
                   2
                   2
                   2
                   2
                   2
                   2
                   2
                   2
                   2
                   2
                   2
                   2
                   2
                   2
                   2
                   2
                   2
                   2
                   2
                   2
                   2
                   2
                   2
                   2
                   2
                   2
                   2
                   2
                   2
                   2
                   2
                   2
                   2
                   2
                   2
                   2
                   2
                   2
                   2
                   2
                   2
                   2
                   2
                   2
                   2
                   2
                   2
                   2
                   2
                   2
                   2
                   2
                   2
                   2
                   2
                   2
                   2
                   2
                   2
                   2
                   2
                   2
                   2
                   2
                   2
                   2
                   2
                   2
                   2
                   2
                   2
                   2
                   2
                   2
                   2
                   2
                   2
                   2
                   2
                   2
                   2
                   2
                   2
                   2
                   2
                   2
                   2
                   2
                   2
                   2
                   2
                   2
                   2
                   2
                   2
                   2
                   2
                   2
                   2
                   2
                   2
                   2
                   2
                   2
                   2
                   2
                   2
                   2
                   2
                   2
                   2
                   2
                   2
                   2
                   2
                   2
                   2
                   2
                   2
                   2
                   2
                   2
                   2
                   2
                   2
                   2
                   2
                   2
                   2
                   2
                   2
                   2
                   2
                   2
                   2
                   2
                   2
                   2
                   2
                   2
                   2
                   2
                   2
                   2
                   2
                   2
                   2
                   2
                   2
                   2
                   2
                   2
                   2
                   2
                   2
                   2
                   2
                   2
                   2
                   2
                   2
                   2
                   2
                   2
                   2
                   2
                   2
                   2
                   2
                   2
                   2
                   2
                   2
                   2
                   2
                   2
                   2
                   2
                   2
                   2
                   2
                   2
                   2
                   2
                   2
                   2
                   2
                   2
                   2
                   2
                   2
                   2
                   2
                   2
                   2
                   2
                   2
                   2
                   2
                   2
                   2
                   2
                   2
                   2
                   2
                   2
                   2
                   2
                   2
                   2
                   2
                   2
                   2
                   2
                   2
                   2
                   2
                   2
                   2
                   2
                   2
                   2
                   2
                   2
                   2
                   2
                   2
                   2
                   2
                   2
                   2
                   2
                   2
                   2
                   2
                   2
                   2
                   2
                   2
                   2
                   2
                   2
                   2
                   2
                   2
                   2
                   2
                   2
                   2
                   2
                   2
                   2
                   2
                   2
                   2
                   2
                   2
                   2
                   2
                   2
                   2
                   2
                   2
                   2
                   2
                   2
                   2
                   2
                   2
                   2
                   2
                   2
                   2
                   2
                   2
                   2
                   2
                   2
                   2
                   2
                   2
                   2
                   2
                   2
                   2
                   2
                   2
                   2
                   2
                   2
                   2
                   2
                   2
                   2
                   2
                   2
                   2
                   2
                   2
                   2
                   2
                   2
                   2
                   2
                   2
                   2
                   2
                   2
                   2
                   2
                   2
                   2
                   2
                   2
                   2
                   2
                   2
                   2
                   2
                   2
                   2
                   2
                   2
                   2
                   2
                   2
                   2
                   2
                   2
                   2
                   2
                   2
                   2
                   2
                   2
                   2
                   2
                   2
                   2
                   2
                   2
                   2
                   2
                   2
                   2
                   2
                   2
                   2
                   2
                   2
                   2
                   2
                   2
                   2
                   2
                   2
                   2
                   2
                   2
                   2
                   2
                   2
                   2
                   2
                   2
                   2
                   2
                   2
                   2
                   2
                   2
                   2
                   2
                   2
                   2
                   2
                   2
                   2
                   2
                   2
                   2
                   2
                   2
                   2
                   2
                   2
                   2
                   2
                   2
                   2
                   2
                   2
                   2
                   2
                   2
                   2
                   2
                   2
                   2
                   2
                   2
                   2
                   2
                   2
                   2
                   2
                   2
                   2
                   2
                   2
                   2
                   2
                   2
                   2
                   2
                   2
                   2
                   2
                   2
                   2
                   2
                   2
                   2
                   2
                   2
                   2
                   2
                   2
                   2
                   2
                   2
                   2
                   2
                   2
                   2
                   2
                   2
                   2
                   2
                   2
                   2
                   2
                   2
                   2
                   2
                   2
                   2
                   2
                   2
                   2
                   2
                   2
                   2
                   2
                   2
                   2
                   2
                   2
                   2
                   2
                   2
                   2
                   2
                   2
                   2
                   2
                   2
                   2
                   2
                   2
                   2
                   2
                   2
                   2
                   2
                   2
                   2
                   2
                   2
                   2
                   2
                   2
                   2
                   2
                   2
                   2
                   2
                   2
                   2
                   2
                   2
                   2
                   2
                   2
                   2
                   2
                   2
                   2
                   2
                   2
                   2
                   2
                   2
                   2
                   2
                   2
                   2
                   2
                   2
                   2
                   2
                   2
                   2
                   2
                   2
                   2
                   2
                   2
                   2
                   2
                   2
                   2
                   2
                   2
                   2
                   2
                   2
                   2
                   2
                   2
                   2
                   2
                   2
                   2
                   2
                   2
                   2
                   2
                   2
                   2
                   2
                   2
                   2
                   2
                   2
                   2
                   2
                   2
                   2
                   2
                   2
                   2
                   2
                   2
                   2
                   2
                   2
                   2
                   2
                   2
                   2
                   2
                   2
                   2
                   2
                   2
                   2
                   2
                   2
                   2
                   2
                   2
                   2
                   2
                   2
                   2
                   2
                   2
                   2
                   2
                   2
                   2
                   2
                   2
                   2
                   2
                   2
                   2
                   2
                   2
                   2
                   2
                   2
                   2
                   2
                   2
                   2
                   2
                   2
                   2
                   2
                   2
                   2
                   2
                   2
                   2
                   2
                   2
                   2
                   2
                   2
                   2
                   2
                   2
                   2
                   2
                   2
                   2
                   2
                   2
                   2
                   2
                   2
                   2
                   2
                   2
                   2
                   2
                   2
                   2
                   2
                   2
                   2
                   2
                   2
                   2
                   2
                   2
                   2
                   2
                   2
                   2
                   2
                   2
                   2
                   2
                   2
                   2
                   2
                   2
                   2
                   2
                   2
                   2
                   2
                   2
                   2
                   2
                   2
                   2
                   2
                   2
                   2
                   2
                   2
                   2
                   2
                   2
                   2
                   2
                   2
                   2
                   2
                   2
                   2
                   2
                   2
                   2
                   2
                   2
                   2
                   2
                   2
                   2
                   2
                   2
                   2
                   2
                   2
                   2
                   2
                   2
                   2
                   2
                   2
                   2
                   2
                   2
                   2
                   2
                   2
                   2
                   2
                   2
                   2
                   2
                   2
                   2
                   2
                   2
                   2
                   2
                   2
                   2
                   2
                   2
                   2
                   2
                   2
                   2
                   2
                   2
                   2
                   2
                   2
                   2
                   2
                   2
                   2
                   2
                   2
                   2
                   2
                   2
                   2
                   2
                   2
                   2
                   2
                   2
                   2
                   2
                   2
                   2
                   2
                   2
                   2
                   2
                   2
                   2
                   2
                   2
                   2
                   2
                   2
                   2
                   2
                   2
                   2
                   2
                   2
                   2
                   2
                   2
                   2
                   2
                   2
                   2
                   2
                   2
                   2
                   2
                   2
                   2
                   2
                   2
                   2
                   2
                   2
                   2
                   2
                   2
                   2
                   2
                   2
                   2
                   2
                   2
                   2
                   2
                   2
                   2
                   2
                   2
                   2
                   2
                   2
                   2
                   2
                   2
                   2
                   2
                   2
                   2
                   2
                   2
                   2
                   2
                   2
                   2
                   2
                   2
                   2
                   2
                   2
                   2
                   2
                   2
                   2
                   2
                   2
                   2
                   2
                   2
                   2
                   2
                   2
                   2
                   2
                   2
                   2
                   2
                   2
                   2
                   2
                   2
                   2
                   2
                   2
                   2
                   2
                   2
                   2
                   2
                   2
                   2
                   2
                   2
                   2
                   2
                   2
                   2
                   2
                   2
                   2
                   2
                   2
                   2
                   2
                   2
                   2
                   2
                   2
                   2
                   2
                   2
                   2
                   2
                   2
                   2
                   2
                   2
                   2
                   2
                   2
                   2
                   2
                   2
                   2
                   2
                   2
                   2
                   2
                   2
                   2
                   2
                   2
                   2
                   2
                   2
                   2
                   2
                   2
                   2
                   2
                   2
                   2
                   2
                   2
                   2
                   2
                   2
                   2
                   2
                   2
                   2
                   2
                   2
                   2
                   2
                   2
                   2
                   2
                   2
                   2
                   2
                   2
                   2
                   2
                   2
                   2
                   2
                   2
                   2
                   2
                   2
                   2
                   2
                   2
                   2
                   2
                   2
                   2
                   2
                   2
                   2
                   2
                   2
                   2
                   2
                   2
                   2
                   2
                   2
                   2
                   2
                   2
                   2
                   2
                   2
                   2
                   2
                   2
                   2
                   2
                   2
                   2
                   2
                   2
                   2
                   2
                   2
                   2
                   2
                   2
                   2
                   2
                   2
                   2
                   2
                   2
                   2
                   2
                   2
                   2
                   2
                   2
                   2
                   2
                   2
                   2
                   2
                   2
                   2
                   2
                   2
                   2
                   2
                   2
                   2
                   2
                   2
                   2
                   2
                   2
                   2
                   2
                   2
                   2
                   2
                   2
                   2
                   2
                   2
                   2
                   2
                   2
                   2
                   2
                   2
                   2
                   2
                   2
                   2
                   2
                   2
                   2
                   2
                   2
                   2
                   2
                   2
                   2
                   2
                   2
                   2
                   2
                   2
                   2
                   2
                   2
                   2
                   2
                   2
                   2
                   2
                   2
                   2
                   2
                   2
                   2
                   2
                   2
                   2
                   2
                   2
                   2
                   2
                   2
                   2
                   2
                   2
                   2
                   2
                   2
                   2
                   2
                   2
                   2
                   2
                   2
                   2
                   2
                   2
                   2
                   2
                   2
                   2
                   2
                   2
                   2
                   2
                   2
                   2
                   2
                   2
                   2
                   2
                   2
                   2
                   2
                   2
                   2
                   2
                   2
                   2
                   2
                   2
                   2
                   2
                   2
                   2
                   2
                   2
                   2
                   2
                   2
                   2
                   2
                   2
                   2
                   2
                   2
                   2
                   2
                   2
                   2
                   2
                   2
                   2
                   2
                   2
                   2
                   2
                   2
                   2
                   2
                   2
                   2
                   2
                   2
                   2
                   2
                   2
                   2
                   2
                   2
                   2
                   2
                   2
                   2
                   2
                   2
                   2
                   2
                   2
                   2
                   2
                   2
                   2
                   2
                   2
                   2
                   2
                   2
                   2
                   2
                   2
                   2
                   2
                   2
                   2
                   2
                   2
                   2
                   2
                   2
                   2
                   2
                   2
                   2
                   2
                   2
                   2
                   2
                   2
                   2
                   2
                   2
                   2
                   2
                   2
                   2
                   2
                   2
                   2
                   2
                   2
                   2
                   2
                   2
                   2
                   2
                   2
                   2
                   2
                   2
                   2
                   2
                   2
                   2
                   2
                   2
                   2
                   2
                   2
                   2
                   2
                   2
                   2
                   2
                   2
                   2
                   2
                   2
                   2
                   2
                   2
                   2
                   2
                   2
                   2
                   2
                   2
                   2
                   2
                   2
                   2
                   2
                   2
                   2
                   2
                   2
                   2
                   2
                   2
                   2
                   2
                   2
                   2
                   2
                   2
                   2
                   2
                   2
                   2
                   2
                   2
                   2
                   2
                   2
                   2
                   2
                   2
                   2
                   2
                   2
                   2
                   2
                   2
                   2
                   2
                   2
                   2
                   2
                   2
                   2
                   2
                   2
                   2
                   2
                   2
                   2
                   2
                   2
                   2
                   2
                   2
                   2
                   2
                   2
                   2
                   2
                   2
                   2
                   2
                   2
                   2
                   2
                   2
                   2
                   2
                   2
                   2
                   2
                   2
                   2
                   2
                   2
                   2
                   2
                   2
                   2
                   2
                   2
                   2
                   2
                   2
                   2
                   2
                   2
                   2
                   2
                   2
                   2
                   2
                   2
                   2
                   2
                   2
                   2
                   2
                   2
                   2
                   2
                   2
                   2
                   2
                   2
                   2
                   2
                   2
                   2
                   2
                   2
                   2
                   2
                   2
                   2
                   2
                   2
                   2
                   2
                   2
                   2
                   2
                   2
                   2
                   2
                   2
                   2
                   2
                   2
                   2
                   2
                   2
                   2
                   2
                   2
                   2
                   2
                   2
                   2
                   2
                   2
                   2
                   2
                   2
                   2
                   2
                   2
                   2
                   2
                   2
                   2
                   2
                   2
                   2
                   2
                   2
                   2
                   2
                   2
                   2
                   2
                   2
                   2
                   2
                   2
                   2
                   2
                   2
                   2
                   2
                   2
                   2
                   2
                   2
                   2
                   2
                   2
                   2
                   2
                   2
                   2
                   2
                   2
                   2
                   2
                   2
                   2
                   2
                   2
                   2
                   2
                   2
                   2
                   2
                   2
                   2
                   2
                   2
                   2
                   2
                   2
                   2
                   2
                   2
                   2
                   2
                   2
                   2
                   2
                   2
                   2
                   2
                   2
                   2
                   2
                   2
                   2
                   2
                   2
                   2
                   2
                   2
                   2
                   2
                   2
                   2
                   2
                   2
                   2
                   2
                   2
                   2
                   2
                   2
                   2
                   2
                   2
                   2
                   2
                   2
                   2
                   2
                   2
                   2
                   2
                   2
                   2
                   2
                   2
                   2
                   2
                   2
                   2
                   2
                   2
                   2
                   2
                   2
                   2
                   2
                   2
                   2
                   2
                   2
                   2
                   2
                   2
                   2
                   2
                   2
                   2
                   2
                   2
                   2
                   2
                   2
                   2
                   2
                   2
                   2
                   2
                   2
                   2
                   2
                   2
                   2
  
SCALARS                        node_id  double 1
LOOKUP_TABLE default
                   1
                   2
                   3
                   4
                   5
                   6
                   7
                   8
                   9
                  10
                  11
                  12
                  13
                  14
                  15
                  16
                  17
                  18
                  19
                  20
                  21
                  22
                  23
                  24
                  25
                  26
                  27
                  28
                  29
                  30
                  31
                  32
                  33
                  34
                  35
                  36
                  37
                  38
                  39
                  40
                  41
                  42
                  43
                  44
                  45
                  46
                  47
                  48
                  49
                  50
                  51
                  52
                  53
                  54
                  55
                  56
                  57
                  58
                  59
                  60
                  61
                  62
                  63
                  64
                  65
                  66
                  67
                  68
                  69
                  70
                  71
                  72
                  73
                  74
                  75
                  76
                  77
                  78
                  79
                  80
                  81
                  82
                  83
                  84
                  85
                  86
                  87
                  88
                  89
                  90
                  91
                  92
                  93
                  94
                  95
                  96
                  97
                  98
                  99
                 100
                 101
                 102
                 103
                 104
                 105
                 106
                 107
                 108
                 109
                 110
                 111
                 112
                 113
                 114
                 115
                 116
                 117
                 118
                 119
                 120
                 121
                 122
                 123
                 124
                 125
                 126
                 127
                 128
                 129
                 130
                 131
                 132
                 133
                 134
                 135
                 136
                 137
                 138
                 139
                 140
                 141
                 142
                 143
                 144
                 145
                 146
                 147
                 148
                 149
                 150
                 151
                 152
                 153
                 154
                 155
                 156
                 157
                 158
                 159
                 160
                 161
                 162
                 163
                 164
                 165
                 166
                 167
                 168
                 169
                 170
                 171
                 172
                 173
                 174
                 175
                 176
                 177
                 178
                 179
                 180
                 181
                 182
                 183
                 184
                 185
                 186
                 187
                 188
                 189
                 190
                 191
                 192
                 193
                 194
                 195
                 196
                 197
                 198
                 199
                 200
                 201
                 202
                 203
                 204
                 205
                 206
                 207
                 208
                 209
                 210
                 211
                 212
                 213
                 214
                 215
                 216
                 217
                 218
                 219
                 220
                 221
                 222
                 223
                 224
                 225
                 226
                 227
                 228
                 229
                 230
                 231
                 232
                 233
                 234
                 235
                 236
                 237
                 238
                 239
                 240
                 241
                 242
                 243
                 244
                 245
                 246
                 247
                 248
                 249
                 250
                 251
                 252
                 253
                 254
                 255
                 256
                 257
                 258
                 259
                 260
                 261
                 262
                 263
                 264
                 265
                 266
                 267
                 268
                 269
                 270
                 271
                 272
                 273
                 274
                 275
                 276
                 277
                 278
                 279
                 280
                 281
                 282
                 283
                 284
                 285
                 286
                 287
                 288
                 289
                 290
                 291
                 292
                 293
                 294
                 295
                 296
                 297
                 298
                 299
                 300
                 301
                 302
                 303
                 304
                 305
                 306
                 307
                 308
                 309
                 310
                 311
                 312
                 313
                 314
                 315
                 316
                 317
                 318
                 319
                 320
                 321
                 322
                 323
                 324
                 325
                 326
                 327
                 328
                 329
                 330
                 331
                 332
                 333
                 334
                 335
                 336
                 337
                 338
                 339
                 340
                 341
                 342
                 343
                 344
                 345
                 346
                 347
                 348
                 349
                 350
                 351
                 352
                 353
                 354
                 355
                 356
                 357
                 358
                 359
                 360
                 361
                 362
                 363
                 364
                 365
                 366
                 367
                 368
                 369
                 370
                 371
                 372
                 373
                 374
                 375
                 376
                 377
                 378
                 379
                 380
                 381
                 382
                 383
                 384
                 385
                 386
                 387
                 388
                 389
                 390
                 391
                 392
                 393
                 394
                 395
                 396
                 397
                 398
                 399
                 400
                 401
                 402
                 403
                 404
                 405
                 406
                 407
                 408
                 409
                 410
                 411
                 412
                 413
                 414
                 415
                 416
                 417
                 418
                 419
                 420
                 421
                 422
                 423
                 424
                 425
                 426
                 427
                 428
                 429
                 430
                 431
                 432
                 433
                 434
                 435
                 436
                 437
                 438
                 439
                 440
                 441
                 442
                 443
                 444
                 445
                 446
                 447
                 448
                 449
                 450
                 451
                 452
                 453
                 454
                 455
                 456
                 457
                 458
                 459
                 460
                 461
                 462
                 463
                 464
                 465
                 466
                 467
                 468
                 469
                 470
                 471
                 472
                 473
                 474
                 475
                 476
                 477
                 478
                 479
                 480
                 481
                 482
                 483
                 484
                 485
                 486
                 487
                 488
                 489
                 490
                 491
                 492
                 493
                 494
                 495
                 496
                 497
                 498
                 499
                 500
                 501
                 502
                 503
                 504
                 505
                 506
                 507
                 508
                 509
                 510
                 511
                 512
                 513
                 514
                 515
                 516
                 517
                 518
                 519
                 520
                 521
                 522
                 523
                 524
                 525
                 526
                 527
                 528
                 529
                 530
                 531
                 532
                 533
                 534
                 535
                 536
                 537
                 538
                 539
                 540
                 541
                 542
                 543
                 544
                 545
                 546
                 547
                 548
                 549
                 550
                 551
                 552
                 553
                 554
                 555
                 556
                 557
                 558
                 559
                 560
                 561
                 562
                 563
                 564
                 565
                 566
                 567
                 568
                 569
                 570
                 571
                 572
                 573
                 574
                 575
                 576
                 577
                 578
                 579
                 580
                 581
                 582
                 583
                 584
                 585
                 586
                 587
                 588
                 589
                 590
                 591
                 592
                 593
                 594
                 595
                 596
                 597
                 598
                 599
                 600
                 601
                 602
                 603
                 604
                 605
                 606
                 607
                 608
                 609
                 610
                 611
                 612
                 613
                 614
                 615
                 616
                 617
                 618
                 619
                 620
                 621
                 622
                 623
                 624
                 625
                 626
                 627
                 628
                 629
                 630
                 631
                 632
                 633
                 634
                 635
                 636
                 637
                 638
                 639
                 640
                 641
                 642
                 643
                 644
                 645
                 646
                 647
                 648
                 649
                 650
                 651
                 652
                 653
                 654
                 655
                 656
                 657
                 658
                 659
                 660
                 661
                 662
                 663
                 664
                 665
                 666
                 667
                 668
                 669
                 670
                 671
                 672
                 673
                 674
                 675
                 676
                 677
                 678
                 679
                 680
                 681
                 682
                 683
                 684
                 685
                 686
                 687
                 688
                 689
                 690
                 691
                 692
                 693
                 694
                 695
                 696
                 697
                 698
                 699
                 700
                 701
                 702
                 703
                 704
                 705
                 706
                 707
                 708
                 709
                 710
                 711
                 712
                 713
                 714
                 715
                 716
                 717
                 718
                 719
                 720
                 721
                 722
                 723
                 724
                 725
                 726
                 727
                 728
                 729
                 730
                 731
                 732
                 733
                 734
                 735
                 736
                 737
                 738
                 739
                 740
                 741
                 742
                 743
                 744
                 745
                 746
                 747
                 748
                 749
                 750
                 751
                 752
                 753
                 754
                 755
                 756
                 757
                 758
                 759
                 760
                 761
                 762
                 763
                 764
                 765
                 766
                 767
                 768
                 769
                 770
                 771
                 772
                 773
                 774
                 775
                 776
                 777
                 778
                 779
                 780
                 781
                 782
                 783
                 784
                 785
                 786
                 787
                 788
                 789
                 790
                 791
                 792
                 793
                 794
                 795
                 796
                 797
                 798
                 799
                 800
                 801
                 802
                 803
                 804
                 805
                 806
                 807
                 808
                 809
                 810
                 811
                 812
                 813
                 814
                 815
                 816
                 817
                 818
                 819
                 820
                 821
                 822
                 823
                 824
                 825
                 826
                 827
                 828
                 829
                 830
                 831
                 832
                 833
                 834
                 835
                 836
                 837
                 838
                 839
                 840
                 841
                 842
                 843
                 844
                 845
                 846
                 847
                 848
                 849
                 850
                 851
                 852
                 853
                 854
                 855
                 856
                 857
                 858
                 859
                 860
                 861
                 862
                 863
                 864
                 865
                 866
                 867
                 868
                 869
                 870
                 871
                 872
                 873
                 874
                 875
                 876
                 877
                 878
                 879
                 880
                 881
                 882
                 883
                 884
                 885
                 886
                 887
                 888
                 889
                 890
                 891
                 892
                 893
                 894
                 895
                 896
                 897
                 898
                 899
                 900
                 901
                 902
                 903
                 904
                 905
                 906
                 907
                 908
                 909
                 910
                 911
                 912
                 913
                 914
                 915
                 916
                 917
                 918
                 919
                 920
                 921
                 922
                 923
                 924
                 925
                 926
                 927
                 928
                 929
                 930
                 931
                 932
                 933
                 934
                 935
                 936
                 937
                 938
                 939
                 940
                 941
                 942
                 943
                 944
                 945
                 946
                 947
                 948
                 949
                 950
                 951
                 952
                 953
                 954
                 955
                 956
                 957
                 958
                 959
                 960
                 961
                 962
                 963
                 964
                 965
                 966
                 967
                 968
                 969
                 970
                 971
                 972
                 973
                 974
                 975
                 976
                 977
                 978
                 979
                 980
                 981
                 982
                 983
                 984
                 985
                 986
                 987
                 988
                 989
                 990
                 991
                 992
                 993
                 994
                 995
                 996
                 997
                 998
                 999
                1000
                1001
                1002
                1003
                1004
                1005
                1006
                1007
                1008
                1009
                1010
                1011
                1012
                1013
                1014
                1015
                1016
                1017
                1018
                1019
                1020
                1021
                1022
                1023
                1024
                1025
                1026
                1027
                1028
                1029
                1030
                1031
                1032
                1033
                1034
                1035
                1036
                1037
                1038
                1039
                1040
                1041
                1042
                1043
                1044
                1045
                1046
                1047
                1048
                1049
                1050
                1051
                1052
                1053
                1054
                1055
                1056
                1057
                1058
                1059
                1060
                1061
                1062
                1063
                1064
                1065
                1066
                1067
                1068
                1069
                1070
                1071
                1072
                1073
                1074
                1075
                1076
                1077
                1078
                1079
                1080
                1081
                1082
                1083
                1084
                1085
                1086
                1087
                1088
                1089
                1090
                1091
                1092
                1093
                1094
                1095
                1096
                1097
                1098
                1099
                1100
                1101
                1102
                1103
                1104
                1105
                1106
                1107
                1108
                1109
                1110
                1111
                1112
                1113
                1114
                1115
                1116
                1117
                1118
                1119
                1120
                1121
                1122
                1123
                1124
                1125
                1126
                1127
                1128
                1129
                1130
                1131
                1132
                1133
                1134
                1135
                1136
                1137
                1138
                1139
                1140
                1141
                1142
                1143
                1144
                1145
                1146
                1147
                1148
                1149
                1150
                1151
                1152
                1153
                1154
                1155
                1156
                1157
                1158
                1159
                1160
                1161
                1162
                1163
                1164
                1165
                1166
                1167
                1168
                1169
                1170
                1171
                1172
                1173
                1174
                1175
                1176
                1177
                1178
                1179
                1180
                1181
                1182
                1183
                1184
                1185
                1186
                1187
                1188
                1189
                1190
                1191
                1192
                1193
                1194
                1195
                1196
                1197
                1198
                1199
                1200
                1201
                1202
                1203
                1204
                1205
                1206
                1207
                1208
                1209
                1210
                1211
                1212
                1213
                1214
                1215
                1216
                1217
                1218
                1219
                1220
                1221
                1222
                1223
                1224
                1225
                1226
                1227
                1228
                1229
                1230
                1231
                1232
                1233
                1234
                1235
                1236
                1237
                1238
                1239
                1240
                1241
                1242
                1243
                1244
                1245
                1246
                1247
                1248
                1249
                1250
                1251
                1252
                1253
                1254
                1255
                1256
                1257
                1258
                1259
                1260
                1261
                1262
                1263
                1264
                1265
                1266
                1267
                1268
                1269
                1270
                1271
                1272
                1273
                1274
                1275
                1276
                1277
                1278
                1279
                1280
                1281
                1282
                1283
                1284
                1285
                1286
                1287
                1288
                1289
                1290
                1291
                1292
                1293
                1294
                1295
                1296
                1297
                1298
                1299
                1300
                1301
                1302
                1303
                1304
                1305
                1306
                1307
                1308
                1309
                1310
                1311
                1312
                1313
                1314
                1315
                1316
                1317
                1318
                1319
                1320
                1321
                1322
                1323
                1324
                1325
                1326
                1327
                1328
                1329
                1330
                1331
                1332
                1333
                1334
                1335
                1336
                1337
                1338
                1339
                1340
                1341
                1342
                1343
                1344
                1345
                1346
                1347
                1348
                1349
                1350
                1351
                1352
                1353
                1354
                1355
                1356
                1357
                1358
                1359
                1360
                1361
                1362
                1363
                1364
                1365
                1366
                1367
                1368
                1369
                1370
                1371
                1372
                1373
                1374
                1375
                1376
                1377
                1378
                1379
                1380
                1381
                1382
                1383
                1384
                1385
                1386
                1387
                1388
                1389
                1390
                1391
                1392
                1393
                1394
                1395
                1396
                1397
                1398
                1399
                1400
                1401
                1402
                1403
                1404
                1405
                1406
                1407
                1408
                1409
                1410
                1411
                1412
                1413
                1414
                1415
                1416
                1417
                1418
                1419
                1420
                1421
                1422
                1423
                1424
                1425
                1426
                1427
                1428
                1429
                1430
                1431
                1432
                1433
                1434
                1435
                1436
                1437
                1438
                1439
                1440
                1441
                1442
                1443
                1444
                1445
                1446
                1447
                1448
                1449
                1450
                1451
                1452
                1453
                1454
                1455
                1456
                1457
                1458
                1459
                1460
                1461
                1462
                1463
                1464
                1465
                1466
                1467
                1468
                1469
                1470
                1471
                1472
                1473
                1474
                1475
                1476
                1477
                1478
                1479
                1480
                1481
                1482
                1483
                1484
                1485
                1486
                1487
                1488
                1489
                1490
                1491
                1492
                1493
                1494
                1495
                1496
                1497
                1498
                1499
                1500
                1501
                1502
                1503
                1504
                1505
                1506
                1507
                1508
                1509
                1510
                1511
                1512
                1513
                1514
                1515
                1516
                1517
                1518
                1519
                1520
                1521
                1522
                1523
                1524
                1525
                1526
                1527
                1528
                1529
                1530
                1531
                1532
                1533
                1534
                1535
                1536
                1537
                1538
                1539
                1540
                1541
                1542
                1543
                1544
                1545
                1546
                1547
                1548
                1549
                1550
                1551
                1552
                1553
                1554
                1555
                1556
                1557
                1558
                1559
                1560
                1561
                1562
                1563
                1564
                1565
                1566
                1567
                1568
                1569
                1570
                1571
                1572
                1573
                1574
                1575
                1576
                1577
                1578
                1579
                1580
                1581
                1582
                1583
                1584
                1585
                1586
                1587
                1588
                1589
                1590
                1591
                1592
                1593
                1594
                1595
                1596
                1597
                1598
                1599
                1600
                1601
                1602
                1603
                1604
                1605
                1606
                1607
                1608
                1609
                1610
                1611
                1612
                1613
                1614
                1615
                1616
                1617
                1618
                1619
                1620
                1621
                1622
                1623
                1624
                1625
                1626
                1627
                1628
                1629
                1630
                1631
                1632
                1633
                1634
                1635
                1636
                1637
                1638
                1639
                1640
                1641
                1642
                1643
                1644
                1645
                1646
                1647
                1648
                1649
                1650
                1651
                1652
                1653
                1654
                1655
                1656
                1657
                1658
                1659
                1660
                1661
                1662
                1663
                1664
                1665
                1666
                1667
                1668
                1669
                1670
                1671
                1672
                1673
                1674
                1675
                1676
                1677
                1678
                1679
                1680
                1681
                1682
                1683
                1684
                1685
                1686
                1687
                1688
                1689
                1690
                1691
                1692
                1693
                1694
                1695
                1696
                1697
                1698
                1699
                1700
                1701
                1702
                1703
                1704
                1705
                1706
                1707
                1708
                1709
                1710
                1711
                1712
                1713
                1714
                1715
                1716
                1717
                1718
                1719
                1720
                1721
                1722
                1723
                1724
                1725
                1726
                1727
                1728
                1729
                1730
                1731
                1732
                1733
                1734
                1735
                1736
                1737
                1738
                1739
                1740
                1741
                1742
                1743
                1744
                1745
                1746
                1747
                1748
                1749
                1750
                1751
                1752
                1753
                1754
                1755
                1756
                1757
                1758
                1759
                1760
                1761
                1762
                1763
                1764
                1765
                1766
                1767
                1768
                1769
                1770
                1771
                1772
                1773
                1774
                1775
                1776
                1777
                1778
                1779
                1780
                1781
                1782
                1783
                1784
                1785
                1786
                1787
                1788
                1789
                1790
                1791
                1792
                1793
                1794
                1795
                1796
                1797
                1798
                1799
                1800
                1801
                1802
                1803
                1804
                1805
                1806
                1807
                1808
                1809
                1810
                1811
                1812
                1813
                1814
                1815
                1816
                1817
                1818
                1819
                1820
                1821
                1822
                1823
                1824
                1825
                1826
                1827
                1828
                1829
                1830
                1831
                1832
                1833
                1834
                1835
                1836
                1837
                1838
                1839
                1840
                1841
                1842
                1843
                1844
                1845
                1846
                1847
                1848
                1849
                1850
                1851
                1852
                1853
                1854
                1855
                1856
                1857
                1858
                1859
                1860
                1861
                1862
                1863
                1864
                1865
                1866
                1867
                1868
                1869
                1870
                1871
                1872
                1873
                1874
                1875
                1876
                1877
                1878
                1879
                1880
                1881
                1882
                1883
                1884
                1885
                1886
                1887
                1888
                1889
                1890
                1891
                1892
                1893
                1894
                1895
                1896
                1897
                1898
                1899
                1900
                1901
                1902
                1903
                1904
                1905
                1906
                1907
                1908
                1909
                1910
                1911
                1912
                1913
                1914
                1915
                1916
                1917
                1918
                1919
                1920
                1921
                1922
                1923
                1924
                1925
                1926
                1927
                1928
                1929
                1930
                1931
                1932
                1933
                1934
                1935
                1936
                1937
                1938
                1939
                1940
                1941
                1942
                1943
                1944
                1945
                1946
                1947
                1948
                1949
                1950
  
SCALARS                         bodyid  double 1
LOOKUP_TABLE default
                   1
                   1
                   1
                   1
                   1
                   1
                   1
                   1
                   1
                   1
                   1
                   1
                   1
                   1
                   1
                   1
                   1
                   1
                   1
                   1
                   1
                   1
                   1
                   1
                   1
                   1
                   1
                   1
                   1
                   1
                   1
                   1
                   1
                   1
                   1
                   1
                   1
                   1
                   1
                   1
                   1
                   1
                   1
                   1
                   1
                   1
                   1
                   1
                   1
                   1
                   1
                   1
                   1
                   1
                   1
                   1
                   1
                   1
                   1
                   1
                   1
                   1
                   1
                   1
                   1
                   1
                   1
                   1
                   1
                   1
                   1
                   1
                   1
                   1
                   1
                   1
                   1
                   1
                   1
                   1
                   1
                   1
                   1
                   1
                   1
                   1
                   1
                   1
                   1
                   1
                   1
                   1
                   1
                   1
                   1
                   1
                   1
                   1
                   1
                   1
                   1
                   1
                   1
                   1
                   1
                   1
                   1
                   1
                   1
                   1
                   1
                   1
                   1
                   1
                   1
                   1
                   1
                   1
                   1
                   1
                   1
                   1
                   1
                   1
                   1
                   1
                   1
                   1
                   1
                   1
                   1
                   1
                   1
                   1
                   1
                   1
                   1
                   1
                   1
                   1
                   1
                   1
                   1
                   1
                   1
                   1
                   1
                   1
                   1
                   1
                   1
                   1
                   1
                   1
                   1
                   1
                   1
                   1
                   1
                   1
                   1
                   1
                   1
                   1
                   1
                   1
                   1
                   1
                   1
                   1
                   1
                   1
                   1
                   1
                   1
                   1
                   1
                   1
                   1
                   1
                   1
                   1
                   1
                   1
                   1
                   1
                   1
                   1
                   1
                   1
                   1
                   1
                   1
                   1
                   1
                   1
                   1
                   1
                   1
                   1
                   1
                   1
                   1
                   1
                   1
                   1
                   1
                   1
                   1
                   1
                   1
                   1
                   1
                   1
                   1
                   1
                   1
                   1
                   1
                   1
                   1
                   1
                   1
                   1
                   1
                   1
                   1
                   1
                   1
                   1
                   1
                   1
                   1
                   1
                   1
                   1
                   1
                   1
                   1
                   1
                   1
                   1
                   1
                   1
                   1
                   1
                   1
                   1
                   1
                   1
                   1
                   1
                   1
                   1
                   1
                   1
                   1
                   1
                   1
                   1
                   1
                   1
                   1
                   1
                   1
                   1
                   1
                   1
                   1
                   1
                   1
                   1
                   1
                   1
                   1
                   1
                   1
                   1
                   1
                   1
                   1
                   1
                   1
                   1
                   1
                   1
                   1
                   1
                   1
                   1
                   1
                   1
                   1
                   1
                   1
                   1
                   1
                   1
                   1
                   1
                   1
                   1
                   1
                   1
                   1
                   1
                   1
                   1
                   1
                   1
                   1
                   1
                   1
                   1
                   1
                   1
                   1
                   1
                   1
                   1
                   1
                   1
                   1
                   1
                   1
                   1
                   1
                   1
                   1
                   1
                   1
                   1
                   1
                   1
                   1
                   1
                   1
                   1
                   1
                   1
                   1
                   1
                   1
                   1
                   1
                   1
                   1
                   1
                   1
                   1
                   1
                   1
                   1
                   1
                   1
                   1
                   1
                   1
                   1
                   1
                   1
                   1
                   1
                   1
                   1
                   1
                   1
                   1
                   1
                   1
                   1
                   1
                   1
                   1
                   1
                   1
                   1
                   1
                   1
                   1
                   1
                   1
                   1
                   1
                   1
                   1
                   1
                   1
                   1
                   1
                   1
                   1
                   1
                   1
                   1
                   1
                   1
                   1
                   1
                   1
                   1
                   1
                   1
                   1
                   1
                   1
                   1
                   1
                   1
                   1
                   1
                   1
                   1
                   1
                   1
                   1
                   1
                   1
                   1
                   1
                   1
                   1
                   1
                   1
                   1
                   1
                   1
                   1
                   1
                   1
                   1
                   1
                   1
                   1
                   1
                   1
                   1
                   1
                   1
                   1
                   1
                   1
                   1
                   1
                   1
                   1
                   1
                   1
                   1
                   1
                   1
                   1
                   1
                   1
                   1
                   1
                   1
                   1
                   1
                   1
                   1
                   1
                   1
                   1
                   1
                   1
                   1
                   1
                   1
                   1
                   1
                   1
                   1
                   1
                   1
                   1
                   1
                   1
                   1
                   1
                   1
                   1
                   1
                   1
                   1
                   1
                   1
                   1
                   1
                   1
                   1
                   1
                   1
                   1
                   1
                   1
                   1
                   1
                   1
                   1
                   1
                   1
                   1
                   1
                   1
                   1
                   1
                   1
                   1
                   1
                   1
                   1
                   1
                   1
                   1
                   1
                   1
                   1
                   1
                   1
                   1
                   1
                   1
                   1
                   1
                   1
                   1
                   1
                   1
                   1
                   1
                   1
                   1
                   1
                   1
                   1
                   1
                   1
                   1
                   1
                   1
                   1
                   1
                   1
                   1
                   1
                   1
                   1
                   1
                   1
                   1
                   1
                   1
                   1
                   1
                   1
                   1
                   1
                   1
                   1
                   1
                   1
                   1
                   1
                   1
                   1
                   1
                   1
                   1
                   1
                   1
                   1
                   1
                   1
                   1
                   1
                   1
                   1
                   1
                   1
                   1
                   1
                   1
                   1
                   1
                   1
                   1
                   1
                   1
                   1
                   1
                   1
                   1
                   1
                   1
                   1
                   1
                   1
                   1
                   1
                   1
                   1
                   1
                   1
                   1
                   1
                   1
                   1
                   1
                   1
                   1
                   1
                   1
                   1
                   1
                   1
                   1
                   1
                   1
                   1
                   1
                   1
                   1
                   1
                   1
                   1
                   1
                   1
                   1
                   1
                   1
                   1
                   1
                   1
                   1
                   1
                   1
                   1
                   1
                   1
                   1
                   1
                   1
                   1
                   1
                   1
                   1
                   1
                   1
                   1
                   1
                   1
                   1
                   1
                   1
                   1
                   1
                   1
                   1
                   1
                   1
                   1
                   1
                   1
                   1
                   1
                   1
                   1
                   1
                   1
                   1
                   1
                   1
                   1
                   1
                   1
                   1
                   1
                   1
                   1
                   1
                   1
                   1
                   1
                   1
                   1
                   1
                   1
                   1
                   1
                   1
                   1
                   1
                   1
                   1
                   1
                   1
                   1
                   1
                   1
                   1
                   1
                   1
                   1
                   1
                   1
                   1
                   1
                   1
                   1
                   1
                   1
                   1
                   1
                   1
                   1
                   1
                   1
                   1
                   1
                   1
                   1
                   1
                   1
                   1
                   1
                   1
                   1
                   1
                   1
                   1
                   1
                   1
                   1
                   1
                   1
                   1
                   1
                   1
                   1
                   1
                   1
                   1
                   1
                   1
                   1
                   1
                   1
                   1
                   1
                   1
                   1
                   1
                   1
                   1
                   1
                   1
                   1
                   1
                   1
                   1
                   1
                   1
                   1
                   1
                   1
                   1
                   1
                   1
                   1
                   1
                   1
                   1
                   1
                   1
                   1
                   1
                   1
                   1
                   1
                   1
                   1
                   1
                   1
                   1
                   1
                   1
                   1
                   1
                   1
                   1
                   1
                   1
                   1
                   1
                   1
                   1
                   1
                   1
                   1
                   1
                   1
                   1
                   1
                   1
                   1
                   1
                   1
                   1
                   1
                   1
                   1
                   1
                   1
                   1
                   1
                   1
                   1
                   1
                   1
                   1
                   1
                   1
                   1
                   1
                   1
                   1
                   1
                   1
                   1
                   1
                   1
                   1
                   1
                   1
                   1
                   1
                   1
                   1
                   1
                   1
                   1
                   1
                   1
                   1
                   1
                   1
                   1
                   1
                   1
                   1
                   1
                   1
                   1
                   1
                   1
                   1
                   1
                   1
                   1
                   1
                   1
                   1
                   1
                   1
                   1
                   1
                   1
                   1
                   1
                   1
                   1
                   1
                   1
                   1
                   1
                   1
                   1
                   1
                   1
                   1
                   1
                   1
                   1
                   1
                   1
                   1
                   1
                   1
                   1
                   1
                   1
                   1
                   1
                   1
                   1
                   1
                   1
                   1
                   1
                   1
                   1
                   1
                   1
                   1
                   1
                   1
                   1
                   1
                   1
                   1
                   1
                   1
                   1
                   1
                   1
                   1
                   1
                   1
                   1
                   1
                   1
                   1
                   1
                   1
                   1
                   1
                   1
                   1
                   1
                   1
                   1
                   1
                   1
                   1
                   1
                   1
                   1
                   1
                   1
                   1
                   1
                   1
                   1
                   1
                   1
                   1
                   1
                   1
                   1
                   1
                   1
                   1
                   1
                   1
                   1
                   1
                   1
                   1
                   1
                   1
                   1
                   1
                   1
                   1
                   1
                   1
                   1
                   1
                   1
                   1
                   1
                   1
                   1
                   1
                   1
                   1
                   1
                   1
                   1
                   1
                   1
                   1
                   1
                   1
                   1
                   1
                   1
                   1
                   1
                   1
                   1
                   1
                   1
                   1
                   1
                   1
                   1
                   1
                   1
                   1
                   1
                   1
                   1
                   1
                   1
                   1
                   1
                   1
                   1
                   1
                   1
                   1
                   1
                   1
                   1
                   1
                   1
                   1
                   1
                   1
                   1
                   1
                   1
                   1
                   1
                   1
                   1
                   1
                   1
                   1
                   1
                   1
                   1
                   1
                   1
                   1
                   1
                   1
                   1
                   1
                   1
                   1
                   1
                   1
                   1
                   1
                   1
                   1
                   1
                   1
                   1
                   1
                   1
                   1
                   1
                   1
                   1
                   1
                   1
                   1
                   1
                   1
                   1
                   1
                   1
                   1
                   1
                   1
                   1
                   1
                   1
                   1
                   1
                   1
                   1
                   1
                   1
                   1
                   1
                   1
                   1
                   1
                   1
                   1
                   1
                   1
                   1
                   1
                   1
                   1
                   1
                   1
                   1
                   1
                   1
                   1
                   1
                   1
                   1
                   1
                   1
                   1
                   1
                   1
                   1
                   1
                   1
                   1
                   1
                   1
                   1
                   1
                   1
                   1
                   1
                   1
                   1
                   1
                   1
                   1
                   1
                   1
                   1
                   1
                   1
                   1
                   1
                   1
                   1
                   1
                   1
                   1
                   1
                   1
                   1
                   1
                   1
                   1
                   1
                   1
                   1
                   1
                   1
                   1
                   1
                   1
                   1
                   1
                   1
                   1
                   1
                   1
                   1
                   1
                   1
                   1
                   1
                   1
                   1
                   1
                   1
                   1
                   1
                   1
                   1
                   1
                   1
                   1
                   1
                   1
                   1
                   1
                   1
                   1
                   1
                   1
                   1
                   1
                   1
                   1
                   1
                   1
                   1
                   1
                   1
                   1
                   1
                   1
                   1
                   1
                   1
                   1
                   1
                   1
                   1
                   1
                   1
                   1
                   1
                   1
                   1
                   1
                   1
                   1
                   1
                   1
                   1
                   1
                   1
                   1
                   1
                   1
                   1
                   1
                   1
                   1
                   1
                   1
                   1
                   1
                   1
                   1
                   1
                   1
                   1
                   1
                   1
                   1
                   1
                   1
                   1
                   1
                   1
                   1
                   1
                   1
                   1
                   1
                   1
                   1
                   1
                   1
                   1
                   1
                   1
                   1
                   1
                   1
                   1
                   1
                   1
                   1
                   1
                   1
                   1
                   1
                   1
                   1
                   1
                   1
                   1
                   1
                   1
                   1
                   1
                   1
                   1
                   1
                   1
                   1
                   1
                   1
                   1
                   1
                   1
                   1
                   1
                   1
                   1
                   1
                   1
                   1
                   1
                   1
                   1
                   1
                   1
                   1
                   1
                   1
                   1
                   1
                   1
                   1
                   1
                   1
                   1
                   1
                   1
                   1
                   1
                   1
                   1
                   1
                   1
                   1
                   1
                   1
                   1
                   1
                   1
                   1
                   1
                   1
                   1
                   1
                   1
                   1
                   1
                   1
                   1
                   1
                   1
                   1
                   1
                   1
                   1
                   1
                   1
                   1
                   1
                   1
                   1
                   1
                   1
                   1
                   1
                   1
                   1
                   1
                   1
                   1
                   1
                   1
                   1
                   1
                   1
                   1
                   1
                   1
                   1
                   1
                   1
                   1
                   1
                   1
                   1
                   1
                   1
                   1
                   1
                   1
                   1
                   1
                   1
                   1
                   1
                   1
                   1
                   1
                   1
                   1
                   1
                   1
                   1
                   1
                   1
                   1
                   1
                   1
                   1
                   1
                   1
                   1
                   1
                   1
                   1
                   1
                   1
                   1
                   1
                   1
                   1
                   1
                   1
                   1
                   1
                   1
                   1
                   1
                   1
                   1
                   1
                   1
                   1
                   1
                   1
                   1
                   1
                   1
                   1
                   1
                   1
                   1
                   1
                   1
                   1
                   1
                   1
                   1
                   1
                   1
                   1
                   1
                   1
                   1
                   1
                   1
                   1
                   1
                   1
                   1
                   1
                   1
                   1
                   1
                   1
                   1
                   1
                   1
                   1
                   1
                   1
                   1
                   1
                   1
                   1
                   1
                   1
                   1
                   1
                   1
                   1
                   1
                   1
                   1
                   1
                   1
                   1
                   1
                   1
                   1
                   1
                   1
                   1
                   1
                   1
                   1
                   1
                   1
                   1
                   1
                   1
                   1
                   1
                   1
                   1
                   1
                   1
                   1
                   1
                   1
                   1
                   1
                   1
                   1
                   1
                   1
                   1
                   1
                   1
                   1
                   1
                   1
                   1
                   1
                   1
                   1
                   1
                   1
                   1
                   1
                   1
                   1
                   1
                   1
                   1
                   1
                   1
                   1
                   1
                   1
                   1
                   1
                   1
                   1
                   1
                   1
                   1
                   1
                   1
                   1
                   1
                   1
                   1
                   1
                   1
                   1
                   1
                   1
                   1
                   1
                   1
                   1
                   1
                   1
                   1
                   1
                   1
                   1
                   1
                   1
                   1
                   1
                   1
                   1
                   1
                   1
                   1
                   1
                   1
                   1
                   1
                   1
                   1
                   1
                   1
                   1
                   1
                   1
                   1
                   1
                   1
                   1
                   1
                   1
                   1
                   1
                   1
                   1
                   1
                   1
                   1
                   1
                   1
                   1
                   1
                   1
                   1
                   1
                   1
                   1
                   1
                   1
                   1
                   1
                   1
                   1
                   1
                   1
                   1
                   1
                   1
                   1
                   1
                   1
                   1
                   1
                   1
                   1
                   1
                   1
                   1
                   1
                   1
                   1
                   1
                   1
                   1
                   1
                   1
                   1
                   1
                   1
                   1
                   1
                   1
                   1
                   1
                   1
                   1
                   1
                   1
                   1
                   1
                   1
                   1
                   1
                   1
                   1
                   1
                   1
                   1
                   1
                   1
                   1
                   1
                   1
                   1
                   1
                   1
                   1
                   1
                   1
                   1
                   1
                   1
                   1
                   1
                   1
                   1
                   1
                   1
                   1
                   1
                   1
                   1
                   1
                   1
                   1
                   1
                   1
                   1
                   1
                   1
                   1
                   1
                   1
                   1
                   1
                   1
                   1
                   1
                   1
                   1
                   1
                   1
                   1
                   1
                   1
                   1
                   1
                   1
                   1
                   1
                   1
                   1
                   1
                   1
                   1
                   1
                   1
                   1
                   1
                   1
                   1
                   1
                   1
                   1
                   1
                   1
                   1
                   1
                   1
                   1
                   1
                   1
                   1
                   1
                   1
                   1
                   1
                   1
                   1
                   1
                   1
                   1
                   1
                   1
                   1
                   1
                   1
                   1
                   1
                   1
                   1
                   1
                   1
                   1
                   1
                   1
                   1
                   1
                   1
                   1
                   1
                   1
                   1
                   1
                   1
                   1
                   1
                   1
                   1
                   1
                   1
                   1
                   1
                   1
                   1
                   1
                   1
                   1
                   1
                   1
                   1
                   1
                   1
                   1
                   1
                   1
                   1
                   1
                   1
                   1
                   1
                   1
                   1
                   1
                   1
                   1
                   1
                   1
                   1
                   1
                   1
                   1
                   1
                   1
                   1
                   1
                   1
                   1
                   1
                   1
                   1
                   1
                   1
                   1
                   1
                   1
                   1
                   1
                   1
                   1
                   1
                   1
                   1
                   1
                   1
                   1
                   1
                   1
                   1
                   1
                   1
                   1
                   1
                   1
                   1
                   1
                   1
                   1
                   1
                   1
                   1
                   1
                   1
                   1
                   1
                   1
                   1
                   1
                   1
                   1
                   1
                   1
                   1
                   1
                   1
                   1
                   1
                   1
                   1
                   1
                   1
                   1
                   1
                   1
                   1
                   1
                   1
                   1
                   1
                   1
                   1
                   1
                   1
                   1
                   1
                   1
                   1
                   1
                   1
                   1
                   1
                   1
                   1
                   1
                   1
                   1
                   1
                   1
                   1
                   1
                   1
                   1
                   1
                   1
                   1
                   1
                   1
                   1
                   1
                   1
                   1
                   1
                   1
                   1
                   1
                   1
                   1
                   1
                   1
                   1
                   1
                   1
                   1
                   1
                   1
                   1
                   1
                   1
                   1
                   1
                   1
                   1
                   1
                   1
                   1
                   1
                   1
                   1
                   1
                   1
                   1
                   1
                   1
                   1
                   1
                   1
                   1
                   1
                   1
                   1
                   1
                   1
                   1
                   1
                   1
                   1
                   1
                   1
                   1
                   1
                   1
                   1
                   1
                   1
                   1
                   1
                   1
                   1
                   1
                   1
                   1
                   1
                   1
                   1
                   1
                   1
                   1
                   1
                   1
                   1
                   1
                   1
                   1
                   1
  
SCALARS                  material_type  double 1
LOOKUP_TABLE default
                   2
                   2
                   2
                   2
                   2
                   2
                   2
                   2
                   2
                   2
                   2
                   2
                   2
                   2
                   2
                   2
                   2
                   2
                   2
                   2
                   2
                   2
                   2
                   2
                   2
                   2
                   2
                   2
                   2
                   2
                   2
                   2
                   2
                   2
                   2
                   2
                   2
                   2
                   2
                   2
                   2
                   2
                   2
                   2
                   2
                   2
                   2
                   2
                   2
                   2
                   2
                   2
                   2
                   2
                   2
                   2
                   2
                   2
                   2
                   2
                   2
                   2
                   2
                   2
                   2
                   2
                   2
                   2
                   2
                   2
                   2
                   2
                   2
                   2
                   2
                   2
                   2
                   2
                   2
                   2
                   2
                   2
                   2
                   2
                   2
                   2
                   2
                   2
                   2
                   2
                   2
                   2
                   2
                   2
                   2
                   2
                   2
                   2
                   2
                   2
                   2
                   2
                   2
                   2
                   2
                   2
                   2
                   2
                   2
                   2
                   2
                   2
                   2
                   2
                   2
                   2
                   2
                   2
                   2
                   2
                   2
                   2
                   2
                   2
                   2
                   2
                   2
                   2
                   2
                   2
                   2
                   2
                   2
                   2
                   2
                   2
                   2
                   2
                   2
                   2
                   2
                   2
                   2
                   2
                   2
                   2
                   2
                   2
                   2
                   2
                   2
                   2
                   2
                   2
                   2
                   2
                   2
                   2
                   2
                   2
                   2
                   2
                   2
                   2
                   2
                   2
                   2
                   2
                   2
                   2
                   2
                   2
                   2
                   2
                   2
                   2
                   2
                   2
                   2
                   2
                   2
                   2
                   2
                   2
                   2
                   2
                   2
                   2
                   2
                   2
                   2
                   2
                   2
                   2
                   2
                   2
                   2
                   2
                   2
                   2
                   2
                   2
                   2
                   2
                   2
                   2
                   2
                   2
                   2
                   2
                   2
                   2
                   2
                   2
                   2
                   2
                   2
                   2
                   2
                   2
                   2
                   2
                   2
                   2
                   2
                   2
                   2
                   2
                   2
                   2
                   2
                   2
                   2
                   2
                   2
                   2
                   2
                   2
                   2
                   2
                   2
                   2
                   2
                   2
                   2
                   2
                   2
                   2
                   2
                   2
                   2
                   2
                   2
                   2
                   2
                   2
                   2
                   2
                   2
                   2
                   2
                   2
                   2
                   2
                   2
                   2
                   2
                   2
                   2
                   2
                   2
                   2
                   2
                   2
                   2
                   2
                   2
                   2
                   2
                   2
                   2
                   2
                   2
                   2
                   2
                   2
                   2
                   2
                   2
                   2
                   2
                   2
                   2
                   2
                   2
                   2
                   2
                   2
                   2
                   2
                   2
                   2
                   2
                   2
                   2
                   2
                   2
                   2
                   2
                   2
                   2
                   2
                   2
                   2
                   2
                   2
                   2
                   2
                   2
                   2
                   2
                   2
                   2
                   2
                   2
                   2
                   2
                   2
                   2
                   2
                   2
                   2
                   2
                   2
                   2
                   2
                   2
                   2
                   2
                   2
                   2
                   2
                   2
                   2
                   2
                   2
                   2
                   2
                   2
                   2
                   2
                   2
                   2
                   2
                   2
                   2
                   2
                   2
                   2
                   2
                   2
                   2
                   2
                   2
                   2
                   2
                   2
                   2
                   2
                   2
                   2
                   2
                   2
                   2
                   2
                   2
                   2
                   2
                   2
                   2
                   2
                   2
                   2
                   2
                   2
                   2
                   2
                   2
                   2
                   2
                   2
                   2
                   2
                   2
                   2
                   2
                   2
                   2
                   2
                   2
                   2
                   2
                   2
                   2
                   2
                   2
                   2
                   2
                   2
                   2
                   2
                   2
                   2
                   2
                   2
                   2
                   2
                   2
                   2
                   2
                   2
                   2
                   2
                   2
                   2
                   2
                   2
                   2
                   2
                   2
                   2
                   2
                   2
                   2
                   2
                   2
                   2
                   2
                   2
                   2
                   2
                   2
                   2
                   2
                   2
                   2
                   2
                   2
                   2
                   2
                   2
                   2
                   2
                   2
                   2
                   2
                   2
                   2
                   2
                   2
                   2
                   2
                   2
                   2
                   2
                   2
                   2
                   2
                   2
                   2
                   2
                   2
                   2
                   2
                   2
                   2
                   2
                   2
                   2
                   2
                   2
                   2
                   2
                   2
                   2
                   2
                   2
                   2
                   2
                   2
                   2
                   2
                   2
                   2
                   2
                   2
                   2
                   2
                   2
                   2
                   2
                   2
                   2
                   2
                   2
                   2
                   2
                   2
                   2
                   2
                   2
                   2
                   2
                   2
                   2
                   2
                   2
                   2
                   2
                   2
                   2
                   2
                   2
                   2
                   2
                   2
                   2
                   2
                   2
                   2
                   2
                   2
                   2
                   2
                   2
                   2
                   2
                   2
                   2
                   2
                   2
                   2
                   2
                   2
                   2
                   2
                   2
                   2
                   2
                   2
                   2
                   2
                   2
                   2
                   2
                   2
                   2
                   2
                   2
                   2
                   2
                   2
                   2
                   2
                   2
                   2
                   2
                   2
                   2
                   2
                   2
                   2
                   2
                   2
                   2
                   2
                   2
                   2
                   2
                   2
                   2
                   2
                   2
                   2
                   2
                   2
                   2
                   2
                   2
                   2
                   2
                   2
                   2
                   2
                   2
                   2
                   2
                   2
                   2
                   2
                   2
                   2
                   2
                   2
                   2
                   2
                   2
                   2
                   2
                   2
                   2
                   2
                   2
                   2
                   2
                   2
                   2
                   2
                   2
                   2
                   2
                   2
                   2
                   2
                   2
                   2
                   2
                   2
                   2
                   2
                   2
                   2
                   2
                   2
                   2
                   2
                   2
                   2
                   2
                   2
                   2
                   2
                   2
                   2
                   2
                   2
                   2
                   2
                   2
                   2
                   2
                   2
                   2
                   2
                   2
                   2
                   2
                   2
                   2
                   2
                   2
                   2
                   2
                   2
                   2
                   2
                   2
                   2
                   2
                   2
                   2
                   2
                   2
                   2
                   2
                   2
                   2
                   2
                   2
                   2
                   2
                   2
                   2
                   2
                   2
                   2
                   2
                   2
                   2
                   2
                   2
                   2
                   2
                   2
                   2
                   2
                   2
                   2
                   2
                   2
                   2
                   2
                   2
                   2
                   2
                   2
                   2
                   2
                   2
                   2
                   2
                   2
                   2
                   2
                   2
                   2
                   2
                   2
                   2
                   2
                   2
                   2
                   2
                   2
                   2
                   2
                   2
                   2
                   2
                   2
                   2
                   2
                   2
                   2
                   2
                   2
                   2
                   2
                   2
                   2
                   2
                   2
                   2
                   2
                   2
                   2
                   2
                   2
                   2
                   2
                   2
                   2
                   2
                   2
                   2
                   2
                   2
                   2
                   2
                   2
                   2
                   2
                   2
                   2
                   2
                   2
                   2
                   2
                   2
                   2
                   2
                   2
                   2
                   2
                   2
                   2
                   2
                   2
                   2
                   2
                   2
                   2
                   2
                   2
                   2
                   2
                   2
                   2
                   2
                   2
                   2
                   2
                   2
                   2
                   2
                   2
                   2
                   2
                   2
                   2
                   2
                   2
                   2
                   2
                   2
                   2
                   2
                   2
                   2
                   2
                   2
                   2
                   2
                   2
                   2
                   2
                   2
                   2
                   2
                   2
                   2
                   2
                   2
                   2
                   2
                   2
                   2
                   2
                   2
                   2
                   2
                   2
                   2
                   2
                   2
                   2
                   2
                   2
                   2
                   2
                   2
                   2
                   2
                   2
                   2
                   2
                   2
                   2
                   2
                   2
                   2
                   2
                   2
                   2
                   2
                   2
                   2
                   2
                   2
                   2
                   2
                   2
                   2
                   2
                   2
                   2
                   2
                   2
                   2
                   2
                   2
                   2
                   2
                   2
                   2
                   2
                   2
                   2
                   2
                   2
                   2
                   2
                   2
                   2
                   2
                   2
                   2
                   2
                   2
                   2
                   2
                   2
                   2
                   2
                   2
                   2
                   2
                   2
                   2
                   2
                   2
                   2
                   2
                   2
                   2
                   2
                   2
                   2
                   2
                   2
                   2
                   2
                   2
                   2
                   2
                   2
                   2
                   2
                   2
                   2
                   2
                   2
                   2
                   2
                   2
                   2
                   2
                   2
                   2
                   2
                   2
                   2
                   2
                   2
                   2
                   2
                   2
                   2
                   2
                   2
                   2
                   2
                   2
                   2
                   2
                   2
                   2
                   2
                   2
                   2
                   2
                   2
                   2
                   2
                   2
                   2
                   2
                   2
                   2
                   2
                   2
                   2
                   2
                   2
                   2
                   2
                   2
                   2
                   2
                   2
                   2
                   2
                   2
                   2
                   2
                   2
                   2
                   2
                   2
                   2
                   2
                   2
                   2
                   2
                   2
                   2
                   2
                   2
                   2
                   2
                   2
                   2
                   2
                   2
                   2
                   2
                   2
                   2
                   2
                   2
                   2
                   2
                   2
                   2
                   2
                   2
                   2
                   2
                   2
                   2
                   2
                   2
                   2
                   2
                   2
                   2
                   2
                   2
                   2
                   2
                   2
                   2
                   2
                   2
                   2
                   2
                   2
                   2
                   2
                   2
                   2
                   2
                   2
                   2
                   2
                   2
                   2
                   2
                   2
                   2
                   2
                   2
                   2
                   2
                   2
                   2
                   2
                   2
                   2
                   2
                   2
                   2
                   2
                   2
                   2
                   2
                   2
                   2
                   2
                   2
                   2
                   2
                   2
                   2
                   2
                   2
                   2
                   2
                   2
                   2
                   2
                   2
                   2
                   2
                   2
                   2
                   2
                   2
                   2
                   2
                   2
                   2
                   2
                   2
                   2
                   2
                   2
                   2
                   2
                   2
                   2
                   2
                   2
                   2
                   2
                   2
                   2
                   2
                   2
                   2
                   2
                   2
                   2
                   2
                   2
                   2
                   2
                   2
                   2
                   2
                   2
                   2
                   2
                   2
                   2
                   2
                   2
                   2
                   2
                   2
                   2
                   2
                   2
                   2
                   2
                   2
                   2
                   2
                   2
                   2
                   2
                   2
                   2
                   2
                   2
                   2
                   2
                   2
                   2
                   2
                   2
                   2
                   2
                   2
                   2
                   2
                   2
                   2
                   2
                   2
                   2
                   2
                   2
                   2
                   2
                   2
                   2
                   2
                   2
                   2
                   2
                   2
                   2
                   2
                   2
                   2
                   2
                   2
                   2
                   2
                   2
                   2
                   2
                   2
                   2
                   2
                   2
                   2
                   2
                   2
                   2
                   2
                   2
                   2
                   2
                   2
                   2
                   2
                   2
                   2
                   2
                   2
                   2
                   2
                   2
                   2
                   2
                   2
                   2
                   2
                   2
                   2
                   2
                   2
                   2
                   2
                   2
                   2
                   2
                   2
                   2
                   2
                   2
                   2
                   2
                   2
                   2
                   2
                   2
                   2
                   2
                   2
                   2
                   2
                   2
                   2
                   2
                   2
                   2
                   2
                   2
                   2
                   2
                   2
                   2
                   2
                   2
                   2
                   2
                   2
                   2
                   2
                   2
                   2
                   2
                   2
                   2
                   2
                   2
                   2
                   2
                   2
                   2
                   2
                   2
                   2
                   2
                   2
                   2
                   2
                   2
                   2
                   2
                   2
                   2
                   2
                   2
                   2
                   2
                   2
                   2
                   2
                   2
                   2
                   2
                   2
                   2
                   2
                   2
                   2
                   2
                   2
                   2
                   2
                   2
                   2
                   2
                   2
                   2
                   2
                   2
                   2
                   2
                   2
                   2
                   2
                   2
                   2
                   2
                   2
                   2
                   2
                   2
                   2
                   2
                   2
                   2
                   2
                   2
                   2
                   2
                   2
                   2
                   2
                   2
                   2
                   2
                   2
                   2
                   2
                   2
                   2
                   2
                   2
                   2
                   2
                   2
                   2
                   2
                   2
                   2
                   2
                   2
                   2
                   2
                   2
                   2
                   2
                   2
                   2
                   2
                   2
                   2
                   2
                   2
                   2
                   2
                   2
                   2
                   2
                   2
                   2
                   2
                   2
                   2
                   2
                   2
                   2
                   2
                   2
                   2
                   2
                   2
                   2
                   2
                   2
                   2
                   2
                   2
                   2
                   2
                   2
                   2
                   2
                   2
                   2
                   2
                   2
                   2
                   2
                   2
                   2
                   2
                   2
                   2
                   2
                   2
                   2
                   2
                   2
                   2
                   2
                   2
                   2
                   2
                   2
                   2
                   2
                   2
                   2
                   2
                   2
                   2
                   2
                   2
                   2
                   2
                   2
                   2
                   2
                   2
                   2
                   2
                   2
                   2
                   2
                   2
                   2
                   2
                   2
                   2
                   2
                   2
                   2
                   2
                   2
                   2
                   2
                   2
                   2
                   2
                   2
                   2
                   2
                   2
                   2
                   2
                   2
                   2
                   2
                   2
                   2
                   2
                   2
                   2
                   2
                   2
                   2
                   2
                   2
                   2
                   2
                   2
                   2
                   2
                   2
                   2
                   2
                   2
                   2
                   2
                   2
                   2
                   2
                   2
                   2
                   2
                   2
                   2
                   2
                   2
                   2
                   2
                   2
                   2
                   2
                   2
                   2
                   2
                   2
                   2
                   2
                   2
                   2
                   2
                   2
                   2
                   2
                   2
                   2
                   2
                   2
                   2
                   2
                   2
                   2
                   2
                   2
                   2
                   2
                   2
                   2
                   2
                   2
                   2
                   2
                   2
                   2
                   2
                   2
                   2
                   2
                   2
                   2
                   2
                   2
                   2
                   2
                   2
                   2
                   2
                   2
                   2
                   2
                   2
                   2
                   2
                   2
                   2
                   2
                   2
                   2
                   2
                   2
                   2
                   2
                   2
                   2
                   2
                   2
                   2
                   2
                   2
                   2
                   2
                   2
                   2
                   2
                   2
                   2
                   2
                   2
                   2
                   2
                   2
                   2
                   2
                   2
                   2
                   2
                   2
                   2
                   2
                   2
                   2
                   2
                   2
                   2
                   2
                   2
                   2
                   2
                   2
                   2
                   2
                   2
                   2
                   2
                   2
                   2
                   2
                   2
                   2
                   2
                   2
                   2
                   2
                   2
                   2
                   2
                   2
                   2
                   2
                   2
                   2
                   2
                   2
                   2
                   2
                   2
                   2
                   2
                   2
                   2
                   2
                   2
                   2
                   2
                   2
                   2
                   2
                   2
                   2
                   2
                   2
                   2
                   2
                   2
                   2
                   2
                   2
                   2
                   2
                   2
                   2
                   2
                   2
                   2
                   2
                   2
                   2
                   2
                   2
                   2
                   2
                   2
                   2
                   2
                   2
                   2
                   2
                   2
                   2
                   2
                   2
                   2
                   2
                   2
                   2
                   2
                   2
                   2
                   2
                   2
                   2
                   2
                   2
                   2
                   2
                   2
                   2
                   2
                   2
                   2
                   2
                   2
                   2
                   2
                   2
                   2
                   2
                   2
                   2
                   2
                   2
                   2
                   2
                   2
                   2
                   2
                   2
                   2
                   2
                   2
                   2
                   2
                   2
                   2
                   2
                   2
                   2
                   2
                   2
                   2
                   2
                   2
                   2
                   2
                   2
                   2
                   2
                   2
                   2
                   2
                   2
                   2
                   2
                   2
                   2
                   2
                   2
                   2
                   2
                   2
                   2
                   2
                   2
                   2
                   2
                   2
                   2
                   2
                   2
                   2
                   2
                   2
                   2
                   2
                   2
                   2
                   2
                   2
                   2
                   2
                   2
                   2
                   2
                   2
                   2
                   2
                   2
                   2
                   2
                   2
                   2
                   2
                   2
                   2
                   2
                   2
                   2
                   2
                   2
                   2
                   2
                   2
                   2
                   2
                   2
                   2
                   2
                   2
                   2
                   2
                   2
                   2
                   2
                   2
                   2
                   2
                   2
                   2
                   2
                   2
                   2
                   2
                   2
                   2
                   2
                   2
                   2
                   2
                   2
                   2
                   2
                   2
                   2
                   2
                   2
                   2
                   2
                   2
                   2
                   2
                   2
                   2
                   2
                   2
                   2
                   2
                   2
                   2
                   2
                   2
                   2
                   2
                   2
                   2
                   2
                   2
                   2
                   2
                   2
                   2
                   2
                   2
                   2
                   2
                   2
                   2
                   2
                   2
                   2
                   2
                   2
                   2
                   2
                   2
                   2
                   2
                   2
                   2
                   2
                   2
                   2
                   2
                   2
                   2
                   2
                   2
                   2
                   2
                   2
                   2
                   2
                   2
                   2
                   2
                   2
                   2
                   2
                   2
                   2
                   2
                   2
                   2
                   2
                   2
                   2
                   2
                   2
                   2
                   2
                   2
                   2
                   2
                   2
                   2
                   2
                   2
                   2
                   2
                   2
                   2
                   2
                   2
                   2
                   2
                   2
                   2
                   2
                   2
                   2
                   2
                   2
                   2
                   2
                   2
                   2
                   2
                   2
                   2
                   2
                   2
                   2
                   2
                   2
                   2
                   2
                   2
                   2
                   2
                   2
                   2
                   2
                   2
                   2
                   2
                   2
                   2
                   2
                   2
                   2
                   2
                   2
                   2
                   2
                   2
                   2
                   2
                   2
                   2
                   2
                   2
                   2
                   2
                   2
                   2
                   2
                   2
                   2
                   2
                   2
                   2
                   2
                   2
                   2
                   2
                   2
                   2
                   2
                   2
                   2
                   2
                   2
                   2
                   2
                   2
                   2
                   2
  
SCALARS                       fixity_x  double 1
LOOKUP_TABLE default
                   0
                   0
                   0
                   0
                   0
                   0
                   0
                   0
                   0
                   0
                   0
                   0
                   0
                   0
                   0
                   0
                   0
                   0
                   0
                   0
                   0
                   0
                   0
                   0
                   0
                   0
                   0
                   0
                   0
                   0
                   0
                   0
                   0
                   0
                   0
                   0
                   0
                   0
                   0
                   0
                   0
                   0
                   0
                   0
                   0
                   0
                   0
                   0
                   0
                   0
                   0
                   0
                   0
                   0
                   0
                   0
                   0
                   0
                   0
                   0
                   0
                   0
                   0
                   0
                   0
                   0
                   0
                   0
                   0
                   0
                   0
                   0
                   0
                   0
                   0
                   0
                   0
                   0
                   0
                   0
                   0
                   0
                   0
                   0
                   0
                   0
                   0
                   0
                   0
                   0
                   0
                   0
                   0
                   0
                   0
                   0
                   0
                   0
                   0
                   0
                   0
                   0
                   0
                   0
                   0
                   0
                   0
                   0
                   0
                   0
                   0
                   0
                   0
                   0
                   0
                   0
                   0
                   0
                   0
                   0
                   0
                   0
                   0
                   0
                   0
                   0
                   0
                   0
                   0
                   0
                   0
                   0
                   0
                   0
                   0
                   0
                   0
                   0
                   0
                   0
                   0
                   0
                   0
                   0
                   0
                   0
                   0
                   0
                   0
                   0
                   0
                   0
                   0
                   0
                   0
                   0
                   0
                   0
                   0
                   0
                   0
                   0
                   0
                   0
                   0
                   0
                   0
                   0
                   0
                   0
                   0
                   0
                   0
                   0
                   0
                   0
                   0
                   0
                   0
                   0
                   0
                   0
                   0
                   0
                   0
                   0
                   0
                   0
                   0
                   0
                   0
                   0
                   0
                   0
                   0
                   0
                   0
                   0
                   0
                   0
                   0
                   0
                   0
                   0
                   0
                   0
                   0
                   0
                   0
                   0
                   0
                   0
                   0
                   0
                   0
                   0
                   0
                   0
                   0
                   0
                   0
                   0
                   0
                   0
                   0
                   0
                   0
                   0
                   0
                   0
                   0
                   0
                   0
                   0
                   0
                   0
                   0
                   0
                   0
                   0
                   0
                   0
                   0
                   0
                   0
                   0
                   0
                   0
                   0
                   0
                   0
                   0
                   0
                   0
                   0
                   0
                   0
                   0
                   0
                   0
                   0
                   0
                   0
                   0
                   0
                   0
                   0
                   0
                   0
                   0
                   0
                   0
                   0
                   0
                   0
                   0
                   0
                   0
                   0
                   0
                   0
                   0
                   0
                   0
                   0
                   0
                   0
                   0
                   0
                   0
                   0
                   0
                   0
                   0
                   0
                   0
                   0
                   0
                   0
                   0
                   0
                   0
                   0
                   0
                   0
                   0
                   0
                   0
                   0
                   0
                   0
                   0
                   0
                   0
                   0
                   0
                   0
                   0
                   0
                   0
                   0
                   0
                   0
                   0
                   0
                   0
                   0
                   0
                   0
                   0
                   0
                   0
                   0
                   0
                   0
                   0
                   0
                   0
                   0
                   0
                   0
                   0
                   0
                   0
                   0
                   0
                   0
                   0
                   0
                   0
                   0
                   0
                   0
                   0
                   0
                   0
                   0
                   0
                   0
                   0
                   0
                   0
                   0
                   0
                   0
                   0
                   0
                   0
                   0
                   0
                   0
                   0
                   0
                   0
                   0
                   0
                   0
                   0
                   0
                   0
                   0
                   0
                   0
                   0
                   0
                   0
                   0
                   0
                   0
                   0
                   0
                   0
                   0
                   0
                   0
                   0
                   0
                   0
                   0
                   0
                   0
                   0
                   0
                   0
                   0
                   0
                   0
                   0
                   0
                   0
                   0
                   0
                   0
                   0
                   0
                   0
                   0
                   0
                   0
                   0
                   0
                   0
                   0
                   0
                   0
                   0
                   0
                   0
                   0
                   0
                   0
                   0
                   0
                   0
                   0
                   0
                   0
                   0
                   0
                   0
                   0
                   0
                   0
                   0
                   0
                   0
                   0
                   0
                   0
                   0
                   0
                   0
                   0
                   0
                   0
                   0
                   0
                   0
                   0
                   0
                   0
                   0
                   0
                   0
                   0
                   0
                   0
                   0
                   0
                   0
                   0
                   0
                   0
                   0
                   0
                   0
                   0
                   0
                   0
                   0
                   0
                   0
                   0
                   0
                   0
                   0
                   0
                   0
                   0
                   0
                   0
                   0
                   0
                   0
                   0
                   0
                   0
                   0
                   0
                   0
                   0
                   0
                   0
                   0
                   0
                   0
                   0
                   0
                   0
                   0
                   0
                   0
                   0
                   0
                   0
                   0
                   0
                   0
                   0
                   0
                   0
                   0
                   0
                   0
                   0
                   0
                   0
                   0
                   0
                   0
                   0
                   0
                   0
                   0
                   0
                   0
                   0
                   0
                   0
                   0
                   0
                   0
                   0
                   0
                   0
                   0
                   0
                   0
                   0
                   0
                   0
                   0
                   0
                   0
                   0
                   0
                   0
                   0
                   0
                   0
                   0
                   0
                   0
                   0
                   0
                   0
                   0
                   0
                   0
                   0
                   0
                   0
                   0
                   0
                   0
                   0
                   0
                   0
                   0
                   0
                   0
                   0
                   0
                   0
                   0
                   0
                   0
                   0
                   0
                   0
                   0
                   0
                   0
                   0
                   0
                   0
                   0
                   0
                   0
                   0
                   0
                   0
                   0
                   0
                   0
                   0
                   0
                   0
                   0
                   0
                   0
                   0
                   0
                   0
                   0
                   0
                   0
                   0
                   0
                   0
                   0
                   0
                   0
                   0
                   0
                   0
                   0
                   0
                   0
                   0
                   0
                   0
                   0
                   0
                   0
                   0
                   0
                   0
                   0
                   0
                   0
                   0
                   0
                   0
                   0
                   0
                   0
                   0
                   0
                   0
                   0
                   0
                   0
                   0
                   0
                   0
                   0
                   0
                   0
                   0
                   0
                   0
                   0
                   0
                   0
                   0
                   0
                   0
                   0
                   0
                   0
                   0
                   0
                   0
                   0
                   0
                   0
                   0
                   0
                   0
                   0
                   0
                   0
                   0
                   0
                   0
                   0
                   0
                   0
                   0
                   0
                   0
                   0
                   0
                   0
                   0
                   0
                   0
                   0
                   0
                   0
                   0
                   0
                   0
                   0
                   0
                   0
                   0
                   0
                   0
                   0
                   0
                   0
                   0
                   0
                   0
                   0
                   0
                   0
                   0
                   0
                   0
                   0
                   0
                   0
                   0
                   0
                   0
                   0
                   0
                   0
                   0
                   0
                   0
                   0
                   0
                   0
                   0
                   0
                   0
                   0
                   0
                   0
                   0
                   0
                   0
                   0
                   0
                   0
                   0
                   0
                   0
                   0
                   0
                   0
                   0
                   0
                   0
                   0
                   0
                   0
                   0
                   0
                   0
                   0
                   0
                   0
                   0
                   0
                   0
                   0
                   0
                   0
                   0
                   0
                   0
                   0
                   0
                   0
                   0
                   0
                   0
                   0
                   0
                   0
                   0
                   0
                   0
                   0
                   0
                   0
                   0
                   0
                   0
                   0
                   0
                   0
                   0
                   0
                   0
                   0
                   0
                   0
                   0
                   0
                   0
                   0
                   0
                   0
                   0
                   0
                   0
                   0
                   0
                   0
                   0
                   0
                   0
                   0
                   0
                   0
                   0
                   0
                   0
                   0
                   0
                   0
                   0
                   0
                   0
                   0
                   0
                   0
                   0
                   0
                   0
                   0
                   0
                   0
                   0
                   0
                   0
                   0
                   0
                   0
                   0
                   0
                   0
                   0
                   0
                   0
                   0
                   0
                   0
                   0
                   0
                   0
                   0
                   0
                   0
                   0
                   0
                   0
                   0
                   0
                   0
                   0
                   0
                   0
                   0
                   0
                   0
                   0
                   0
                   0
                   0
                   0
                   0
                   0
                   0
                   0
                   0
                   0
                   0
                   0
                   0
                   0
                   0
                   0
                   0
                   0
                   0
                   0
                   0
                   0
                   0
                   0
                   0
                   0
                   0
                   0
                   0
                   0
                   0
                   0
                   0
                   0
                   0
                   0
                   0
                   0
                   0
                   0
                   0
                   0
                   0
                   0
                   0
                   0
                   0
                   0
                   0
                   0
                   0
                   0
                   0
                   0
                   0
                   0
                   0
                   0
                   0
                   0
                   0
                   0
                   0
                   0
                   0
                   0
                   0
                   0
                   0
                   0
                   0
                   0
                   0
                   0
                   0
                   0
                   0
                   0
                   0
                   0
                   0
                   0
                   0
                   0
                   0
                   0
                   0
                   0
                   0
                   0
                   0
                   0
                   0
                   0
                   0
                   0
                   0
                   0
                   0
                   0
                   0
                   0
                   0
                   0
                   0
                   0
                   0
                   0
                   0
                   0
                   0
                   0
                   0
                   0
                   0
                   0
                   0
                   0
                   0
                   0
                   0
                   0
                   0
                   0
                   0
                   0
                   0
                   0
                   0
                   0
                   0
                   0
                   0
                   0
                   0
                   0
                   0
                   0
                   0
                   0
                   0
                   0
                   0
                   0
                   0
                   0
                   0
                   0
                   0
                   0
                   0
                   0
                   0
                   0
                   0
                   0
                   0
                   0
                   0
                   0
                   0
                   0
                   0
                   0
                   0
                   0
                   0
                   0
                   0
                   0
                   0
                   0
                   0
                   0
                   0
                   0
                   0
                   0
                   0
                   0
                   0
                   0
                   0
                   0
                   0
                   0
                   0
                   0
                   0
                   0
                   0
                   0
                   0
                   0
                   0
                   0
                   0
                   0
                   0
                   0
                   0
                   0
                   0
                   0
                   0
                   0
                   0
                   0
                   0
                   0
                   0
                   0
                   0
                   0
                   0
                   0
                   0
                   0
                   0
                   0
                   0
                   0
                   0
                   0
                   0
                   0
                   0
                   0
                   0
                   0
                   0
                   0
                   0
                   0
                   0
                   0
                   0
                   0
                   0
                   0
                   0
                   0
                   0
                   0
                   0
                   0
                   0
                   0
                   0
                   0
                   0
                   0
                   0
                   0
                   0
                   0
                   0
                   0
                   0
                   0
                   0
                   0
                   0
                   0
                   0
                   0
                   0
                   0
                   0
                   0
                   0
                   0
                   0
                   0
                   0
                   0
                   0
                   0
                   0
                   0
                   0
                   0
                   0
                   0
                   0
                   0
                   0
                   0
                   0
                   0
                   0
                   0
                   0
                   0
                   0
                   0
                   0
                   0
                   0
                   0
                   0
                   0
                   0
                   0
                   0
                   0
                   0
                   0
                   0
                   0
                   0
                   0
                   0
                   0
                   0
                   0
                   0
                   0
                   0
                   0
                   0
                   0
                   0
                   0
                   0
                   0
                   0
                   0
                   0
                   0
                   0
                   0
                   0
                   0
                   0
                   0
                   0
                   0
                   0
                   0
                   0
                   0
                   0
                   0
                   0
                   0
                   0
                   0
                   0
                   0
                   0
                   0
                   0
                   0
                   0
                   0
                   0
                   0
                   0
                   0
                   0
                   0
                   0
                   0
                   0
                   0
                   0
                   0
                   0
                   0
                   0
                   0
                   0
                   0
                   0
                   0
                   0
                   0
                   0
                   0
                   0
                   0
                   0
                   0
                   0
                   0
                   0
                   0
                   0
                   0
                   0
                   0
                   0
                   0
                   0
                   0
                   0
                   0
                   0
                   0
                   0
                   0
                   0
                   0
                   0
                   0
                   0
                   0
                   0
                   0
                   0
                   0
                   0
                   0
                   0
                   0
                   0
                   0
                   0
                   0
                   0
                   0
                   0
                   0
                   0
                   0
                   0
                   0
                   0
                   0
                   0
                   0
                   0
                   0
                   0
                   0
                   0
                   0
                   0
                   0
                   0
                   0
                   0
                   0
                   0
                   0
                   0
                   0
                   0
                   0
                   0
                   0
                   0
                   0
                   0
                   0
                   0
                   0
                   0
                   0
                   0
                   0
                   0
                   0
                   0
                   0
                   0
                   0
                   0
                   0
                   0
                   0
                   0
                   0
                   0
                   0
                   0
                   0
                   0
                   0
                   0
                   0
                   0
                   0
                   0
                   0
                   0
                   0
                   0
                   0
                   0
                   0
                   0
                   0
                   0
                   0
                   0
                   0
                   0
                   0
                   0
                   0
                   0
                   0
                   0
                   0
                   0
                   0
                   0
                   0
                   0
                   0
                   0
                   0
                   0
                   0
                   0
                   0
                   0
                   0
                   0
                   0
                   0
                   0
                   0
                   0
                   0
                   0
                   0
                   0
                   0
                   0
                   0
                   0
                   0
                   0
                   0
                   0
                   0
                   0
                   0
                   0
                   0
                   0
                   0
                   0
                   0
                   0
                   0
                   0
                   0
                   0
                   0
                   0
                   0
                   0
                   0
                   0
                   0
                   0
                   0
                   0
                   0
                   0
                   0
                   0
                   0
                   0
                   0
                   0
                   0
                   0
                   0
                   0
                   0
                   0
                   0
                   0
                   0
                   0
                   0
                   0
                   0
                   0
                   0
                   0
                   0
                   0
                   0
                   0
                   0
                   0
                   0
                   0
                   0
                   0
                   0
                   0
                   0
                   0
                   0
                   0
                   0
                   0
                   0
                   0
                   0
                   0
                   0
                   0
                   0
                   0
                   0
                   0
                   0
                   0
                   0
                   0
                   0
                   0
                   0
                   0
                   0
                   0
                   0
                   0
                   0
                   0
                   0
                   0
                   0
                   0
                   0
                   0
                   0
                   0
                   0
                   0
                   0
                   0
                   0
                   0
                   0
                   0
                   0
                   0
                   0
                   0
                   0
                   0
                   0
                   0
                   0
                   0
                   0
                   0
                   0
                   0
                   0
                   0
                   0
                   0
                   0
                   0
                   0
                   0
                   0
                   0
                   0
                   0
                   0
                   0
                   0
                   0
                   0
                   0
                   0
                   0
                   0
                   0
                   0
                   0
                   0
                   0
                   0
                   0
                   0
                   0
                   0
                   0
                   0
                   0
                   0
                   0
                   0
                   0
                   0
                   0
                   0
                   0
                   0
                   0
                   0
                   0
                   0
                   0
                   0
                   0
                   0
                   0
                   0
                   0
                   0
                   0
                   0
                   0
                   0
                   0
                   0
                   0
                   0
                   0
                   0
                   0
                   0
                   0
                   0
                   0
                   0
                   0
                   0
                   0
                   0
                   0
                   0
                   0
                   0
                   0
                   0
                   0
                   0
                   0
                   0
                   0
                   0
                   0
                   0
                   0
                   0
                   0
                   0
                   0
                   0
                   0
                   0
                   0
                   0
                   0
                   0
                   0
                   0
                   0
                   0
                   0
                   0
                   0
                   0
                   0
                   0
                   0
                   0
                   0
                   0
                   0
                   0
                   0
                   0
                   0
                   0
                   0
                   0
                   0
                   0
                   0
                   0
                   0
                   0
                   0
                   0
                   0
                   0
                   0
                   0
                   0
                   0
                   0
                   0
                   0
                   0
                   0
                   0
                   0
                   0
                   0
                   0
                   0
                   0
                   0
                   0
                   0
                   0
                   0
                   0
                   0
                   0
                   0
                   0
                   0
                   0
                   0
                   0
                   0
                   0
                   0
                   0
                   0
                   0
                   0
                   0
                   0
                   0
                   0
                   0
                   0
                   0
                   0
                   0
                   0
                   0
                   0
                   0
                   0
                   0
                   0
                   0
                   0
                   0
                   0
                   0
                   0
                   0
                   0
                   0
                   0
                   0
                   0
                   0
                   0
                   0
                   0
                   0
                   0
                   0
                   0
                   0
                   0
                   0
                   0
                   0
                   0
                   0
                   0
                   0
                   0
                   0
                   0
                   0
                   0
                   0
                   0
                   0
                   0
                   0
                   0
                   0
                   0
                   0
                   0
                   0
                   0
                   0
                   0
                   0
                   0
                   0
                   0
                   0
                   0
                   0
                   0
                   0
                   0
                   0
                   0
                   0
                   0
                   0
                   0
                   0
                   0
                   0
                   0
                   0
                   0
                   0
                   0
                   0
                   0
                   0
                   0
                   0
                   0
                   0
                   0
                   0
                   0
                   0
                   0
                   0
                   0
                   0
                   0
                   0
                   0
                   0
                   0
                   0
                   0
                   0
                   0
                   0
                   0
                   0
                   0
                   0
                   0
                   0
                   0
                   0
                   0
                   0
                   0
                   0
                   0
                   0
                   0
                   0
                   0
                   0
                   0
                   0
                   0
                   0
                   0
                   0
                   0
                   0
                   0
                   0
                   0
                   0
                   0
                   0
                   0
                   0
                   0
                   0
                   0
                   0
                   0
                   0
                   0
                   0
                   0
                   0
                   0
                   0
                   0
                   0
                   0
                   0
                   0
                   0
                   0
                   0
                   0
                   0
                   0
                   0
                   0
                   0
                   0
                   0
                   0
                   0
                   0
                   0
                   0
                   0
                   0
                   0
                   0
                   0
                   0
                   0
                   0
                   0
                   0
                   0
                   0
                   0
                   0
                   0
                   0
                   0
                   0
                   0
                   0
                   0
                   0
                   0
                   0
                   0
                   0
                   0
                   0
                   0
                   0
                   0
                   0
                   0
                   0
                   0
                   0
                   0
                   0
                   0
                   0
                   0
                   0
                   0
                   0
                   0
                   0
                   0
                   0
                   0
                   0
                   0
                   0
                   0
                   0
                   0
                   0
                   0
                   0
                   0
                   0
                   0
                   0
                   0
                   0
                   0
                   0
                   0
                   0
                   0
  
SCALARS                       fixity_y  double 1
LOOKUP_TABLE default
                   0
                   0
                   0
                   0
                   0
                   0
                   0
                   0
                   0
                   0
                   0
                   0
                   0
                   0
                   0
                   0
                   0
                   0
                   0
                   0
                   0
                   0
                   0
                   0
                   0
                   0
                   0
                   0
                   0
                   0
                   0
                   0
                   0
                   0
                   0
                   0
                   0
                   0
                   0
                   0
                   0
                   0
                   0
                   0
                   0
                   0
                   0
                   0
                   0
                   0
                   0
                   0
                   0
                   0
                   0
                   0
                   0
                   0
                   0
                   0
                   0
                   0
                   0
                   0
                   0
                   0
                   0
                   0
                   0
                   0
                   0
                   0
                   0
                   0
                   0
                   0
                   0
                   0
                   0
                   0
                   0
                   0
                   0
                   0
                   0
                   0
                   0
                   0
                   0
                   0
                   0
                   0
                   0
                   0
                   0
                   0
                   0
                   0
                   0
                   0
                   0
                   0
                   0
                   0
                   0
                   0
                   0
                   0
                   0
                   0
                   0
                   0
                   0
                   0
                   0
                   0
                   0
                   0
                   0
                   0
                   0
                   0
                   0
                   0
                   0
                   0
                   0
                   0
                   0
                   0
                   0
                   0
                   0
                   0
                   0
                   0
                   0
                   0
                   0
                   0
                   0
                   0
                   0
                   0
                   0
                   0
                   0
                   0
                   0
                   0
                   0
                   0
                   0
                   0
                   0
                   0
                   0
                   0
                   0
                   0
                   0
                   0
                   0
                   0
                   0
                   0
                   0
                   0
                   0
                   0
                   0
                   0
                   0
                   0
                   0
                   0
                   0
                   0
                   0
                   0
                   0
                   0
                   0
                   0
                   0
                   0
                   0
                   0
                   0
                   0
                   0
                   0
                   0
                   0
                   0
                   0
                   0
                   0
                   0
                   0
                   0
                   0
                   0
                   0
                   0
                   0
                   0
                   0
                   0
                   0
                   0
                   0
                   0
                   0
                   0
                   0
                   0
                   0
                   0
                   0
                   0
                   0
                   0
                   0
                   0
                   0
                   0
                   0
                   0
                   0
                   0
                   0
                   0
                   0
                   0
                   0
                   0
                   0
                   0
                   0
                   0
                   0
                   0
                   0
                   0
                   0
                   0
                   0
                   0
                   0
                   0
                   0
                   0
                   0
                   0
                   0
                   0
                   0
                   0
                   0
                   0
                   0
                   0
                   0
                   0
                   0
                   0
                   0
                   0
                   0
                   0
                   0
                   0
                   0
                   0
                   0
                   0
                   0
                   0
                   0
                   0
                   0
                   0
                   0
                   0
                   0
                   0
                   0
                   0
                   0
                   0
                   0
                   0
                   0
                   0
                   0
                   0
                   0
                   0
                   0
                   0
                   0
                   0
                   0
                   0
                   0
                   0
                   0
                   0
                   0
                   0
                   0
                   0
                   0
                   0
                   0
                   0
                   0
                   0
                   0
                   0
                   0
                   0
                   0
                   0
                   0
                   0
                   0
                   0
                   0
                   0
                   0
                   0
                   0
                   0
                   0
                   0
                   0
                   0
                   0
                   0
                   0
                   0
                   0
                   0
                   0
                   0
                   0
                   0
                   0
                   0
                   0
                   0
                   0
                   0
                   0
                   0
                   0
                   0
                   0
                   0
                   0
                   0
                   0
                   0
                   0
                   0
                   0
                   0
                   0
                   0
                   0
                   0
                   0
                   0
                   0
                   0
                   0
                   0
                   0
                   0
                   0
                   0
                   0
                   0
                   0
                   0
                   0
                   0
                   0
                   0
                   0
                   0
                   0
                   0
                   0
                   0
                   0
                   0
                   0
                   0
                   0
                   0
                   0
                   0
                   0
                   0
                   0
                   0
                   0
                   0
                   0
                   0
                   0
                   0
                   0
                   0
                   0
                   0
                   0
                   0
                   0
                   0
                   0
                   0
                   0
                   0
                   0
                   0
                   0
                   0
                   0
                   0
                   0
                   0
                   0
                   0
                   0
                   0
                   0
                   0
                   0
                   0
                   0
                   0
                   0
                   0
                   0
                   0
                   0
                   0
                   0
                   0
                   0
                   0
                   0
                   0
                   0
                   0
                   0
                   0
                   0
                   0
                   0
                   0
                   0
                   0
                   0
                   0
                   0
                   0
                   0
                   0
                   0
                   0
                   0
                   0
                   0
                   0
                   0
                   0
                   0
                   0
                   0
                   0
                   0
                   0
                   0
                   0
                   0
                   0
                   0
                   0
                   0
                   0
                   0
                   0
                   0
                   0
                   0
                   0
                   0
                   0
                   0
                   0
                   0
                   0
                   0
                   0
                   0
                   0
                   0
                   0
                   0
                   0
                   0
                   0
                   0
                   0
                   0
                   0
                   0
                   0
                   0
                   0
                   0
                   0
                   0
                   0
                   0
                   0
                   0
                   0
                   0
                   0
                   0
                   0
                   0
                   0
                   0
                   0
                   0
                   0
                   0
                   0
                   0
                   0
                   0
                   0
                   0
                   0
                   0
                   0
                   0
                   0
                   0
                   0
                   0
                   0
                   0
                   0
                   0
                   0
                   0
                   0
                   0
                   0
                   0
                   0
                   0
                   0
                   0
                   0
                   0
                   0
                   0
                   0
                   0
                   0
                   0
                   0
                   0
                   0
                   0
                   0
                   0
                   0
                   0
                   0
                   0
                   0
                   0
                   0
                   0
                   0
                   0
                   0
                   0
                   0
                   0
                   0
                   0
                   0
                   0
                   0
                   0
                   0
                   0
                   0
                   0
                   0
                   0
                   0
                   0
                   0
                   0
                   0
                   0
                   0
                   0
                   0
                   0
                   0
                   0
                   0
                   0
                   0
                   0
                   0
                   0
                   0
                   0
                   0
                   0
                   0
                   0
                   0
                   0
                   0
                   0
                   0
                   0
                   0
                   0
                   0
                   0
                   0
                   0
                   0
                   0
                   0
                   0
                   0
                   0
                   0
                   0
                   0
                   0
                   0
                   0
                   0
                   0
                   0
                   0
                   0
                   0
                   0
                   0
                   0
                   0
                   0
                   0
                   0
                   0
                   0
                   0
                   0
                   0
                   0
                   0
                   0
                   0
                   0
                   0
                   0
                   0
                   0
                   0
                   0
                   0
                   0
                   0
                   0
                   0
                   0
                   0
                   0
                   0
                   0
                   0
                   0
                   0
                   0
                   0
                   0
                   0
                   0
                   0
                   0
                   0
                   0
                   0
                   0
                   0
                   0
                   0
                   0
                   0
                   0
                   0
                   0
                   0
                   0
                   0
                   0
                   0
                   0
                   0
                   0
                   0
                   0
                   0
                   0
                   0
                   0
                   0
                   0
                   0
                   0
                   0
                   0
                   0
                   0
                   0
                   0
                   0
                   0
                   0
                   0
                   0
                   0
                   0
                   0
                   0
                   0
                   0
                   0
                   0
                   0
                   0
                   0
                   0
                   0
                   0
                   0
                   0
                   0
                   0
                   0
                   0
                   0
                   0
                   0
                   0
                   0
                   0
                   0
                   0
                   0
                   0
                   0
                   0
                   0
                   0
                   0
                   0
                   0
                   0
                   0
                   0
                   0
                   0
                   0
                   0
                   0
                   0
                   0
                   0
                   0
                   0
                   0
                   0
                   0
                   0
                   0
                   0
                   0
                   0
                   0
                   0
                   0
                   0
                   0
                   0
                   0
                   0
                   0
                   0
                   0
                   0
                   0
                   0
                   0
                   0
                   0
                   0
                   0
                   0
                   0
                   0
                   0
                   0
                   0
                   0
                   0
                   0
                   0
                   0
                   0
                   0
                   0
                   0
                   0
                   0
                   0
                   0
                   0
                   0
                   0
                   0
                   0
                   0
                   0
                   0
                   0
                   0
                   0
                   0
                   0
                   0
                   0
                   0
                   0
                   0
                   0
                   0
                   0
                   0
                   0
                   0
                   0
                   0
                   0
                   0
                   0
                   0
                   0
                   0
                   0
                   0
                   0
                   0
                   0
                   0
                   0
                   0
                   0
                   0
                   0
                   0
                   0
                   0
                   0
                   0
                   0
                   0
                   0
                   0
                   0
                   0
                   0
                   0
                   0
                   0
                   0
                   0
                   0
                   0
                   0
                   0
                   0
                   0
                   0
                   0
                   0
                   0
                   0
                   0
                   0
                   0
                   0
                   0
                   0
                   0
                   0
                   0
                   0
                   0
                   0
                   0
                   0
                   0
                   0
                   0
                   0
                   0
                   0
                   0
                   0
                   0
                   0
                   0
                   0
                   0
                   0
                   0
                   0
                   0
                   0
                   0
                   0
                   0
                   0
                   0
                   0
                   0
                   0
                   0
                   0
                   0
                   0
                   0
                   0
                   0
                   0
                   0
                   0
                   0
                   0
                   0
                   0
                   0
                   0
                   0
                   0
                   0
                   0
                   0
                   0
                   0
                   0
                   0
                   0
                   0
                   0
                   0
                   0
                   0
                   0
                   0
                   0
                   0
                   0
                   0
                   0
                   0
                   0
                   0
                   0
                   0
                   0
                   0
                   0
                   0
                   0
                   0
                   0
                   0
                   0
                   0
                   0
                   0
                   0
                   0
                   0
                   0
                   0
                   0
                   0
                   0
                   0
                   0
                   0
                   0
                   0
                   0
                   0
                   0
                   0
                   0
                   0
                   0
                   0
                   0
                   0
                   0
                   0
                   0
                   0
                   0
                   0
                   0
                   0
                   0
                   0
                   0
                   0
                   0
                   0
                   0
                   0
                   0
                   0
                   0
                   0
                   0
                   0
                   0
                   0
                   0
                   0
                   0
                   0
                   0
                   0
                   0
                   0
                   0
                   0
                   0
                   0
                   0
                   0
                   0
                   0
                   0
                   0
                   0
                   0
                   0
                   0
                   0
                   0
                   0
                   0
                   0
                   0
                   0
                   0
                   0
                   0
                   0
                   0
                   0
                   0
                   0
                   0
                   0
                   0
                   0
                   0
                   0
                   0
                   0
                   0
                   0
                   0
                   0
                   0
                   0
                   0
                   0
                   0
                   0
                   0
                   0
                   0
                   0
                   0
                   0
                   0
                   0
                   0
                   0
                   0
                   0
                   0
                   0
                   0
                   0
                   0
                   0
                   0
                   0
                   0
                   0
                   0
                   0
                   0
                   0
                   0
                   0
                   0
                   0
                   0
                   0
                   0
                   0
                   0
                   0
                   0
                   0
                   0
                   0
                   0
                   0
                   0
                   0
                   0
                   0
                   0
                   0
                   0
                   0
                   0
                   0
                   0
                   0
                   0
                   0
                   0
                   0
                   0
                   0
                   0
                   0
                   0
                   0
                   0
                   0
                   0
                   0
                   0
                   0
                   0
                   0
                   0
                   0
                   0
                   0
                   0
                   0
                   0
                   0
                   0
                   0
                   0
                   0
                   0
                   0
                   0
                   0
                   0
                   0
                   0
                   0
                   0
                   0
                   0
                   0
                   0
                   0
                   0
                   0
                   0
                   0
                   0
                   0
                   0
                   0
                   0
                   0
                   0
                   0
                   0
                   0
                   0
                   0
                   0
                   0
                   0
                   0
                   0
                   0
                   0
                   0
                   0
                   0
                   0
                   0
                   0
                   0
                   0
                   0
                   0
                   0
                   0
                   0
                   0
                   0
                   0
                   0
                   0
                   0
                   0
                   0
                   0
                   0
                   0
                   0
                   0
                   0
                   0
                   0
                   0
                   0
                   0
                   0
                   0
                   0
                   0
                   0
                   0
                   0
                   0
                   0
                   0
                   0
                   0
                   0
                   0
                   0
                   0
                   0
                   0
                   0
                   0
                   0
                   0
                   0
                   0
                   0
                   0
                   0
                   0
                   0
                   0
                   0
                   0
                   0
                   0
                   0
                   0
                   0
                   0
                   0
                   0
                   0
                   0
                   0
                   0
                   0
                   0
                   0
                   0
                   0
                   0
                   0
                   0
                   0
                   0
                   0
                   0
                   0
                   0
                   0
                   0
                   0
                   0
                   0
                   0
                   0
                   0
                   0
                   0
                   0
                   0
                   0
                   0
                   0
                   0
                   0
                   0
                   0
                   0
                   0
                   0
                   0
                   0
                   0
                   0
                   0
                   0
                   0
                   0
                   0
                   0
                   0
                   0
                   0
                   0
                   0
                   0
                   0
                   0
                   0
                   0
                   0
                   0
                   0
                   0
                   0
                   0
                   0
                   0
                   0
                   0
                   0
                   0
                   0
                   0
                   0
                   0
                   0
                   0
                   0
                   0
                   0
                   0
                   0
                   0
                   0
                   0
                   0
                   0
                   0
                   0
                   0
                   0
                   0
                   0
                   0
                   0
                   0
                   0
                   0
                   0
                   0
                   0
                   0
                   0
                   0
                   0
                   0
                   0
                   0
                   0
                   0
                   0
                   0
                   0
                   0
                   0
                   0
                   0
                   0
                   0
                   0
                   0
                   0
                   0
                   0
                   0
                   0
                   0
                   0
                   0
                   0
                   0
                   0
                   0
                   0
                   0
                   0
                   0
                   0
                   0
                   0
                   0
                   0
                   0
                   0
                   0
                   0
                   0
                   0
                   0
                   0
                   0
                   0
                   0
                   0
                   0
                   0
                   0
                   0
                   0
                   0
                   0
                   0
                   0
                   0
                   0
                   0
                   0
                   0
                   0
                   0
                   0
                   0
                   0
                   0
                   0
                   0
                   0
                   0
                   0
                   0
                   0
                   0
                   0
                   0
                   0
                   0
                   0
                   0
                   0
                   0
                   0
                   0
                   0
                   0
                   0
                   0
                   0
                   0
                   0
                   0
                   0
                   0
                   0
                   0
                   0
                   0
                   0
                   0
                   0
                   0
                   0
                   0
                   0
                   0
                   0
                   0
                   0
                   0
                   0
                   0
                   0
                   0
                   0
                   0
                   0
                   0
                   0
                   0
                   0
                   0
                   0
                   0
                   0
                   0
                   0
                   0
                   0
                   0
                   0
                   0
                   0
                   0
                   0
                   0
                   0
                   0
                   0
                   0
                   0
                   0
                   0
                   0
                   0
                   0
                   0
                   0
                   0
                   0
                   0
                   0
                   0
                   0
                   0
                   0
                   0
                   0
                   0
                   0
                   0
                   0
                   0
                   0
                   0
                   0
                   0
                   0
                   0
                   0
                   0
                   0
                   0
                   0
                   0
                   0
                   0
                   0
                   0
                   0
                   0
                   0
                   0
                   0
                   0
                   0
                   0
                   0
                   0
                   0
                   0
                   0
                   0
                   0
                   0
                   0
                   0
                   0
                   0
                   0
                   0
                   0
                   0
                   0
                   0
                   0
                   0
                   0
                   0
                   0
                   0
                   0
                   0
                   0
                   0
                   0
                   0
                   0
                   0
                   0
                   0
                   0
                   0
                   0
                   0
                   0
                   0
                   0
                   0
                   0
                   0
                   0
                   0
                   0
                   0
                   0
                   0
                   0
                   0
                   0
                   0
                   0
                   0
                   0
                   0
                   0
                   0
                   0
                   0
                   0
                   0
                   0
                   0
                   0
                   0
                   0
                   0
                   0
                   0
                   0
                   0
                   0
                   0
                   0
                   0
                   0
                   0
                   0
                   0
                   0
                   0
                   0
                   0
                   0
                   0
                   0
                   0
                   0
                   0
                   0
                   0
                   0
                   0
                   0
                   0
                   0
                   0
                   0
                   0
                   0
                   0
                   0
                   0
                   0
                   0
                   0
                   0
                   0
                   0
                   0
                   0
                   0
                   0
                   0
                   0
                   0
                   0
                   0
                   0
                   0
                   0
                   0
                   0
                   0
                   0
                   0
                   0
                   0
                   0
                   0
                   0
                   0
                   0
                   0
                   0
                   0
                   0
                   0
                   0
                   0
                   0
                   0
                   0
                   0
                   0
                   0
                   0
                   0
                   0
                   0
                   0
                   0
                   0
                   0
                   0
                   0
                   0
                   0
                   0
                   0
                   0
                   0
                   0
                   0
                   0
                   0
                   0
                   0
                   0
                   0
                   0
                   0
                   0
                   0
                   0
                   0
                   0
                   0
                   0
                   0
                   0
                   0
                   0
                   0
                   0
                   0
                   0
                   0
                   0
                   0
                   0
                   0
                   0
                   0
                   0
                   0
                   0
                   0
                   0
                   0
                   0
                   0
                   0
                   0
                   0
                   0
                   0
                   0
                   0
                   0
                   0
                   0
                   0
                   0
                   0
                   0
                   0
                   0
                   0
                   0
                   0
                   0
                   0
                   0
                   0
                   0
                   0
                   0
                   0
                   0
                   0
                   0
                   0
                   0
                   0
                   0
                   0
                   0
                   0
                   0
                   0
                   0
                   0
                   0
                   0
                   0
                   0
                   0
                   0
                   0
                   0
                   0
                   0
                   0
                   0
                   0
                   0
                   0
                   0
                   0
                   0
                   0
                   0
                   0
                   0
                   0
                   0
                   0
                   0
                   0
                   0
                   0
                   0
                   0
                   0
                   0
                   0
                   0
                   0
                   0
                   0
                   0
                   0
                   0
                   0
                   0
                   0
                   0
                   0
                   0
                   0
                   0
                   0
                   0
                   0
                   0
                   0
                   0
                   0
                   0
                   0
                   0
                   0
                   0
                   0
                   0
                   0
                   0
                   0
                   0
                   0
                   0
                   0
                   0
                   0
                   0
                   0
                   0
                   0
                   0
                   0
                   0
                   0
                   0
                   0
                   0
                   0
                   0
                   0
                   0
                   0
                   0
                   0
                   0
                   0
                   0
                   0
                   0
                   0
                   0
                   0
                   0
                   0
                   0
  
SCALARS                       fixity_z  double 1
LOOKUP_TABLE default
                   0
                   0
                   0
                   0
                   1
                   1
                   1
                   1
                   0
                   0
                   1
                   1
                   0
                   0
                   1
                   1
                   0
                   0
                   1
                   1
                   0
                   0
                   0
                   1
                   1
                   1
                   0
                   0
                   1
                   1
                   0
                   0
                   0
                   1
                   1
                   1
                   0
                   0
                   1
                   1
                   0
                   0
                   1
                   1
                   0
                   0
                   1
                   1
                   0
                   1
                   0
                   1
                   0
                   1
                   0
                   1
                   0
                   0
                   1
                   1
                   0
                   0
                   1
                   1
                   0
                   1
                   0
                   1
                   0
                   0
                   1
                   1
                   0
                   1
                   0
                   1
                   0
                   1
                   0
                   1
                   0
                   0
                   1
                   1
                   0
                   1
                   0
                   1
                   0
                   1
                   0
                   0
                   1
                   1
                   0
                   1
                   0
                   1
                   0
                   1
                   0
                   0
                   1
                   1
                   0
                   0
                   1
                   1
                   0
                   1
                   0
                   1
                   0
                   1
                   0
                   1
                   0
                   1
                   0
                   1
                   0
                   1
                   0
                   1
                   0
                   1
                   0
                   1
                   0
                   1
                   0
                   1
                   0
                   1
                   0
                   1
                   0
                   1
                   0
                   1
                   0
                   1
                   0
                   1
                   0
                   1
                   0
                   1
                   0
                   1
                   0
                   1
                   0
                   1
                   0
                   1
                   0
                   0
                   0
                   0
                   0
                   0
                   0
                   0
                   0
                   0
                   0
                   0
                   0
                   0
                   0
                   0
                   0
                   0
                   0
                   0
                   0
                   0
                   0
                   0
                   0
                   0
                   0
                   0
                   0
                   0
                   0
                   0
                   0
                   0
                   0
                   0
                   0
                   0
                   0
                   0
                   0
                   0
                   0
                   0
                   0
                   0
                   0
                   0
                   0
                   0
                   0
                   0
                   0
                   0
                   0
                   0
                   0
                   0
                   0
                   0
                   0
                   0
                   0
                   0
                   0
                   0
                   0
                   0
                   0
                   0
                   0
                   0
                   0
                   0
                   0
                   0
                   0
                   0
                   0
                   0
                   0
                   0
                   0
                   0
                   0
                   0
                   0
                   0
                   0
                   0
                   0
                   0
                   0
                   0
                   0
                   0
                   0
                   0
                   0
                   0
                   0
                   0
                   0
                   0
                   0
                   0
                   0
                   0
                   0
                   0
                   0
                   0
                   0
                   0
                   0
                   0
                   0
                   0
                   0
                   0
                   0
                   0
                   0
                   0
                   0
                   0
                   0
                   0
                   0
                   0
                   0
                   0
                   0
                   0
                   0
                   0
                   0
                   0
                   0
                   0
                   0
                   0
                   0
                   0
                   0
                   0
                   0
                   0
                   0
                   0
                   0
                   0
                   0
                   0
                   0
                   0
                   0
                   0
                   0
                   0
                   0
                   0
                   0
                   0
                   0
                   0
                   0
                   0
                   0
                   0
                   0
                   0
                   0
                   0
                   0
                   0
                   0
                   0
                   0
                   0
                   0
                   0
                   0
                   0
                   0
                   0
                   0
                   0
                   0
                   0
                   0
                   0
                   0
                   0
                   0
                   0
                   0
                   0
                   0
                   0
                   0
                   0
                   0
                   0
                   0
                   0
                   0
                   0
                   0
                   0
                   0
                   0
                   0
                   0
                   0
                   0
                   0
                   0
                   0
                   0
                   0
                   0
                   0
                   0
                   0
                   0
                   0
                   0
                   0
                   0
                   0
                   0
                   0
                   0
                   0
                   0
                   0
                   0
                   0
                   0
                   0
                   0
                   0
                   0
                   0
                   0
                   0
                   0
                   0
                   0
                   0
                   0
                   0
                   0
                   0
                   0
                   0
                   0
                   0
                   0
                   0
                   0
                   0
                   0
                   0
                   0
                   0
                   0
                   0
                   0
                   0
                   0
                   0
                   0
                   0
                   0
                   0
                   0
                   0
                   0
                   0
                   0
                   0
                   0
                   0
                   0
                   0
                   0
                   0
                   0
                   0
                   0
                   0
                   0
                   0
                   0
                   0
                   0
                   0
                   0
                   0
                   0
                   0
                   0
                   0
                   0
                   0
                   0
                   0
                   0
                   0
                   0
                   0
                   0
                   0
                   0
                   0
                   0
                   0
                   0
                   0
                   0
                   0
                   0
                   0
                   0
                   0
                   0
                   0
                   0
                   0
                   0
                   0
                   0
                   0
                   0
                   0
                   0
                   0
                   0
                   0
                   0
                   0
                   0
                   0
                   0
                   0
                   0
                   0
                   0
                   0
                   0
                   0
                   0
                   0
                   0
                   0
                   0
                   0
                   0
                   0
                   0
                   0
                   0
                   0
                   0
                   0
                   0
                   0
                   0
                   0
                   0
                   0
                   0
                   0
                   0
                   0
                   0
                   0
                   0
                   0
                   0
                   0
                   0
                   0
                   0
                   0
                   0
                   0
                   0
                   0
                   0
                   0
                   0
                   0
                   0
                   0
                   0
                   0
                   0
                   0
                   0
                   0
                   0
                   0
                   0
                   0
                   0
                   0
                   0
                   0
                   0
                   0
                   0
                   0
                   0
                   0
                   0
                   0
                   0
                   0
                   0
                   0
                   0
                   0
                   0
                   0
                   0
                   0
                   0
                   0
                   0
                   0
                   0
                   0
                   0
                   0
                   0
                   0
                   0
                   0
                   0
                   0
                   0
                   0
                   0
                   0
                   0
                   0
                   0
                   0
                   0
                   0
                   0
                   0
                   0
                   0
                   0
                   0
                   0
                   0
                   0
                   0
                   0
                   0
                   0
                   0
                   0
                   0
                   0
                   0
                   0
                   0
                   0
                   0
                   0
                   0
                   0
                   0
                   0
                   0
                   0
                   0
                   0
                   0
                   0
                   0
                   0
                   0
                   0
                   0
                   0
                   0
                   0
                   0
                   0
                   0
                   0
                   0
                   0
                   0
                   0
                   0
                   0
                   0
                   0
                   0
                   0
                   0
                   0
                   0
                   0
                   0
                   0
                   0
                   0
                   0
                   0
                   0
                   0
                   0
                   0
                   0
                   0
                   0
                   0
                   0
                   0
                   0
                   0
                   0
                   0
                   0
                   0
                   0
                   0
                   0
                   0
                   0
                   0
                   0
                   0
                   0
                   0
                   0
                   0
                   0
                   0
                   0
                   0
                   0
                   0
                   0
                   0
                   0
                   0
                   0
                   0
                   0
                   0
                   0
                   0
                   0
                   0
                   0
                   0
                   0
                   0
                   0
                   0
                   0
                   0
                   0
                   0
                   0
                   0
                   0
                   0
                   0
                   0
                   0
                   0
                   0
                   0
                   0
                   0
                   0
                   0
                   0
                   0
                   0
                   0
                   0
                   0
                   0
                   0
                   0
                   0
                   0
                   0
                   0
                   0
                   0
                   0
                   0
                   0
                   0
                   0
                   0
                   0
                   0
                   0
                   0
                   0
                   0
                   0
                   0
                   0
                   0
                   0
                   0
                   0
                   0
                   0
                   0
                   0
                   0
                   0
                   0
                   0
                   0
                   0
                   0
                   0
                   0
                   0
                   0
                   0
                   0
                   0
                   0
                   0
                   0
                   0
                   0
                   0
                   0
                   0
                   0
                   0
                   0
                   0
                   0
                   0
                   0
                   0
                   0
                   0
                   0
                   0
                   0
                   0
                   0
                   0
                   0
                   0
                   0
                   0
                   0
                   0
                   0
                   0
                   0
                   0
                   0
                   0
                   0
                   0
                   0
                   0
                   0
                   0
                   0
                   0
                   0
                   0
                   0
                   0
                   0
                   0
                   0
                   0
                   0
                   0
                   0
                   0
                   0
                   0
                   0
                   0
                   0
                   0
                   0
                   0
                   0
                   0
                   0
                   0
                   0
                   0
                   0
                   0
                   0
                   0
                   0
                   0
                   0
                   0
                   0
                   0
                   0
                   0
                   0
                   0
                   0
                   0
                   0
                   0
                   0
                   0
                   0
                   0
                   0
                   0
                   0
                   0
                   0
                   0
                   0
                   0
                   0
                   0
                   0
                   0
                   0
                   0
                   0
                   0
                   0
                   0
                   0
                   0
                   0
                   0
                   0
                   0
                   0
                   0
                   0
                   0
                   0
                   0
                   0
                   0
                   0
                   0
                   0
                   0
                   0
                   0
                   0
                   0
                   0
                   0
                   0
                   0
                   0
                   0
                   0
                   0
                   0
                   0
                   0
                   0
                   0
                   0
                   0
                   0
                   0
                   0
                   0
                   0
                   0
                   0
                   0
                   0
                   0
                   0
                   0
                   0
                   0
                   0
                   0
                   0
                   0
                   0
                   0
                   0
                   0
                   0
                   0
                   0
                   0
                   0
                   0
                   0
                   0
                   0
                   0
                   0
                   0
                   0
                   0
                   0
                   0
                   0
                   0
                   0
                   0
                   0
                   0
                   0
                   0
                   0
                   0
                   0
                   0
                   0
                   0
                   0
                   0
                   0
                   0
                   0
                   0
                   0
                   0
                   0
                   0
                   0
                   0
                   0
                   0
                   0
                   0
                   0
                   0
                   0
                   0
                   0
                   0
                   0
                   0
                   0
                   0
                   0
                   0
                   0
                   0
                   0
                   0
                   0
                   0
                   0
                   0
                   0
                   0
                   0
                   0
                   0
                   0
                   0
                   0
                   0
                   0
                   0
                   0
                   0
                   0
                   0
                   0
                   0
                   0
                   0
                   0
                   0
                   0
                   0
                   0
                   0
                   0
                   0
                   0
                   0
                   0
                   0
                   0
                   0
                   0
                   0
                   0
                   0
                   0
                   0
                   0
                   0
                   0
                   0
                   0
                   0
                   0
                   0
                   0
                   0
                   0
                   0
                   0
                   0
                   0
                   0
                   0
                   0
                   0
                   0
                   0
                   0
                   0
                   0
                   0
                   0
                   0
                   0
                   0
                   0
                   0
                   0
                   0
                   0
                   0
                   0
                   0
                   0
                   0
                   0
                   0
                   0
                   0
                   0
                   0
                   0
                   0
                   0
                   0
                   0
                   0
                   0
                   0
                   0
                   0
                   0
                   0
                   0
                   0
                   0
                   0
                   0
                   0
                   0
                   0
                   0
                   0
                   0
                   0
                   0
                   0
                   0
                   0
                   0
                   0
                   0
                   0
                   0
                   0
                   0
                   0
                   0
                   0
                   0
                   0
                   0
                   0
                   0
                   0
                   0
                   0
                   0
                   0
                   0
                   0
                   0
                   0
                   0
                   0
                   0
                   0
                   0
                   0
                   0
                   0
                   0
                   0
                   0
                   0
                   0
                   0
                   0
                   0
                   0
                   0
                   0
                   0
                   0
                   0
                   0
                   0
                   0
                   0
                   0
                   0
                   0
                   0
                   0
                   0
                   0
                   0
                   0
                   0
                   0
                   0
                   0
                   0
                   0
                   0
                   0
                   0
                   0
                   0
                   0
                   0
                   0
                   0
                   0
                   0
                   0
                   0
                   0
                   0
                   0
                   0
                   0
                   0
                   0
                   0
                   0
                   0
                   0
                   0
                   0
                   0
                   0
                   0
                   0
                   0
                   0
                   0
                   0
                   0
                   0
                   0
                   0
                   0
                   0
                   0
                   0
                   0
                   0
                   0
                   0
                   0
                   0
                   0
                   0
                   0
                   0
                   0
                   0
                   0
                   0
                   0
                   0
                   0
                   0
                   0
                   0
                   0
                   0
                   0
                   0
                   0
                   0
                   0
                   0
                   0
                   0
                   0
                   0
                   0
                   0
                   0
                   0
                   0
                   0
                   0
                   0
                   0
                   0
                   0
                   0
                   0
                   0
                   0
                   0
                   0
                   0
                   0
                   0
                   0
                   0
                   0
                   0
                   0
                   0
                   0
                   0
                   0
                   0
                   0
                   0
                   0
                   0
                   0
                   0
                   0
                   0
                   0
                   0
                   0
                   0
                   0
                   0
                   0
                   0
                   0
                   0
                   0
                   0
                   0
                   0
                   0
                   0
                   0
                   0
                   0
                   0
                   0
                   0
                   0
                   0
                   0
                   0
                   0
                   0
                   0
                   0
                   0
                   0
                   0
                   0
                   0
                   0
                   0
                   0
                   0
                   0
                   0
                   0
                   0
                   0
                   0
                   0
                   0
                   0
                   0
                   0
                   0
                   0
                   0
                   0
                   0
                   0
                   0
                   0
                   0
                   0
                   0
                   0
                   0
                   0
                   0
                   0
                   0
                   0
                   0
                   0
                   0
                   0
                   0
                   0
                   0
                   0
                   0
                   0
                   0
                   0
                   0
                   0
                   0
                   0
                   0
                   0
                   0
                   0
                   0
                   0
                   0
                   0
                   0
                   0
                   0
                   0
                   0
                   0
                   0
                   0
                   0
                   0
                   0
                   0
                   0
                   0
                   0
                   0
                   0
                   0
                   0
                   0
                   0
                   0
                   0
                   0
                   0
                   0
                   0
                   0
                   0
                   0
                   0
                   0
                   0
                   0
                   0
                   0
                   0
                   0
                   0
                   0
                   0
                   0
                   0
                   0
                   0
                   0
                   0
                   0
                   0
                   0
                   0
                   0
                   0
                   0
                   0
                   0
                   0
                   0
                   0
                   0
                   0
                   0
                   0
                   0
                   0
                   0
                   0
                   0
                   0
                   0
                   0
                   0
                   0
                   0
                   0
                   0
                   0
                   0
                   0
                   0
                   0
                   0
                   0
                   0
                   0
                   0
                   0
                   0
                   0
                   0
                   0
                   0
                   0
                   0
                   0
                   0
                   0
                   0
                   0
                   0
                   0
                   0
                   0
                   0
                   0
                   0
                   0
                   0
                   0
                   0
                   0
                   0
                   0
                   0
                   0
                   0
                   0
                   0
                   0
                   0
                   0
                   0
                   0
                   0
                   0
                   0
                   0
                   0
                   0
                   0
                   0
                   0
                   0
                   0
                   0
                   0
                   0
                   0
                   0
                   0
                   0
                   0
                   0
                   0
                   0
                   0
                   0
                   0
                   0
                   0
                   0
                   0
                   0
                   0
                   0
                   0
                   0
                   0
                   0
                   0
                   0
                   0
                   0
                   0
                   0
                   0
                   0
                   0
                   0
                   0
                   0
                   0
                   0
                   0
                   0
                   0
                   0
                   0
                   0
                   0
                   0
                   0
                   0
                   0
                   0
                   0
                   0
                   0
                   0
                   0
                   0
                   0
                   0
                   0
                   0
                   0
                   0
                   0
                   0
                   0
                   0
                   0
                   0
                   0
                   0
                   0
                   0
                   0
                   0
                   0
                   0
                   0
                   0
                   0
                   0
                   0
                   0
                   0
                   0
                   0
                   0
                   0
                   0
                   0
                   0
                   0
                   0
                   0
                   0
                   0
                   0
                   0
                   0
                   0
                   0
                   0
                   0
                   0
                   0
                   0
                   0
                   0
                   0
                   0
                   0
                   0
                   0
                   0
                   0
                   0
                   0
                   0
                   0
                   0
                   0
                   0
                   0
                   0
                   0
                   0
                   0
                   0
                   0
                   0
                   0
                   0
                   0
                   0
                   0
                   0
                   0
                   0
                   0
                   0
                   0
                   0
                   0
                   0
                   0
                   0
                   0
                   0
                   0
                   0
                   0
                   0
                   0
                   0
                   0
                   0
                   0
                   0
                   0
                   0
                   0
                   0
                   0
                   0
                   0
                   0
                   0
                   0
                   0
                   0
                   0
                   0
                   0
                   0
                   0
                   0
                   0
                   0
                   0
                   0
                   0
                   0
                   0
                   0
                   0
                   0
                   0
                   0
                   0
                   0
                   0
                   0
                   0
                   0
                   0
                   0
                   0
                   0
                   0
                   0
                   0
                   0
                   0
                   0
                   0
                   0
                   0
                   0
                   0
                   0
                   0
                   0
                   0
                   0
                   0
                   0
                   0
                   0
                   0
                   0
                   0
                   0
                   0
                   0
                   0
                   0
                   0
                   0
                   0
                   0
                   0
                   0
                   0
                   0
                   0
                   0
                   0
                   0
                   0
                   0
                   0
                   0
                   0
                   0
                   0
                   0
                   0
                   0
                   0
                   0
                   0
                   0
                   0
                   0
                   0
                   0
                   0
                   0
                   0
                   0
                   0
                   0
                   0
                   0
                   0
                   0
                   0
                   0
                   0
                   0
                   0
                   0
                   0
                   0
                   0
                   0
                   0
                   0
                   0
                   0
                   0
                   0
                   0
                   0
                   0
                   0
                   0
                   0
                   0
                   0
                   0
                   0
                   0
                   0
                   0
                   0
                   0
                   0
                   0
                   0
                   0
                   0
                   0
                   0
                   0
                   0
                   0
                   0
                   0
                   0
                   0
                   0
                   0
                   0
                   0
                   0
                   0
                   0
                   0
                   0
                   0
                   0
                   0
                   0
                   0
                   0
                   0
                   0
                   0
                   0
                   0
                   0
                   0
                   0
                   0
                   0
                   0
                   0
                   0
                   0
                   0
                   0
                   0
                   0
                   0
                   0
                   0
                   0
                   0
                   0
                   0
                   0
                   0
                   0
                   0
                   0
                   0
                   0
                   0
                   0
                   0
                   0
                   0
                   0
                   0
                   0
                   0
                   0
                   0
                   0
                   0
                   0
                   0
                   0
                   0
                   0
                   0
                   0
                   0
                   0
                   0
                   0
                   0
                   0
                   0
                   0
                   0
                   0
                   0
                   0
                   0
                   0
                   0
                   0
                   0
                   0
                   0
                   0
                   0
                   0
                   0
                   0
                   0
                   0
  
SCALARS                         Ispace  double 1
LOOKUP_TABLE default
                  12
                  12
                  12
                  12
                  12
                  12
                  12
                  12
                  12
                  12
                  12
                  12
                  12
                  11
                  12
                  11
                  11
                  11
                  11
                  11
                  11
                  12
                  12
                  11
                  12
                  12
                  11
                  11
                  11
                  11
                  11
                  11
                  11
                  11
                  11
                  11
                  11
                  11
                  11
                  11
                  11
                  11
                  11
                  11
                  11
                  11
                  11
                  11
                  11
                  11
                  11
                  11
                  11
                  11
                  11
                  11
                  11
                  11
                  11
                  11
                  11
                  11
                  11
                  11
                  11
                  11
                  12
                  12
                  12
                  12
                  12
                  12
                  12
                  12
                  11
                  11
                  11
                  11
                  11
                  11
                  11
                  11
                  11
                  11
                  11
                  11
                  11
                  11
                  11
                  11
                  11
                  11
                  11
                  11
                  11
                  11
                  12
                  12
                  12
                  12
                  12
                  12
                  12
                  12
                  12
                  12
                  12
                  12
                  12
                  12
                  12
                  12
                  12
                  12
                  12
                  12
                  11
                  11
                  11
                  11
                  11
                  11
                  11
                  11
                  11
                  11
                  11
                  11
                  11
                  11
                  11
                  11
                  11
                  11
                  11
                  11
                  11
                  11
                  11
                  11
                  11
                  11
                  11
                  11
                  11
                  11
                  12
                  12
                  12
                  12
                  12
                  12
                  12
                  12
                  12
                  12
                  12
                  12
                  12
                  12
                  12
                  12
                  12
                  11
                  11
                  11
                  11
                  12
                  12
                  11
                  11
                  11
                  11
                  11
                  11
                  11
                  11
                  11
                  11
                  11
                  11
                  11
                  11
                  11
                  11
                  11
                  11
                  11
                  11
                  12
                  12
                  12
                  12
                  11
                  11
                  11
                  11
                  11
                  11
                  11
                  11
                  11
                  11
                  11
                  12
                  12
                  12
                  12
                  12
                  12
                  12
                  12
                  12
                  12
                  11
                  11
                  11
                  11
                  11
                  11
                  11
                  11
                  11
                  11
                  11
                  11
                  11
                  11
                  11
                  12
                  12
                  12
                  12
                  12
                  12
                  12
                  12
                  12
                  12
                  12
                  12
                  11
                  11
                  11
                  11
                  12
                  12
                  11
                  11
                  11
                  11
                  11
                  11
                  11
                  11
                  11
                  11
                  11
                  11
                  11
                  11
                  11
                  11
                  11
                  11
                  11
                  11
                  12
                  12
                  12
                  12
                  11
                  11
                  11
                  11
                  11
                  11
                  11
                  11
                  11
                  11
                  11
                  12
                  12
                  12
                  12
                  12
                  12
                  12
                  12
                  12
                  12
                  11
                  11
                  11
                  11
                  11
                  11
                  11
                  11
                  11
                  11
                  11
                  11
                  11
                  11
                  11
                  12
                  12
                  12
                  12
                  12
                  12
                  12
                  12
                  12
                  12
                  12
                  12
                  11
                  11
                  11
                  11
                  12
                  12
                  11
                  11
                  11
                  11
                  11
                  11
                  11
                  11
                  11
                  11
                  11
                  11
                  11
                  11
                  11
                  11
                  11
                  11
                  11
                  11
                  12
                  12
                  12
                  12
                  11
                  11
                  11
                  11
                  11
                  11
                  11
                  11
                  11
                  11
                  11
                  12
                  12
                  12
                  12
                  12
                  12
                  12
                  12
                  12
                  12
                  11
                  11
                  11
                  11
                  11
                  11
                  11
                  11
                  11
                  11
                  11
                  11
                  11
                  11
                  11
                  12
                  12
                  12
                  12
                  12
                  12
                  12
                  12
                  12
                  12
                  12
                  12
                  11
                  11
                  11
                  11
                  12
                  12
                  11
                  11
                  11
                  11
                  11
                  11
                  11
                  11
                  11
                  11
                  11
                  11
                  11
                  11
                  11
                  11
                  11
                  11
                  11
                  11
                  12
                  12
                  12
                  12
                  11
                  11
                  11
                  11
                  11
                  11
                  11
                  11
                  11
                  11
                  11
                  12
                  12
                  12
                  12
                  12
                  12
                  12
                  12
                  12
                  12
                  11
                  11
                  11
                  11
                  11
                  11
                  11
                  11
                  11
                  11
                  11
                  11
                  11
                  11
                  11
                  12
                  12
                  12
                  12
                  12
                  12
                  12
                  12
                  12
                  12
                  12
                  12
                  11
                  11
                  11
                  11
                  12
                  12
                  11
                  11
                  11
                  11
                  11
                  11
                  11
                  11
                  11
                  11
                  11
                  11
                  11
                  11
                  11
                  11
                  11
                  11
                  11
                  11
                  12
                  12
                  12
                  12
                  11
                  11
                  11
                  11
                  11
                  11
                  11
                  11
                  11
                  11
                  11
                  12
                  12
                  12
                  12
                  12
                  12
                  12
                  12
                  12
                  12
                  11
                  11
                  11
                  11
                  11
                  11
                  11
                  11
                  11
                  11
                  11
                  11
                  11
                  11
                  11
                  12
                  12
                  12
                  12
                  12
                  12
                  12
                  12
                  12
                  12
                  12
                  12
                  11
                  11
                  11
                  11
                  12
                  12
                  11
                  11
                  11
                  11
                  11
                  11
                  11
                  11
                  11
                  11
                  11
                  11
                  11
                  11
                  11
                  11
                  11
                  11
                  11
                  11
                  12
                  12
                  12
                  12
                  11
                  11
                  11
                  11
                  11
                  11
                  11
                  11
                  11
                  11
                  11
                  12
                  12
                  12
                  12
                  12
                  12
                  12
                  12
                  12
                  12
                  11
                  11
                  11
                  11
                  11
                  11
                  11
                  11
                  11
                  11
                  11
                  11
                  11
                  11
                  11
                  12
                  12
                  12
                  12
                  12
                  12
                  12
                  12
                  12
                  12
                  12
                  12
                  11
                  11
                  11
                  11
                  12
                  12
                  11
                  11
                  11
                  11
                  11
                  11
                  11
                  11
                  11
                  11
                  11
                  11
                  11
                  11
                  11
                  11
                  11
                  11
                  11
                  11
                  12
                  12
                  12
                  12
                  11
                  11
                  11
                  11
                  11
                  11
                  11
                  11
                  11
                  11
                  11
                  12
                  12
                  12
                  12
                  12
                  12
                  12
                  12
                  12
                  12
                  11
                  11
                  11
                  11
                  11
                  11
                  11
                  11
                  11
                  11
                  11
                  11
                  11
                  11
                  11
                  12
                  12
                  12
                  12
                  12
                  12
                  12
                  12
                  12
                  12
                  12
                  12
                  11
                  11
                  11
                  11
                  12
                  12
                  11
                  11
                  11
                  11
                  11
                  11
                  11
                  11
                  11
                  11
                  11
                  11
                  11
                  11
                  11
                  11
                  11
                  11
                  11
                  11
                  12
                  12
                  12
                  12
                  11
                  11
                  11
                  11
                  11
                  11
                  11
                  11
                  11
                  11
                  11
                  12
                  12
                  12
                  12
                  12
                  12
                  12
                  12
                  12
                  12
                  11
                  11
                  11
                  11
                  11
                  11
                  11
                  11
                  11
                  11
                  11
                  11
                  11
                  11
                  11
                  12
                  12
                  12
                  12
                  12
                  12
                  12
                  12
                  12
                  12
                  12
                  12
                  11
                  11
                  11
                  11
                  12
                  12
                  11
                  11
                  11
                  11
                  11
                  11
                  11
                  11
                  11
                  11
                  11
                  11
                  11
                  11
                  11
                  11
                  11
                  11
                  11
                  11
                  12
                  12
                  12
                  12
                  11
                  11
                  11
                  11
                  11
                  11
                  11
                  11
                  11
                  11
                  11
                  12
                  12
                  12
                  12
                  12
                  12
                  12
                  12
                  12
                  12
                  11
                  11
                  11
                  11
                  11
                  11
                  11
                  11
                  11
                  11
                  11
                  11
                  11
                  11
                  11
                  12
                  12
                  12
                  12
                  12
                  12
                  12
                  12
                  12
                  12
                  12
                  12
                  11
                  11
                  11
                  11
                  12
                  12
                  11
                  11
                  11
                  11
                  11
                  11
                  11
                  11
                  11
                  11
                  11
                  11
                  11
                  11
                  11
                  11
                  11
                  11
                  11
                  11
                  12
                  12
                  12
                  12
                  11
                  11
                  11
                  11
                  11
                  11
                  11
                  11
                  11
                  11
                  11
                  12
                  12
                  12
                  12
                  12
                  12
                  12
                  12
                  12
                  12
                  11
                  11
                  11
                  11
                  11
                  11
                  11
                  11
                  11
                  11
                  11
                  11
                  11
                  11
                  11
                  12
                  12
                  12
                  12
                  12
                  12
                  12
                  12
                  12
                  12
                  12
                  12
                  11
                  11
                  11
                  11
                  12
                  12
                  11
                  11
                  11
                  11
                  11
                  11
                  11
                  11
                  11
                  11
                  11
                  11
                  11
                  11
                  11
                  11
                  11
                  11
                  11
                  11
                  12
                  12
                  12
                  12
                  11
                  11
                  11
                  11
                  11
                  11
                  11
                  11
                  11
                  11
                  11
                  12
                  12
                  12
                  12
                  12
                  12
                  12
                  12
                  12
                  12
                  11
                  11
                  11
                  11
                  11
                  11
                  11
                  11
                  11
                  11
                  11
                  11
                  11
                  11
                  11
                  12
                  12
                  12
                  12
                  12
                  12
                  12
                  12
                  12
                  12
                  12
                  12
                  11
                  11
                  11
                  11
                  12
                  12
                  11
                  11
                  11
                  11
                  11
                  11
                  11
                  11
                  11
                  11
                  11
                  11
                  11
                  11
                  11
                  11
                  11
                  11
                  11
                  11
                  12
                  12
                  12
                  12
                  11
                  11
                  11
                  11
                  11
                  11
                  11
                  11
                  11
                  11
                  11
                  12
                  12
                  12
                  12
                  12
                  12
                  12
                  12
                  12
                  12
                  11
                  11
                  11
                  11
                  11
                  11
                  11
                  11
                  11
                  11
                  11
                  11
                  11
                  11
                  11
                  12
                  12
                  12
                  12
                  12
                  12
                  12
                  12
                  12
                  12
                  12
                  12
                  11
                  11
                  11
                  11
                  12
                  12
                  11
                  11
                  11
                  11
                  11
                  11
                  11
                  11
                  11
                  11
                  11
                  11
                  11
                  11
                  11
                  11
                  11
                  11
                  11
                  11
                  12
                  12
                  12
                  12
                  11
                  11
                  11
                  11
                  11
                  11
                  11
                  11
                  11
                  11
                  11
                  12
                  12
                  12
                  12
                  12
                  12
                  12
                  12
                  12
                  12
                  11
                  11
                  11
                  11
                  11
                  11
                  11
                  11
                  11
                  11
                  11
                  11
                  11
                  11
                  11
                  12
                  12
                  12
                  12
                  12
                  12
                  12
                  12
                  12
                  12
                  12
                  12
                  11
                  11
                  11
                  11
                  12
                  12
                  11
                  11
                  11
                  11
                  11
                  11
                  11
                  11
                  11
                  11
                  11
                  11
                  11
                  11
                  11
                  11
                  11
                  11
                  11
                  11
                  12
                  12
                  12
                  12
                  11
                  11
                  11
                  11
                  11
                  11
                  11
                  11
                  11
                  11
                  11
                  12
                  12
                  12
                  12
                  12
                  12
                  12
                  12
                  12
                  12
                  11
                  11
                  11
                  11
                  11
                  11
                  11
                  11
                  11
                  11
                  11
                  11
                  11
                  11
                  11
                  12
                  12
                  12
                  12
                  12
                  12
                  12
                  12
                  12
                  12
                  12
                  12
                  11
                  11
                  11
                  11
                  12
                  12
                  11
                  11
                  11
                  11
                  11
                  11
                  11
                  11
                  11
                  11
                  11
                  11
                  11
                  11
                  11
                  11
                  11
                  11
                  11
                  11
                  12
                  12
                  12
                  12
                  11
                  11
                  11
                  11
                  11
                  11
                  11
                  11
                  11
                  11
                  11
                  12
                  12
                  12
                  12
                  12
                  12
                  12
                  12
                  12
                  12
                  11
                  11
                  11
                  11
                  11
                  11
                  11
                  11
                  11
                  11
                  11
                  11
                  11
                  11
                  11
                  12
                  12
                  12
                  12
                  12
                  12
                  12
                  12
                  12
                  12
                  12
                  12
                  11
                  11
                  11
                  11
                  12
                  12
                  11
                  11
                  11
                  11
                  11
                  11
                  11
                  11
                  11
                  11
                  11
                  11
                  11
                  11
                  11
                  11
                  11
                  11
                  11
                  11
                  12
                  12
                  12
                  12
                  11
                  11
                  11
                  11
                  11
                  11
                  11
                  11
                  11
                  11
                  11
                  12
                  12
                  12
                  12
                  12
                  12
                  12
                  12
                  12
                  12
                  11
                  11
                  11
                  11
                  11
                  11
                  11
                  11
                  11
                  11
                  11
                  11
                  11
                  11
                  11
                  12
                  12
                  12
                  12
                  12
                  12
                  12
                  12
                  12
                  12
                  12
                  12
                  11
                  11
                  11
                  11
                  12
                  12
                  11
                  11
                  11
                  11
                  11
                  11
                  11
                  11
                  11
                  11
                  11
                  11
                  11
                  11
                  11
                  11
                  11
                  11
                  11
                  11
                  12
                  12
                  12
                  12
                  11
                  11
                  11
                  11
                  11
                  11
                  11
                  11
                  11
                  11
                  11
                  12
                  12
                  12
                  12
                  12
                  12
                  12
                  12
                  12
                  12
                  11
                  11
                  11
                  11
                  11
                  11
                  11
                  11
                  11
                  11
                  11
                  11
                  11
                  11
                  11
                  12
                  12
                  12
                  12
                  12
                  12
                  12
                  12
                  12
                  12
                  12
                  12
                  11
                  11
                  11
                  11
                  12
                  12
                  11
                  11
                  11
                  11
                  11
                  11
                  11
                  11
                  11
                  11
                  11
                  11
                  11
                  11
                  11
                  11
                  11
                  11
                  11
                  11
                  12
                  12
                  12
                  12
                  11
                  11
                  11
                  11
                  11
                  11
                  11
                  11
                  11
                  11
                  11
                  12
                  12
                  12
                  12
                  12
                  12
                  12
                  12
                  12
                  12
                  11
                  11
                  11
                  11
                  11
                  11
                  11
                  11
                  11
                  11
                  11
                  11
                  11
                  11
                  11
                  12
                  12
                  12
                  12
                  12
                  12
                  12
                  12
                  12
                  12
                  12
                  12
                  11
                  11
                  11
                  11
                  12
                  12
                  11
                  11
                  11
                  11
                  11
                  11
                  11
                  11
                  11
                  11
                  11
                  11
                  11
                  11
                  11
                  11
                  11
                  11
                  11
                  11
                  12
                  12
                  12
                  12
                  11
                  11
                  11
                  11
                  11
                  11
                  11
                  11
                  11
                  11
                  11
                  12
                  12
                  12
                  12
                  12
                  12
                  12
                  12
                  12
                  12
                  11
                  11
                  11
                  11
                  11
                  11
                  11
                  11
                  11
                  11
                  11
                  11
                  11
                  11
                  11
                  12
                  12
                  12
                  12
                  12
                  12
                  12
                  12
                  12
                  12
                  12
                  12
                  11
                  11
                  11
                  11
                  12
                  12
                  11
                  11
                  11
                  11
                  11
                  11
                  11
                  11
                  11
                  11
                  11
                  11
                  11
                  11
                  11
                  11
                  11
                  11
                  11
                  11
                  12
                  12
                  12
                  12
                  11
                  11
                  11
                  11
                  11
                  11
                  11
                  11
                  11
                  11
                  11
                  12
                  12
                  12
                  12
                  12
                  12
                  12
                  12
                  12
                  12
                  11
                  11
                  11
                  11
                  11
                  11
                  11
                  11
                  11
                  11
                  11
                  11
                  11
                  11
                  11
                  12
                  12
                  12
                  12
                  12
                  12
                  12
                  12
                  12
                  12
                  12
                  12
                  11
                  11
                  11
                  11
                  12
                  12
                  11
                  11
                  11
                  11
                  11
                  11
                  11
                  11
                  11
                  11
                  11
                  11
                  11
                  11
                  11
                  11
                  11
                  11
                  11
                  11
                  12
                  12
                  12
                  12
                  11
                  11
                  11
                  11
                  11
                  11
                  11
                  11
                  11
                  11
                  11
                  12
                  12
                  12
                  12
                  12
                  12
                  12
                  12
                  12
                  12
                  11
                  11
                  11
                  11
                  11
                  11
                  11
                  11
                  11
                  11
                  11
                  11
                  11
                  11
                  11
                  12
                  12
                  12
                  12
                  12
                  12
                  12
                  12
                  12
                  12
                  12
                  12
                  11
                  11
                  11
                  11
                  12
                  12
                  11
                  11
                  11
                  11
                  11
                  11
                  11
                  11
                  11
                  11
                  11
                  11
                  11
                  11
                  11
                  11
                  11
                  11
                  11
                  11
                  12
                  12
                  12
                  12
                  11
                  11
                  11
                  11
                  11
                  11
                  11
                  11
                  11
                  11
                  11
                  12
                  12
                  12
                  12
                  12
                  12
                  12
                  12
                  12
                  12
                  11
                  11
                  11
                  11
                  11
                  11
                  11
                  11
                  11
                  11
                  11
                  11
                  11
                  11
                  11
                  12
                  12
                  12
                  12
                  12
                  12
                  12
                  12
                  12
                  12
                  12
                  12
                  11
                  11
                  11
                  11
                  12
                  12
                  11
                  11
                  11
                  11
                  11
                  11
                  11
                  11
                  11
                  11
                  11
                  11
                  11
                  11
                  11
                  11
                  11
                  11
                  11
                  11
                  12
                  12
                  12
                  12
                  11
                  11
                  11
                  11
                  11
                  11
                  11
                  11
                  11
                  11
                  11
                  12
                  12
                  12
                  12
                  12
                  12
                  12
                  12
                  12
                  12
                  11
                  11
                  11
                  11
                  11
                  11
                  11
                  11
                  11
                  11
                  11
                  11
                  11
                  11
                  11
                  12
                  12
                  12
                  12
                  12
  
SCALARS                         Jspace  double 1
LOOKUP_TABLE default
                  11
                  12
                  11
                  11
                  11
                  12
                  11
                  11
                  11
                  11
                  11
                  11
                  12
                  12
                  12
                  12
                  11
                  12
                  11
                  12
                  12
                  12
                  12
                  12
                  12
                  12
                  12
                  12
                  12
                  12
                  11
                  11
                  11
                  11
                  11
                  11
                  11
                  11
                  11
                  11
                  11
                  11
                  11
                  11
                  11
                  11
                  11
                  11
                  11
                  11
                  11
                  11
                  12
                  12
                  12
                  12
                  12
                  11
                  12
                  11
                  11
                  11
                  11
                  11
                  11
                  11
                  11
                  11
                  11
                  12
                  11
                  12
                  12
                  12
                  12
                  12
                  12
                  12
                  12
                  12
                  12
                  12
                  12
                  12
                  11
                  11
                  11
                  11
                  11
                  11
                  11
                  11
                  11
                  11
                  11
                  11
                  11
                  11
                  11
                  11
                  11
                  11
                  11
                  11
                  11
                  11
                  11
                  11
                  12
                  12
                  12
                  12
                  12
                  12
                  12
                  12
                  12
                  12
                  12
                  12
                  12
                  12
                  12
                  12
                  12
                  12
                  12
                  12
                  11
                  11
                  11
                  11
                  11
                  11
                  11
                  11
                  11
                  11
                  11
                  11
                  11
                  11
                  11
                  11
                  11
                  11
                  11
                  11
                  11
                  11
                  11
                  11
                  11
                  11
                  11
                  11
                  11
                  12
                  11
                  11
                  11
                  11
                  12
                  12
                  11
                  12
                  12
                  12
                  12
                  12
                  12
                  11
                  11
                  11
                  11
                  11
                  11
                  11
                  11
                  11
                  11
                  11
                  12
                  12
                  12
                  11
                  11
                  11
                  11
                  11
                  11
                  12
                  12
                  12
                  12
                  12
                  12
                  12
                  11
                  11
                  11
                  11
                  11
                  11
                  11
                  11
                  11
                  11
                  11
                  11
                  12
                  12
                  12
                  12
                  12
                  12
                  12
                  12
                  12
                  12
                  11
                  11
                  11
                  11
                  11
                  11
                  11
                  11
                  11
                  11
                  11
                  11
                  11
                  11
                  11
                  12
                  11
                  11
                  11
                  11
                  12
                  12
                  11
                  12
                  12
                  12
                  12
                  12
                  12
                  11
                  11
                  11
                  11
                  11
                  11
                  11
                  11
                  11
                  11
                  11
                  12
                  12
                  12
                  11
                  11
                  11
                  11
                  11
                  11
                  12
                  12
                  12
                  12
                  12
                  12
                  12
                  11
                  11
                  11
                  11
                  11
                  11
                  11
                  11
                  11
                  11
                  11
                  11
                  12
                  12
                  12
                  12
                  12
                  12
                  12
                  12
                  12
                  12
                  11
                  11
                  11
                  11
                  11
                  11
                  11
                  11
                  11
                  11
                  11
                  11
                  11
                  11
                  11
                  12
                  11
                  11
                  11
                  11
                  12
                  12
                  11
                  12
                  12
                  12
                  12
                  12
                  12
                  11
                  11
                  11
                  11
                  11
                  11
                  11
                  11
                  11
                  11
                  11
                  12
                  12
                  12
                  11
                  11
                  11
                  11
                  11
                  11
                  12
                  12
                  12
                  12
                  12
                  12
                  12
                  11
                  11
                  11
                  11
                  11
                  11
                  11
                  11
                  11
                  11
                  11
                  11
                  12
                  12
                  12
                  12
                  12
                  12
                  12
                  12
                  12
                  12
                  11
                  11
                  11
                  11
                  11
                  11
                  11
                  11
                  11
                  11
                  11
                  11
                  11
                  11
                  11
                  12
                  11
                  11
                  11
                  11
                  12
                  12
                  11
                  12
                  12
                  12
                  12
                  12
                  12
                  11
                  11
                  11
                  11
                  11
                  11
                  11
                  11
                  11
                  11
                  11
                  12
                  12
                  12
                  11
                  11
                  11
                  11
                  11
                  11
                  12
                  12
                  12
                  12
                  12
                  12
                  12
                  11
                  11
                  11
                  11
                  11
                  11
                  11
                  11
                  11
                  11
                  11
                  11
                  12
                  12
                  12
                  12
                  12
                  12
                  12
                  12
                  12
                  12
                  11
                  11
                  11
                  11
                  11
                  11
                  11
                  11
                  11
                  11
                  11
                  11
                  11
                  11
                  11
                  12
                  11
                  11
                  11
                  11
                  12
                  12
                  11
                  12
                  12
                  12
                  12
                  12
                  12
                  11
                  11
                  11
                  11
                  11
                  11
                  11
                  11
                  11
                  11
                  11
                  12
                  12
                  12
                  11
                  11
                  11
                  11
                  11
                  11
                  12
                  12
                  12
                  12
                  12
                  12
                  12
                  11
                  11
                  11
                  11
                  11
                  11
                  11
                  11
                  11
                  11
                  11
                  11
                  12
                  12
                  12
                  12
                  12
                  12
                  12
                  12
                  12
                  12
                  11
                  11
                  11
                  11
                  11
                  11
                  11
                  11
                  11
                  11
                  11
                  11
                  11
                  11
                  11
                  12
                  11
                  11
                  11
                  11
                  12
                  12
                  11
                  12
                  12
                  12
                  12
                  12
                  12
                  11
                  11
                  11
                  11
                  11
                  11
                  11
                  11
                  11
                  11
                  11
                  12
                  12
                  12
                  11
                  11
                  11
                  11
                  11
                  11
                  12
                  12
                  12
                  12
                  12
                  12
                  12
                  11
                  11
                  11
                  11
                  11
                  11
                  11
                  11
                  11
                  11
                  11
                  11
                  12
                  12
                  12
                  12
                  12
                  12
                  12
                  12
                  12
                  12
                  11
                  11
                  11
                  11
                  11
                  11
                  11
                  11
                  11
                  11
                  11
                  11
                  11
                  11
                  11
                  12
                  11
                  11
                  11
                  11
                  12
                  12
                  11
                  12
                  12
                  12
                  12
                  12
                  12
                  11
                  11
                  11
                  11
                  11
                  11
                  11
                  11
                  11
                  11
                  11
                  12
                  12
                  12
                  11
                  11
                  11
                  11
                  11
                  11
                  12
                  12
                  12
                  12
                  12
                  12
                  12
                  11
                  11
                  11
                  11
                  11
                  11
                  11
                  11
                  11
                  11
                  11
                  11
                  12
                  12
                  12
                  12
                  12
                  12
                  12
                  12
                  12
                  12
                  11
                  11
                  11
                  11
                  11
                  11
                  11
                  11
                  11
                  11
                  11
                  11
                  11
                  11
                  11
                  12
                  11
                  11
                  11
                  11
                  12
                  12
                  11
                  12
                  12
                  12
                  12
                  12
                  12
                  11
                  11
                  11
                  11
                  11
                  11
                  11
                  11
                  11
                  11
                  11
                  12
                  12
                  12
                  11
                  11
                  11
                  11
                  11
                  11
                  12
                  12
                  12
                  12
                  12
                  12
                  12
                  11
                  11
                  11
                  11
                  11
                  11
                  11
                  11
                  11
                  11
                  11
                  11
                  12
                  12
                  12
                  12
                  12
                  12
                  12
                  12
                  12
                  12
                  11
                  11
                  11
                  11
                  11
                  11
                  11
                  11
                  11
                  11
                  11
                  11
                  11
                  11
                  11
                  12
                  11
                  11
                  11
                  11
                  12
                  12
                  11
                  12
                  12
                  12
                  12
                  12
                  12
                  11
                  11
                  11
                  11
                  11
                  11
                  11
                  11
                  11
                  11
                  11
                  12
                  12
                  12
                  11
                  11
                  11
                  11
                  11
                  11
                  12
                  12
                  12
                  12
                  12
                  12
                  12
                  11
                  11
                  11
                  11
                  11
                  11
                  11
                  11
                  11
                  11
                  11
                  11
                  12
                  12
                  12
                  12
                  12
                  12
                  12
                  12
                  12
                  12
                  11
                  11
                  11
                  11
                  11
                  11
                  11
                  11
                  11
                  11
                  11
                  11
                  11
                  11
                  11
                  12
                  11
                  11
                  11
                  11
                  12
                  12
                  11
                  12
                  12
                  12
                  12
                  12
                  12
                  11
                  11
                  11
                  11
                  11
                  11
                  11
                  11
                  11
                  11
                  11
                  12
                  12
                  12
                  11
                  11
                  11
                  11
                  11
                  11
                  12
                  12
                  12
                  12
                  12
                  12
                  12
                  11
                  11
                  11
                  11
                  11
                  11
                  11
                  11
                  11
                  11
                  11
                  11
                  12
                  12
                  12
                  12
                  12
                  12
                  12
                  12
                  12
                  12
                  11
                  11
                  11
                  11
                  11
                  11
                  11
                  11
                  11
                  11
                  11
                  11
                  11
                  11
                  11
                  12
                  11
                  11
                  11
                  11
                  12
                  12
                  11
                  12
                  12
                  12
                  12
                  12
                  12
                  11
                  11
                  11
                  11
                  11
                  11
                  11
                  11
                  11
                  11
                  11
                  12
                  12
                  12
                  11
                  11
                  11
                  11
                  11
                  11
                  12
                  12
                  12
                  12
                  12
                  12
                  12
                  11
                  11
                  11
                  11
                  11
                  11
                  11
                  11
                  11
                  11
                  11
                  11
                  12
                  12
                  12
                  12
                  12
                  12
                  12
                  12
                  12
                  12
                  11
                  11
                  11
                  11
                  11
                  11
                  11
                  11
                  11
                  11
                  11
                  11
                  11
                  11
                  11
                  12
                  11
                  11
                  11
                  11
                  12
                  12
                  11
                  12
                  12
                  12
                  12
                  12
                  12
                  11
                  11
                  11
                  11
                  11
                  11
                  11
                  11
                  11
                  11
                  11
                  12
                  12
                  12
                  11
                  11
                  11
                  11
                  11
                  11
                  12
                  12
                  12
                  12
                  12
                  12
                  12
                  11
                  11
                  11
                  11
                  11
                  11
                  11
                  11
                  11
                  11
                  11
                  11
                  12
                  12
                  12
                  12
                  12
                  12
                  12
                  12
                  12
                  12
                  11
                  11
                  11
                  11
                  11
                  11
                  11
                  11
                  11
                  11
                  11
                  11
                  11
                  11
                  11
                  12
                  11
                  11
                  11
                  11
                  12
                  12
                  11
                  12
                  12
                  12
                  12
                  12
                  12
                  11
                  11
                  11
                  11
                  11
                  11
                  11
                  11
                  11
                  11
                  11
                  12
                  12
                  12
                  11
                  11
                  11
                  11
                  11
                  11
                  12
                  12
                  12
                  12
                  12
                  12
                  12
                  11
                  11
                  11
                  11
                  11
                  11
                  11
                  11
                  11
                  11
                  11
                  11
                  12
                  12
                  12
                  12
                  12
                  12
                  12
                  12
                  12
                  12
                  11
                  11
                  11
                  11
                  11
                  11
                  11
                  11
                  11
                  11
                  11
                  11
                  11
                  11
                  11
                  12
                  11
                  11
                  11
                  11
                  12
                  12
                  11
                  12
                  12
                  12
                  12
                  12
                  12
                  11
                  11
                  11
                  11
                  11
                  11
                  11
                  11
                  11
                  11
                  11
                  12
                  12
                  12
                  11
                  11
                  11
                  11
                  11
                  11
                  12
                  12
                  12
                  12
                  12
                  12
                  12
                  11
                  11
                  11
                  11
                  11
                  11
                  11
                  11
                  11
                  11
                  11
                  11
                  12
                  12
                  12
                  12
                  12
                  12
                  12
                  12
                  12
                  12
                  11
                  11
                  11
                  11
                  11
                  11
                  11
                  11
                  11
                  11
                  11
                  11
                  11
                  11
                  11
                  12
                  11
                  11
                  11
                  11
                  12
                  12
                  11
                  12
                  12
                  12
                  12
                  12
                  12
                  11
                  11
                  11
                  11
                  11
                  11
                  11
                  11
                  11
                  11
                  11
                  12
                  12
                  12
                  11
                  11
                  11
                  11
                  11
                  11
                  12
                  12
                  12
                  12
                  12
                  12
                  12
                  11
                  11
                  11
                  11
                  11
                  11
                  11
                  11
                  11
                  11
                  11
                  11
                  12
                  12
                  12
                  12
                  12
                  12
                  12
                  12
                  12
                  12
                  11
                  11
                  11
                  11
                  11
                  11
                  11
                  11
                  11
                  11
                  11
                  11
                  11
                  11
                  11
                  12
                  11
                  11
                  11
                  11
                  12
                  12
                  11
                  12
                  12
                  12
                  12
                  12
                  12
                  11
                  11
                  11
                  11
                  11
                  11
                  11
                  11
                  11
                  11
                  11
                  12
                  12
                  12
                  11
                  11
                  11
                  11
                  11
                  11
                  12
                  12
                  12
                  12
                  12
                  12
                  12
                  11
                  11
                  11
                  11
                  11
                  11
                  11
                  11
                  11
                  11
                  11
                  11
                  12
                  12
                  12
                  12
                  12
                  12
                  12
                  12
                  12
                  12
                  11
                  11
                  11
                  11
                  11
                  11
                  11
                  11
                  11
                  11
                  11
                  11
                  11
                  11
                  11
                  12
                  11
                  11
                  11
                  11
                  12
                  12
                  11
                  12
                  12
                  12
                  12
                  12
                  12
                  11
                  11
                  11
                  11
                  11
                  11
                  11
                  11
                  11
                  11
                  11
                  12
                  12
                  12
                  11
                  11
                  11
                  11
                  11
                  11
                  12
                  12
                  12
                  12
                  12
                  12
                  12
                  11
                  11
                  11
                  11
                  11
                  11
                  11
                  11
                  11
                  11
                  11
                  11
                  12
                  12
                  12
                  12
                  12
                  12
                  12
                  12
                  12
                  12
                  11
                  11
                  11
                  11
                  11
                  11
                  11
                  11
                  11
                  11
                  11
                  11
                  11
                  11
                  11
                  12
                  11
                  11
                  11
                  11
                  12
                  12
                  11
                  12
                  12
                  12
                  12
                  12
                  12
                  11
                  11
                  11
                  11
                  11
                  11
                  11
                  11
                  11
                  11
                  11
                  12
                  12
                  12
                  11
                  11
                  11
                  11
                  11
                  11
                  12
                  12
                  12
                  12
                  12
                  12
                  12
                  11
                  11
                  11
                  11
                  11
                  11
                  11
                  11
                  11
                  11
                  11
                  11
                  12
                  12
                  12
                  12
                  12
                  12
                  12
                  12
                  12
                  12
                  11
                  11
                  11
                  11
                  11
                  11
                  11
                  11
                  11
                  11
                  11
                  11
                  11
                  11
                  11
                  12
                  11
                  11
                  11
                  11
                  12
                  12
                  11
                  12
                  12
                  12
                  12
                  12
                  12
                  11
                  11
                  11
                  11
                  11
                  11
                  11
                  11
                  11
                  11
                  11
                  12
                  12
                  12
                  11
                  11
                  11
                  11
                  11
                  11
                  12
                  12
                  12
                  12
                  12
                  12
                  12
                  11
                  11
                  11
                  11
                  11
                  11
                  11
                  11
                  11
                  11
                  11
                  11
                  12
                  12
                  12
                  12
                  12
                  12
                  12
                  12
                  12
                  12
                  11
                  11
                  11
                  11
                  11
                  11
                  11
                  11
                  11
                  11
                  11
                  11
                  11
                  11
                  11
                  12
                  11
                  11
                  11
                  11
                  12
                  12
                  11
                  12
                  12
                  12
                  12
                  12
                  12
                  11
                  11
                  11
                  11
                  11
                  11
                  11
                  11
                  11
                  11
                  11
                  12
                  12
                  12
                  11
                  11
                  11
                  11
                  11
                  11
                  12
                  12
                  12
                  12
                  12
                  12
                  12
                  11
                  11
                  11
                  11
                  11
                  11
                  11
                  11
                  11
                  11
                  11
                  11
                  12
                  12
                  12
                  12
                  12
                  12
                  12
                  12
                  12
                  12
                  11
                  11
                  11
                  11
                  11
                  11
                  11
                  11
                  11
                  11
                  11
                  11
                  11
                  11
                  11
                  12
                  11
                  11
                  11
                  11
                  12
                  12
                  11
                  12
                  12
                  12
                  12
                  12
                  12
                  11
                  11
                  11
                  11
                  11
                  11
                  11
                  11
                  11
                  11
                  11
                  12
                  12
                  12
                  11
                  11
                  11
                  11
                  11
                  11
                  12
                  12
                  12
                  12
                  12
                  12
                  12
                  11
                  11
                  11
                  11
                  11
                  11
                  11
                  11
                  11
                  11
                  11
                  11
                  12
                  12
                  12
                  12
                  12
                  12
                  12
                  12
                  12
                  12
                  11
                  11
                  11
                  11
                  11
                  11
                  11
                  11
                  11
                  11
                  11
                  11
                  11
                  11
                  11
                  12
                  11
                  11
                  11
                  11
                  12
                  12
                  11
                  12
                  12
                  12
                  12
                  12
                  12
                  11
                  11
                  11
                  11
                  11
                  11
                  11
                  11
                  11
                  11
                  11
                  12
                  12
                  12
                  11
                  11
                  11
                  11
                  11
                  11
                  12
                  12
                  12
                  12
                  12
                  12
                  12
                  11
                  11
                  11
                  11
                  11
                  11
                  11
                  11
                  11
                  11
                  11
                  11
                  12
                  12
                  12
                  12
                  12
                  12
                  12
                  12
                  12
                  12
                  11
                  11
                  11
                  11
                  11
                  11
                  11
                  11
                  11
                  11
                  11
                  11
                  11
                  11
                  11
                  12
                  11
                  11
                  11
                  11
                  12
                  12
                  11
                  12
                  12
                  12
                  12
                  12
                  12
                  11
                  11
                  11
                  11
                  11
                  11
                  11
                  11
                  11
                  11
                  11
                  12
                  12
                  12
                  11
                  11
                  11
                  11
                  11
                  11
                  12
                  12
                  12
                  12
                  12
                  12
                  12
                  11
                  11
                  11
                  11
                  11
                  11
                  11
                  11
                  11
                  11
                  11
                  11
                  12
                  12
                  12
                  12
                  12
                  12
                  12
                  12
                  12
                  12
                  11
                  11
                  11
                  11
                  11
                  11
                  11
                  11
                  11
                  11
                  11
                  11
                  11
                  11
  
SCALARS                         Kspace  double 1
LOOKUP_TABLE default
                  11
                  11
                  11
                  11
                  11
                  11
                  11
                  11
                  11
                  11
                  11
                  11
                  11
                  11
                  11
                  11
                  11
                  11
                  11
                  11
                  11
                  11
                  11
                  11
                  11
                  11
                  11
                  11
                  11
                  11
                  11
                  11
                  11
                  11
                  11
                  11
                  11
                  11
                  11
                  11
                  11
                  11
                  11
                  11
                  11
                  11
                  11
                  11
                  11
                  11
                  11
                  11
                  11
                  11
                  11
                  11
                  11
                  11
                  11
                  11
                  11
                  11
                  11
                  11
                  11
                  11
                  11
                  11
                  11
                  11
                  11
                  11
                  11
                  11
                  11
                  11
                  11
                  11
                  11
                  11
                  11
                  11
                  11
                  11
                  11
                  11
                  11
                  11
                  11
                  11
                  11
                  11
                  11
                  11
                  11
                  11
                  11
                  11
                  11
                  11
                  11
                  11
                  11
                  11
                  11
                  11
                  11
                  11
                  11
                  11
                  11
                  11
                  11
                  11
                  11
                  11
                  11
                  11
                  11
                  11
                  11
                  11
                  11
                  11
                  11
                  11
                  11
                  11
                  11
                  11
                  11
                  11
                  11
                  11
                  11
                  11
                  11
                  11
                  11
                  11
                  11
                  11
                  11
                  11
                  11
                  11
                  11
                  11
                  11
                  11
                  11
                  11
                  11
                  11
                  11
                  11
                  11
                  11
                  11
                  11
                  11
                  11
                  11
                  11
                  11
                  11
                  11
                  11
                  11
                  11
                  11
                  11
                  11
                  11
                  11
                  11
                  11
                  11
                  11
                  11
                  11
                  11
                  11
                  11
                  11
                  11
                  11
                  11
                  11
                  11
                  11
                  11
                  11
                  11
                  11
                  11
                  11
                  11
                  11
                  11
                  11
                  11
                  11
                  11
                  11
                  11
                  11
                  11
                  11
                  11
                  11
                  11
                  11
                  11
                  11
                  11
                  11
                  11
                  11
                  11
                  11
                  11
                  11
                  11
                  11
                  11
                  11
                  11
                  11
                  11
                  11
                  11
                  11
                  11
                  11
                  11
                  11
                  11
                  11
                  11
                  11
                  11
                  11
                  11
                  11
                  11
                  11
                  11
                  11
                  11
                  11
                  11
                  11
                  11
                  11
                  11
                  11
                  11
                  11
                  11
                  11
                  11
                  11
                  11
                  11
                  11
                  11
                  11
                  11
                  11
                  11
                  11
                  11
                  11
                  11
                  11
                  11
                  11
                  11
                  11
                  11
                  11
                  11
                  11
                  11
                  11
                  11
                  11
                  11
                  11
                  11
                  11
                  11
                  11
                  11
                  11
                  11
                  11
                  11
                  11
                  11
                  11
                  11
                  11
                  11
                  11
                  11
                  11
                  11
                  11
                  11
                  11
                  12
                  12
                  12
                  12
                  12
                  12
                  12
                  12
                  12
                  12
                  12
                  12
                  12
                  12
                  12
                  12
                  12
                  12
                  12
                  12
                  12
                  12
                  12
                  12
                  12
                  12
                  12
                  12
                  12
                  12
                  12
                  12
                  12
                  12
                  12
                  12
                  12
                  12
                  12
                  12
                  12
                  12
                  12
                  12
                  12
                  12
                  12
                  12
                  12
                  12
                  12
                  12
                  12
                  12
                  12
                  12
                  12
                  12
                  12
                  12
                  12
                  12
                  12
                  12
                  12
                  12
                  12
                  12
                  12
                  12
                  12
                  12
                  12
                  12
                  12
                  12
                  12
                  12
                  12
                  12
                  12
                  12
                  12
                  12
                  12
                  12
                  12
                  12
                  12
                  12
                  12
                  12
                  12
                  12
                  12
                  12
                  12
                  12
                  12
                  12
                  12
                  12
                  12
                  12
                  12
                  12
                  12
                  12
                  12
                  12
                  12
                  12
                  12
                  12
                  12
                  12
                  12
                  12
                  12
                  12
                  12
                  12
                  12
                  12
                  12
                  12
                  12
                  12
                  12
                  12
                  12
                  12
                  12
                  12
                  12
                  12
                  12
                  12
                  12
                  12
                  12
                  12
                  12
                  12
                  12
                  12
                  12
                  12
                  12
                  12
                  12
                  12
                  12
                  12
                  12
                  12
                  12
                  12
                  12
                  12
                  12
                  12
                  12
                  12
                  12
                  12
                  12
                  12
                  12
                  12
                  12
                  12
                  12
                  12
                  12
                  12
                  12
                  12
                  12
                  12
                  12
                  12
                  12
                  12
                  12
                  12
                  12
                  12
                  12
                  12
                  12
                  12
                  12
                  12
                  12
                  12
                  12
                  12
                  12
                  12
                  12
                  12
                  12
                  12
                  12
                  12
                  12
                  12
                  12
                  12
                  12
                  12
                  12
                  12
                  12
                  12
                  12
                  12
                  12
                  12
                  12
                  12
                  12
                  12
                  12
                  12
                  12
                  12
                  12
                  12
                  12
                  12
                  12
                  12
                  13
                  13
                  13
                  13
                  13
                  13
                  13
                  13
                  13
                  13
                  13
                  13
                  13
                  13
                  13
                  13
                  13
                  13
                  13
                  13
                  13
                  13
                  13
                  13
                  13
                  13
                  13
                  13
                  13
                  13
                  13
                  13
                  13
                  13
                  13
                  13
                  13
                  13
                  13
                  13
                  13
                  13
                  13
                  13
                  13
                  13
                  13
                  13
                  13
                  13
                  13
                  13
                  13
                  13
                  13
                  13
                  13
                  13
                  13
                  13
                  13
                  13
                  13
                  13
                  13
                  13
                  13
                  13
                  13
                  13
                  13
                  13
                  13
                  13
                  13
                  13
                  13
                  13
                  13
                  13
                  13
                  13
                  13
                  13
                  13
                  13
                  13
                  13
                  13
                  13
                  13
                  13
                  13
                  13
                  13
                  13
                  13
                  13
                  13
                  13
                  13
                  13
                  13
                  13
                  13
                  13
                  13
                  13
                  13
                  13
                  13
                  13
                  13
                  13
                  13
                  13
                  13
                  13
                  13
                  13
                  13
                  13
                  13
                  13
                  13
                  13
                  13
                  13
                  13
                  13
                  13
                  13
                  13
                  13
                  13
                  13
                  13
                  13
                  13
                  13
                  13
                  13
                  13
                  13
                  13
                  13
                  13
                  13
                  13
                  13
                  13
                  13
                  13
                  13
                  13
                  13
                  13
                  13
                  13
                  13
                  13
                  13
                  13
                  13
                  13
                  13
                  13
                  13
                  13
                  13
                  13
                  13
                  13
                  13
                  13
                  13
                  13
                  13
                  13
                  13
                  13
                  13
                  13
                  13
                  13
                  13
                  13
                  13
                  13
                  13
                  13
                  13
                  13
                  13
                  13
                  13
                  13
                  13
                  13
                  13
                  13
                  13
                  13
                  13
                  13
                  13
                  13
                  13
                  13
                  13
                  13
                  13
                  13
                  13
                  13
                  13
                  13
                  13
                  13
                  13
                  13
                  13
                  13
                  13
                  13
                  13
                  13
                  13
                  13
                  13
                  13
                  13
                  13
                  13
                  14
                  14
                  14
                  14
                  14
                  14
                  14
                  14
                  14
                  14
                  14
                  14
                  14
                  14
                  14
                  14
                  14
                  14
                  14
                  14
                  14
                  14
                  14
                  14
                  14
                  14
                  14
                  14
                  14
                  14
                  14
                  14
                  14
                  14
                  14
                  14
                  14
                  14
                  14
                  14
                  14
                  14
                  14
                  14
                  14
                  14
                  14
                  14
                  14
                  14
                  14
                  14
                  14
                  14
                  14
                  14
                  14
                  14
                  14
                  14
                  14
                  14
                  14
                  14
                  14
                  14
                  14
                  14
                  14
                  14
                  14
                  14
                  14
                  14
                  14
                  14
                  14
                  14
                  14
                  14
                  14
                  14
                  14
                  14
                  14
                  14
                  14
                  14
                  14
                  14
                  14
                  14
                  14
                  14
                  14
                  14
                  14
                  14
                  14
                  14
                  14
                  14
                  14
                  14
                  14
                  14
                  14
                  14
                  14
                  14
                  14
                  14
                  14
                  14
                  14
                  14
                  14
                  14
                  14
                  14
                  14
                  14
                  14
                  14
                  14
                  14
                  14
                  14
                  14
                  14
                  14
                  14
                  14
                  14
                  14
                  14
                  14
                  14
                  14
                  14
                  14
                  14
                  14
                  14
                  14
                  14
                  14
                  14
                  14
                  14
                  14
                  14
                  14
                  14
                  14
                  14
                  14
                  14
                  14
                  14
                  14
                  14
                  14
                  14
                  14
                  14
                  14
                  14
                  14
                  14
                  14
                  14
                  14
                  14
                  14
                  14
                  14
                  14
                  14
                  14
                  14
                  14
                  14
                  14
                  14
                  14
                  14
                  14
                  14
                  14
                  14
                  14
                  14
                  14
                  14
                  14
                  14
                  14
                  14
                  14
                  14
                  14
                  14
                  14
                  14
                  14
                  14
                  14
                  14
                  14
                  14
                  14
                  14
                  14
                  14
                  14
                  14
                  14
                  14
                  14
                  14
                  14
                  14
                  14
                  14
                  14
                  14
                  14
                  14
                  14
                  14
                  14
                  14
                  14
                  15
                  15
                  15
                  15
                  15
                  15
                  15
                  15
                  15
                  15
                  15
                  15
                  15
                  15
                  15
                  15
                  15
                  15
                  15
                  15
                  15
                  15
                  15
                  15
                  15
                  15
                  15
                  15
                  15
                  15
                  15
                  15
                  15
                  15
                  15
                  15
                  15
                  15
                  15
                  15
                  15
                  15
                  15
                  15
                  15
                  15
                  15
                  15
                  15
                  15
                  15
                  15
                  15
                  15
                  15
                  15
                  15
                  15
                  15
                  15
                  15
                  15
                  15
                  15
                  15
                  15
                  15
                  15
                  15
                  15
                  15
                  15
                  15
                  15
                  15
                  15
                  15
                  15
                  15
                  15
                  15
                  15
                  15
                  15
                  15
                  15
                  15
                  15
                  15
                  15
                  15
                  15
                  15
                  15
                  15
                  15
                  15
                  15
                  15
                  15
                  15
                  15
                  15
                  15
                  15
                  15
                  15
                  15
                  15
                  15
                  15
                  15
                  15
                  15
                  15
                  15
                  15
                  15
                  15
                  15
                  15
                  15
                  15
                  15
                  15
                  15
                  15
                  15
                  15
                  15
                  15
                  15
                  15
                  15
                  15
                  15
                  15
                  15
                  15
                  15
                  15
                  15
                  15
                  15
                  15
                  15
                  15
                  15
                  15
                  15
                  15
                  15
                  15
                  15
                  15
                  15
                  15
                  15
                  15
                  15
                  15
                  15
                  15
                  15
                  15
                  15
                  15
                  15
                  15
                  15
                  15
                  15
                  15
                  15
                  15
                  15
                  15
                  15
                  15
                  15
                  15
                  15
                  15
                  15
                  15
                  15
                  15
                  15
                  15
                  15
                  15
                  15
                  15
                  15
                  15
                  15
                  15
                  15
                  15
                  15
                  15
                  15
                  15
                  15
                  15
                  15
                  15
                  15
                  15
                  15
                  15
                  15
                  15
                  15
                  15
                  15
                  15
                  15
                  15
                  15
                  15
                  15
                  15
                  15
                  15
                  15
                  15
                  15
                  15
                  15
                  15
                  15
                  15
                  15
                  15
                  15
                  15
                  15
                  15
                  15
                  15
                  15
                  15
                  15
                  15
                  15
                  15
                  15
                  15
                  15
                  15
                  15
                  15
                  15
                  15
                  15
                  15
                  15
                  15
                  15
                  15
                  15
                  15
                  15
                  15
                  15
                  15
                  15
                  15
                  15
                  15
                  15
                  15
                  15
                  15
                  15
                  15
                  15
                  15
                  15
                  15
                  15
                  15
                  15
                  15
                  15
                  15
                  15
                  15
                  15
                  15
                  15
                  15
                  15
                  15
                  15
                  15
                  15
                  15
                  15
                  15
                  15
                  15
                  15
                  15
                  15
                  15
                  15
                  15
                  15
                  15
                  15
                  16
                  16
                  16
                  16
                  16
                  16
                  16
                  16
                  16
                  16
                  16
                  16
                  16
                  16
                  16
                  16
                  16
                  16
                  16
                  16
                  16
                  16
                  16
                  16
                  16
                  16
                  16
                  16
                  16
                  16
                  16
                  16
                  16
                  16
                  16
                  16
                  16
                  16
                  16
                  16
                  16
                  16
                  16
                  16
                  16
                  16
                  16
                  16
                  16
                  16
                  16
                  16
                  16
                  16
                  16
                  16
                  16
                  16
                  16
                  16
                  16
                  16
                  16
                  16
                  16
                  16
                  16
                  16
                  16
                  16
                  16
                  16
                  16
                  16
                  16
                  16
                  16
                  16
                  16
                  16
                  16
                  16
                  16
                  16
                  16
                  16
                  16
                  16
                  16
                  16
                  16
                  16
                  16
                  16
                  16
                  16
                  16
                  16
                  16
                  16
                  16
                  16
                  16
                  16
                  16
                  16
                  16
                  16
                  16
                  16
                  16
                  16
                  16
                  16
                  16
                  16
                  16
                  16
                  16
                  16
                  16
                  16
                  16
                  16
                  16
                  16
                  16
                  16
                  16
                  16
                  16
                  16
                  16
                  16
                  16
                  16
                  16
                  16
                  16
                  16
                  16
                  16
                  16
                  16
                  16
                  16
                  16
                  16
                  16
                  16
                  16
                  16
                  16
                  16
                  16
                  16
                  16
                  16
                  16
                  16
                  16
                  16
                  16
                  16
                  16
                  16
                  16
                  16
                  16
                  16
                  16
                  16
                  16
                  16
                  16
                  16
                  16
                  16
                  16
                  16
                  16
                  16
                  16
                  16
                  16
                  16
                  16
                  16
                  16
                  16
                  16
                  16
                  16
                  16
                  16
                  16
                  16
                  16
                  16
                  16
                  16
                  16
                  16
                  16
                  16
                  16
                  16
                  16
                  16
                  16
                  16
                  16
                  16
                  16
                  16
                  16
                  16
                  16
                  16
                  16
                  16
                  16
                  16
                  16
                  16
                  16
                  16
                  16
                  16
                  16
                  16
                  16
                  16
                  16
                  17
                  17
                  17
                  17
                  17
                  17
                  17
                  17
                  17
                  17
                  17
                  17
                  17
                  17
                  17
                  17
                  17
                  17
                  17
                  17
                  17
                  17
                  17
                  17
                  17
                  17
                  17
                  17
                  17
                  17
                  17
                  17
                  17
                  17
                  17
                  17
                  17
                  17
                  17
                  17
                  17
                  17
                  17
                  17
                  17
                  17
                  17
                  17
                  17
                  17
                  17
                  17
                  17
                  17
                  17
                  17
                  17
                  17
                  17
                  17
                  17
                  17
                  17
                  17
                  17
                  17
                  17
                  17
                  17
                  17
                  17
                  17
                  17
                  17
                  17
                  17
                  17
                  17
                  17
                  17
                  17
                  17
                  17
                  17
                  17
                  17
                  17
                  17
                  17
                  17
                  17
                  17
                  17
                  17
                  17
                  17
                  17
                  17
                  17
                  17
                  17
                  17
                  17
                  17
                  17
                  17
                  17
                  17
                  17
                  17
                  17
                  17
                  17
                  17
                  17
                  17
                  17
                  17
                  17
                  17
                  17
                  17
                  17
                  17
                  17
                  17
                  17
                  17
                  17
                  17
                  17
                  17
                  17
                  17
                  17
                  17
                  17
                  17
                  17
                  17
                  17
                  17
                  17
                  17
                  17
                  17
                  17
                  17
                  17
                  17
                  17
                  17
                  17
                  17
                  17
                  17
                  17
                  17
                  17
                  17
                  17
                  17
                  17
                  17
                  17
                  17
                  17
                  17
                  17
                  17
                  17
                  17
                  17
                  17
                  17
                  17
                  17
                  17
                  17
                  17
                  17
                  17
                  17
                  17
                  17
                  17
                  17
                  17
                  17
                  17
                  17
                  17
                  17
                  17
                  17
                  17
                  17
                  17
                  17
                  17
                  17
                  17
                  17
                  17
                  17
                  17
                  17
                  17
                  17
                  17
                  17
                  17
                  17
                  17
                  17
                  17
                  17
                  17
                  17
                  17
                  17
                  17
                  17
                  17
                  17
                  17
                  17
                  17
                  17
                  17
                  17
                  17
                  17
                  17
                  18
                  18
                  18
                  18
                  18
                  18
                  18
                  18
                  18
                  18
                  18
                  18
                  18
                  18
                  18
                  18
                  18
                  18
                  18
                  18
                  18
                  18
                  18
                  18
                  18
                  18
                  18
                  18
                  18
                  18
                  18
                  18
                  18
                  18
                  18
                  18
                  18
                  18
                  18
                  18
                  18
                  18
                  18
                  18
                  18
                  18
                  18
                  18
                  18
                  18
                  18
                  18
                  18
                  18
                  18
                  18
                  18
                  18
                  18
                  18
                  18
                  18
                  18
                  18
                  18
                  18
                  18
                  18
                  18
                  18
                  18
                  18
                  18
                  18
                  18
                  18
                  18
                  18
                  18
                  18
                  18
                  18
                  18
                  18
                  18
                  18
                  18
                  18
                  18
                  18
                  18
                  18
                  18
                  18
                  18
                  18
                  18
                  18
                  18
                  18
                  18
                  18
                  18
                  18
                  18
                  18
                  18
                  18
                  18
                  18
                  18
                  18
                  18
                  18
                  18
                  18
                  18
                  18
                  18
                  18
                  18
                  18
                  18
                  18
                  18
                  18
                  18
                  18
                  18
                  18
                  18
                  18
                  18
                  18
                  18
                  18
                  18
                  18
                  18
                  18
                  18
                  18
                  18
                  18
                  18
                  18
                  18
                  18
                  18
                  18
                  18
                  18
                  18
                  18
                  18
                  18
  
SCALARS                 displacement_x  double 1
LOOKUP_TABLE default
         0.00000E+00
         0.00000E+00
         0.00000E+00
         0.00000E+00
         0.00000E+00
         0.00000E+00
         0.00000E+00
         0.00000E+00
         0.00000E+00
         0.00000E+00
         0.00000E+00
         0.00000E+00
         0.00000E+00
         0.00000E+00
         0.00000E+00
         0.00000E+00
         0.00000E+00
         0.00000E+00
         0.00000E+00
         0.00000E+00
         0.00000E+00
         0.00000E+00
         0.00000E+00
         0.00000E+00
         0.00000E+00
         0.00000E+00
         0.00000E+00
         0.00000E+00
         0.00000E+00
         0.00000E+00
         0.00000E+00
         0.00000E+00
         0.00000E+00
         0.00000E+00
         0.00000E+00
         0.00000E+00
         0.00000E+00
         0.00000E+00
         0.00000E+00
         0.00000E+00
         0.00000E+00
         0.00000E+00
         0.00000E+00
         0.00000E+00
         0.00000E+00
         0.00000E+00
         0.00000E+00
         0.00000E+00
         0.00000E+00
         0.00000E+00
         0.00000E+00
         0.00000E+00
         0.00000E+00
         0.00000E+00
         0.00000E+00
         0.00000E+00
         0.00000E+00
         0.00000E+00
         0.00000E+00
         0.00000E+00
         0.00000E+00
         0.00000E+00
         0.00000E+00
         0.00000E+00
         0.00000E+00
         0.00000E+00
         0.00000E+00
         0.00000E+00
         0.00000E+00
         0.00000E+00
         0.00000E+00
         0.00000E+00
         0.00000E+00
         0.00000E+00
         0.00000E+00
         0.00000E+00
         0.00000E+00
         0.00000E+00
         0.00000E+00
         0.00000E+00
         0.00000E+00
         0.00000E+00
         0.00000E+00
         0.00000E+00
         0.00000E+00
         0.00000E+00
         0.00000E+00
         0.00000E+00
         0.00000E+00
         0.00000E+00
         0.00000E+00
         0.00000E+00
         0.00000E+00
         0.00000E+00
         0.00000E+00
         0.00000E+00
         0.00000E+00
         0.00000E+00
         0.00000E+00
         0.00000E+00
         0.00000E+00
         0.00000E+00
         0.00000E+00
         0.00000E+00
         0.00000E+00
         0.00000E+00
         0.00000E+00
         0.00000E+00
         0.00000E+00
         0.00000E+00
         0.00000E+00
         0.00000E+00
         0.00000E+00
         0.00000E+00
         0.00000E+00
         0.00000E+00
         0.00000E+00
         0.00000E+00
         0.00000E+00
         0.00000E+00
         0.00000E+00
         0.00000E+00
         0.00000E+00
         0.00000E+00
         0.00000E+00
         0.00000E+00
         0.00000E+00
         0.00000E+00
         0.00000E+00
         0.00000E+00
         0.00000E+00
         0.00000E+00
         0.00000E+00
         0.00000E+00
         0.00000E+00
         0.00000E+00
         0.00000E+00
         0.00000E+00
         0.00000E+00
         0.00000E+00
         0.00000E+00
         0.00000E+00
         0.00000E+00
         0.00000E+00
         0.00000E+00
         0.00000E+00
         0.00000E+00
         0.00000E+00
         0.00000E+00
         0.00000E+00
         0.00000E+00
         0.00000E+00
         0.00000E+00
         0.00000E+00
         0.00000E+00
         0.00000E+00
         0.00000E+00
         0.00000E+00
         0.00000E+00
         0.00000E+00
         0.00000E+00
         0.00000E+00
         0.00000E+00
         0.00000E+00
         0.00000E+00
         0.00000E+00
         0.00000E+00
         0.00000E+00
         0.00000E+00
         0.00000E+00
         0.00000E+00
         0.00000E+00
         0.00000E+00
         0.00000E+00
         0.00000E+00
         0.00000E+00
         0.00000E+00
         0.00000E+00
         0.00000E+00
         0.00000E+00
         0.00000E+00
         0.00000E+00
         0.00000E+00
         0.00000E+00
         0.00000E+00
         0.00000E+00
         0.00000E+00
         0.00000E+00
         0.00000E+00
         0.00000E+00
         0.00000E+00
         0.00000E+00
         0.00000E+00
         0.00000E+00
         0.00000E+00
         0.00000E+00
         0.00000E+00
         0.00000E+00
         0.00000E+00
         0.00000E+00
         0.00000E+00
         0.00000E+00
         0.00000E+00
         0.00000E+00
         0.00000E+00
         0.00000E+00
         0.00000E+00
         0.00000E+00
         0.00000E+00
         0.00000E+00
         0.00000E+00
         0.00000E+00
         0.00000E+00
         0.00000E+00
         0.00000E+00
         0.00000E+00
         0.00000E+00
         0.00000E+00
         0.00000E+00
         0.00000E+00
         0.00000E+00
         0.00000E+00
         0.00000E+00
         0.00000E+00
         0.00000E+00
         0.00000E+00
         0.00000E+00
         0.00000E+00
         0.00000E+00
         0.00000E+00
         0.00000E+00
         0.00000E+00
         0.00000E+00
         0.00000E+00
         0.00000E+00
         0.00000E+00
         0.00000E+00
         0.00000E+00
         0.00000E+00
         0.00000E+00
         0.00000E+00
         0.00000E+00
         0.00000E+00
         0.00000E+00
         0.00000E+00
         0.00000E+00
         0.00000E+00
         0.00000E+00
         0.00000E+00
         0.00000E+00
         0.00000E+00
         0.00000E+00
         0.00000E+00
         0.00000E+00
         0.00000E+00
         0.00000E+00
         0.00000E+00
         0.00000E+00
         0.00000E+00
         0.00000E+00
         0.00000E+00
         0.00000E+00
         0.00000E+00
         0.00000E+00
         0.00000E+00
         0.00000E+00
         0.00000E+00
         0.00000E+00
         0.00000E+00
         0.00000E+00
         0.00000E+00
         0.00000E+00
         0.00000E+00
         0.00000E+00
         0.00000E+00
         0.00000E+00
         0.00000E+00
         0.00000E+00
         0.00000E+00
         0.00000E+00
         0.00000E+00
         0.00000E+00
         0.00000E+00
         0.00000E+00
         0.00000E+00
         0.00000E+00
         0.00000E+00
         0.00000E+00
         0.00000E+00
         0.00000E+00
         0.00000E+00
         0.00000E+00
         0.00000E+00
         0.00000E+00
         0.00000E+00
         0.00000E+00
         0.00000E+00
         0.00000E+00
         0.00000E+00
         0.00000E+00
         0.00000E+00
         0.00000E+00
         0.00000E+00
         0.00000E+00
         0.00000E+00
         0.00000E+00
         0.00000E+00
         0.00000E+00
         0.00000E+00
         0.00000E+00
         0.00000E+00
         0.00000E+00
         0.00000E+00
         0.00000E+00
         0.00000E+00
         0.00000E+00
         0.00000E+00
         0.00000E+00
         0.00000E+00
         0.00000E+00
         0.00000E+00
         0.00000E+00
         0.00000E+00
         0.00000E+00
         0.00000E+00
         0.00000E+00
         0.00000E+00
         0.00000E+00
         0.00000E+00
         0.00000E+00
         0.00000E+00
         0.00000E+00
         0.00000E+00
         0.00000E+00
         0.00000E+00
         0.00000E+00
         0.00000E+00
         0.00000E+00
         0.00000E+00
         0.00000E+00
         0.00000E+00
         0.00000E+00
         0.00000E+00
         0.00000E+00
         0.00000E+00
         0.00000E+00
         0.00000E+00
         0.00000E+00
         0.00000E+00
         0.00000E+00
         0.00000E+00
         0.00000E+00
         0.00000E+00
         0.00000E+00
         0.00000E+00
         0.00000E+00
         0.00000E+00
         0.00000E+00
         0.00000E+00
         0.00000E+00
         0.00000E+00
         0.00000E+00
         0.00000E+00
         0.00000E+00
         0.00000E+00
         0.00000E+00
         0.00000E+00
         0.00000E+00
         0.00000E+00
         0.00000E+00
         0.00000E+00
         0.00000E+00
         0.00000E+00
         0.00000E+00
         0.00000E+00
         0.00000E+00
         0.00000E+00
         0.00000E+00
         0.00000E+00
         0.00000E+00
         0.00000E+00
         0.00000E+00
         0.00000E+00
         0.00000E+00
         0.00000E+00
         0.00000E+00
         0.00000E+00
         0.00000E+00
         0.00000E+00
         0.00000E+00
         0.00000E+00
         0.00000E+00
         0.00000E+00
         0.00000E+00
         0.00000E+00
         0.00000E+00
         0.00000E+00
         0.00000E+00
         0.00000E+00
         0.00000E+00
         0.00000E+00
         0.00000E+00
         0.00000E+00
         0.00000E+00
         0.00000E+00
         0.00000E+00
         0.00000E+00
         0.00000E+00
         0.00000E+00
         0.00000E+00
         0.00000E+00
         0.00000E+00
         0.00000E+00
         0.00000E+00
         0.00000E+00
         0.00000E+00
         0.00000E+00
         0.00000E+00
         0.00000E+00
         0.00000E+00
         0.00000E+00
         0.00000E+00
         0.00000E+00
         0.00000E+00
         0.00000E+00
         0.00000E+00
         0.00000E+00
         0.00000E+00
         0.00000E+00
         0.00000E+00
         0.00000E+00
         0.00000E+00
         0.00000E+00
         0.00000E+00
         0.00000E+00
         0.00000E+00
         0.00000E+00
         0.00000E+00
         0.00000E+00
         0.00000E+00
         0.00000E+00
         0.00000E+00
         0.00000E+00
         0.00000E+00
         0.00000E+00
         0.00000E+00
         0.00000E+00
         0.00000E+00
         0.00000E+00
         0.00000E+00
         0.00000E+00
         0.00000E+00
         0.00000E+00
         0.00000E+00
         0.00000E+00
         0.00000E+00
         0.00000E+00
         0.00000E+00
         0.00000E+00
         0.00000E+00
         0.00000E+00
         0.00000E+00
         0.00000E+00
         0.00000E+00
         0.00000E+00
         0.00000E+00
         0.00000E+00
         0.00000E+00
         0.00000E+00
         0.00000E+00
         0.00000E+00
         0.00000E+00
         0.00000E+00
         0.00000E+00
         0.00000E+00
         0.00000E+00
         0.00000E+00
         0.00000E+00
         0.00000E+00
         0.00000E+00
         0.00000E+00
         0.00000E+00
         0.00000E+00
         0.00000E+00
         0.00000E+00
         0.00000E+00
         0.00000E+00
         0.00000E+00
         0.00000E+00
         0.00000E+00
         0.00000E+00
         0.00000E+00
         0.00000E+00
         0.00000E+00
         0.00000E+00
         0.00000E+00
         0.00000E+00
         0.00000E+00
         0.00000E+00
         0.00000E+00
         0.00000E+00
         0.00000E+00
         0.00000E+00
         0.00000E+00
         0.00000E+00
         0.00000E+00
         0.00000E+00
         0.00000E+00
         0.00000E+00
         0.00000E+00
         0.00000E+00
         0.00000E+00
         0.00000E+00
         0.00000E+00
         0.00000E+00
         0.00000E+00
         0.00000E+00
         0.00000E+00
         0.00000E+00
         0.00000E+00
         0.00000E+00
         0.00000E+00
         0.00000E+00
         0.00000E+00
         0.00000E+00
         0.00000E+00
         0.00000E+00
         0.00000E+00
         0.00000E+00
         0.00000E+00
         0.00000E+00
         0.00000E+00
         0.00000E+00
         0.00000E+00
         0.00000E+00
         0.00000E+00
         0.00000E+00
         0.00000E+00
         0.00000E+00
         0.00000E+00
         0.00000E+00
         0.00000E+00
         0.00000E+00
         0.00000E+00
         0.00000E+00
         0.00000E+00
         0.00000E+00
         0.00000E+00
         0.00000E+00
         0.00000E+00
         0.00000E+00
         0.00000E+00
         0.00000E+00
         0.00000E+00
         0.00000E+00
         0.00000E+00
         0.00000E+00
         0.00000E+00
         0.00000E+00
         0.00000E+00
         0.00000E+00
         0.00000E+00
         0.00000E+00
         0.00000E+00
         0.00000E+00
         0.00000E+00
         0.00000E+00
         0.00000E+00
         0.00000E+00
         0.00000E+00
         0.00000E+00
         0.00000E+00
         0.00000E+00
         0.00000E+00
         0.00000E+00
         0.00000E+00
         0.00000E+00
         0.00000E+00
         0.00000E+00
         0.00000E+00
         0.00000E+00
         0.00000E+00
         0.00000E+00
         0.00000E+00
         0.00000E+00
         0.00000E+00
         0.00000E+00
         0.00000E+00
         0.00000E+00
         0.00000E+00
         0.00000E+00
         0.00000E+00
         0.00000E+00
         0.00000E+00
         0.00000E+00
         0.00000E+00
         0.00000E+00
         0.00000E+00
         0.00000E+00
         0.00000E+00
         0.00000E+00
         0.00000E+00
         0.00000E+00
         0.00000E+00
         0.00000E+00
         0.00000E+00
         0.00000E+00
         0.00000E+00
         0.00000E+00
         0.00000E+00
         0.00000E+00
         0.00000E+00
         0.00000E+00
         0.00000E+00
         0.00000E+00
         0.00000E+00
         0.00000E+00
         0.00000E+00
         0.00000E+00
         0.00000E+00
         0.00000E+00
         0.00000E+00
         0.00000E+00
         0.00000E+00
         0.00000E+00
         0.00000E+00
         0.00000E+00
         0.00000E+00
         0.00000E+00
         0.00000E+00
         0.00000E+00
         0.00000E+00
         0.00000E+00
         0.00000E+00
         0.00000E+00
         0.00000E+00
         0.00000E+00
         0.00000E+00
         0.00000E+00
         0.00000E+00
         0.00000E+00
         0.00000E+00
         0.00000E+00
         0.00000E+00
         0.00000E+00
         0.00000E+00
         0.00000E+00
         0.00000E+00
         0.00000E+00
         0.00000E+00
         0.00000E+00
         0.00000E+00
         0.00000E+00
         0.00000E+00
         0.00000E+00
         0.00000E+00
         0.00000E+00
         0.00000E+00
         0.00000E+00
         0.00000E+00
         0.00000E+00
         0.00000E+00
         0.00000E+00
         0.00000E+00
         0.00000E+00
         0.00000E+00
         0.00000E+00
         0.00000E+00
         0.00000E+00
         0.00000E+00
         0.00000E+00
         0.00000E+00
         0.00000E+00
         0.00000E+00
         0.00000E+00
         0.00000E+00
         0.00000E+00
         0.00000E+00
         0.00000E+00
         0.00000E+00
         0.00000E+00
         0.00000E+00
         0.00000E+00
         0.00000E+00
         0.00000E+00
         0.00000E+00
         0.00000E+00
         0.00000E+00
         0.00000E+00
         0.00000E+00
         0.00000E+00
         0.00000E+00
         0.00000E+00
         0.00000E+00
         0.00000E+00
         0.00000E+00
         0.00000E+00
         0.00000E+00
         0.00000E+00
         0.00000E+00
         0.00000E+00
         0.00000E+00
         0.00000E+00
         0.00000E+00
         0.00000E+00
         0.00000E+00
         0.00000E+00
         0.00000E+00
         0.00000E+00
         0.00000E+00
         0.00000E+00
         0.00000E+00
         0.00000E+00
         0.00000E+00
         0.00000E+00
         0.00000E+00
         0.00000E+00
         0.00000E+00
         0.00000E+00
         0.00000E+00
         0.00000E+00
         0.00000E+00
         0.00000E+00
         0.00000E+00
         0.00000E+00
         0.00000E+00
         0.00000E+00
         0.00000E+00
         0.00000E+00
         0.00000E+00
         0.00000E+00
         0.00000E+00
         0.00000E+00
         0.00000E+00
         0.00000E+00
         0.00000E+00
         0.00000E+00
         0.00000E+00
         0.00000E+00
         0.00000E+00
         0.00000E+00
         0.00000E+00
         0.00000E+00
         0.00000E+00
         0.00000E+00
         0.00000E+00
         0.00000E+00
         0.00000E+00
         0.00000E+00
         0.00000E+00
         0.00000E+00
         0.00000E+00
         0.00000E+00
         0.00000E+00
         0.00000E+00
         0.00000E+00
         0.00000E+00
         0.00000E+00
         0.00000E+00
         0.00000E+00
         0.00000E+00
         0.00000E+00
         0.00000E+00
         0.00000E+00
         0.00000E+00
         0.00000E+00
         0.00000E+00
         0.00000E+00
         0.00000E+00
         0.00000E+00
         0.00000E+00
         0.00000E+00
         0.00000E+00
         0.00000E+00
         0.00000E+00
         0.00000E+00
         0.00000E+00
         0.00000E+00
         0.00000E+00
         0.00000E+00
         0.00000E+00
         0.00000E+00
         0.00000E+00
         0.00000E+00
         0.00000E+00
         0.00000E+00
         0.00000E+00
         0.00000E+00
         0.00000E+00
         0.00000E+00
         0.00000E+00
         0.00000E+00
         0.00000E+00
         0.00000E+00
         0.00000E+00
         0.00000E+00
         0.00000E+00
         0.00000E+00
         0.00000E+00
         0.00000E+00
         0.00000E+00
         0.00000E+00
         0.00000E+00
         0.00000E+00
         0.00000E+00
         0.00000E+00
         0.00000E+00
         0.00000E+00
         0.00000E+00
         0.00000E+00
         0.00000E+00
         0.00000E+00
         0.00000E+00
         0.00000E+00
         0.00000E+00
         0.00000E+00
         0.00000E+00
         0.00000E+00
         0.00000E+00
         0.00000E+00
         0.00000E+00
         0.00000E+00
         0.00000E+00
         0.00000E+00
         0.00000E+00
         0.00000E+00
         0.00000E+00
         0.00000E+00
         0.00000E+00
         0.00000E+00
         0.00000E+00
         0.00000E+00
         0.00000E+00
         0.00000E+00
         0.00000E+00
         0.00000E+00
         0.00000E+00
         0.00000E+00
         0.00000E+00
         0.00000E+00
         0.00000E+00
         0.00000E+00
         0.00000E+00
         0.00000E+00
         0.00000E+00
         0.00000E+00
         0.00000E+00
         0.00000E+00
         0.00000E+00
         0.00000E+00
         0.00000E+00
         0.00000E+00
         0.00000E+00
         0.00000E+00
         0.00000E+00
         0.00000E+00
         0.00000E+00
         0.00000E+00
         0.00000E+00
         0.00000E+00
         0.00000E+00
         0.00000E+00
         0.00000E+00
         0.00000E+00
         0.00000E+00
         0.00000E+00
         0.00000E+00
         0.00000E+00
         0.00000E+00
         0.00000E+00
         0.00000E+00
         0.00000E+00
         0.00000E+00
         0.00000E+00
         0.00000E+00
         0.00000E+00
         0.00000E+00
         0.00000E+00
         0.00000E+00
         0.00000E+00
         0.00000E+00
         0.00000E+00
         0.00000E+00
         0.00000E+00
         0.00000E+00
         0.00000E+00
         0.00000E+00
         0.00000E+00
         0.00000E+00
         0.00000E+00
         0.00000E+00
         0.00000E+00
         0.00000E+00
         0.00000E+00
         0.00000E+00
         0.00000E+00
         0.00000E+00
         0.00000E+00
         0.00000E+00
         0.00000E+00
         0.00000E+00
         0.00000E+00
         0.00000E+00
         0.00000E+00
         0.00000E+00
         0.00000E+00
         0.00000E+00
         0.00000E+00
         0.00000E+00
         0.00000E+00
         0.00000E+00
         0.00000E+00
         0.00000E+00
         0.00000E+00
         0.00000E+00
         0.00000E+00
         0.00000E+00
         0.00000E+00
         0.00000E+00
         0.00000E+00
         0.00000E+00
         0.00000E+00
         0.00000E+00
         0.00000E+00
         0.00000E+00
         0.00000E+00
         0.00000E+00
         0.00000E+00
         0.00000E+00
         0.00000E+00
         0.00000E+00
         0.00000E+00
         0.00000E+00
         0.00000E+00
         0.00000E+00
         0.00000E+00
         0.00000E+00
         0.00000E+00
         0.00000E+00
         0.00000E+00
         0.00000E+00
         0.00000E+00
         0.00000E+00
         0.00000E+00
         0.00000E+00
         0.00000E+00
         0.00000E+00
         0.00000E+00
         0.00000E+00
         0.00000E+00
         0.00000E+00
         0.00000E+00
         0.00000E+00
         0.00000E+00
         0.00000E+00
         0.00000E+00
         0.00000E+00
         0.00000E+00
         0.00000E+00
         0.00000E+00
         0.00000E+00
         0.00000E+00
         0.00000E+00
         0.00000E+00
         0.00000E+00
         0.00000E+00
         0.00000E+00
         0.00000E+00
         0.00000E+00
         0.00000E+00
         0.00000E+00
         0.00000E+00
         0.00000E+00
         0.00000E+00
         0.00000E+00
         0.00000E+00
         0.00000E+00
         0.00000E+00
         0.00000E+00
         0.00000E+00
         0.00000E+00
         0.00000E+00
         0.00000E+00
         0.00000E+00
         0.00000E+00
         0.00000E+00
         0.00000E+00
         0.00000E+00
         0.00000E+00
         0.00000E+00
         0.00000E+00
         0.00000E+00
         0.00000E+00
         0.00000E+00
         0.00000E+00
         0.00000E+00
         0.00000E+00
         0.00000E+00
         0.00000E+00
         0.00000E+00
         0.00000E+00
         0.00000E+00
         0.00000E+00
         0.00000E+00
         0.00000E+00
         0.00000E+00
         0.00000E+00
         0.00000E+00
         0.00000E+00
         0.00000E+00
         0.00000E+00
         0.00000E+00
         0.00000E+00
         0.00000E+00
         0.00000E+00
         0.00000E+00
         0.00000E+00
         0.00000E+00
         0.00000E+00
         0.00000E+00
         0.00000E+00
         0.00000E+00
         0.00000E+00
         0.00000E+00
         0.00000E+00
         0.00000E+00
         0.00000E+00
         0.00000E+00
         0.00000E+00
         0.00000E+00
         0.00000E+00
         0.00000E+00
         0.00000E+00
         0.00000E+00
         0.00000E+00
         0.00000E+00
         0.00000E+00
         0.00000E+00
         0.00000E+00
         0.00000E+00
         0.00000E+00
         0.00000E+00
         0.00000E+00
         0.00000E+00
         0.00000E+00
         0.00000E+00
         0.00000E+00
         0.00000E+00
         0.00000E+00
         0.00000E+00
         0.00000E+00
         0.00000E+00
         0.00000E+00
         0.00000E+00
         0.00000E+00
         0.00000E+00
         0.00000E+00
         0.00000E+00
         0.00000E+00
         0.00000E+00
         0.00000E+00
         0.00000E+00
         0.00000E+00
         0.00000E+00
         0.00000E+00
         0.00000E+00
         0.00000E+00
         0.00000E+00
         0.00000E+00
         0.00000E+00
         0.00000E+00
         0.00000E+00
         0.00000E+00
         0.00000E+00
         0.00000E+00
         0.00000E+00
         0.00000E+00
         0.00000E+00
         0.00000E+00
         0.00000E+00
         0.00000E+00
         0.00000E+00
         0.00000E+00
         0.00000E+00
         0.00000E+00
         0.00000E+00
         0.00000E+00
         0.00000E+00
         0.00000E+00
         0.00000E+00
         0.00000E+00
         0.00000E+00
         0.00000E+00
         0.00000E+00
         0.00000E+00
         0.00000E+00
         0.00000E+00
         0.00000E+00
         0.00000E+00
         0.00000E+00
         0.00000E+00
         0.00000E+00
         0.00000E+00
         0.00000E+00
         0.00000E+00
         0.00000E+00
         0.00000E+00
         0.00000E+00
         0.00000E+00
         0.00000E+00
         0.00000E+00
         0.00000E+00
         0.00000E+00
         0.00000E+00
         0.00000E+00
         0.00000E+00
         0.00000E+00
         0.00000E+00
         0.00000E+00
         0.00000E+00
         0.00000E+00
         0.00000E+00
         0.00000E+00
         0.00000E+00
         0.00000E+00
         0.00000E+00
         0.00000E+00
         0.00000E+00
         0.00000E+00
         0.00000E+00
         0.00000E+00
         0.00000E+00
         0.00000E+00
         0.00000E+00
         0.00000E+00
         0.00000E+00
         0.00000E+00
         0.00000E+00
         0.00000E+00
         0.00000E+00
         0.00000E+00
         0.00000E+00
         0.00000E+00
         0.00000E+00
         0.00000E+00
         0.00000E+00
         0.00000E+00
         0.00000E+00
         0.00000E+00
         0.00000E+00
         0.00000E+00
         0.00000E+00
         0.00000E+00
         0.00000E+00
         0.00000E+00
         0.00000E+00
         0.00000E+00
         0.00000E+00
         0.00000E+00
         0.00000E+00
         0.00000E+00
         0.00000E+00
         0.00000E+00
         0.00000E+00
         0.00000E+00
         0.00000E+00
         0.00000E+00
         0.00000E+00
         0.00000E+00
         0.00000E+00
         0.00000E+00
         0.00000E+00
         0.00000E+00
         0.00000E+00
         0.00000E+00
         0.00000E+00
         0.00000E+00
         0.00000E+00
         0.00000E+00
         0.00000E+00
         0.00000E+00
         0.00000E+00
         0.00000E+00
         0.00000E+00
         0.00000E+00
         0.00000E+00
         0.00000E+00
         0.00000E+00
         0.00000E+00
         0.00000E+00
         0.00000E+00
         0.00000E+00
         0.00000E+00
         0.00000E+00
         0.00000E+00
         0.00000E+00
         0.00000E+00
         0.00000E+00
         0.00000E+00
         0.00000E+00
         0.00000E+00
         0.00000E+00
         0.00000E+00
         0.00000E+00
         0.00000E+00
         0.00000E+00
         0.00000E+00
         0.00000E+00
         0.00000E+00
         0.00000E+00
         0.00000E+00
         0.00000E+00
         0.00000E+00
         0.00000E+00
         0.00000E+00
         0.00000E+00
         0.00000E+00
         0.00000E+00
         0.00000E+00
         0.00000E+00
         0.00000E+00
         0.00000E+00
         0.00000E+00
         0.00000E+00
         0.00000E+00
         0.00000E+00
         0.00000E+00
         0.00000E+00
         0.00000E+00
         0.00000E+00
         0.00000E+00
         0.00000E+00
         0.00000E+00
         0.00000E+00
         0.00000E+00
         0.00000E+00
         0.00000E+00
         0.00000E+00
         0.00000E+00
         0.00000E+00
         0.00000E+00
         0.00000E+00
         0.00000E+00
         0.00000E+00
         0.00000E+00
         0.00000E+00
         0.00000E+00
         0.00000E+00
         0.00000E+00
         0.00000E+00
         0.00000E+00
         0.00000E+00
         0.00000E+00
         0.00000E+00
         0.00000E+00
         0.00000E+00
         0.00000E+00
         0.00000E+00
         0.00000E+00
         0.00000E+00
         0.00000E+00
         0.00000E+00
         0.00000E+00
         0.00000E+00
         0.00000E+00
         0.00000E+00
         0.00000E+00
         0.00000E+00
         0.00000E+00
         0.00000E+00
         0.00000E+00
         0.00000E+00
         0.00000E+00
         0.00000E+00
         0.00000E+00
         0.00000E+00
         0.00000E+00
         0.00000E+00
         0.00000E+00
         0.00000E+00
         0.00000E+00
         0.00000E+00
         0.00000E+00
         0.00000E+00
         0.00000E+00
         0.00000E+00
         0.00000E+00
         0.00000E+00
         0.00000E+00
         0.00000E+00
         0.00000E+00
         0.00000E+00
         0.00000E+00
         0.00000E+00
         0.00000E+00
         0.00000E+00
         0.00000E+00
         0.00000E+00
         0.00000E+00
         0.00000E+00
         0.00000E+00
         0.00000E+00
         0.00000E+00
         0.00000E+00
         0.00000E+00
         0.00000E+00
         0.00000E+00
         0.00000E+00
         0.00000E+00
         0.00000E+00
         0.00000E+00
         0.00000E+00
         0.00000E+00
         0.00000E+00
         0.00000E+00
         0.00000E+00
         0.00000E+00
         0.00000E+00
         0.00000E+00
         0.00000E+00
         0.00000E+00
         0.00000E+00
         0.00000E+00
         0.00000E+00
         0.00000E+00
         0.00000E+00
         0.00000E+00
         0.00000E+00
         0.00000E+00
         0.00000E+00
         0.00000E+00
         0.00000E+00
         0.00000E+00
         0.00000E+00
         0.00000E+00
         0.00000E+00
         0.00000E+00
         0.00000E+00
         0.00000E+00
         0.00000E+00
         0.00000E+00
         0.00000E+00
         0.00000E+00
         0.00000E+00
         0.00000E+00
         0.00000E+00
         0.00000E+00
         0.00000E+00
         0.00000E+00
         0.00000E+00
         0.00000E+00
         0.00000E+00
         0.00000E+00
         0.00000E+00
         0.00000E+00
         0.00000E+00
         0.00000E+00
         0.00000E+00
         0.00000E+00
         0.00000E+00
         0.00000E+00
         0.00000E+00
         0.00000E+00
         0.00000E+00
         0.00000E+00
         0.00000E+00
         0.00000E+00
         0.00000E+00
         0.00000E+00
         0.00000E+00
         0.00000E+00
         0.00000E+00
         0.00000E+00
         0.00000E+00
         0.00000E+00
         0.00000E+00
         0.00000E+00
         0.00000E+00
         0.00000E+00
         0.00000E+00
         0.00000E+00
         0.00000E+00
         0.00000E+00
         0.00000E+00
         0.00000E+00
         0.00000E+00
         0.00000E+00
         0.00000E+00
         0.00000E+00
         0.00000E+00
         0.00000E+00
         0.00000E+00
         0.00000E+00
         0.00000E+00
         0.00000E+00
         0.00000E+00
         0.00000E+00
         0.00000E+00
         0.00000E+00
         0.00000E+00
         0.00000E+00
         0.00000E+00
         0.00000E+00
         0.00000E+00
         0.00000E+00
         0.00000E+00
         0.00000E+00
         0.00000E+00
         0.00000E+00
         0.00000E+00
         0.00000E+00
         0.00000E+00
         0.00000E+00
         0.00000E+00
         0.00000E+00
         0.00000E+00
         0.00000E+00
         0.00000E+00
         0.00000E+00
         0.00000E+00
         0.00000E+00
         0.00000E+00
         0.00000E+00
         0.00000E+00
         0.00000E+00
         0.00000E+00
         0.00000E+00
         0.00000E+00
         0.00000E+00
         0.00000E+00
         0.00000E+00
         0.00000E+00
         0.00000E+00
         0.00000E+00
         0.00000E+00
         0.00000E+00
         0.00000E+00
         0.00000E+00
         0.00000E+00
         0.00000E+00
         0.00000E+00
         0.00000E+00
         0.00000E+00
         0.00000E+00
         0.00000E+00
         0.00000E+00
         0.00000E+00
         0.00000E+00
         0.00000E+00
         0.00000E+00
         0.00000E+00
         0.00000E+00
         0.00000E+00
         0.00000E+00
         0.00000E+00
         0.00000E+00
         0.00000E+00
         0.00000E+00
         0.00000E+00
         0.00000E+00
         0.00000E+00
         0.00000E+00
         0.00000E+00
         0.00000E+00
         0.00000E+00
         0.00000E+00
         0.00000E+00
         0.00000E+00
         0.00000E+00
         0.00000E+00
         0.00000E+00
         0.00000E+00
         0.00000E+00
         0.00000E+00
         0.00000E+00
         0.00000E+00
         0.00000E+00
         0.00000E+00
         0.00000E+00
         0.00000E+00
         0.00000E+00
         0.00000E+00
         0.00000E+00
         0.00000E+00
         0.00000E+00
         0.00000E+00
         0.00000E+00
         0.00000E+00
         0.00000E+00
         0.00000E+00
         0.00000E+00
         0.00000E+00
         0.00000E+00
         0.00000E+00
         0.00000E+00
         0.00000E+00
         0.00000E+00
         0.00000E+00
         0.00000E+00
         0.00000E+00
         0.00000E+00
         0.00000E+00
         0.00000E+00
         0.00000E+00
         0.00000E+00
         0.00000E+00
         0.00000E+00
         0.00000E+00
         0.00000E+00
         0.00000E+00
         0.00000E+00
         0.00000E+00
         0.00000E+00
         0.00000E+00
         0.00000E+00
         0.00000E+00
         0.00000E+00
         0.00000E+00
         0.00000E+00
         0.00000E+00
         0.00000E+00
         0.00000E+00
         0.00000E+00
         0.00000E+00
         0.00000E+00
         0.00000E+00
         0.00000E+00
         0.00000E+00
         0.00000E+00
         0.00000E+00
         0.00000E+00
         0.00000E+00
         0.00000E+00
         0.00000E+00
         0.00000E+00
         0.00000E+00
         0.00000E+00
         0.00000E+00
         0.00000E+00
         0.00000E+00
         0.00000E+00
         0.00000E+00
         0.00000E+00
         0.00000E+00
         0.00000E+00
         0.00000E+00
         0.00000E+00
         0.00000E+00
         0.00000E+00
         0.00000E+00
         0.00000E+00
         0.00000E+00
         0.00000E+00
         0.00000E+00
         0.00000E+00
         0.00000E+00
         0.00000E+00
         0.00000E+00
         0.00000E+00
         0.00000E+00
         0.00000E+00
         0.00000E+00
         0.00000E+00
         0.00000E+00
         0.00000E+00
         0.00000E+00
         0.00000E+00
         0.00000E+00
         0.00000E+00
         0.00000E+00
         0.00000E+00
         0.00000E+00
         0.00000E+00
         0.00000E+00
         0.00000E+00
         0.00000E+00
         0.00000E+00
         0.00000E+00
         0.00000E+00
         0.00000E+00
         0.00000E+00
         0.00000E+00
         0.00000E+00
         0.00000E+00
         0.00000E+00
         0.00000E+00
         0.00000E+00
         0.00000E+00
         0.00000E+00
         0.00000E+00
         0.00000E+00
         0.00000E+00
         0.00000E+00
         0.00000E+00
         0.00000E+00
         0.00000E+00
         0.00000E+00
         0.00000E+00
         0.00000E+00
         0.00000E+00
         0.00000E+00
         0.00000E+00
         0.00000E+00
         0.00000E+00
         0.00000E+00
         0.00000E+00
         0.00000E+00
         0.00000E+00
         0.00000E+00
         0.00000E+00
         0.00000E+00
         0.00000E+00
         0.00000E+00
         0.00000E+00
         0.00000E+00
         0.00000E+00
         0.00000E+00
         0.00000E+00
         0.00000E+00
         0.00000E+00
         0.00000E+00
         0.00000E+00
         0.00000E+00
         0.00000E+00
         0.00000E+00
         0.00000E+00
         0.00000E+00
         0.00000E+00
         0.00000E+00
         0.00000E+00
         0.00000E+00
         0.00000E+00
         0.00000E+00
         0.00000E+00
         0.00000E+00
         0.00000E+00
         0.00000E+00
         0.00000E+00
         0.00000E+00
         0.00000E+00
         0.00000E+00
         0.00000E+00
         0.00000E+00
         0.00000E+00
         0.00000E+00
         0.00000E+00
         0.00000E+00
         0.00000E+00
         0.00000E+00
         0.00000E+00
         0.00000E+00
         0.00000E+00
         0.00000E+00
         0.00000E+00
         0.00000E+00
         0.00000E+00
         0.00000E+00
         0.00000E+00
         0.00000E+00
         0.00000E+00
         0.00000E+00
         0.00000E+00
         0.00000E+00
         0.00000E+00
         0.00000E+00
         0.00000E+00
         0.00000E+00
         0.00000E+00
         0.00000E+00
         0.00000E+00
         0.00000E+00
         0.00000E+00
         0.00000E+00
         0.00000E+00
         0.00000E+00
         0.00000E+00
         0.00000E+00
         0.00000E+00
         0.00000E+00
         0.00000E+00
         0.00000E+00
         0.00000E+00
         0.00000E+00
         0.00000E+00
         0.00000E+00
         0.00000E+00
         0.00000E+00
         0.00000E+00
         0.00000E+00
         0.00000E+00
         0.00000E+00
         0.00000E+00
         0.00000E+00
         0.00000E+00
         0.00000E+00
         0.00000E+00
         0.00000E+00
         0.00000E+00
         0.00000E+00
         0.00000E+00
         0.00000E+00
         0.00000E+00
         0.00000E+00
         0.00000E+00
         0.00000E+00
         0.00000E+00
         0.00000E+00
         0.00000E+00
         0.00000E+00
         0.00000E+00
         0.00000E+00
         0.00000E+00
         0.00000E+00
         0.00000E+00
         0.00000E+00
         0.00000E+00
         0.00000E+00
         0.00000E+00
         0.00000E+00
         0.00000E+00
         0.00000E+00
         0.00000E+00
         0.00000E+00
         0.00000E+00
         0.00000E+00
         0.00000E+00
         0.00000E+00
         0.00000E+00
         0.00000E+00
         0.00000E+00
         0.00000E+00
         0.00000E+00
         0.00000E+00
         0.00000E+00
         0.00000E+00
         0.00000E+00
         0.00000E+00
         0.00000E+00
         0.00000E+00
         0.00000E+00
         0.00000E+00
         0.00000E+00
         0.00000E+00
         0.00000E+00
         0.00000E+00
         0.00000E+00
         0.00000E+00
         0.00000E+00
         0.00000E+00
         0.00000E+00
         0.00000E+00
         0.00000E+00
         0.00000E+00
         0.00000E+00
         0.00000E+00
         0.00000E+00
         0.00000E+00
         0.00000E+00
         0.00000E+00
         0.00000E+00
         0.00000E+00
         0.00000E+00
         0.00000E+00
         0.00000E+00
         0.00000E+00
         0.00000E+00
         0.00000E+00
         0.00000E+00
         0.00000E+00
         0.00000E+00
         0.00000E+00
         0.00000E+00
         0.00000E+00
         0.00000E+00
         0.00000E+00
         0.00000E+00
         0.00000E+00
         0.00000E+00
         0.00000E+00
         0.00000E+00
         0.00000E+00
         0.00000E+00
         0.00000E+00
         0.00000E+00
         0.00000E+00
         0.00000E+00
         0.00000E+00
         0.00000E+00
         0.00000E+00
         0.00000E+00
         0.00000E+00
         0.00000E+00
         0.00000E+00
         0.00000E+00
         0.00000E+00
         0.00000E+00
         0.00000E+00
         0.00000E+00
         0.00000E+00
         0.00000E+00
         0.00000E+00
         0.00000E+00
         0.00000E+00
         0.00000E+00
         0.00000E+00
         0.00000E+00
         0.00000E+00
         0.00000E+00
         0.00000E+00
         0.00000E+00
         0.00000E+00
         0.00000E+00
         0.00000E+00
         0.00000E+00
         0.00000E+00
         0.00000E+00
         0.00000E+00
         0.00000E+00
         0.00000E+00
         0.00000E+00
         0.00000E+00
         0.00000E+00
         0.00000E+00
         0.00000E+00
         0.00000E+00
         0.00000E+00
         0.00000E+00
         0.00000E+00
         0.00000E+00
         0.00000E+00
         0.00000E+00
         0.00000E+00
         0.00000E+00
         0.00000E+00
         0.00000E+00
         0.00000E+00
         0.00000E+00
         0.00000E+00
         0.00000E+00
         0.00000E+00
         0.00000E+00
         0.00000E+00
         0.00000E+00
         0.00000E+00
         0.00000E+00
         0.00000E+00
         0.00000E+00
         0.00000E+00
         0.00000E+00
         0.00000E+00
         0.00000E+00
         0.00000E+00
         0.00000E+00
         0.00000E+00
         0.00000E+00
         0.00000E+00
         0.00000E+00
         0.00000E+00
         0.00000E+00
         0.00000E+00
         0.00000E+00
         0.00000E+00
         0.00000E+00
         0.00000E+00
         0.00000E+00
         0.00000E+00
         0.00000E+00
         0.00000E+00
         0.00000E+00
         0.00000E+00
         0.00000E+00
         0.00000E+00
         0.00000E+00
         0.00000E+00
         0.00000E+00
         0.00000E+00
         0.00000E+00
         0.00000E+00
         0.00000E+00
         0.00000E+00
         0.00000E+00
         0.00000E+00
         0.00000E+00
         0.00000E+00
         0.00000E+00
         0.00000E+00
         0.00000E+00
         0.00000E+00
         0.00000E+00
         0.00000E+00
         0.00000E+00
         0.00000E+00
         0.00000E+00
         0.00000E+00
         0.00000E+00
         0.00000E+00
         0.00000E+00
         0.00000E+00
         0.00000E+00
         0.00000E+00
         0.00000E+00
         0.00000E+00
         0.00000E+00
         0.00000E+00
         0.00000E+00
         0.00000E+00
         0.00000E+00
         0.00000E+00
         0.00000E+00
         0.00000E+00
         0.00000E+00
         0.00000E+00
         0.00000E+00
         0.00000E+00
         0.00000E+00
         0.00000E+00
         0.00000E+00
         0.00000E+00
         0.00000E+00
         0.00000E+00
         0.00000E+00
         0.00000E+00
         0.00000E+00
         0.00000E+00
         0.00000E+00
         0.00000E+00
         0.00000E+00
         0.00000E+00
         0.00000E+00
         0.00000E+00
         0.00000E+00
         0.00000E+00
         0.00000E+00
         0.00000E+00
         0.00000E+00
         0.00000E+00
         0.00000E+00
         0.00000E+00
         0.00000E+00
         0.00000E+00
         0.00000E+00
         0.00000E+00
         0.00000E+00
         0.00000E+00
         0.00000E+00
         0.00000E+00
         0.00000E+00
         0.00000E+00
         0.00000E+00
         0.00000E+00
  
SCALARS                 displacement_y  double 1
LOOKUP_TABLE default
         0.00000E+00
         0.00000E+00
         0.00000E+00
         0.00000E+00
         0.00000E+00
         0.00000E+00
         0.00000E+00
         0.00000E+00
         0.00000E+00
         0.00000E+00
         0.00000E+00
         0.00000E+00
         0.00000E+00
         0.00000E+00
         0.00000E+00
         0.00000E+00
         0.00000E+00
         0.00000E+00
         0.00000E+00
         0.00000E+00
         0.00000E+00
         0.00000E+00
         0.00000E+00
         0.00000E+00
         0.00000E+00
         0.00000E+00
         0.00000E+00
         0.00000E+00
         0.00000E+00
         0.00000E+00
         0.00000E+00
         0.00000E+00
         0.00000E+00
         0.00000E+00
         0.00000E+00
         0.00000E+00
         0.00000E+00
         0.00000E+00
         0.00000E+00
         0.00000E+00
         0.00000E+00
         0.00000E+00
         0.00000E+00
         0.00000E+00
         0.00000E+00
         0.00000E+00
         0.00000E+00
         0.00000E+00
         0.00000E+00
         0.00000E+00
         0.00000E+00
         0.00000E+00
         0.00000E+00
         0.00000E+00
         0.00000E+00
         0.00000E+00
         0.00000E+00
         0.00000E+00
         0.00000E+00
         0.00000E+00
         0.00000E+00
         0.00000E+00
         0.00000E+00
         0.00000E+00
         0.00000E+00
         0.00000E+00
         0.00000E+00
         0.00000E+00
         0.00000E+00
         0.00000E+00
         0.00000E+00
         0.00000E+00
         0.00000E+00
         0.00000E+00
         0.00000E+00
         0.00000E+00
         0.00000E+00
         0.00000E+00
         0.00000E+00
         0.00000E+00
         0.00000E+00
         0.00000E+00
         0.00000E+00
         0.00000E+00
         0.00000E+00
         0.00000E+00
         0.00000E+00
         0.00000E+00
         0.00000E+00
         0.00000E+00
         0.00000E+00
         0.00000E+00
         0.00000E+00
         0.00000E+00
         0.00000E+00
         0.00000E+00
         0.00000E+00
         0.00000E+00
         0.00000E+00
         0.00000E+00
         0.00000E+00
         0.00000E+00
         0.00000E+00
         0.00000E+00
         0.00000E+00
         0.00000E+00
         0.00000E+00
         0.00000E+00
         0.00000E+00
         0.00000E+00
         0.00000E+00
         0.00000E+00
         0.00000E+00
         0.00000E+00
         0.00000E+00
         0.00000E+00
         0.00000E+00
         0.00000E+00
         0.00000E+00
         0.00000E+00
         0.00000E+00
         0.00000E+00
         0.00000E+00
         0.00000E+00
         0.00000E+00
         0.00000E+00
         0.00000E+00
         0.00000E+00
         0.00000E+00
         0.00000E+00
         0.00000E+00
         0.00000E+00
         0.00000E+00
         0.00000E+00
         0.00000E+00
         0.00000E+00
         0.00000E+00
         0.00000E+00
         0.00000E+00
         0.00000E+00
         0.00000E+00
         0.00000E+00
         0.00000E+00
         0.00000E+00
         0.00000E+00
         0.00000E+00
         0.00000E+00
         0.00000E+00
         0.00000E+00
         0.00000E+00
         0.00000E+00
         0.00000E+00
         0.00000E+00
         0.00000E+00
         0.00000E+00
         0.00000E+00
         0.00000E+00
         0.00000E+00
         0.00000E+00
         0.00000E+00
         0.00000E+00
         0.00000E+00
         0.00000E+00
         0.00000E+00
         0.00000E+00
         0.00000E+00
         0.00000E+00
         0.00000E+00
         0.00000E+00
         0.00000E+00
         0.00000E+00
         0.00000E+00
         0.00000E+00
         0.00000E+00
         0.00000E+00
         0.00000E+00
         0.00000E+00
         0.00000E+00
         0.00000E+00
         0.00000E+00
         0.00000E+00
         0.00000E+00
         0.00000E+00
         0.00000E+00
         0.00000E+00
         0.00000E+00
         0.00000E+00
         0.00000E+00
         0.00000E+00
         0.00000E+00
         0.00000E+00
         0.00000E+00
         0.00000E+00
         0.00000E+00
         0.00000E+00
         0.00000E+00
         0.00000E+00
         0.00000E+00
         0.00000E+00
         0.00000E+00
         0.00000E+00
         0.00000E+00
         0.00000E+00
         0.00000E+00
         0.00000E+00
         0.00000E+00
         0.00000E+00
         0.00000E+00
         0.00000E+00
         0.00000E+00
         0.00000E+00
         0.00000E+00
         0.00000E+00
         0.00000E+00
         0.00000E+00
         0.00000E+00
         0.00000E+00
         0.00000E+00
         0.00000E+00
         0.00000E+00
         0.00000E+00
         0.00000E+00
         0.00000E+00
         0.00000E+00
         0.00000E+00
         0.00000E+00
         0.00000E+00
         0.00000E+00
         0.00000E+00
         0.00000E+00
         0.00000E+00
         0.00000E+00
         0.00000E+00
         0.00000E+00
         0.00000E+00
         0.00000E+00
         0.00000E+00
         0.00000E+00
         0.00000E+00
         0.00000E+00
         0.00000E+00
         0.00000E+00
         0.00000E+00
         0.00000E+00
         0.00000E+00
         0.00000E+00
         0.00000E+00
         0.00000E+00
         0.00000E+00
         0.00000E+00
         0.00000E+00
         0.00000E+00
         0.00000E+00
         0.00000E+00
         0.00000E+00
         0.00000E+00
         0.00000E+00
         0.00000E+00
         0.00000E+00
         0.00000E+00
         0.00000E+00
         0.00000E+00
         0.00000E+00
         0.00000E+00
         0.00000E+00
         0.00000E+00
         0.00000E+00
         0.00000E+00
         0.00000E+00
         0.00000E+00
         0.00000E+00
         0.00000E+00
         0.00000E+00
         0.00000E+00
         0.00000E+00
         0.00000E+00
         0.00000E+00
         0.00000E+00
         0.00000E+00
         0.00000E+00
         0.00000E+00
         0.00000E+00
         0.00000E+00
         0.00000E+00
         0.00000E+00
         0.00000E+00
         0.00000E+00
         0.00000E+00
         0.00000E+00
         0.00000E+00
         0.00000E+00
         0.00000E+00
         0.00000E+00
         0.00000E+00
         0.00000E+00
         0.00000E+00
         0.00000E+00
         0.00000E+00
         0.00000E+00
         0.00000E+00
         0.00000E+00
         0.00000E+00
         0.00000E+00
         0.00000E+00
         0.00000E+00
         0.00000E+00
         0.00000E+00
         0.00000E+00
         0.00000E+00
         0.00000E+00
         0.00000E+00
         0.00000E+00
         0.00000E+00
         0.00000E+00
         0.00000E+00
         0.00000E+00
         0.00000E+00
         0.00000E+00
         0.00000E+00
         0.00000E+00
         0.00000E+00
         0.00000E+00
         0.00000E+00
         0.00000E+00
         0.00000E+00
         0.00000E+00
         0.00000E+00
         0.00000E+00
         0.00000E+00
         0.00000E+00
         0.00000E+00
         0.00000E+00
         0.00000E+00
         0.00000E+00
         0.00000E+00
         0.00000E+00
         0.00000E+00
         0.00000E+00
         0.00000E+00
         0.00000E+00
         0.00000E+00
         0.00000E+00
         0.00000E+00
         0.00000E+00
         0.00000E+00
         0.00000E+00
         0.00000E+00
         0.00000E+00
         0.00000E+00
         0.00000E+00
         0.00000E+00
         0.00000E+00
         0.00000E+00
         0.00000E+00
         0.00000E+00
         0.00000E+00
         0.00000E+00
         0.00000E+00
         0.00000E+00
         0.00000E+00
         0.00000E+00
         0.00000E+00
         0.00000E+00
         0.00000E+00
         0.00000E+00
         0.00000E+00
         0.00000E+00
         0.00000E+00
         0.00000E+00
         0.00000E+00
         0.00000E+00
         0.00000E+00
         0.00000E+00
         0.00000E+00
         0.00000E+00
         0.00000E+00
         0.00000E+00
         0.00000E+00
         0.00000E+00
         0.00000E+00
         0.00000E+00
         0.00000E+00
         0.00000E+00
         0.00000E+00
         0.00000E+00
         0.00000E+00
         0.00000E+00
         0.00000E+00
         0.00000E+00
         0.00000E+00
         0.00000E+00
         0.00000E+00
         0.00000E+00
         0.00000E+00
         0.00000E+00
         0.00000E+00
         0.00000E+00
         0.00000E+00
         0.00000E+00
         0.00000E+00
         0.00000E+00
         0.00000E+00
         0.00000E+00
         0.00000E+00
         0.00000E+00
         0.00000E+00
         0.00000E+00
         0.00000E+00
         0.00000E+00
         0.00000E+00
         0.00000E+00
         0.00000E+00
         0.00000E+00
         0.00000E+00
         0.00000E+00
         0.00000E+00
         0.00000E+00
         0.00000E+00
         0.00000E+00
         0.00000E+00
         0.00000E+00
         0.00000E+00
         0.00000E+00
         0.00000E+00
         0.00000E+00
         0.00000E+00
         0.00000E+00
         0.00000E+00
         0.00000E+00
         0.00000E+00
         0.00000E+00
         0.00000E+00
         0.00000E+00
         0.00000E+00
         0.00000E+00
         0.00000E+00
         0.00000E+00
         0.00000E+00
         0.00000E+00
         0.00000E+00
         0.00000E+00
         0.00000E+00
         0.00000E+00
         0.00000E+00
         0.00000E+00
         0.00000E+00
         0.00000E+00
         0.00000E+00
         0.00000E+00
         0.00000E+00
         0.00000E+00
         0.00000E+00
         0.00000E+00
         0.00000E+00
         0.00000E+00
         0.00000E+00
         0.00000E+00
         0.00000E+00
         0.00000E+00
         0.00000E+00
         0.00000E+00
         0.00000E+00
         0.00000E+00
         0.00000E+00
         0.00000E+00
         0.00000E+00
         0.00000E+00
         0.00000E+00
         0.00000E+00
         0.00000E+00
         0.00000E+00
         0.00000E+00
         0.00000E+00
         0.00000E+00
         0.00000E+00
         0.00000E+00
         0.00000E+00
         0.00000E+00
         0.00000E+00
         0.00000E+00
         0.00000E+00
         0.00000E+00
         0.00000E+00
         0.00000E+00
         0.00000E+00
         0.00000E+00
         0.00000E+00
         0.00000E+00
         0.00000E+00
         0.00000E+00
         0.00000E+00
         0.00000E+00
         0.00000E+00
         0.00000E+00
         0.00000E+00
         0.00000E+00
         0.00000E+00
         0.00000E+00
         0.00000E+00
         0.00000E+00
         0.00000E+00
         0.00000E+00
         0.00000E+00
         0.00000E+00
         0.00000E+00
         0.00000E+00
         0.00000E+00
         0.00000E+00
         0.00000E+00
         0.00000E+00
         0.00000E+00
         0.00000E+00
         0.00000E+00
         0.00000E+00
         0.00000E+00
         0.00000E+00
         0.00000E+00
         0.00000E+00
         0.00000E+00
         0.00000E+00
         0.00000E+00
         0.00000E+00
         0.00000E+00
         0.00000E+00
         0.00000E+00
         0.00000E+00
         0.00000E+00
         0.00000E+00
         0.00000E+00
         0.00000E+00
         0.00000E+00
         0.00000E+00
         0.00000E+00
         0.00000E+00
         0.00000E+00
         0.00000E+00
         0.00000E+00
         0.00000E+00
         0.00000E+00
         0.00000E+00
         0.00000E+00
         0.00000E+00
         0.00000E+00
         0.00000E+00
         0.00000E+00
         0.00000E+00
         0.00000E+00
         0.00000E+00
         0.00000E+00
         0.00000E+00
         0.00000E+00
         0.00000E+00
         0.00000E+00
         0.00000E+00
         0.00000E+00
         0.00000E+00
         0.00000E+00
         0.00000E+00
         0.00000E+00
         0.00000E+00
         0.00000E+00
         0.00000E+00
         0.00000E+00
         0.00000E+00
         0.00000E+00
         0.00000E+00
         0.00000E+00
         0.00000E+00
         0.00000E+00
         0.00000E+00
         0.00000E+00
         0.00000E+00
         0.00000E+00
         0.00000E+00
         0.00000E+00
         0.00000E+00
         0.00000E+00
         0.00000E+00
         0.00000E+00
         0.00000E+00
         0.00000E+00
         0.00000E+00
         0.00000E+00
         0.00000E+00
         0.00000E+00
         0.00000E+00
         0.00000E+00
         0.00000E+00
         0.00000E+00
         0.00000E+00
         0.00000E+00
         0.00000E+00
         0.00000E+00
         0.00000E+00
         0.00000E+00
         0.00000E+00
         0.00000E+00
         0.00000E+00
         0.00000E+00
         0.00000E+00
         0.00000E+00
         0.00000E+00
         0.00000E+00
         0.00000E+00
         0.00000E+00
         0.00000E+00
         0.00000E+00
         0.00000E+00
         0.00000E+00
         0.00000E+00
         0.00000E+00
         0.00000E+00
         0.00000E+00
         0.00000E+00
         0.00000E+00
         0.00000E+00
         0.00000E+00
         0.00000E+00
         0.00000E+00
         0.00000E+00
         0.00000E+00
         0.00000E+00
         0.00000E+00
         0.00000E+00
         0.00000E+00
         0.00000E+00
         0.00000E+00
         0.00000E+00
         0.00000E+00
         0.00000E+00
         0.00000E+00
         0.00000E+00
         0.00000E+00
         0.00000E+00
         0.00000E+00
         0.00000E+00
         0.00000E+00
         0.00000E+00
         0.00000E+00
         0.00000E+00
         0.00000E+00
         0.00000E+00
         0.00000E+00
         0.00000E+00
         0.00000E+00
         0.00000E+00
         0.00000E+00
         0.00000E+00
         0.00000E+00
         0.00000E+00
         0.00000E+00
         0.00000E+00
         0.00000E+00
         0.00000E+00
         0.00000E+00
         0.00000E+00
         0.00000E+00
         0.00000E+00
         0.00000E+00
         0.00000E+00
         0.00000E+00
         0.00000E+00
         0.00000E+00
         0.00000E+00
         0.00000E+00
         0.00000E+00
         0.00000E+00
         0.00000E+00
         0.00000E+00
         0.00000E+00
         0.00000E+00
         0.00000E+00
         0.00000E+00
         0.00000E+00
         0.00000E+00
         0.00000E+00
         0.00000E+00
         0.00000E+00
         0.00000E+00
         0.00000E+00
         0.00000E+00
         0.00000E+00
         0.00000E+00
         0.00000E+00
         0.00000E+00
         0.00000E+00
         0.00000E+00
         0.00000E+00
         0.00000E+00
         0.00000E+00
         0.00000E+00
         0.00000E+00
         0.00000E+00
         0.00000E+00
         0.00000E+00
         0.00000E+00
         0.00000E+00
         0.00000E+00
         0.00000E+00
         0.00000E+00
         0.00000E+00
         0.00000E+00
         0.00000E+00
         0.00000E+00
         0.00000E+00
         0.00000E+00
         0.00000E+00
         0.00000E+00
         0.00000E+00
         0.00000E+00
         0.00000E+00
         0.00000E+00
         0.00000E+00
         0.00000E+00
         0.00000E+00
         0.00000E+00
         0.00000E+00
         0.00000E+00
         0.00000E+00
         0.00000E+00
         0.00000E+00
         0.00000E+00
         0.00000E+00
         0.00000E+00
         0.00000E+00
         0.00000E+00
         0.00000E+00
         0.00000E+00
         0.00000E+00
         0.00000E+00
         0.00000E+00
         0.00000E+00
         0.00000E+00
         0.00000E+00
         0.00000E+00
         0.00000E+00
         0.00000E+00
         0.00000E+00
         0.00000E+00
         0.00000E+00
         0.00000E+00
         0.00000E+00
         0.00000E+00
         0.00000E+00
         0.00000E+00
         0.00000E+00
         0.00000E+00
         0.00000E+00
         0.00000E+00
         0.00000E+00
         0.00000E+00
         0.00000E+00
         0.00000E+00
         0.00000E+00
         0.00000E+00
         0.00000E+00
         0.00000E+00
         0.00000E+00
         0.00000E+00
         0.00000E+00
         0.00000E+00
         0.00000E+00
         0.00000E+00
         0.00000E+00
         0.00000E+00
         0.00000E+00
         0.00000E+00
         0.00000E+00
         0.00000E+00
         0.00000E+00
         0.00000E+00
         0.00000E+00
         0.00000E+00
         0.00000E+00
         0.00000E+00
         0.00000E+00
         0.00000E+00
         0.00000E+00
         0.00000E+00
         0.00000E+00
         0.00000E+00
         0.00000E+00
         0.00000E+00
         0.00000E+00
         0.00000E+00
         0.00000E+00
         0.00000E+00
         0.00000E+00
         0.00000E+00
         0.00000E+00
         0.00000E+00
         0.00000E+00
         0.00000E+00
         0.00000E+00
         0.00000E+00
         0.00000E+00
         0.00000E+00
         0.00000E+00
         0.00000E+00
         0.00000E+00
         0.00000E+00
         0.00000E+00
         0.00000E+00
         0.00000E+00
         0.00000E+00
         0.00000E+00
         0.00000E+00
         0.00000E+00
         0.00000E+00
         0.00000E+00
         0.00000E+00
         0.00000E+00
         0.00000E+00
         0.00000E+00
         0.00000E+00
         0.00000E+00
         0.00000E+00
         0.00000E+00
         0.00000E+00
         0.00000E+00
         0.00000E+00
         0.00000E+00
         0.00000E+00
         0.00000E+00
         0.00000E+00
         0.00000E+00
         0.00000E+00
         0.00000E+00
         0.00000E+00
         0.00000E+00
         0.00000E+00
         0.00000E+00
         0.00000E+00
         0.00000E+00
         0.00000E+00
         0.00000E+00
         0.00000E+00
         0.00000E+00
         0.00000E+00
         0.00000E+00
         0.00000E+00
         0.00000E+00
         0.00000E+00
         0.00000E+00
         0.00000E+00
         0.00000E+00
         0.00000E+00
         0.00000E+00
         0.00000E+00
         0.00000E+00
         0.00000E+00
         0.00000E+00
         0.00000E+00
         0.00000E+00
         0.00000E+00
         0.00000E+00
         0.00000E+00
         0.00000E+00
         0.00000E+00
         0.00000E+00
         0.00000E+00
         0.00000E+00
         0.00000E+00
         0.00000E+00
         0.00000E+00
         0.00000E+00
         0.00000E+00
         0.00000E+00
         0.00000E+00
         0.00000E+00
         0.00000E+00
         0.00000E+00
         0.00000E+00
         0.00000E+00
         0.00000E+00
         0.00000E+00
         0.00000E+00
         0.00000E+00
         0.00000E+00
         0.00000E+00
         0.00000E+00
         0.00000E+00
         0.00000E+00
         0.00000E+00
         0.00000E+00
         0.00000E+00
         0.00000E+00
         0.00000E+00
         0.00000E+00
         0.00000E+00
         0.00000E+00
         0.00000E+00
         0.00000E+00
         0.00000E+00
         0.00000E+00
         0.00000E+00
         0.00000E+00
         0.00000E+00
         0.00000E+00
         0.00000E+00
         0.00000E+00
         0.00000E+00
         0.00000E+00
         0.00000E+00
         0.00000E+00
         0.00000E+00
         0.00000E+00
         0.00000E+00
         0.00000E+00
         0.00000E+00
         0.00000E+00
         0.00000E+00
         0.00000E+00
         0.00000E+00
         0.00000E+00
         0.00000E+00
         0.00000E+00
         0.00000E+00
         0.00000E+00
         0.00000E+00
         0.00000E+00
         0.00000E+00
         0.00000E+00
         0.00000E+00
         0.00000E+00
         0.00000E+00
         0.00000E+00
         0.00000E+00
         0.00000E+00
         0.00000E+00
         0.00000E+00
         0.00000E+00
         0.00000E+00
         0.00000E+00
         0.00000E+00
         0.00000E+00
         0.00000E+00
         0.00000E+00
         0.00000E+00
         0.00000E+00
         0.00000E+00
         0.00000E+00
         0.00000E+00
         0.00000E+00
         0.00000E+00
         0.00000E+00
         0.00000E+00
         0.00000E+00
         0.00000E+00
         0.00000E+00
         0.00000E+00
         0.00000E+00
         0.00000E+00
         0.00000E+00
         0.00000E+00
         0.00000E+00
         0.00000E+00
         0.00000E+00
         0.00000E+00
         0.00000E+00
         0.00000E+00
         0.00000E+00
         0.00000E+00
         0.00000E+00
         0.00000E+00
         0.00000E+00
         0.00000E+00
         0.00000E+00
         0.00000E+00
         0.00000E+00
         0.00000E+00
         0.00000E+00
         0.00000E+00
         0.00000E+00
         0.00000E+00
         0.00000E+00
         0.00000E+00
         0.00000E+00
         0.00000E+00
         0.00000E+00
         0.00000E+00
         0.00000E+00
         0.00000E+00
         0.00000E+00
         0.00000E+00
         0.00000E+00
         0.00000E+00
         0.00000E+00
         0.00000E+00
         0.00000E+00
         0.00000E+00
         0.00000E+00
         0.00000E+00
         0.00000E+00
         0.00000E+00
         0.00000E+00
         0.00000E+00
         0.00000E+00
         0.00000E+00
         0.00000E+00
         0.00000E+00
         0.00000E+00
         0.00000E+00
         0.00000E+00
         0.00000E+00
         0.00000E+00
         0.00000E+00
         0.00000E+00
         0.00000E+00
         0.00000E+00
         0.00000E+00
         0.00000E+00
         0.00000E+00
         0.00000E+00
         0.00000E+00
         0.00000E+00
         0.00000E+00
         0.00000E+00
         0.00000E+00
         0.00000E+00
         0.00000E+00
         0.00000E+00
         0.00000E+00
         0.00000E+00
         0.00000E+00
         0.00000E+00
         0.00000E+00
         0.00000E+00
         0.00000E+00
         0.00000E+00
         0.00000E+00
         0.00000E+00
         0.00000E+00
         0.00000E+00
         0.00000E+00
         0.00000E+00
         0.00000E+00
         0.00000E+00
         0.00000E+00
         0.00000E+00
         0.00000E+00
         0.00000E+00
         0.00000E+00
         0.00000E+00
         0.00000E+00
         0.00000E+00
         0.00000E+00
         0.00000E+00
         0.00000E+00
         0.00000E+00
         0.00000E+00
         0.00000E+00
         0.00000E+00
         0.00000E+00
         0.00000E+00
         0.00000E+00
         0.00000E+00
         0.00000E+00
         0.00000E+00
         0.00000E+00
         0.00000E+00
         0.00000E+00
         0.00000E+00
         0.00000E+00
         0.00000E+00
         0.00000E+00
         0.00000E+00
         0.00000E+00
         0.00000E+00
         0.00000E+00
         0.00000E+00
         0.00000E+00
         0.00000E+00
         0.00000E+00
         0.00000E+00
         0.00000E+00
         0.00000E+00
         0.00000E+00
         0.00000E+00
         0.00000E+00
         0.00000E+00
         0.00000E+00
         0.00000E+00
         0.00000E+00
         0.00000E+00
         0.00000E+00
         0.00000E+00
         0.00000E+00
         0.00000E+00
         0.00000E+00
         0.00000E+00
         0.00000E+00
         0.00000E+00
         0.00000E+00
         0.00000E+00
         0.00000E+00
         0.00000E+00
         0.00000E+00
         0.00000E+00
         0.00000E+00
         0.00000E+00
         0.00000E+00
         0.00000E+00
         0.00000E+00
         0.00000E+00
         0.00000E+00
         0.00000E+00
         0.00000E+00
         0.00000E+00
         0.00000E+00
         0.00000E+00
         0.00000E+00
         0.00000E+00
         0.00000E+00
         0.00000E+00
         0.00000E+00
         0.00000E+00
         0.00000E+00
         0.00000E+00
         0.00000E+00
         0.00000E+00
         0.00000E+00
         0.00000E+00
         0.00000E+00
         0.00000E+00
         0.00000E+00
         0.00000E+00
         0.00000E+00
         0.00000E+00
         0.00000E+00
         0.00000E+00
         0.00000E+00
         0.00000E+00
         0.00000E+00
         0.00000E+00
         0.00000E+00
         0.00000E+00
         0.00000E+00
         0.00000E+00
         0.00000E+00
         0.00000E+00
         0.00000E+00
         0.00000E+00
         0.00000E+00
         0.00000E+00
         0.00000E+00
         0.00000E+00
         0.00000E+00
         0.00000E+00
         0.00000E+00
         0.00000E+00
         0.00000E+00
         0.00000E+00
         0.00000E+00
         0.00000E+00
         0.00000E+00
         0.00000E+00
         0.00000E+00
         0.00000E+00
         0.00000E+00
         0.00000E+00
         0.00000E+00
         0.00000E+00
         0.00000E+00
         0.00000E+00
         0.00000E+00
         0.00000E+00
         0.00000E+00
         0.00000E+00
         0.00000E+00
         0.00000E+00
         0.00000E+00
         0.00000E+00
         0.00000E+00
         0.00000E+00
         0.00000E+00
         0.00000E+00
         0.00000E+00
         0.00000E+00
         0.00000E+00
         0.00000E+00
         0.00000E+00
         0.00000E+00
         0.00000E+00
         0.00000E+00
         0.00000E+00
         0.00000E+00
         0.00000E+00
         0.00000E+00
         0.00000E+00
         0.00000E+00
         0.00000E+00
         0.00000E+00
         0.00000E+00
         0.00000E+00
         0.00000E+00
         0.00000E+00
         0.00000E+00
         0.00000E+00
         0.00000E+00
         0.00000E+00
         0.00000E+00
         0.00000E+00
         0.00000E+00
         0.00000E+00
         0.00000E+00
         0.00000E+00
         0.00000E+00
         0.00000E+00
         0.00000E+00
         0.00000E+00
         0.00000E+00
         0.00000E+00
         0.00000E+00
         0.00000E+00
         0.00000E+00
         0.00000E+00
         0.00000E+00
         0.00000E+00
         0.00000E+00
         0.00000E+00
         0.00000E+00
         0.00000E+00
         0.00000E+00
         0.00000E+00
         0.00000E+00
         0.00000E+00
         0.00000E+00
         0.00000E+00
         0.00000E+00
         0.00000E+00
         0.00000E+00
         0.00000E+00
         0.00000E+00
         0.00000E+00
         0.00000E+00
         0.00000E+00
         0.00000E+00
         0.00000E+00
         0.00000E+00
         0.00000E+00
         0.00000E+00
         0.00000E+00
         0.00000E+00
         0.00000E+00
         0.00000E+00
         0.00000E+00
         0.00000E+00
         0.00000E+00
         0.00000E+00
         0.00000E+00
         0.00000E+00
         0.00000E+00
         0.00000E+00
         0.00000E+00
         0.00000E+00
         0.00000E+00
         0.00000E+00
         0.00000E+00
         0.00000E+00
         0.00000E+00
         0.00000E+00
         0.00000E+00
         0.00000E+00
         0.00000E+00
         0.00000E+00
         0.00000E+00
         0.00000E+00
         0.00000E+00
         0.00000E+00
         0.00000E+00
         0.00000E+00
         0.00000E+00
         0.00000E+00
         0.00000E+00
         0.00000E+00
         0.00000E+00
         0.00000E+00
         0.00000E+00
         0.00000E+00
         0.00000E+00
         0.00000E+00
         0.00000E+00
         0.00000E+00
         0.00000E+00
         0.00000E+00
         0.00000E+00
         0.00000E+00
         0.00000E+00
         0.00000E+00
         0.00000E+00
         0.00000E+00
         0.00000E+00
         0.00000E+00
         0.00000E+00
         0.00000E+00
         0.00000E+00
         0.00000E+00
         0.00000E+00
         0.00000E+00
         0.00000E+00
         0.00000E+00
         0.00000E+00
         0.00000E+00
         0.00000E+00
         0.00000E+00
         0.00000E+00
         0.00000E+00
         0.00000E+00
         0.00000E+00
         0.00000E+00
         0.00000E+00
         0.00000E+00
         0.00000E+00
         0.00000E+00
         0.00000E+00
         0.00000E+00
         0.00000E+00
         0.00000E+00
         0.00000E+00
         0.00000E+00
         0.00000E+00
         0.00000E+00
         0.00000E+00
         0.00000E+00
         0.00000E+00
         0.00000E+00
         0.00000E+00
         0.00000E+00
         0.00000E+00
         0.00000E+00
         0.00000E+00
         0.00000E+00
         0.00000E+00
         0.00000E+00
         0.00000E+00
         0.00000E+00
         0.00000E+00
         0.00000E+00
         0.00000E+00
         0.00000E+00
         0.00000E+00
         0.00000E+00
         0.00000E+00
         0.00000E+00
         0.00000E+00
         0.00000E+00
         0.00000E+00
         0.00000E+00
         0.00000E+00
         0.00000E+00
         0.00000E+00
         0.00000E+00
         0.00000E+00
         0.00000E+00
         0.00000E+00
         0.00000E+00
         0.00000E+00
         0.00000E+00
         0.00000E+00
         0.00000E+00
         0.00000E+00
         0.00000E+00
         0.00000E+00
         0.00000E+00
         0.00000E+00
         0.00000E+00
         0.00000E+00
         0.00000E+00
         0.00000E+00
         0.00000E+00
         0.00000E+00
         0.00000E+00
         0.00000E+00
         0.00000E+00
         0.00000E+00
         0.00000E+00
         0.00000E+00
         0.00000E+00
         0.00000E+00
         0.00000E+00
         0.00000E+00
         0.00000E+00
         0.00000E+00
         0.00000E+00
         0.00000E+00
         0.00000E+00
         0.00000E+00
         0.00000E+00
         0.00000E+00
         0.00000E+00
         0.00000E+00
         0.00000E+00
         0.00000E+00
         0.00000E+00
         0.00000E+00
         0.00000E+00
         0.00000E+00
         0.00000E+00
         0.00000E+00
         0.00000E+00
         0.00000E+00
         0.00000E+00
         0.00000E+00
         0.00000E+00
         0.00000E+00
         0.00000E+00
         0.00000E+00
         0.00000E+00
         0.00000E+00
         0.00000E+00
         0.00000E+00
         0.00000E+00
         0.00000E+00
         0.00000E+00
         0.00000E+00
         0.00000E+00
         0.00000E+00
         0.00000E+00
         0.00000E+00
         0.00000E+00
         0.00000E+00
         0.00000E+00
         0.00000E+00
         0.00000E+00
         0.00000E+00
         0.00000E+00
         0.00000E+00
         0.00000E+00
         0.00000E+00
         0.00000E+00
         0.00000E+00
         0.00000E+00
         0.00000E+00
         0.00000E+00
         0.00000E+00
         0.00000E+00
         0.00000E+00
         0.00000E+00
         0.00000E+00
         0.00000E+00
         0.00000E+00
         0.00000E+00
         0.00000E+00
         0.00000E+00
         0.00000E+00
         0.00000E+00
         0.00000E+00
         0.00000E+00
         0.00000E+00
         0.00000E+00
         0.00000E+00
         0.00000E+00
         0.00000E+00
         0.00000E+00
         0.00000E+00
         0.00000E+00
         0.00000E+00
         0.00000E+00
         0.00000E+00
         0.00000E+00
         0.00000E+00
         0.00000E+00
         0.00000E+00
         0.00000E+00
         0.00000E+00
         0.00000E+00
         0.00000E+00
         0.00000E+00
         0.00000E+00
         0.00000E+00
         0.00000E+00
         0.00000E+00
         0.00000E+00
         0.00000E+00
         0.00000E+00
         0.00000E+00
         0.00000E+00
         0.00000E+00
         0.00000E+00
         0.00000E+00
         0.00000E+00
         0.00000E+00
         0.00000E+00
         0.00000E+00
         0.00000E+00
         0.00000E+00
         0.00000E+00
         0.00000E+00
         0.00000E+00
         0.00000E+00
         0.00000E+00
         0.00000E+00
         0.00000E+00
         0.00000E+00
         0.00000E+00
         0.00000E+00
         0.00000E+00
         0.00000E+00
         0.00000E+00
         0.00000E+00
         0.00000E+00
         0.00000E+00
         0.00000E+00
         0.00000E+00
         0.00000E+00
         0.00000E+00
         0.00000E+00
         0.00000E+00
         0.00000E+00
         0.00000E+00
         0.00000E+00
         0.00000E+00
         0.00000E+00
         0.00000E+00
         0.00000E+00
         0.00000E+00
         0.00000E+00
         0.00000E+00
         0.00000E+00
         0.00000E+00
         0.00000E+00
         0.00000E+00
         0.00000E+00
         0.00000E+00
         0.00000E+00
         0.00000E+00
         0.00000E+00
         0.00000E+00
         0.00000E+00
         0.00000E+00
         0.00000E+00
         0.00000E+00
         0.00000E+00
         0.00000E+00
         0.00000E+00
         0.00000E+00
         0.00000E+00
         0.00000E+00
         0.00000E+00
         0.00000E+00
         0.00000E+00
         0.00000E+00
         0.00000E+00
         0.00000E+00
         0.00000E+00
         0.00000E+00
         0.00000E+00
         0.00000E+00
         0.00000E+00
         0.00000E+00
         0.00000E+00
         0.00000E+00
         0.00000E+00
         0.00000E+00
         0.00000E+00
         0.00000E+00
         0.00000E+00
         0.00000E+00
         0.00000E+00
         0.00000E+00
         0.00000E+00
         0.00000E+00
         0.00000E+00
         0.00000E+00
         0.00000E+00
         0.00000E+00
         0.00000E+00
         0.00000E+00
         0.00000E+00
         0.00000E+00
         0.00000E+00
         0.00000E+00
         0.00000E+00
         0.00000E+00
         0.00000E+00
         0.00000E+00
         0.00000E+00
         0.00000E+00
         0.00000E+00
         0.00000E+00
         0.00000E+00
         0.00000E+00
         0.00000E+00
         0.00000E+00
         0.00000E+00
         0.00000E+00
         0.00000E+00
         0.00000E+00
         0.00000E+00
         0.00000E+00
         0.00000E+00
         0.00000E+00
         0.00000E+00
         0.00000E+00
         0.00000E+00
         0.00000E+00
         0.00000E+00
         0.00000E+00
         0.00000E+00
         0.00000E+00
         0.00000E+00
         0.00000E+00
         0.00000E+00
         0.00000E+00
         0.00000E+00
         0.00000E+00
         0.00000E+00
         0.00000E+00
         0.00000E+00
         0.00000E+00
         0.00000E+00
         0.00000E+00
         0.00000E+00
         0.00000E+00
         0.00000E+00
         0.00000E+00
         0.00000E+00
         0.00000E+00
         0.00000E+00
         0.00000E+00
         0.00000E+00
         0.00000E+00
         0.00000E+00
         0.00000E+00
         0.00000E+00
         0.00000E+00
         0.00000E+00
         0.00000E+00
         0.00000E+00
         0.00000E+00
         0.00000E+00
         0.00000E+00
         0.00000E+00
         0.00000E+00
         0.00000E+00
         0.00000E+00
         0.00000E+00
         0.00000E+00
         0.00000E+00
         0.00000E+00
         0.00000E+00
         0.00000E+00
         0.00000E+00
         0.00000E+00
         0.00000E+00
         0.00000E+00
         0.00000E+00
         0.00000E+00
         0.00000E+00
         0.00000E+00
         0.00000E+00
         0.00000E+00
         0.00000E+00
         0.00000E+00
         0.00000E+00
         0.00000E+00
         0.00000E+00
         0.00000E+00
         0.00000E+00
         0.00000E+00
         0.00000E+00
         0.00000E+00
         0.00000E+00
         0.00000E+00
         0.00000E+00
         0.00000E+00
         0.00000E+00
         0.00000E+00
         0.00000E+00
         0.00000E+00
         0.00000E+00
         0.00000E+00
         0.00000E+00
         0.00000E+00
         0.00000E+00
         0.00000E+00
         0.00000E+00
         0.00000E+00
         0.00000E+00
         0.00000E+00
         0.00000E+00
         0.00000E+00
         0.00000E+00
         0.00000E+00
         0.00000E+00
         0.00000E+00
         0.00000E+00
         0.00000E+00
         0.00000E+00
         0.00000E+00
         0.00000E+00
         0.00000E+00
         0.00000E+00
         0.00000E+00
         0.00000E+00
         0.00000E+00
         0.00000E+00
         0.00000E+00
         0.00000E+00
         0.00000E+00
         0.00000E+00
         0.00000E+00
         0.00000E+00
         0.00000E+00
         0.00000E+00
         0.00000E+00
         0.00000E+00
         0.00000E+00
         0.00000E+00
         0.00000E+00
         0.00000E+00
         0.00000E+00
         0.00000E+00
         0.00000E+00
         0.00000E+00
         0.00000E+00
         0.00000E+00
         0.00000E+00
         0.00000E+00
         0.00000E+00
         0.00000E+00
         0.00000E+00
         0.00000E+00
         0.00000E+00
         0.00000E+00
         0.00000E+00
         0.00000E+00
         0.00000E+00
         0.00000E+00
         0.00000E+00
         0.00000E+00
         0.00000E+00
         0.00000E+00
         0.00000E+00
         0.00000E+00
         0.00000E+00
         0.00000E+00
         0.00000E+00
         0.00000E+00
         0.00000E+00
         0.00000E+00
         0.00000E+00
         0.00000E+00
         0.00000E+00
         0.00000E+00
         0.00000E+00
         0.00000E+00
         0.00000E+00
         0.00000E+00
         0.00000E+00
         0.00000E+00
         0.00000E+00
         0.00000E+00
         0.00000E+00
         0.00000E+00
         0.00000E+00
         0.00000E+00
         0.00000E+00
         0.00000E+00
         0.00000E+00
         0.00000E+00
         0.00000E+00
         0.00000E+00
         0.00000E+00
         0.00000E+00
         0.00000E+00
         0.00000E+00
         0.00000E+00
         0.00000E+00
         0.00000E+00
         0.00000E+00
         0.00000E+00
         0.00000E+00
         0.00000E+00
         0.00000E+00
         0.00000E+00
         0.00000E+00
         0.00000E+00
         0.00000E+00
         0.00000E+00
         0.00000E+00
         0.00000E+00
         0.00000E+00
         0.00000E+00
         0.00000E+00
         0.00000E+00
         0.00000E+00
         0.00000E+00
         0.00000E+00
         0.00000E+00
         0.00000E+00
         0.00000E+00
         0.00000E+00
         0.00000E+00
         0.00000E+00
         0.00000E+00
         0.00000E+00
         0.00000E+00
         0.00000E+00
         0.00000E+00
         0.00000E+00
         0.00000E+00
         0.00000E+00
         0.00000E+00
         0.00000E+00
         0.00000E+00
         0.00000E+00
         0.00000E+00
         0.00000E+00
         0.00000E+00
         0.00000E+00
         0.00000E+00
         0.00000E+00
         0.00000E+00
         0.00000E+00
         0.00000E+00
         0.00000E+00
         0.00000E+00
         0.00000E+00
         0.00000E+00
         0.00000E+00
         0.00000E+00
         0.00000E+00
         0.00000E+00
         0.00000E+00
         0.00000E+00
         0.00000E+00
         0.00000E+00
         0.00000E+00
         0.00000E+00
         0.00000E+00
         0.00000E+00
         0.00000E+00
         0.00000E+00
         0.00000E+00
         0.00000E+00
         0.00000E+00
         0.00000E+00
         0.00000E+00
         0.00000E+00
         0.00000E+00
         0.00000E+00
         0.00000E+00
         0.00000E+00
         0.00000E+00
         0.00000E+00
         0.00000E+00
         0.00000E+00
         0.00000E+00
         0.00000E+00
         0.00000E+00
         0.00000E+00
         0.00000E+00
         0.00000E+00
         0.00000E+00
         0.00000E+00
         0.00000E+00
         0.00000E+00
         0.00000E+00
         0.00000E+00
         0.00000E+00
         0.00000E+00
         0.00000E+00
         0.00000E+00
         0.00000E+00
         0.00000E+00
         0.00000E+00
         0.00000E+00
         0.00000E+00
         0.00000E+00
         0.00000E+00
         0.00000E+00
         0.00000E+00
         0.00000E+00
         0.00000E+00
         0.00000E+00
         0.00000E+00
         0.00000E+00
         0.00000E+00
         0.00000E+00
         0.00000E+00
         0.00000E+00
         0.00000E+00
         0.00000E+00
         0.00000E+00
         0.00000E+00
         0.00000E+00
         0.00000E+00
         0.00000E+00
         0.00000E+00
         0.00000E+00
         0.00000E+00
         0.00000E+00
         0.00000E+00
         0.00000E+00
         0.00000E+00
         0.00000E+00
         0.00000E+00
         0.00000E+00
         0.00000E+00
         0.00000E+00
         0.00000E+00
         0.00000E+00
         0.00000E+00
         0.00000E+00
         0.00000E+00
         0.00000E+00
         0.00000E+00
         0.00000E+00
         0.00000E+00
         0.00000E+00
         0.00000E+00
         0.00000E+00
         0.00000E+00
         0.00000E+00
         0.00000E+00
         0.00000E+00
         0.00000E+00
         0.00000E+00
         0.00000E+00
         0.00000E+00
         0.00000E+00
         0.00000E+00
         0.00000E+00
         0.00000E+00
         0.00000E+00
         0.00000E+00
         0.00000E+00
         0.00000E+00
         0.00000E+00
         0.00000E+00
         0.00000E+00
         0.00000E+00
         0.00000E+00
         0.00000E+00
         0.00000E+00
         0.00000E+00
         0.00000E+00
         0.00000E+00
         0.00000E+00
         0.00000E+00
         0.00000E+00
         0.00000E+00
         0.00000E+00
         0.00000E+00
         0.00000E+00
         0.00000E+00
         0.00000E+00
         0.00000E+00
  
SCALARS                 displacement_z  double 1
LOOKUP_TABLE default
        -0.39094E-02
        -0.39031E-02
        -0.39022E-02
        -0.39137E-02
        -0.24024E-16
        -0.26939E-16
        -0.25795E-16
        -0.23434E-16
        -0.38905E-02
        -0.39043E-02
        -0.24225E-16
        -0.23444E-16
        -0.38964E-02
        -0.39052E-02
        -0.28783E-16
        -0.27064E-16
        -0.39099E-02
        -0.39115E-02
        -0.21269E-16
        -0.23589E-16
        -0.38917E-02
        -0.38863E-02
        -0.38889E-02
        -0.28527E-16
        -0.24914E-16
        -0.25726E-16
        -0.39026E-02
        -0.38990E-02
        -0.27367E-16
        -0.23080E-16
        -0.39148E-02
        -0.39178E-02
        -0.39127E-02
        -0.23356E-16
        -0.21713E-16
        -0.21110E-16
        -0.39024E-02
        -0.39150E-02
        -0.24709E-16
        -0.22547E-16
        -0.38987E-02
        -0.39094E-02
        -0.21355E-16
        -0.18906E-16
        -0.38889E-02
        -0.38939E-02
        -0.23402E-16
        -0.26149E-16
        -0.39187E-02
        -0.22862E-16
        -0.39008E-02
        -0.26864E-16
        -0.39140E-02
        -0.24142E-16
        -0.39179E-02
        -0.23157E-16
        -0.39073E-02
        -0.39157E-02
        -0.23595E-16
        -0.22979E-16
        -0.39120E-02
        -0.39007E-02
        -0.23661E-16
        -0.26748E-16
        -0.39113E-02
        -0.22831E-16
        -0.39066E-02
        -0.24918E-16
        -0.38731E-02
        -0.38867E-02
        -0.23985E-16
        -0.25132E-16
        -0.38917E-02
        -0.25343E-16
        -0.39063E-02
        -0.20022E-16
        -0.39049E-02
        -0.19435E-16
        -0.38922E-02
        -0.20492E-16
        -0.38776E-02
        -0.38958E-02
        -0.19524E-16
        -0.20355E-16
        -0.39106E-02
        -0.18958E-16
        -0.38902E-02
        -0.24861E-16
        -0.38849E-02
        -0.25445E-16
        -0.38717E-02
        -0.38897E-02
        -0.24435E-16
        -0.24721E-16
        -0.39019E-02
        -0.22454E-16
        -0.39001E-02
        -0.22133E-16
        -0.38904E-02
        -0.23694E-16
        -0.38764E-02
        -0.38927E-02
        -0.23236E-16
        -0.23918E-16
        -0.38358E-02
        -0.38423E-02
        -0.18040E-16
        -0.16968E-16
        -0.38415E-02
        -0.17225E-16
        -0.38369E-02
        -0.16516E-16
        -0.38373E-02
        -0.16286E-16
        -0.38367E-02
        -0.15391E-16
        -0.38404E-02
        -0.13673E-16
        -0.38420E-02
        -0.12312E-16
        -0.38411E-02
        -0.12227E-16
        -0.38403E-02
        -0.13259E-16
        -0.38346E-02
        -0.13935E-16
        -0.38418E-02
        -0.12724E-16
        -0.38444E-02
        -0.11469E-16
        -0.38438E-02
        -0.11456E-16
        -0.38408E-02
        -0.12805E-16
        -0.38380E-02
        -0.14601E-16
        -0.38365E-02
        -0.15686E-16
        -0.38410E-02
        -0.16940E-16
        -0.38366E-02
        -0.18149E-16
        -0.38432E-02
        -0.16626E-16
        -0.38410E-02
        -0.14585E-16
        -0.38388E-02
        -0.14540E-16
        -0.38425E-02
        -0.15908E-16
        -0.38373E-02
        -0.16960E-16
        -0.38426E-02
        -0.16095E-16
        -0.38427E-02
        -0.15560E-16
        -0.55101E-02
        -0.55090E-02
        -0.55089E-02
        -0.55106E-02
        -0.55072E-02
        -0.55092E-02
        -0.55079E-02
        -0.55093E-02
        -0.55104E-02
        -0.55106E-02
        -0.55075E-02
        -0.55067E-02
        -0.55068E-02
        -0.55089E-02
        -0.55085E-02
        -0.55107E-02
        -0.55115E-02
        -0.55106E-02
        -0.55090E-02
        -0.55110E-02
        -0.55084E-02
        -0.55102E-02
        -0.55069E-02
        -0.55078E-02
        -0.55115E-02
        -0.55086E-02
        -0.55108E-02
        -0.55113E-02
        -0.55096E-02
        -0.55110E-02
        -0.55105E-02
        -0.55086E-02
        -0.55104E-02
        -0.55094E-02
        -0.55048E-02
        -0.55065E-02
        -0.55072E-02
        -0.55098E-02
        -0.55094E-02
        -0.55073E-02
        -0.55053E-02
        -0.55079E-02
        -0.55103E-02
        -0.55070E-02
        -0.55062E-02
        -0.55046E-02
        -0.55069E-02
        -0.55089E-02
        -0.55086E-02
        -0.55070E-02
        -0.55052E-02
        -0.55074E-02
        -0.55008E-02
        -0.55018E-02
        -0.55017E-02
        -0.55012E-02
        -0.55013E-02
        -0.55013E-02
        -0.55018E-02
        -0.55019E-02
        -0.55016E-02
        -0.55013E-02
        -0.55004E-02
        -0.55017E-02
        -0.55023E-02
        -0.55022E-02
        -0.55018E-02
        -0.55013E-02
        -0.55011E-02
        -0.55017E-02
        -0.55010E-02
        -0.55021E-02
        -0.55020E-02
        -0.55015E-02
        -0.55019E-02
        -0.55010E-02
        -0.55019E-02
        -0.55022E-02
        -0.56413E-02
        -0.56413E-02
        -0.56413E-02
        -0.56413E-02
        -0.56413E-02
        -0.56413E-02
        -0.56413E-02
        -0.56413E-02
        -0.56413E-02
        -0.56413E-02
        -0.56413E-02
        -0.56413E-02
        -0.56413E-02
        -0.56413E-02
        -0.56413E-02
        -0.56413E-02
        -0.56413E-02
        -0.56413E-02
        -0.56413E-02
        -0.56413E-02
        -0.56413E-02
        -0.56413E-02
        -0.56413E-02
        -0.56413E-02
        -0.56413E-02
        -0.56413E-02
        -0.56413E-02
        -0.56413E-02
        -0.56413E-02
        -0.56413E-02
        -0.56413E-02
        -0.56413E-02
        -0.56413E-02
        -0.56413E-02
        -0.56413E-02
        -0.56413E-02
        -0.56413E-02
        -0.56413E-02
        -0.56413E-02
        -0.56413E-02
        -0.56413E-02
        -0.56413E-02
        -0.56413E-02
        -0.56413E-02
        -0.56413E-02
        -0.56413E-02
        -0.56413E-02
        -0.56413E-02
        -0.56413E-02
        -0.56413E-02
        -0.56413E-02
        -0.56413E-02
        -0.56413E-02
        -0.56413E-02
        -0.56413E-02
        -0.56413E-02
        -0.56413E-02
        -0.56413E-02
        -0.56413E-02
        -0.56413E-02
        -0.56413E-02
        -0.56413E-02
        -0.56413E-02
        -0.56413E-02
        -0.56413E-02
        -0.56413E-02
        -0.56413E-02
        -0.56413E-02
        -0.56413E-02
        -0.56413E-02
        -0.56413E-02
        -0.56413E-02
        -0.56413E-02
        -0.56413E-02
        -0.56413E-02
        -0.56413E-02
        -0.56413E-02
        -0.56413E-02
        -0.56413E-02
        -0.56413E-02
        -0.56413E-02
        -0.56413E-02
        -0.56413E-02
        -0.56413E-02
        -0.56413E-02
        -0.56413E-02
        -0.56413E-02
        -0.56413E-02
        -0.56413E-02
        -0.56413E-02
        -0.56413E-02
        -0.56413E-02
        -0.56413E-02
        -0.56413E-02
        -0.56413E-02
        -0.56413E-02
        -0.56413E-02
        -0.56413E-02
        -0.56413E-02
        -0.56413E-02
        -0.56413E-02
        -0.56413E-02
        -0.56413E-02
        -0.56413E-02
        -0.56413E-02
        -0.56413E-02
        -0.56413E-02
        -0.56413E-02
        -0.56413E-02
        -0.56413E-02
        -0.56413E-02
        -0.56413E-02
        -0.56413E-02
        -0.56413E-02
        -0.56413E-02
        -0.56413E-02
        -0.56413E-02
        -0.56413E-02
        -0.56413E-02
        -0.56413E-02
        -0.56413E-02
        -0.56413E-02
        -0.56413E-02
        -0.56413E-02
        -0.56413E-02
        -0.56413E-02
        -0.56413E-02
        -0.56413E-02
        -0.56413E-02
        -0.56413E-02
        -0.56413E-02
        -0.56413E-02
        -0.56413E-02
        -0.56413E-02
        -0.56413E-02
        -0.56413E-02
        -0.56413E-02
        -0.56413E-02
        -0.56413E-02
        -0.56413E-02
        -0.56413E-02
        -0.56413E-02
        -0.56413E-02
        -0.56413E-02
        -0.56413E-02
        -0.56413E-02
        -0.56413E-02
        -0.56413E-02
        -0.56413E-02
        -0.56413E-02
        -0.56413E-02
        -0.56413E-02
        -0.56413E-02
        -0.56413E-02
        -0.56413E-02
        -0.56413E-02
        -0.56413E-02
        -0.56413E-02
        -0.56413E-02
        -0.56413E-02
        -0.56413E-02
        -0.56413E-02
        -0.56413E-02
        -0.56413E-02
        -0.56413E-02
        -0.56413E-02
        -0.56413E-02
        -0.56413E-02
        -0.56413E-02
        -0.56413E-02
        -0.56413E-02
        -0.56413E-02
        -0.56413E-02
        -0.56413E-02
        -0.56413E-02
        -0.56413E-02
        -0.56413E-02
        -0.56413E-02
        -0.56413E-02
        -0.56413E-02
        -0.56413E-02
        -0.56413E-02
        -0.56413E-02
        -0.56413E-02
        -0.56413E-02
        -0.56413E-02
        -0.56413E-02
        -0.56413E-02
        -0.56413E-02
        -0.56413E-02
        -0.56413E-02
        -0.56413E-02
        -0.56413E-02
        -0.56413E-02
        -0.56413E-02
        -0.56413E-02
        -0.56413E-02
        -0.56413E-02
        -0.56413E-02
        -0.56413E-02
        -0.56413E-02
        -0.56413E-02
        -0.56413E-02
        -0.56413E-02
        -0.56413E-02
        -0.56413E-02
        -0.56413E-02
        -0.56413E-02
        -0.56413E-02
        -0.56413E-02
        -0.56413E-02
        -0.56413E-02
        -0.56413E-02
        -0.56413E-02
        -0.56413E-02
        -0.56413E-02
        -0.56413E-02
        -0.56413E-02
        -0.56413E-02
        -0.56413E-02
        -0.56413E-02
        -0.56413E-02
        -0.56413E-02
        -0.56413E-02
        -0.56413E-02
        -0.56413E-02
        -0.56413E-02
        -0.56413E-02
        -0.56413E-02
        -0.56413E-02
        -0.56413E-02
        -0.56413E-02
        -0.56413E-02
        -0.56413E-02
        -0.56413E-02
        -0.56413E-02
        -0.56413E-02
        -0.56413E-02
        -0.56413E-02
        -0.56413E-02
        -0.56413E-02
        -0.56413E-02
        -0.56413E-02
        -0.56413E-02
        -0.56413E-02
        -0.56413E-02
        -0.56413E-02
        -0.56413E-02
        -0.56413E-02
        -0.56413E-02
        -0.56413E-02
        -0.56413E-02
        -0.56413E-02
        -0.56413E-02
        -0.56413E-02
        -0.56413E-02
        -0.56413E-02
        -0.56413E-02
        -0.56413E-02
        -0.56413E-02
        -0.56413E-02
        -0.56413E-02
        -0.56413E-02
        -0.56413E-02
        -0.56413E-02
        -0.56413E-02
        -0.56413E-02
        -0.56413E-02
        -0.56413E-02
        -0.56413E-02
        -0.56413E-02
        -0.56413E-02
        -0.56413E-02
        -0.56413E-02
        -0.56413E-02
        -0.56413E-02
        -0.56413E-02
        -0.56413E-02
        -0.56413E-02
        -0.56413E-02
        -0.56413E-02
        -0.56413E-02
        -0.56413E-02
        -0.56413E-02
        -0.56413E-02
        -0.56413E-02
        -0.56413E-02
        -0.56413E-02
        -0.56413E-02
        -0.56413E-02
        -0.56413E-02
        -0.56413E-02
        -0.56413E-02
        -0.56413E-02
        -0.56413E-02
        -0.56413E-02
        -0.56413E-02
        -0.56413E-02
        -0.56413E-02
        -0.56413E-02
        -0.56413E-02
        -0.56413E-02
        -0.56413E-02
        -0.56413E-02
        -0.56413E-02
        -0.56413E-02
        -0.56413E-02
        -0.56413E-02
        -0.56413E-02
        -0.56413E-02
        -0.56413E-02
        -0.56413E-02
        -0.56413E-02
        -0.56413E-02
        -0.56413E-02
        -0.56413E-02
        -0.56413E-02
        -0.56413E-02
        -0.56413E-02
        -0.56413E-02
        -0.56413E-02
        -0.56413E-02
        -0.56413E-02
        -0.56413E-02
        -0.56413E-02
        -0.56413E-02
        -0.56413E-02
        -0.56413E-02
        -0.56413E-02
        -0.56413E-02
        -0.56413E-02
        -0.56413E-02
        -0.56413E-02
        -0.56413E-02
        -0.56413E-02
        -0.56413E-02
        -0.56413E-02
        -0.56413E-02
        -0.56413E-02
        -0.56413E-02
        -0.56413E-02
        -0.56413E-02
        -0.56413E-02
        -0.56413E-02
        -0.56413E-02
        -0.56413E-02
        -0.56413E-02
        -0.56413E-02
        -0.56413E-02
        -0.56413E-02
        -0.56413E-02
        -0.56413E-02
        -0.56413E-02
        -0.56413E-02
        -0.56413E-02
        -0.56413E-02
        -0.56413E-02
        -0.56413E-02
        -0.56413E-02
        -0.56413E-02
        -0.56413E-02
        -0.56413E-02
        -0.56413E-02
        -0.56413E-02
        -0.56413E-02
        -0.56413E-02
        -0.56413E-02
        -0.56413E-02
        -0.56413E-02
        -0.56413E-02
        -0.56413E-02
        -0.56413E-02
        -0.56413E-02
        -0.56413E-02
        -0.56413E-02
        -0.56413E-02
        -0.56413E-02
        -0.56413E-02
        -0.56413E-02
        -0.56413E-02
        -0.56413E-02
        -0.56413E-02
        -0.56413E-02
        -0.56413E-02
        -0.56413E-02
        -0.56413E-02
        -0.56413E-02
        -0.56413E-02
        -0.56413E-02
        -0.56413E-02
        -0.56413E-02
        -0.56413E-02
        -0.56413E-02
        -0.56413E-02
        -0.56413E-02
        -0.56413E-02
        -0.56413E-02
        -0.56413E-02
        -0.56413E-02
        -0.56413E-02
        -0.56413E-02
        -0.56413E-02
        -0.56413E-02
        -0.56413E-02
        -0.56413E-02
        -0.56413E-02
        -0.56413E-02
        -0.56413E-02
        -0.56413E-02
        -0.56413E-02
        -0.56413E-02
        -0.56413E-02
        -0.56413E-02
        -0.56413E-02
        -0.56413E-02
        -0.56413E-02
        -0.56413E-02
        -0.56413E-02
        -0.56413E-02
        -0.56413E-02
        -0.56413E-02
        -0.56413E-02
        -0.56413E-02
        -0.56413E-02
        -0.56413E-02
        -0.56413E-02
        -0.56413E-02
        -0.56413E-02
        -0.56413E-02
        -0.56413E-02
        -0.56413E-02
        -0.56413E-02
        -0.56413E-02
        -0.56413E-02
        -0.56413E-02
        -0.56413E-02
        -0.56413E-02
        -0.56413E-02
        -0.56413E-02
        -0.56413E-02
        -0.56413E-02
        -0.56413E-02
        -0.56413E-02
        -0.56413E-02
        -0.56413E-02
        -0.56413E-02
        -0.56413E-02
        -0.56413E-02
        -0.56413E-02
        -0.56413E-02
        -0.56413E-02
        -0.56413E-02
        -0.56413E-02
        -0.56413E-02
        -0.56413E-02
        -0.56413E-02
        -0.56413E-02
        -0.56413E-02
        -0.56413E-02
        -0.56413E-02
        -0.56413E-02
        -0.56413E-02
        -0.56413E-02
        -0.56413E-02
        -0.56413E-02
        -0.56413E-02
        -0.56413E-02
        -0.56413E-02
        -0.56413E-02
        -0.56413E-02
        -0.56413E-02
        -0.56413E-02
        -0.56413E-02
        -0.56413E-02
        -0.56413E-02
        -0.56413E-02
        -0.56413E-02
        -0.56413E-02
        -0.56413E-02
        -0.56413E-02
        -0.56413E-02
        -0.56413E-02
        -0.56413E-02
        -0.56413E-02
        -0.56413E-02
        -0.56413E-02
        -0.56413E-02
        -0.56413E-02
        -0.56413E-02
        -0.56413E-02
        -0.56413E-02
        -0.56413E-02
        -0.56413E-02
        -0.56413E-02
        -0.56413E-02
        -0.56413E-02
        -0.56413E-02
        -0.56413E-02
        -0.56413E-02
        -0.56413E-02
        -0.56413E-02
        -0.56413E-02
        -0.56413E-02
        -0.56413E-02
        -0.56413E-02
        -0.56413E-02
        -0.56413E-02
        -0.56413E-02
        -0.56413E-02
        -0.56413E-02
        -0.56413E-02
        -0.56413E-02
        -0.56413E-02
        -0.56413E-02
        -0.56413E-02
        -0.56413E-02
        -0.56413E-02
        -0.56413E-02
        -0.56413E-02
        -0.56413E-02
        -0.56413E-02
        -0.56413E-02
        -0.56413E-02
        -0.56413E-02
        -0.56413E-02
        -0.56413E-02
        -0.56413E-02
        -0.56413E-02
        -0.56413E-02
        -0.56413E-02
        -0.56413E-02
        -0.56413E-02
        -0.56413E-02
        -0.56413E-02
        -0.56413E-02
        -0.56413E-02
        -0.56413E-02
        -0.56413E-02
        -0.56413E-02
        -0.56413E-02
        -0.56413E-02
        -0.56413E-02
        -0.56413E-02
        -0.56413E-02
        -0.56413E-02
        -0.56413E-02
        -0.56413E-02
        -0.56413E-02
        -0.56413E-02
        -0.56413E-02
        -0.56413E-02
        -0.56413E-02
        -0.56413E-02
        -0.56413E-02
        -0.56413E-02
        -0.56413E-02
        -0.56413E-02
        -0.56413E-02
        -0.56413E-02
        -0.56413E-02
        -0.56413E-02
        -0.56413E-02
        -0.56413E-02
        -0.56413E-02
        -0.56413E-02
        -0.56413E-02
        -0.56413E-02
        -0.56413E-02
        -0.56413E-02
        -0.56413E-02
        -0.56413E-02
        -0.56413E-02
        -0.56413E-02
        -0.56413E-02
        -0.56413E-02
        -0.56413E-02
        -0.56413E-02
        -0.56413E-02
        -0.56413E-02
        -0.56413E-02
        -0.56413E-02
        -0.56413E-02
        -0.56413E-02
        -0.56413E-02
        -0.56413E-02
        -0.56413E-02
        -0.56413E-02
        -0.56413E-02
        -0.56413E-02
        -0.56413E-02
        -0.56413E-02
        -0.56413E-02
        -0.56413E-02
        -0.56413E-02
        -0.56413E-02
        -0.56413E-02
        -0.56413E-02
        -0.56413E-02
        -0.56413E-02
        -0.56413E-02
        -0.56413E-02
        -0.56413E-02
        -0.56413E-02
        -0.56413E-02
        -0.56413E-02
        -0.56413E-02
        -0.56413E-02
        -0.56413E-02
        -0.56413E-02
        -0.56413E-02
        -0.56413E-02
        -0.56413E-02
        -0.56413E-02
        -0.56413E-02
        -0.56413E-02
        -0.56413E-02
        -0.56413E-02
        -0.56413E-02
        -0.56413E-02
        -0.56413E-02
        -0.56413E-02
        -0.56413E-02
        -0.56413E-02
        -0.56413E-02
        -0.56413E-02
        -0.56413E-02
        -0.56413E-02
        -0.56413E-02
        -0.56413E-02
        -0.56413E-02
        -0.56413E-02
        -0.56413E-02
        -0.56413E-02
        -0.56413E-02
        -0.56413E-02
        -0.56413E-02
        -0.56413E-02
        -0.56413E-02
        -0.56413E-02
        -0.56413E-02
        -0.56413E-02
        -0.56413E-02
        -0.56413E-02
        -0.56413E-02
        -0.56413E-02
        -0.56413E-02
        -0.56413E-02
        -0.56413E-02
        -0.56413E-02
        -0.56413E-02
        -0.56413E-02
        -0.56413E-02
        -0.56413E-02
        -0.56413E-02
        -0.56413E-02
        -0.56413E-02
        -0.56413E-02
        -0.56413E-02
        -0.56413E-02
        -0.56413E-02
        -0.56413E-02
        -0.56413E-02
        -0.56413E-02
        -0.56413E-02
        -0.56413E-02
        -0.56413E-02
        -0.56413E-02
        -0.56413E-02
        -0.56413E-02
        -0.56413E-02
        -0.56413E-02
        -0.56413E-02
        -0.56413E-02
        -0.56413E-02
        -0.56413E-02
        -0.56413E-02
        -0.56413E-02
        -0.56413E-02
        -0.56413E-02
        -0.56413E-02
        -0.56413E-02
        -0.56413E-02
        -0.56413E-02
        -0.56413E-02
        -0.56413E-02
        -0.56413E-02
        -0.56413E-02
        -0.56413E-02
        -0.56413E-02
        -0.56413E-02
        -0.56413E-02
        -0.56413E-02
        -0.56413E-02
        -0.56413E-02
        -0.56413E-02
        -0.56413E-02
        -0.56413E-02
        -0.56413E-02
        -0.56413E-02
        -0.56413E-02
        -0.56413E-02
        -0.56413E-02
        -0.56413E-02
        -0.56413E-02
        -0.56413E-02
        -0.56413E-02
        -0.56413E-02
        -0.56413E-02
        -0.56413E-02
        -0.56413E-02
        -0.56413E-02
        -0.56413E-02
        -0.56413E-02
        -0.56413E-02
        -0.56413E-02
        -0.56413E-02
        -0.56413E-02
        -0.56413E-02
        -0.56413E-02
        -0.56413E-02
        -0.56413E-02
        -0.56413E-02
        -0.56413E-02
        -0.56413E-02
        -0.56413E-02
        -0.56413E-02
        -0.56413E-02
        -0.56413E-02
        -0.56413E-02
        -0.56413E-02
        -0.56413E-02
        -0.56413E-02
        -0.56413E-02
        -0.56413E-02
        -0.56413E-02
        -0.56413E-02
        -0.56413E-02
        -0.56413E-02
        -0.56413E-02
        -0.56413E-02
        -0.56413E-02
        -0.56413E-02
        -0.56413E-02
        -0.56413E-02
        -0.56413E-02
        -0.56413E-02
        -0.56413E-02
        -0.56413E-02
        -0.56413E-02
        -0.56413E-02
        -0.56413E-02
        -0.56413E-02
        -0.56413E-02
        -0.56413E-02
        -0.56413E-02
        -0.56413E-02
        -0.56413E-02
        -0.56413E-02
        -0.56413E-02
        -0.56413E-02
        -0.56413E-02
        -0.56413E-02
        -0.56413E-02
        -0.56413E-02
        -0.56413E-02
        -0.56413E-02
        -0.56413E-02
        -0.56413E-02
        -0.56413E-02
        -0.56413E-02
        -0.56413E-02
        -0.56413E-02
        -0.56413E-02
        -0.56413E-02
        -0.56413E-02
        -0.56413E-02
        -0.56413E-02
        -0.56413E-02
        -0.56413E-02
        -0.56413E-02
        -0.56413E-02
        -0.56413E-02
        -0.56413E-02
        -0.56413E-02
        -0.56413E-02
        -0.56413E-02
        -0.56413E-02
        -0.56413E-02
        -0.56413E-02
        -0.56413E-02
        -0.56413E-02
        -0.56413E-02
        -0.56413E-02
        -0.56413E-02
        -0.56413E-02
        -0.56413E-02
        -0.56413E-02
        -0.56413E-02
        -0.56413E-02
        -0.56413E-02
        -0.56413E-02
        -0.56413E-02
        -0.56413E-02
        -0.56413E-02
        -0.56413E-02
        -0.56413E-02
        -0.56413E-02
        -0.56413E-02
        -0.56413E-02
        -0.56413E-02
        -0.56413E-02
        -0.56413E-02
        -0.56413E-02
        -0.56413E-02
        -0.56413E-02
        -0.56413E-02
        -0.56413E-02
        -0.56413E-02
        -0.56413E-02
        -0.56413E-02
        -0.56413E-02
        -0.56413E-02
        -0.56413E-02
        -0.56413E-02
        -0.56413E-02
        -0.56413E-02
        -0.56413E-02
        -0.56413E-02
        -0.56413E-02
        -0.56413E-02
        -0.56413E-02
        -0.56413E-02
        -0.56413E-02
        -0.56413E-02
        -0.56413E-02
        -0.56413E-02
        -0.56413E-02
        -0.56413E-02
        -0.56413E-02
        -0.56413E-02
        -0.56413E-02
        -0.56413E-02
        -0.56413E-02
        -0.56413E-02
        -0.56413E-02
        -0.56413E-02
        -0.56413E-02
        -0.56413E-02
        -0.56413E-02
        -0.56413E-02
        -0.56413E-02
        -0.56413E-02
        -0.56413E-02
        -0.56413E-02
        -0.56413E-02
        -0.56413E-02
        -0.56413E-02
        -0.56413E-02
        -0.56413E-02
        -0.56413E-02
        -0.56413E-02
        -0.56413E-02
        -0.56413E-02
        -0.56413E-02
        -0.56413E-02
        -0.56413E-02
        -0.56413E-02
        -0.56413E-02
        -0.56413E-02
        -0.56413E-02
        -0.56413E-02
        -0.56413E-02
        -0.56413E-02
        -0.56413E-02
        -0.56413E-02
        -0.56413E-02
        -0.56413E-02
        -0.56413E-02
        -0.56413E-02
        -0.56413E-02
        -0.56413E-02
        -0.56413E-02
        -0.56413E-02
        -0.56413E-02
        -0.56413E-02
        -0.56413E-02
        -0.56413E-02
        -0.56413E-02
        -0.56413E-02
        -0.56413E-02
        -0.56413E-02
        -0.56413E-02
        -0.56413E-02
        -0.56413E-02
        -0.56413E-02
        -0.56413E-02
        -0.56413E-02
        -0.56413E-02
        -0.56413E-02
        -0.56413E-02
        -0.56413E-02
        -0.56413E-02
        -0.56413E-02
        -0.56413E-02
        -0.56413E-02
        -0.56413E-02
        -0.56413E-02
        -0.56413E-02
        -0.56413E-02
        -0.56413E-02
        -0.56413E-02
        -0.56413E-02
        -0.56413E-02
        -0.56413E-02
        -0.56413E-02
        -0.56413E-02
        -0.56413E-02
        -0.56413E-02
        -0.56413E-02
        -0.56413E-02
        -0.56413E-02
        -0.56413E-02
        -0.56413E-02
        -0.56413E-02
        -0.56413E-02
        -0.56413E-02
        -0.56413E-02
        -0.56413E-02
        -0.56413E-02
        -0.56413E-02
        -0.56413E-02
        -0.56413E-02
        -0.56413E-02
        -0.56413E-02
        -0.56413E-02
        -0.56413E-02
        -0.56413E-02
        -0.56413E-02
        -0.56413E-02
        -0.56413E-02
        -0.56413E-02
        -0.56413E-02
        -0.56413E-02
        -0.56413E-02
        -0.56413E-02
        -0.56413E-02
        -0.56413E-02
        -0.56413E-02
        -0.56413E-02
        -0.56413E-02
        -0.56413E-02
        -0.56413E-02
        -0.56413E-02
        -0.56413E-02
        -0.56413E-02
        -0.56413E-02
        -0.56413E-02
        -0.56413E-02
        -0.56413E-02
        -0.56413E-02
        -0.56413E-02
        -0.56413E-02
        -0.56413E-02
        -0.56413E-02
        -0.56413E-02
        -0.56413E-02
        -0.56413E-02
        -0.56413E-02
        -0.56413E-02
        -0.56413E-02
        -0.56413E-02
        -0.56413E-02
        -0.56413E-02
        -0.56413E-02
        -0.56413E-02
        -0.56413E-02
        -0.56413E-02
        -0.56413E-02
        -0.56413E-02
        -0.56413E-02
        -0.56413E-02
        -0.56413E-02
        -0.56413E-02
        -0.56413E-02
        -0.56413E-02
        -0.56413E-02
        -0.56413E-02
        -0.56413E-02
        -0.56413E-02
        -0.56413E-02
        -0.56413E-02
        -0.56413E-02
        -0.56413E-02
        -0.56413E-02
        -0.56413E-02
        -0.56413E-02
        -0.56413E-02
        -0.56413E-02
        -0.56413E-02
        -0.56413E-02
        -0.56413E-02
        -0.56413E-02
        -0.56413E-02
        -0.56413E-02
        -0.56413E-02
        -0.56413E-02
        -0.56413E-02
        -0.56413E-02
        -0.56413E-02
        -0.56413E-02
        -0.56413E-02
        -0.56413E-02
        -0.56413E-02
        -0.56413E-02
        -0.56413E-02
        -0.56413E-02
        -0.56413E-02
        -0.56413E-02
        -0.56413E-02
        -0.56413E-02
        -0.56413E-02
        -0.56413E-02
        -0.56413E-02
        -0.56413E-02
        -0.56413E-02
        -0.56413E-02
        -0.56413E-02
        -0.56413E-02
        -0.56413E-02
        -0.56413E-02
        -0.56413E-02
        -0.56413E-02
        -0.56413E-02
        -0.56413E-02
        -0.56413E-02
        -0.56413E-02
        -0.56413E-02
        -0.56413E-02
        -0.56413E-02
        -0.56413E-02
        -0.56413E-02
        -0.56413E-02
        -0.56413E-02
        -0.56413E-02
        -0.56413E-02
        -0.56413E-02
        -0.56413E-02
        -0.56413E-02
        -0.56413E-02
        -0.56413E-02
        -0.56413E-02
        -0.56413E-02
        -0.56413E-02
        -0.56413E-02
        -0.56413E-02
        -0.56413E-02
        -0.56413E-02
        -0.56413E-02
        -0.56413E-02
        -0.56413E-02
        -0.56413E-02
        -0.56413E-02
        -0.56413E-02
        -0.56413E-02
        -0.56413E-02
        -0.56413E-02
        -0.56413E-02
        -0.56413E-02
        -0.56413E-02
        -0.56413E-02
        -0.56413E-02
        -0.56413E-02
        -0.56413E-02
        -0.56413E-02
        -0.56413E-02
        -0.56413E-02
        -0.56413E-02
        -0.56413E-02
        -0.56413E-02
        -0.56413E-02
        -0.56413E-02
        -0.56413E-02
        -0.56413E-02
        -0.56413E-02
        -0.56413E-02
        -0.56413E-02
        -0.56413E-02
        -0.56413E-02
        -0.56413E-02
        -0.56413E-02
        -0.56413E-02
        -0.56413E-02
        -0.56413E-02
        -0.56413E-02
        -0.56413E-02
        -0.56413E-02
        -0.56413E-02
        -0.56413E-02
        -0.56413E-02
        -0.56413E-02
        -0.56413E-02
        -0.56413E-02
        -0.56413E-02
        -0.56413E-02
        -0.56413E-02
        -0.56413E-02
        -0.56413E-02
        -0.56413E-02
        -0.56413E-02
        -0.56413E-02
        -0.56413E-02
        -0.56413E-02
        -0.56413E-02
        -0.56413E-02
        -0.56413E-02
        -0.56413E-02
        -0.56413E-02
        -0.56413E-02
        -0.56413E-02
        -0.56413E-02
        -0.56413E-02
        -0.56413E-02
        -0.56413E-02
        -0.56413E-02
        -0.56413E-02
        -0.56413E-02
        -0.56413E-02
        -0.56413E-02
        -0.56413E-02
        -0.56413E-02
        -0.56413E-02
        -0.56413E-02
        -0.56413E-02
        -0.56413E-02
        -0.56413E-02
        -0.56413E-02
        -0.56413E-02
        -0.56413E-02
        -0.56413E-02
        -0.56413E-02
        -0.56413E-02
        -0.56413E-02
        -0.56413E-02
        -0.56413E-02
        -0.56413E-02
        -0.56413E-02
        -0.56413E-02
        -0.56413E-02
        -0.56413E-02
        -0.56413E-02
        -0.56413E-02
        -0.56413E-02
        -0.56413E-02
        -0.56413E-02
        -0.56413E-02
        -0.56413E-02
        -0.56413E-02
        -0.56413E-02
        -0.56413E-02
        -0.56413E-02
        -0.56413E-02
        -0.56413E-02
        -0.56413E-02
        -0.56413E-02
        -0.56413E-02
        -0.56413E-02
        -0.56413E-02
        -0.56413E-02
        -0.56413E-02
        -0.56413E-02
        -0.56413E-02
        -0.56413E-02
        -0.56413E-02
        -0.56413E-02
        -0.56413E-02
        -0.56413E-02
        -0.56413E-02
        -0.56413E-02
        -0.56413E-02
        -0.56413E-02
        -0.56413E-02
        -0.56413E-02
        -0.56413E-02
        -0.56413E-02
        -0.56413E-02
        -0.56413E-02
        -0.56413E-02
        -0.56413E-02
        -0.56413E-02
        -0.56413E-02
        -0.56413E-02
        -0.56413E-02
        -0.56413E-02
        -0.56413E-02
        -0.56413E-02
        -0.56413E-02
        -0.56413E-02
        -0.56413E-02
        -0.56413E-02
        -0.56413E-02
        -0.56413E-02
        -0.56413E-02
        -0.56413E-02
        -0.56413E-02
        -0.56413E-02
        -0.56413E-02
        -0.56413E-02
        -0.56413E-02
        -0.56413E-02
        -0.56413E-02
        -0.56413E-02
        -0.56413E-02
        -0.56413E-02
        -0.56413E-02
        -0.56413E-02
        -0.56413E-02
        -0.56413E-02
        -0.56413E-02
        -0.56413E-02
        -0.56413E-02
        -0.56413E-02
        -0.56413E-02
        -0.56413E-02
        -0.56413E-02
        -0.56413E-02
        -0.56413E-02
        -0.56413E-02
        -0.56413E-02
        -0.56413E-02
        -0.56413E-02
        -0.56413E-02
        -0.56413E-02
        -0.56413E-02
        -0.56413E-02
        -0.56413E-02
        -0.56413E-02
        -0.56413E-02
        -0.56413E-02
        -0.56413E-02
        -0.56413E-02
        -0.56413E-02
        -0.56413E-02
        -0.56413E-02
        -0.56413E-02
        -0.56413E-02
        -0.56413E-02
        -0.56413E-02
        -0.56413E-02
        -0.56413E-02
        -0.56413E-02
        -0.56413E-02
        -0.56413E-02
        -0.56413E-02
        -0.56413E-02
        -0.56413E-02
        -0.56413E-02
        -0.56413E-02
        -0.56413E-02
        -0.56413E-02
        -0.56413E-02
        -0.56413E-02
        -0.56413E-02
        -0.56413E-02
        -0.56413E-02
        -0.56413E-02
        -0.56413E-02
        -0.56413E-02
        -0.56413E-02
        -0.56413E-02
        -0.56413E-02
        -0.56413E-02
        -0.56413E-02
        -0.56413E-02
        -0.56413E-02
        -0.56413E-02
        -0.56413E-02
        -0.56413E-02
        -0.56413E-02
        -0.56413E-02
        -0.56413E-02
        -0.56413E-02
        -0.56413E-02
        -0.56413E-02
        -0.56413E-02
        -0.56413E-02
        -0.56413E-02
        -0.56413E-02
        -0.56413E-02
        -0.56413E-02
        -0.56413E-02
        -0.56413E-02
        -0.56413E-02
        -0.56413E-02
        -0.56413E-02
        -0.56413E-02
        -0.56413E-02
        -0.56413E-02
        -0.56413E-02
        -0.56413E-02
        -0.56413E-02
        -0.56413E-02
        -0.56413E-02
        -0.56413E-02
        -0.56413E-02
        -0.56413E-02
        -0.56413E-02
        -0.56413E-02
        -0.56413E-02
        -0.56413E-02
        -0.56413E-02
        -0.56413E-02
        -0.56413E-02
        -0.56413E-02
        -0.56413E-02
        -0.56413E-02
        -0.56413E-02
        -0.56413E-02
        -0.56413E-02
        -0.56413E-02
        -0.56413E-02
        -0.56413E-02
        -0.56413E-02
        -0.56413E-02
        -0.56413E-02
        -0.56413E-02
        -0.56413E-02
        -0.56413E-02
        -0.56413E-02
        -0.56413E-02
        -0.56413E-02
        -0.56413E-02
        -0.56413E-02
        -0.56413E-02
        -0.56413E-02
        -0.56413E-02
        -0.56413E-02
        -0.56413E-02
        -0.56413E-02
        -0.56413E-02
        -0.56413E-02
        -0.56413E-02
        -0.56413E-02
        -0.56413E-02
        -0.56413E-02
        -0.56413E-02
        -0.56413E-02
        -0.56413E-02
        -0.56413E-02
        -0.56413E-02
        -0.56413E-02
        -0.56413E-02
        -0.56413E-02
        -0.56413E-02
        -0.56413E-02
        -0.56413E-02
        -0.56413E-02
        -0.56413E-02
        -0.56413E-02
        -0.56413E-02
        -0.56413E-02
        -0.56413E-02
        -0.56413E-02
        -0.56413E-02
        -0.56413E-02
        -0.56413E-02
        -0.56413E-02
        -0.56413E-02
        -0.56413E-02
        -0.56413E-02
        -0.56413E-02
        -0.56413E-02
        -0.56413E-02
        -0.56413E-02
        -0.56413E-02
        -0.56413E-02
        -0.56413E-02
        -0.56413E-02
        -0.56413E-02
        -0.56413E-02
        -0.56413E-02
        -0.56413E-02
        -0.56413E-02
        -0.56413E-02
        -0.56413E-02
        -0.56413E-02
        -0.56413E-02
        -0.56413E-02
        -0.56413E-02
        -0.56413E-02
        -0.56413E-02
        -0.56413E-02
        -0.56413E-02
        -0.56413E-02
        -0.56413E-02
        -0.56413E-02
        -0.56413E-02
        -0.56413E-02
        -0.56413E-02
        -0.56413E-02
        -0.56413E-02
        -0.56413E-02
        -0.56413E-02
        -0.56413E-02
        -0.56413E-02
        -0.56413E-02
        -0.56413E-02
        -0.56413E-02
        -0.56413E-02
        -0.56413E-02
        -0.56413E-02
        -0.56413E-02
        -0.56413E-02
        -0.56413E-02
        -0.56413E-02
        -0.56413E-02
        -0.56413E-02
        -0.56413E-02
        -0.56413E-02
        -0.56413E-02
        -0.56413E-02
        -0.56413E-02
        -0.56413E-02
        -0.56413E-02
        -0.56413E-02
        -0.56413E-02
        -0.56413E-02
        -0.56413E-02
        -0.56413E-02
        -0.56413E-02
        -0.56413E-02
        -0.56413E-02
        -0.56413E-02
        -0.56413E-02
        -0.56413E-02
        -0.56413E-02
        -0.56413E-02
        -0.56413E-02
        -0.56413E-02
        -0.56413E-02
        -0.56413E-02
        -0.56413E-02
        -0.56413E-02
        -0.56413E-02
        -0.56413E-02
        -0.56413E-02
        -0.56413E-02
        -0.56413E-02
        -0.56413E-02
        -0.56413E-02
        -0.56413E-02
        -0.56413E-02
        -0.56413E-02
        -0.56413E-02
        -0.56413E-02
        -0.56413E-02
        -0.56413E-02
        -0.56413E-02
        -0.56413E-02
        -0.56413E-02
        -0.56413E-02
        -0.56413E-02
        -0.56413E-02
        -0.56413E-02
        -0.56413E-02
        -0.56413E-02
        -0.56413E-02
        -0.56413E-02
        -0.56413E-02
        -0.56413E-02
        -0.56413E-02
        -0.56413E-02
        -0.56413E-02
        -0.56413E-02
        -0.56413E-02
        -0.56413E-02
        -0.56413E-02
        -0.56413E-02
        -0.56413E-02
        -0.56413E-02
        -0.56413E-02
        -0.56413E-02
        -0.56413E-02
        -0.56413E-02
        -0.56413E-02
        -0.56413E-02
        -0.56413E-02
        -0.56413E-02
        -0.56413E-02
        -0.56413E-02
        -0.56413E-02
        -0.56413E-02
        -0.56413E-02
        -0.56413E-02
        -0.56413E-02
        -0.56413E-02
        -0.56413E-02
        -0.56413E-02
        -0.56413E-02
        -0.56413E-02
        -0.56413E-02
        -0.56413E-02
        -0.56413E-02
        -0.56413E-02
        -0.56413E-02
        -0.56413E-02
        -0.56413E-02
        -0.56413E-02
        -0.56413E-02
        -0.56413E-02
        -0.56413E-02
        -0.56413E-02
        -0.56413E-02
        -0.56413E-02
        -0.56413E-02
        -0.56413E-02
        -0.56413E-02
        -0.56413E-02
        -0.56413E-02
        -0.56413E-02
        -0.56413E-02
        -0.56413E-02
        -0.56413E-02
        -0.56413E-02
        -0.56413E-02
        -0.56413E-02
        -0.56413E-02
        -0.56413E-02
        -0.56413E-02
        -0.56413E-02
        -0.56413E-02
        -0.56413E-02
        -0.56413E-02
        -0.56413E-02
        -0.56413E-02
        -0.56413E-02
        -0.56413E-02
        -0.56413E-02
        -0.56413E-02
        -0.56413E-02
        -0.56413E-02
        -0.56413E-02
        -0.56413E-02
        -0.56413E-02
        -0.56413E-02
        -0.56413E-02
        -0.56413E-02
        -0.56413E-02
        -0.56413E-02
        -0.56413E-02
        -0.56413E-02
        -0.56413E-02
        -0.56413E-02
        -0.56413E-02
        -0.56413E-02
        -0.56413E-02
        -0.56413E-02
        -0.56413E-02
        -0.56413E-02
        -0.56413E-02
        -0.56413E-02
        -0.56413E-02
        -0.56413E-02
        -0.56413E-02
        -0.56413E-02
        -0.56413E-02
        -0.56413E-02
        -0.56413E-02
        -0.56413E-02
        -0.56413E-02
        -0.56413E-02
        -0.56413E-02
        -0.56413E-02
        -0.56413E-02
        -0.56413E-02
        -0.56413E-02
        -0.56413E-02
        -0.56413E-02
        -0.56413E-02
        -0.56413E-02
        -0.56413E-02
        -0.56413E-02
        -0.56413E-02
        -0.56413E-02
        -0.56413E-02
        -0.56413E-02
        -0.56413E-02
        -0.56413E-02
        -0.56413E-02
        -0.56413E-02
        -0.56413E-02
        -0.56413E-02
        -0.56413E-02
        -0.56413E-02
        -0.56413E-02
        -0.56413E-02
        -0.56413E-02
        -0.56413E-02
        -0.56413E-02
        -0.56413E-02
        -0.56413E-02
        -0.56413E-02
        -0.56413E-02
        -0.56413E-02
        -0.56413E-02
        -0.56413E-02
        -0.56413E-02
        -0.56413E-02
        -0.56413E-02
        -0.56413E-02
        -0.56413E-02
        -0.56413E-02
        -0.56413E-02
        -0.56413E-02
        -0.56413E-02
        -0.56413E-02
        -0.56413E-02
        -0.56413E-02
        -0.56413E-02
        -0.56413E-02
        -0.56413E-02
        -0.56413E-02
        -0.56413E-02
        -0.56413E-02
        -0.56413E-02
        -0.56413E-02
        -0.56413E-02
        -0.56413E-02
        -0.56413E-02
        -0.56413E-02
        -0.56413E-02
        -0.56413E-02
        -0.56413E-02
        -0.56413E-02
        -0.56413E-02
        -0.56413E-02
        -0.56413E-02
        -0.56413E-02
        -0.56413E-02
        -0.56413E-02
        -0.56413E-02
        -0.56413E-02
        -0.56413E-02
        -0.56413E-02
        -0.56413E-02
        -0.56413E-02
        -0.56413E-02
        -0.56413E-02
        -0.56413E-02
        -0.56413E-02
        -0.56413E-02
        -0.56413E-02
        -0.56413E-02
        -0.56413E-02
        -0.56413E-02
        -0.56413E-02
        -0.56413E-02
        -0.56413E-02
        -0.56413E-02
        -0.56413E-02
        -0.56413E-02
        -0.56413E-02
        -0.56413E-02
        -0.56413E-02
        -0.56413E-02
        -0.56413E-02
        -0.56413E-02
        -0.56413E-02
        -0.56413E-02
        -0.56413E-02
        -0.56413E-02
        -0.56413E-02
        -0.56413E-02
        -0.56413E-02
        -0.56413E-02
        -0.56413E-02
        -0.56413E-02
        -0.56413E-02
        -0.56413E-02
        -0.56413E-02
        -0.56413E-02
        -0.56413E-02
        -0.56413E-02
        -0.56413E-02
        -0.56413E-02
        -0.56413E-02
        -0.56413E-02
        -0.56413E-02
        -0.56413E-02
        -0.56413E-02
        -0.56413E-02
        -0.56413E-02
        -0.56413E-02
        -0.56413E-02
        -0.56413E-02
        -0.56413E-02
        -0.56413E-02
        -0.56413E-02
        -0.56413E-02
        -0.56413E-02
        -0.56413E-02
        -0.56413E-02
        -0.56413E-02
        -0.56413E-02
        -0.56413E-02
        -0.56413E-02
        -0.56413E-02
        -0.56413E-02
        -0.56413E-02
        -0.56413E-02
        -0.56413E-02
        -0.56413E-02
        -0.56413E-02
        -0.56413E-02
        -0.56413E-02
        -0.56413E-02
        -0.56413E-02
  
SCALARS                     velocity_x  double 1
LOOKUP_TABLE default
         0.00000E+00
         0.00000E+00
         0.00000E+00
         0.00000E+00
         0.00000E+00
         0.00000E+00
         0.00000E+00
         0.00000E+00
         0.00000E+00
         0.00000E+00
         0.00000E+00
         0.00000E+00
         0.00000E+00
         0.00000E+00
         0.00000E+00
         0.00000E+00
         0.00000E+00
         0.00000E+00
         0.00000E+00
         0.00000E+00
         0.00000E+00
         0.00000E+00
         0.00000E+00
         0.00000E+00
         0.00000E+00
         0.00000E+00
         0.00000E+00
         0.00000E+00
         0.00000E+00
         0.00000E+00
         0.00000E+00
         0.00000E+00
         0.00000E+00
         0.00000E+00
         0.00000E+00
         0.00000E+00
         0.00000E+00
         0.00000E+00
         0.00000E+00
         0.00000E+00
         0.00000E+00
         0.00000E+00
         0.00000E+00
         0.00000E+00
         0.00000E+00
         0.00000E+00
         0.00000E+00
         0.00000E+00
         0.00000E+00
         0.00000E+00
         0.00000E+00
         0.00000E+00
         0.00000E+00
         0.00000E+00
         0.00000E+00
         0.00000E+00
         0.00000E+00
         0.00000E+00
         0.00000E+00
         0.00000E+00
         0.00000E+00
         0.00000E+00
         0.00000E+00
         0.00000E+00
         0.00000E+00
         0.00000E+00
         0.00000E+00
         0.00000E+00
         0.00000E+00
         0.00000E+00
         0.00000E+00
         0.00000E+00
         0.00000E+00
         0.00000E+00
         0.00000E+00
         0.00000E+00
         0.00000E+00
         0.00000E+00
         0.00000E+00
         0.00000E+00
         0.00000E+00
         0.00000E+00
         0.00000E+00
         0.00000E+00
         0.00000E+00
         0.00000E+00
         0.00000E+00
         0.00000E+00
         0.00000E+00
         0.00000E+00
         0.00000E+00
         0.00000E+00
         0.00000E+00
         0.00000E+00
         0.00000E+00
         0.00000E+00
         0.00000E+00
         0.00000E+00
         0.00000E+00
         0.00000E+00
         0.00000E+00
         0.00000E+00
         0.00000E+00
         0.00000E+00
         0.00000E+00
         0.00000E+00
         0.00000E+00
         0.00000E+00
         0.00000E+00
         0.00000E+00
         0.00000E+00
         0.00000E+00
         0.00000E+00
         0.00000E+00
         0.00000E+00
         0.00000E+00
         0.00000E+00
         0.00000E+00
         0.00000E+00
         0.00000E+00
         0.00000E+00
         0.00000E+00
         0.00000E+00
         0.00000E+00
         0.00000E+00
         0.00000E+00
         0.00000E+00
         0.00000E+00
         0.00000E+00
         0.00000E+00
         0.00000E+00
         0.00000E+00
         0.00000E+00
         0.00000E+00
         0.00000E+00
         0.00000E+00
         0.00000E+00
         0.00000E+00
         0.00000E+00
         0.00000E+00
         0.00000E+00
         0.00000E+00
         0.00000E+00
         0.00000E+00
         0.00000E+00
         0.00000E+00
         0.00000E+00
         0.00000E+00
         0.00000E+00
         0.00000E+00
         0.00000E+00
         0.00000E+00
         0.00000E+00
         0.00000E+00
         0.00000E+00
         0.00000E+00
         0.00000E+00
         0.00000E+00
         0.00000E+00
         0.00000E+00
         0.00000E+00
         0.00000E+00
         0.00000E+00
         0.00000E+00
         0.00000E+00
         0.00000E+00
         0.00000E+00
         0.00000E+00
         0.00000E+00
         0.00000E+00
         0.00000E+00
         0.00000E+00
         0.00000E+00
         0.00000E+00
         0.00000E+00
         0.00000E+00
         0.00000E+00
         0.00000E+00
         0.00000E+00
         0.00000E+00
         0.00000E+00
         0.00000E+00
         0.00000E+00
         0.00000E+00
         0.00000E+00
         0.00000E+00
         0.00000E+00
         0.00000E+00
         0.00000E+00
         0.00000E+00
         0.00000E+00
         0.00000E+00
         0.00000E+00
         0.00000E+00
         0.00000E+00
         0.00000E+00
         0.00000E+00
         0.00000E+00
         0.00000E+00
         0.00000E+00
         0.00000E+00
         0.00000E+00
         0.00000E+00
         0.00000E+00
         0.00000E+00
         0.00000E+00
         0.00000E+00
         0.00000E+00
         0.00000E+00
         0.00000E+00
         0.00000E+00
         0.00000E+00
         0.00000E+00
         0.00000E+00
         0.00000E+00
         0.00000E+00
         0.00000E+00
         0.00000E+00
         0.00000E+00
         0.00000E+00
         0.00000E+00
         0.00000E+00
         0.00000E+00
         0.00000E+00
         0.00000E+00
         0.00000E+00
         0.00000E+00
         0.00000E+00
         0.00000E+00
         0.00000E+00
         0.00000E+00
         0.00000E+00
         0.00000E+00
         0.00000E+00
         0.00000E+00
         0.00000E+00
         0.00000E+00
         0.00000E+00
         0.00000E+00
         0.00000E+00
         0.00000E+00
         0.00000E+00
         0.00000E+00
         0.00000E+00
         0.00000E+00
         0.00000E+00
         0.00000E+00
         0.00000E+00
         0.00000E+00
         0.00000E+00
         0.00000E+00
         0.00000E+00
         0.00000E+00
         0.00000E+00
         0.00000E+00
         0.00000E+00
         0.00000E+00
         0.00000E+00
         0.00000E+00
         0.00000E+00
         0.00000E+00
         0.00000E+00
         0.00000E+00
         0.00000E+00
         0.00000E+00
         0.00000E+00
         0.00000E+00
         0.00000E+00
         0.00000E+00
         0.00000E+00
         0.00000E+00
         0.00000E+00
         0.00000E+00
         0.00000E+00
         0.00000E+00
         0.00000E+00
         0.00000E+00
         0.00000E+00
         0.00000E+00
         0.00000E+00
         0.00000E+00
         0.00000E+00
         0.00000E+00
         0.00000E+00
         0.00000E+00
         0.00000E+00
         0.00000E+00
         0.00000E+00
         0.00000E+00
         0.00000E+00
         0.00000E+00
         0.00000E+00
         0.00000E+00
         0.00000E+00
         0.00000E+00
         0.00000E+00
         0.00000E+00
         0.00000E+00
         0.00000E+00
         0.00000E+00
         0.00000E+00
         0.00000E+00
         0.00000E+00
         0.00000E+00
         0.00000E+00
         0.00000E+00
         0.00000E+00
         0.00000E+00
         0.00000E+00
         0.00000E+00
         0.00000E+00
         0.00000E+00
         0.00000E+00
         0.00000E+00
         0.00000E+00
         0.00000E+00
         0.00000E+00
         0.00000E+00
         0.00000E+00
         0.00000E+00
         0.00000E+00
         0.00000E+00
         0.00000E+00
         0.00000E+00
         0.00000E+00
         0.00000E+00
         0.00000E+00
         0.00000E+00
         0.00000E+00
         0.00000E+00
         0.00000E+00
         0.00000E+00
         0.00000E+00
         0.00000E+00
         0.00000E+00
         0.00000E+00
         0.00000E+00
         0.00000E+00
         0.00000E+00
         0.00000E+00
         0.00000E+00
         0.00000E+00
         0.00000E+00
         0.00000E+00
         0.00000E+00
         0.00000E+00
         0.00000E+00
         0.00000E+00
         0.00000E+00
         0.00000E+00
         0.00000E+00
         0.00000E+00
         0.00000E+00
         0.00000E+00
         0.00000E+00
         0.00000E+00
         0.00000E+00
         0.00000E+00
         0.00000E+00
         0.00000E+00
         0.00000E+00
         0.00000E+00
         0.00000E+00
         0.00000E+00
         0.00000E+00
         0.00000E+00
         0.00000E+00
         0.00000E+00
         0.00000E+00
         0.00000E+00
         0.00000E+00
         0.00000E+00
         0.00000E+00
         0.00000E+00
         0.00000E+00
         0.00000E+00
         0.00000E+00
         0.00000E+00
         0.00000E+00
         0.00000E+00
         0.00000E+00
         0.00000E+00
         0.00000E+00
         0.00000E+00
         0.00000E+00
         0.00000E+00
         0.00000E+00
         0.00000E+00
         0.00000E+00
         0.00000E+00
         0.00000E+00
         0.00000E+00
         0.00000E+00
         0.00000E+00
         0.00000E+00
         0.00000E+00
         0.00000E+00
         0.00000E+00
         0.00000E+00
         0.00000E+00
         0.00000E+00
         0.00000E+00
         0.00000E+00
         0.00000E+00
         0.00000E+00
         0.00000E+00
         0.00000E+00
         0.00000E+00
         0.00000E+00
         0.00000E+00
         0.00000E+00
         0.00000E+00
         0.00000E+00
         0.00000E+00
         0.00000E+00
         0.00000E+00
         0.00000E+00
         0.00000E+00
         0.00000E+00
         0.00000E+00
         0.00000E+00
         0.00000E+00
         0.00000E+00
         0.00000E+00
         0.00000E+00
         0.00000E+00
         0.00000E+00
         0.00000E+00
         0.00000E+00
         0.00000E+00
         0.00000E+00
         0.00000E+00
         0.00000E+00
         0.00000E+00
         0.00000E+00
         0.00000E+00
         0.00000E+00
         0.00000E+00
         0.00000E+00
         0.00000E+00
         0.00000E+00
         0.00000E+00
         0.00000E+00
         0.00000E+00
         0.00000E+00
         0.00000E+00
         0.00000E+00
         0.00000E+00
         0.00000E+00
         0.00000E+00
         0.00000E+00
         0.00000E+00
         0.00000E+00
         0.00000E+00
         0.00000E+00
         0.00000E+00
         0.00000E+00
         0.00000E+00
         0.00000E+00
         0.00000E+00
         0.00000E+00
         0.00000E+00
         0.00000E+00
         0.00000E+00
         0.00000E+00
         0.00000E+00
         0.00000E+00
         0.00000E+00
         0.00000E+00
         0.00000E+00
         0.00000E+00
         0.00000E+00
         0.00000E+00
         0.00000E+00
         0.00000E+00
         0.00000E+00
         0.00000E+00
         0.00000E+00
         0.00000E+00
         0.00000E+00
         0.00000E+00
         0.00000E+00
         0.00000E+00
         0.00000E+00
         0.00000E+00
         0.00000E+00
         0.00000E+00
         0.00000E+00
         0.00000E+00
         0.00000E+00
         0.00000E+00
         0.00000E+00
         0.00000E+00
         0.00000E+00
         0.00000E+00
         0.00000E+00
         0.00000E+00
         0.00000E+00
         0.00000E+00
         0.00000E+00
         0.00000E+00
         0.00000E+00
         0.00000E+00
         0.00000E+00
         0.00000E+00
         0.00000E+00
         0.00000E+00
         0.00000E+00
         0.00000E+00
         0.00000E+00
         0.00000E+00
         0.00000E+00
         0.00000E+00
         0.00000E+00
         0.00000E+00
         0.00000E+00
         0.00000E+00
         0.00000E+00
         0.00000E+00
         0.00000E+00
         0.00000E+00
         0.00000E+00
         0.00000E+00
         0.00000E+00
         0.00000E+00
         0.00000E+00
         0.00000E+00
         0.00000E+00
         0.00000E+00
         0.00000E+00
         0.00000E+00
         0.00000E+00
         0.00000E+00
         0.00000E+00
         0.00000E+00
         0.00000E+00
         0.00000E+00
         0.00000E+00
         0.00000E+00
         0.00000E+00
         0.00000E+00
         0.00000E+00
         0.00000E+00
         0.00000E+00
         0.00000E+00
         0.00000E+00
         0.00000E+00
         0.00000E+00
         0.00000E+00
         0.00000E+00
         0.00000E+00
         0.00000E+00
         0.00000E+00
         0.00000E+00
         0.00000E+00
         0.00000E+00
         0.00000E+00
         0.00000E+00
         0.00000E+00
         0.00000E+00
         0.00000E+00
         0.00000E+00
         0.00000E+00
         0.00000E+00
         0.00000E+00
         0.00000E+00
         0.00000E+00
         0.00000E+00
         0.00000E+00
         0.00000E+00
         0.00000E+00
         0.00000E+00
         0.00000E+00
         0.00000E+00
         0.00000E+00
         0.00000E+00
         0.00000E+00
         0.00000E+00
         0.00000E+00
         0.00000E+00
         0.00000E+00
         0.00000E+00
         0.00000E+00
         0.00000E+00
         0.00000E+00
         0.00000E+00
         0.00000E+00
         0.00000E+00
         0.00000E+00
         0.00000E+00
         0.00000E+00
         0.00000E+00
         0.00000E+00
         0.00000E+00
         0.00000E+00
         0.00000E+00
         0.00000E+00
         0.00000E+00
         0.00000E+00
         0.00000E+00
         0.00000E+00
         0.00000E+00
         0.00000E+00
         0.00000E+00
         0.00000E+00
         0.00000E+00
         0.00000E+00
         0.00000E+00
         0.00000E+00
         0.00000E+00
         0.00000E+00
         0.00000E+00
         0.00000E+00
         0.00000E+00
         0.00000E+00
         0.00000E+00
         0.00000E+00
         0.00000E+00
         0.00000E+00
         0.00000E+00
         0.00000E+00
         0.00000E+00
         0.00000E+00
         0.00000E+00
         0.00000E+00
         0.00000E+00
         0.00000E+00
         0.00000E+00
         0.00000E+00
         0.00000E+00
         0.00000E+00
         0.00000E+00
         0.00000E+00
         0.00000E+00
         0.00000E+00
         0.00000E+00
         0.00000E+00
         0.00000E+00
         0.00000E+00
         0.00000E+00
         0.00000E+00
         0.00000E+00
         0.00000E+00
         0.00000E+00
         0.00000E+00
         0.00000E+00
         0.00000E+00
         0.00000E+00
         0.00000E+00
         0.00000E+00
         0.00000E+00
         0.00000E+00
         0.00000E+00
         0.00000E+00
         0.00000E+00
         0.00000E+00
         0.00000E+00
         0.00000E+00
         0.00000E+00
         0.00000E+00
         0.00000E+00
         0.00000E+00
         0.00000E+00
         0.00000E+00
         0.00000E+00
         0.00000E+00
         0.00000E+00
         0.00000E+00
         0.00000E+00
         0.00000E+00
         0.00000E+00
         0.00000E+00
         0.00000E+00
         0.00000E+00
         0.00000E+00
         0.00000E+00
         0.00000E+00
         0.00000E+00
         0.00000E+00
         0.00000E+00
         0.00000E+00
         0.00000E+00
         0.00000E+00
         0.00000E+00
         0.00000E+00
         0.00000E+00
         0.00000E+00
         0.00000E+00
         0.00000E+00
         0.00000E+00
         0.00000E+00
         0.00000E+00
         0.00000E+00
         0.00000E+00
         0.00000E+00
         0.00000E+00
         0.00000E+00
         0.00000E+00
         0.00000E+00
         0.00000E+00
         0.00000E+00
         0.00000E+00
         0.00000E+00
         0.00000E+00
         0.00000E+00
         0.00000E+00
         0.00000E+00
         0.00000E+00
         0.00000E+00
         0.00000E+00
         0.00000E+00
         0.00000E+00
         0.00000E+00
         0.00000E+00
         0.00000E+00
         0.00000E+00
         0.00000E+00
         0.00000E+00
         0.00000E+00
         0.00000E+00
         0.00000E+00
         0.00000E+00
         0.00000E+00
         0.00000E+00
         0.00000E+00
         0.00000E+00
         0.00000E+00
         0.00000E+00
         0.00000E+00
         0.00000E+00
         0.00000E+00
         0.00000E+00
         0.00000E+00
         0.00000E+00
         0.00000E+00
         0.00000E+00
         0.00000E+00
         0.00000E+00
         0.00000E+00
         0.00000E+00
         0.00000E+00
         0.00000E+00
         0.00000E+00
         0.00000E+00
         0.00000E+00
         0.00000E+00
         0.00000E+00
         0.00000E+00
         0.00000E+00
         0.00000E+00
         0.00000E+00
         0.00000E+00
         0.00000E+00
         0.00000E+00
         0.00000E+00
         0.00000E+00
         0.00000E+00
         0.00000E+00
         0.00000E+00
         0.00000E+00
         0.00000E+00
         0.00000E+00
         0.00000E+00
         0.00000E+00
         0.00000E+00
         0.00000E+00
         0.00000E+00
         0.00000E+00
         0.00000E+00
         0.00000E+00
         0.00000E+00
         0.00000E+00
         0.00000E+00
         0.00000E+00
         0.00000E+00
         0.00000E+00
         0.00000E+00
         0.00000E+00
         0.00000E+00
         0.00000E+00
         0.00000E+00
         0.00000E+00
         0.00000E+00
         0.00000E+00
         0.00000E+00
         0.00000E+00
         0.00000E+00
         0.00000E+00
         0.00000E+00
         0.00000E+00
         0.00000E+00
         0.00000E+00
         0.00000E+00
         0.00000E+00
         0.00000E+00
         0.00000E+00
         0.00000E+00
         0.00000E+00
         0.00000E+00
         0.00000E+00
         0.00000E+00
         0.00000E+00
         0.00000E+00
         0.00000E+00
         0.00000E+00
         0.00000E+00
         0.00000E+00
         0.00000E+00
         0.00000E+00
         0.00000E+00
         0.00000E+00
         0.00000E+00
         0.00000E+00
         0.00000E+00
         0.00000E+00
         0.00000E+00
         0.00000E+00
         0.00000E+00
         0.00000E+00
         0.00000E+00
         0.00000E+00
         0.00000E+00
         0.00000E+00
         0.00000E+00
         0.00000E+00
         0.00000E+00
         0.00000E+00
         0.00000E+00
         0.00000E+00
         0.00000E+00
         0.00000E+00
         0.00000E+00
         0.00000E+00
         0.00000E+00
         0.00000E+00
         0.00000E+00
         0.00000E+00
         0.00000E+00
         0.00000E+00
         0.00000E+00
         0.00000E+00
         0.00000E+00
         0.00000E+00
         0.00000E+00
         0.00000E+00
         0.00000E+00
         0.00000E+00
         0.00000E+00
         0.00000E+00
         0.00000E+00
         0.00000E+00
         0.00000E+00
         0.00000E+00
         0.00000E+00
         0.00000E+00
         0.00000E+00
         0.00000E+00
         0.00000E+00
         0.00000E+00
         0.00000E+00
         0.00000E+00
         0.00000E+00
         0.00000E+00
         0.00000E+00
         0.00000E+00
         0.00000E+00
         0.00000E+00
         0.00000E+00
         0.00000E+00
         0.00000E+00
         0.00000E+00
         0.00000E+00
         0.00000E+00
         0.00000E+00
         0.00000E+00
         0.00000E+00
         0.00000E+00
         0.00000E+00
         0.00000E+00
         0.00000E+00
         0.00000E+00
         0.00000E+00
         0.00000E+00
         0.00000E+00
         0.00000E+00
         0.00000E+00
         0.00000E+00
         0.00000E+00
         0.00000E+00
         0.00000E+00
         0.00000E+00
         0.00000E+00
         0.00000E+00
         0.00000E+00
         0.00000E+00
         0.00000E+00
         0.00000E+00
         0.00000E+00
         0.00000E+00
         0.00000E+00
         0.00000E+00
         0.00000E+00
         0.00000E+00
         0.00000E+00
         0.00000E+00
         0.00000E+00
         0.00000E+00
         0.00000E+00
         0.00000E+00
         0.00000E+00
         0.00000E+00
         0.00000E+00
         0.00000E+00
         0.00000E+00
         0.00000E+00
         0.00000E+00
         0.00000E+00
         0.00000E+00
         0.00000E+00
         0.00000E+00
         0.00000E+00
         0.00000E+00
         0.00000E+00
         0.00000E+00
         0.00000E+00
         0.00000E+00
         0.00000E+00
         0.00000E+00
         0.00000E+00
         0.00000E+00
         0.00000E+00
         0.00000E+00
         0.00000E+00
         0.00000E+00
         0.00000E+00
         0.00000E+00
         0.00000E+00
         0.00000E+00
         0.00000E+00
         0.00000E+00
         0.00000E+00
         0.00000E+00
         0.00000E+00
         0.00000E+00
         0.00000E+00
         0.00000E+00
         0.00000E+00
         0.00000E+00
         0.00000E+00
         0.00000E+00
         0.00000E+00
         0.00000E+00
         0.00000E+00
         0.00000E+00
         0.00000E+00
         0.00000E+00
         0.00000E+00
         0.00000E+00
         0.00000E+00
         0.00000E+00
         0.00000E+00
         0.00000E+00
         0.00000E+00
         0.00000E+00
         0.00000E+00
         0.00000E+00
         0.00000E+00
         0.00000E+00
         0.00000E+00
         0.00000E+00
         0.00000E+00
         0.00000E+00
         0.00000E+00
         0.00000E+00
         0.00000E+00
         0.00000E+00
         0.00000E+00
         0.00000E+00
         0.00000E+00
         0.00000E+00
         0.00000E+00
         0.00000E+00
         0.00000E+00
         0.00000E+00
         0.00000E+00
         0.00000E+00
         0.00000E+00
         0.00000E+00
         0.00000E+00
         0.00000E+00
         0.00000E+00
         0.00000E+00
         0.00000E+00
         0.00000E+00
         0.00000E+00
         0.00000E+00
         0.00000E+00
         0.00000E+00
         0.00000E+00
         0.00000E+00
         0.00000E+00
         0.00000E+00
         0.00000E+00
         0.00000E+00
         0.00000E+00
         0.00000E+00
         0.00000E+00
         0.00000E+00
         0.00000E+00
         0.00000E+00
         0.00000E+00
         0.00000E+00
         0.00000E+00
         0.00000E+00
         0.00000E+00
         0.00000E+00
         0.00000E+00
         0.00000E+00
         0.00000E+00
         0.00000E+00
         0.00000E+00
         0.00000E+00
         0.00000E+00
         0.00000E+00
         0.00000E+00
         0.00000E+00
         0.00000E+00
         0.00000E+00
         0.00000E+00
         0.00000E+00
         0.00000E+00
         0.00000E+00
         0.00000E+00
         0.00000E+00
         0.00000E+00
         0.00000E+00
         0.00000E+00
         0.00000E+00
         0.00000E+00
         0.00000E+00
         0.00000E+00
         0.00000E+00
         0.00000E+00
         0.00000E+00
         0.00000E+00
         0.00000E+00
         0.00000E+00
         0.00000E+00
         0.00000E+00
         0.00000E+00
         0.00000E+00
         0.00000E+00
         0.00000E+00
         0.00000E+00
         0.00000E+00
         0.00000E+00
         0.00000E+00
         0.00000E+00
         0.00000E+00
         0.00000E+00
         0.00000E+00
         0.00000E+00
         0.00000E+00
         0.00000E+00
         0.00000E+00
         0.00000E+00
         0.00000E+00
         0.00000E+00
         0.00000E+00
         0.00000E+00
         0.00000E+00
         0.00000E+00
         0.00000E+00
         0.00000E+00
         0.00000E+00
         0.00000E+00
         0.00000E+00
         0.00000E+00
         0.00000E+00
         0.00000E+00
         0.00000E+00
         0.00000E+00
         0.00000E+00
         0.00000E+00
         0.00000E+00
         0.00000E+00
         0.00000E+00
         0.00000E+00
         0.00000E+00
         0.00000E+00
         0.00000E+00
         0.00000E+00
         0.00000E+00
         0.00000E+00
         0.00000E+00
         0.00000E+00
         0.00000E+00
         0.00000E+00
         0.00000E+00
         0.00000E+00
         0.00000E+00
         0.00000E+00
         0.00000E+00
         0.00000E+00
         0.00000E+00
         0.00000E+00
         0.00000E+00
         0.00000E+00
         0.00000E+00
         0.00000E+00
         0.00000E+00
         0.00000E+00
         0.00000E+00
         0.00000E+00
         0.00000E+00
         0.00000E+00
         0.00000E+00
         0.00000E+00
         0.00000E+00
         0.00000E+00
         0.00000E+00
         0.00000E+00
         0.00000E+00
         0.00000E+00
         0.00000E+00
         0.00000E+00
         0.00000E+00
         0.00000E+00
         0.00000E+00
         0.00000E+00
         0.00000E+00
         0.00000E+00
         0.00000E+00
         0.00000E+00
         0.00000E+00
         0.00000E+00
         0.00000E+00
         0.00000E+00
         0.00000E+00
         0.00000E+00
         0.00000E+00
         0.00000E+00
         0.00000E+00
         0.00000E+00
         0.00000E+00
         0.00000E+00
         0.00000E+00
         0.00000E+00
         0.00000E+00
         0.00000E+00
         0.00000E+00
         0.00000E+00
         0.00000E+00
         0.00000E+00
         0.00000E+00
         0.00000E+00
         0.00000E+00
         0.00000E+00
         0.00000E+00
         0.00000E+00
         0.00000E+00
         0.00000E+00
         0.00000E+00
         0.00000E+00
         0.00000E+00
         0.00000E+00
         0.00000E+00
         0.00000E+00
         0.00000E+00
         0.00000E+00
         0.00000E+00
         0.00000E+00
         0.00000E+00
         0.00000E+00
         0.00000E+00
         0.00000E+00
         0.00000E+00
         0.00000E+00
         0.00000E+00
         0.00000E+00
         0.00000E+00
         0.00000E+00
         0.00000E+00
         0.00000E+00
         0.00000E+00
         0.00000E+00
         0.00000E+00
         0.00000E+00
         0.00000E+00
         0.00000E+00
         0.00000E+00
         0.00000E+00
         0.00000E+00
         0.00000E+00
         0.00000E+00
         0.00000E+00
         0.00000E+00
         0.00000E+00
         0.00000E+00
         0.00000E+00
         0.00000E+00
         0.00000E+00
         0.00000E+00
         0.00000E+00
         0.00000E+00
         0.00000E+00
         0.00000E+00
         0.00000E+00
         0.00000E+00
         0.00000E+00
         0.00000E+00
         0.00000E+00
         0.00000E+00
         0.00000E+00
         0.00000E+00
         0.00000E+00
         0.00000E+00
         0.00000E+00
         0.00000E+00
         0.00000E+00
         0.00000E+00
         0.00000E+00
         0.00000E+00
         0.00000E+00
         0.00000E+00
         0.00000E+00
         0.00000E+00
         0.00000E+00
         0.00000E+00
         0.00000E+00
         0.00000E+00
         0.00000E+00
         0.00000E+00
         0.00000E+00
         0.00000E+00
         0.00000E+00
         0.00000E+00
         0.00000E+00
         0.00000E+00
         0.00000E+00
         0.00000E+00
         0.00000E+00
         0.00000E+00
         0.00000E+00
         0.00000E+00
         0.00000E+00
         0.00000E+00
         0.00000E+00
         0.00000E+00
         0.00000E+00
         0.00000E+00
         0.00000E+00
         0.00000E+00
         0.00000E+00
         0.00000E+00
         0.00000E+00
         0.00000E+00
         0.00000E+00
         0.00000E+00
         0.00000E+00
         0.00000E+00
         0.00000E+00
         0.00000E+00
         0.00000E+00
         0.00000E+00
         0.00000E+00
         0.00000E+00
         0.00000E+00
         0.00000E+00
         0.00000E+00
         0.00000E+00
         0.00000E+00
         0.00000E+00
         0.00000E+00
         0.00000E+00
         0.00000E+00
         0.00000E+00
         0.00000E+00
         0.00000E+00
         0.00000E+00
         0.00000E+00
         0.00000E+00
         0.00000E+00
         0.00000E+00
         0.00000E+00
         0.00000E+00
         0.00000E+00
         0.00000E+00
         0.00000E+00
         0.00000E+00
         0.00000E+00
         0.00000E+00
         0.00000E+00
         0.00000E+00
         0.00000E+00
         0.00000E+00
         0.00000E+00
         0.00000E+00
         0.00000E+00
         0.00000E+00
         0.00000E+00
         0.00000E+00
         0.00000E+00
         0.00000E+00
         0.00000E+00
         0.00000E+00
         0.00000E+00
         0.00000E+00
         0.00000E+00
         0.00000E+00
         0.00000E+00
         0.00000E+00
         0.00000E+00
         0.00000E+00
         0.00000E+00
         0.00000E+00
         0.00000E+00
         0.00000E+00
         0.00000E+00
         0.00000E+00
         0.00000E+00
         0.00000E+00
         0.00000E+00
         0.00000E+00
         0.00000E+00
         0.00000E+00
         0.00000E+00
         0.00000E+00
         0.00000E+00
         0.00000E+00
         0.00000E+00
         0.00000E+00
         0.00000E+00
         0.00000E+00
         0.00000E+00
         0.00000E+00
         0.00000E+00
         0.00000E+00
         0.00000E+00
         0.00000E+00
         0.00000E+00
         0.00000E+00
         0.00000E+00
         0.00000E+00
         0.00000E+00
         0.00000E+00
         0.00000E+00
         0.00000E+00
         0.00000E+00
         0.00000E+00
         0.00000E+00
         0.00000E+00
         0.00000E+00
         0.00000E+00
         0.00000E+00
         0.00000E+00
         0.00000E+00
         0.00000E+00
         0.00000E+00
         0.00000E+00
         0.00000E+00
         0.00000E+00
         0.00000E+00
         0.00000E+00
         0.00000E+00
         0.00000E+00
         0.00000E+00
         0.00000E+00
         0.00000E+00
         0.00000E+00
         0.00000E+00
         0.00000E+00
         0.00000E+00
         0.00000E+00
         0.00000E+00
         0.00000E+00
         0.00000E+00
         0.00000E+00
         0.00000E+00
         0.00000E+00
         0.00000E+00
         0.00000E+00
         0.00000E+00
         0.00000E+00
         0.00000E+00
         0.00000E+00
         0.00000E+00
         0.00000E+00
         0.00000E+00
         0.00000E+00
         0.00000E+00
         0.00000E+00
         0.00000E+00
         0.00000E+00
         0.00000E+00
         0.00000E+00
         0.00000E+00
         0.00000E+00
         0.00000E+00
         0.00000E+00
         0.00000E+00
         0.00000E+00
         0.00000E+00
         0.00000E+00
         0.00000E+00
         0.00000E+00
         0.00000E+00
         0.00000E+00
         0.00000E+00
         0.00000E+00
         0.00000E+00
         0.00000E+00
         0.00000E+00
         0.00000E+00
         0.00000E+00
         0.00000E+00
         0.00000E+00
         0.00000E+00
         0.00000E+00
         0.00000E+00
         0.00000E+00
         0.00000E+00
         0.00000E+00
         0.00000E+00
         0.00000E+00
         0.00000E+00
         0.00000E+00
         0.00000E+00
         0.00000E+00
         0.00000E+00
         0.00000E+00
         0.00000E+00
         0.00000E+00
         0.00000E+00
         0.00000E+00
         0.00000E+00
         0.00000E+00
         0.00000E+00
         0.00000E+00
         0.00000E+00
         0.00000E+00
         0.00000E+00
         0.00000E+00
         0.00000E+00
         0.00000E+00
         0.00000E+00
         0.00000E+00
         0.00000E+00
         0.00000E+00
         0.00000E+00
         0.00000E+00
         0.00000E+00
         0.00000E+00
         0.00000E+00
         0.00000E+00
         0.00000E+00
         0.00000E+00
         0.00000E+00
         0.00000E+00
         0.00000E+00
         0.00000E+00
         0.00000E+00
         0.00000E+00
         0.00000E+00
         0.00000E+00
         0.00000E+00
         0.00000E+00
         0.00000E+00
         0.00000E+00
         0.00000E+00
         0.00000E+00
         0.00000E+00
         0.00000E+00
         0.00000E+00
         0.00000E+00
         0.00000E+00
         0.00000E+00
         0.00000E+00
         0.00000E+00
         0.00000E+00
         0.00000E+00
         0.00000E+00
         0.00000E+00
         0.00000E+00
         0.00000E+00
         0.00000E+00
         0.00000E+00
         0.00000E+00
         0.00000E+00
         0.00000E+00
         0.00000E+00
         0.00000E+00
         0.00000E+00
         0.00000E+00
         0.00000E+00
         0.00000E+00
         0.00000E+00
         0.00000E+00
         0.00000E+00
         0.00000E+00
         0.00000E+00
         0.00000E+00
         0.00000E+00
         0.00000E+00
         0.00000E+00
         0.00000E+00
         0.00000E+00
         0.00000E+00
         0.00000E+00
         0.00000E+00
         0.00000E+00
         0.00000E+00
         0.00000E+00
         0.00000E+00
         0.00000E+00
         0.00000E+00
         0.00000E+00
         0.00000E+00
         0.00000E+00
         0.00000E+00
         0.00000E+00
         0.00000E+00
         0.00000E+00
         0.00000E+00
         0.00000E+00
         0.00000E+00
         0.00000E+00
         0.00000E+00
         0.00000E+00
         0.00000E+00
         0.00000E+00
         0.00000E+00
         0.00000E+00
         0.00000E+00
         0.00000E+00
         0.00000E+00
         0.00000E+00
         0.00000E+00
         0.00000E+00
         0.00000E+00
         0.00000E+00
         0.00000E+00
         0.00000E+00
         0.00000E+00
         0.00000E+00
         0.00000E+00
         0.00000E+00
         0.00000E+00
         0.00000E+00
         0.00000E+00
         0.00000E+00
         0.00000E+00
         0.00000E+00
         0.00000E+00
         0.00000E+00
         0.00000E+00
         0.00000E+00
         0.00000E+00
         0.00000E+00
         0.00000E+00
         0.00000E+00
         0.00000E+00
         0.00000E+00
         0.00000E+00
         0.00000E+00
         0.00000E+00
         0.00000E+00
         0.00000E+00
         0.00000E+00
         0.00000E+00
         0.00000E+00
         0.00000E+00
         0.00000E+00
         0.00000E+00
         0.00000E+00
         0.00000E+00
         0.00000E+00
         0.00000E+00
         0.00000E+00
         0.00000E+00
         0.00000E+00
         0.00000E+00
         0.00000E+00
         0.00000E+00
         0.00000E+00
         0.00000E+00
         0.00000E+00
         0.00000E+00
         0.00000E+00
         0.00000E+00
         0.00000E+00
         0.00000E+00
         0.00000E+00
         0.00000E+00
         0.00000E+00
         0.00000E+00
         0.00000E+00
         0.00000E+00
         0.00000E+00
         0.00000E+00
         0.00000E+00
         0.00000E+00
         0.00000E+00
         0.00000E+00
         0.00000E+00
         0.00000E+00
         0.00000E+00
         0.00000E+00
         0.00000E+00
         0.00000E+00
         0.00000E+00
         0.00000E+00
         0.00000E+00
         0.00000E+00
         0.00000E+00
         0.00000E+00
         0.00000E+00
         0.00000E+00
         0.00000E+00
         0.00000E+00
         0.00000E+00
         0.00000E+00
         0.00000E+00
         0.00000E+00
         0.00000E+00
         0.00000E+00
         0.00000E+00
         0.00000E+00
         0.00000E+00
         0.00000E+00
         0.00000E+00
         0.00000E+00
         0.00000E+00
         0.00000E+00
         0.00000E+00
         0.00000E+00
         0.00000E+00
         0.00000E+00
         0.00000E+00
         0.00000E+00
         0.00000E+00
         0.00000E+00
         0.00000E+00
         0.00000E+00
         0.00000E+00
         0.00000E+00
         0.00000E+00
         0.00000E+00
         0.00000E+00
         0.00000E+00
         0.00000E+00
         0.00000E+00
         0.00000E+00
         0.00000E+00
         0.00000E+00
         0.00000E+00
         0.00000E+00
         0.00000E+00
         0.00000E+00
         0.00000E+00
         0.00000E+00
         0.00000E+00
         0.00000E+00
         0.00000E+00
         0.00000E+00
         0.00000E+00
         0.00000E+00
         0.00000E+00
         0.00000E+00
         0.00000E+00
         0.00000E+00
         0.00000E+00
         0.00000E+00
         0.00000E+00
         0.00000E+00
         0.00000E+00
         0.00000E+00
         0.00000E+00
         0.00000E+00
         0.00000E+00
         0.00000E+00
         0.00000E+00
         0.00000E+00
         0.00000E+00
         0.00000E+00
         0.00000E+00
         0.00000E+00
         0.00000E+00
         0.00000E+00
         0.00000E+00
         0.00000E+00
         0.00000E+00
         0.00000E+00
         0.00000E+00
         0.00000E+00
         0.00000E+00
         0.00000E+00
         0.00000E+00
         0.00000E+00
         0.00000E+00
         0.00000E+00
         0.00000E+00
         0.00000E+00
         0.00000E+00
         0.00000E+00
         0.00000E+00
         0.00000E+00
         0.00000E+00
         0.00000E+00
         0.00000E+00
         0.00000E+00
         0.00000E+00
         0.00000E+00
         0.00000E+00
         0.00000E+00
         0.00000E+00
         0.00000E+00
         0.00000E+00
         0.00000E+00
         0.00000E+00
         0.00000E+00
         0.00000E+00
         0.00000E+00
         0.00000E+00
         0.00000E+00
         0.00000E+00
         0.00000E+00
         0.00000E+00
         0.00000E+00
         0.00000E+00
         0.00000E+00
         0.00000E+00
         0.00000E+00
         0.00000E+00
         0.00000E+00
         0.00000E+00
         0.00000E+00
         0.00000E+00
         0.00000E+00
         0.00000E+00
         0.00000E+00
         0.00000E+00
         0.00000E+00
         0.00000E+00
         0.00000E+00
         0.00000E+00
         0.00000E+00
         0.00000E+00
         0.00000E+00
         0.00000E+00
         0.00000E+00
         0.00000E+00
         0.00000E+00
         0.00000E+00
         0.00000E+00
         0.00000E+00
         0.00000E+00
         0.00000E+00
         0.00000E+00
         0.00000E+00
         0.00000E+00
         0.00000E+00
         0.00000E+00
         0.00000E+00
         0.00000E+00
         0.00000E+00
         0.00000E+00
         0.00000E+00
         0.00000E+00
         0.00000E+00
         0.00000E+00
         0.00000E+00
         0.00000E+00
         0.00000E+00
         0.00000E+00
         0.00000E+00
         0.00000E+00
         0.00000E+00
         0.00000E+00
         0.00000E+00
         0.00000E+00
         0.00000E+00
         0.00000E+00
         0.00000E+00
         0.00000E+00
         0.00000E+00
         0.00000E+00
         0.00000E+00
         0.00000E+00
         0.00000E+00
         0.00000E+00
         0.00000E+00
         0.00000E+00
         0.00000E+00
         0.00000E+00
         0.00000E+00
         0.00000E+00
         0.00000E+00
         0.00000E+00
         0.00000E+00
         0.00000E+00
         0.00000E+00
         0.00000E+00
         0.00000E+00
         0.00000E+00
         0.00000E+00
         0.00000E+00
         0.00000E+00
         0.00000E+00
         0.00000E+00
         0.00000E+00
         0.00000E+00
         0.00000E+00
         0.00000E+00
         0.00000E+00
         0.00000E+00
         0.00000E+00
         0.00000E+00
         0.00000E+00
         0.00000E+00
         0.00000E+00
         0.00000E+00
         0.00000E+00
         0.00000E+00
         0.00000E+00
         0.00000E+00
         0.00000E+00
         0.00000E+00
         0.00000E+00
         0.00000E+00
         0.00000E+00
         0.00000E+00
         0.00000E+00
         0.00000E+00
         0.00000E+00
         0.00000E+00
         0.00000E+00
         0.00000E+00
         0.00000E+00
         0.00000E+00
         0.00000E+00
         0.00000E+00
         0.00000E+00
         0.00000E+00
         0.00000E+00
         0.00000E+00
         0.00000E+00
         0.00000E+00
         0.00000E+00
         0.00000E+00
         0.00000E+00
         0.00000E+00
         0.00000E+00
         0.00000E+00
         0.00000E+00
         0.00000E+00
         0.00000E+00
         0.00000E+00
         0.00000E+00
         0.00000E+00
         0.00000E+00
         0.00000E+00
         0.00000E+00
         0.00000E+00
         0.00000E+00
         0.00000E+00
         0.00000E+00
         0.00000E+00
         0.00000E+00
         0.00000E+00
         0.00000E+00
         0.00000E+00
         0.00000E+00
         0.00000E+00
         0.00000E+00
         0.00000E+00
         0.00000E+00
         0.00000E+00
         0.00000E+00
         0.00000E+00
         0.00000E+00
         0.00000E+00
         0.00000E+00
         0.00000E+00
         0.00000E+00
         0.00000E+00
         0.00000E+00
         0.00000E+00
         0.00000E+00
         0.00000E+00
         0.00000E+00
         0.00000E+00
         0.00000E+00
         0.00000E+00
         0.00000E+00
         0.00000E+00
         0.00000E+00
         0.00000E+00
         0.00000E+00
         0.00000E+00
         0.00000E+00
         0.00000E+00
         0.00000E+00
         0.00000E+00
         0.00000E+00
         0.00000E+00
         0.00000E+00
         0.00000E+00
         0.00000E+00
         0.00000E+00
         0.00000E+00
         0.00000E+00
         0.00000E+00
         0.00000E+00
         0.00000E+00
         0.00000E+00
         0.00000E+00
         0.00000E+00
         0.00000E+00
         0.00000E+00
         0.00000E+00
         0.00000E+00
         0.00000E+00
         0.00000E+00
         0.00000E+00
         0.00000E+00
         0.00000E+00
         0.00000E+00
         0.00000E+00
         0.00000E+00
         0.00000E+00
         0.00000E+00
         0.00000E+00
         0.00000E+00
         0.00000E+00
         0.00000E+00
         0.00000E+00
         0.00000E+00
         0.00000E+00
         0.00000E+00
         0.00000E+00
         0.00000E+00
         0.00000E+00
         0.00000E+00
         0.00000E+00
         0.00000E+00
         0.00000E+00
         0.00000E+00
         0.00000E+00
         0.00000E+00
  
SCALARS                     velocity_y  double 1
LOOKUP_TABLE default
         0.00000E+00
         0.00000E+00
         0.00000E+00
         0.00000E+00
         0.00000E+00
         0.00000E+00
         0.00000E+00
         0.00000E+00
         0.00000E+00
         0.00000E+00
         0.00000E+00
         0.00000E+00
         0.00000E+00
         0.00000E+00
         0.00000E+00
         0.00000E+00
         0.00000E+00
         0.00000E+00
         0.00000E+00
         0.00000E+00
         0.00000E+00
         0.00000E+00
         0.00000E+00
         0.00000E+00
         0.00000E+00
         0.00000E+00
         0.00000E+00
         0.00000E+00
         0.00000E+00
         0.00000E+00
         0.00000E+00
         0.00000E+00
         0.00000E+00
         0.00000E+00
         0.00000E+00
         0.00000E+00
         0.00000E+00
         0.00000E+00
         0.00000E+00
         0.00000E+00
         0.00000E+00
         0.00000E+00
         0.00000E+00
         0.00000E+00
         0.00000E+00
         0.00000E+00
         0.00000E+00
         0.00000E+00
         0.00000E+00
         0.00000E+00
         0.00000E+00
         0.00000E+00
         0.00000E+00
         0.00000E+00
         0.00000E+00
         0.00000E+00
         0.00000E+00
         0.00000E+00
         0.00000E+00
         0.00000E+00
         0.00000E+00
         0.00000E+00
         0.00000E+00
         0.00000E+00
         0.00000E+00
         0.00000E+00
         0.00000E+00
         0.00000E+00
         0.00000E+00
         0.00000E+00
         0.00000E+00
         0.00000E+00
         0.00000E+00
         0.00000E+00
         0.00000E+00
         0.00000E+00
         0.00000E+00
         0.00000E+00
         0.00000E+00
         0.00000E+00
         0.00000E+00
         0.00000E+00
         0.00000E+00
         0.00000E+00
         0.00000E+00
         0.00000E+00
         0.00000E+00
         0.00000E+00
         0.00000E+00
         0.00000E+00
         0.00000E+00
         0.00000E+00
         0.00000E+00
         0.00000E+00
         0.00000E+00
         0.00000E+00
         0.00000E+00
         0.00000E+00
         0.00000E+00
         0.00000E+00
         0.00000E+00
         0.00000E+00
         0.00000E+00
         0.00000E+00
         0.00000E+00
         0.00000E+00
         0.00000E+00
         0.00000E+00
         0.00000E+00
         0.00000E+00
         0.00000E+00
         0.00000E+00
         0.00000E+00
         0.00000E+00
         0.00000E+00
         0.00000E+00
         0.00000E+00
         0.00000E+00
         0.00000E+00
         0.00000E+00
         0.00000E+00
         0.00000E+00
         0.00000E+00
         0.00000E+00
         0.00000E+00
         0.00000E+00
         0.00000E+00
         0.00000E+00
         0.00000E+00
         0.00000E+00
         0.00000E+00
         0.00000E+00
         0.00000E+00
         0.00000E+00
         0.00000E+00
         0.00000E+00
         0.00000E+00
         0.00000E+00
         0.00000E+00
         0.00000E+00
         0.00000E+00
         0.00000E+00
         0.00000E+00
         0.00000E+00
         0.00000E+00
         0.00000E+00
         0.00000E+00
         0.00000E+00
         0.00000E+00
         0.00000E+00
         0.00000E+00
         0.00000E+00
         0.00000E+00
         0.00000E+00
         0.00000E+00
         0.00000E+00
         0.00000E+00
         0.00000E+00
         0.00000E+00
         0.00000E+00
         0.00000E+00
         0.00000E+00
         0.00000E+00
         0.00000E+00
         0.00000E+00
         0.00000E+00
         0.00000E+00
         0.00000E+00
         0.00000E+00
         0.00000E+00
         0.00000E+00
         0.00000E+00
         0.00000E+00
         0.00000E+00
         0.00000E+00
         0.00000E+00
         0.00000E+00
         0.00000E+00
         0.00000E+00
         0.00000E+00
         0.00000E+00
         0.00000E+00
         0.00000E+00
         0.00000E+00
         0.00000E+00
         0.00000E+00
         0.00000E+00
         0.00000E+00
         0.00000E+00
         0.00000E+00
         0.00000E+00
         0.00000E+00
         0.00000E+00
         0.00000E+00
         0.00000E+00
         0.00000E+00
         0.00000E+00
         0.00000E+00
         0.00000E+00
         0.00000E+00
         0.00000E+00
         0.00000E+00
         0.00000E+00
         0.00000E+00
         0.00000E+00
         0.00000E+00
         0.00000E+00
         0.00000E+00
         0.00000E+00
         0.00000E+00
         0.00000E+00
         0.00000E+00
         0.00000E+00
         0.00000E+00
         0.00000E+00
         0.00000E+00
         0.00000E+00
         0.00000E+00
         0.00000E+00
         0.00000E+00
         0.00000E+00
         0.00000E+00
         0.00000E+00
         0.00000E+00
         0.00000E+00
         0.00000E+00
         0.00000E+00
         0.00000E+00
         0.00000E+00
         0.00000E+00
         0.00000E+00
         0.00000E+00
         0.00000E+00
         0.00000E+00
         0.00000E+00
         0.00000E+00
         0.00000E+00
         0.00000E+00
         0.00000E+00
         0.00000E+00
         0.00000E+00
         0.00000E+00
         0.00000E+00
         0.00000E+00
         0.00000E+00
         0.00000E+00
         0.00000E+00
         0.00000E+00
         0.00000E+00
         0.00000E+00
         0.00000E+00
         0.00000E+00
         0.00000E+00
         0.00000E+00
         0.00000E+00
         0.00000E+00
         0.00000E+00
         0.00000E+00
         0.00000E+00
         0.00000E+00
         0.00000E+00
         0.00000E+00
         0.00000E+00
         0.00000E+00
         0.00000E+00
         0.00000E+00
         0.00000E+00
         0.00000E+00
         0.00000E+00
         0.00000E+00
         0.00000E+00
         0.00000E+00
         0.00000E+00
         0.00000E+00
         0.00000E+00
         0.00000E+00
         0.00000E+00
         0.00000E+00
         0.00000E+00
         0.00000E+00
         0.00000E+00
         0.00000E+00
         0.00000E+00
         0.00000E+00
         0.00000E+00
         0.00000E+00
         0.00000E+00
         0.00000E+00
         0.00000E+00
         0.00000E+00
         0.00000E+00
         0.00000E+00
         0.00000E+00
         0.00000E+00
         0.00000E+00
         0.00000E+00
         0.00000E+00
         0.00000E+00
         0.00000E+00
         0.00000E+00
         0.00000E+00
         0.00000E+00
         0.00000E+00
         0.00000E+00
         0.00000E+00
         0.00000E+00
         0.00000E+00
         0.00000E+00
         0.00000E+00
         0.00000E+00
         0.00000E+00
         0.00000E+00
         0.00000E+00
         0.00000E+00
         0.00000E+00
         0.00000E+00
         0.00000E+00
         0.00000E+00
         0.00000E+00
         0.00000E+00
         0.00000E+00
         0.00000E+00
         0.00000E+00
         0.00000E+00
         0.00000E+00
         0.00000E+00
         0.00000E+00
         0.00000E+00
         0.00000E+00
         0.00000E+00
         0.00000E+00
         0.00000E+00
         0.00000E+00
         0.00000E+00
         0.00000E+00
         0.00000E+00
         0.00000E+00
         0.00000E+00
         0.00000E+00
         0.00000E+00
         0.00000E+00
         0.00000E+00
         0.00000E+00
         0.00000E+00
         0.00000E+00
         0.00000E+00
         0.00000E+00
         0.00000E+00
         0.00000E+00
         0.00000E+00
         0.00000E+00
         0.00000E+00
         0.00000E+00
         0.00000E+00
         0.00000E+00
         0.00000E+00
         0.00000E+00
         0.00000E+00
         0.00000E+00
         0.00000E+00
         0.00000E+00
         0.00000E+00
         0.00000E+00
         0.00000E+00
         0.00000E+00
         0.00000E+00
         0.00000E+00
         0.00000E+00
         0.00000E+00
         0.00000E+00
         0.00000E+00
         0.00000E+00
         0.00000E+00
         0.00000E+00
         0.00000E+00
         0.00000E+00
         0.00000E+00
         0.00000E+00
         0.00000E+00
         0.00000E+00
         0.00000E+00
         0.00000E+00
         0.00000E+00
         0.00000E+00
         0.00000E+00
         0.00000E+00
         0.00000E+00
         0.00000E+00
         0.00000E+00
         0.00000E+00
         0.00000E+00
         0.00000E+00
         0.00000E+00
         0.00000E+00
         0.00000E+00
         0.00000E+00
         0.00000E+00
         0.00000E+00
         0.00000E+00
         0.00000E+00
         0.00000E+00
         0.00000E+00
         0.00000E+00
         0.00000E+00
         0.00000E+00
         0.00000E+00
         0.00000E+00
         0.00000E+00
         0.00000E+00
         0.00000E+00
         0.00000E+00
         0.00000E+00
         0.00000E+00
         0.00000E+00
         0.00000E+00
         0.00000E+00
         0.00000E+00
         0.00000E+00
         0.00000E+00
         0.00000E+00
         0.00000E+00
         0.00000E+00
         0.00000E+00
         0.00000E+00
         0.00000E+00
         0.00000E+00
         0.00000E+00
         0.00000E+00
         0.00000E+00
         0.00000E+00
         0.00000E+00
         0.00000E+00
         0.00000E+00
         0.00000E+00
         0.00000E+00
         0.00000E+00
         0.00000E+00
         0.00000E+00
         0.00000E+00
         0.00000E+00
         0.00000E+00
         0.00000E+00
         0.00000E+00
         0.00000E+00
         0.00000E+00
         0.00000E+00
         0.00000E+00
         0.00000E+00
         0.00000E+00
         0.00000E+00
         0.00000E+00
         0.00000E+00
         0.00000E+00
         0.00000E+00
         0.00000E+00
         0.00000E+00
         0.00000E+00
         0.00000E+00
         0.00000E+00
         0.00000E+00
         0.00000E+00
         0.00000E+00
         0.00000E+00
         0.00000E+00
         0.00000E+00
         0.00000E+00
         0.00000E+00
         0.00000E+00
         0.00000E+00
         0.00000E+00
         0.00000E+00
         0.00000E+00
         0.00000E+00
         0.00000E+00
         0.00000E+00
         0.00000E+00
         0.00000E+00
         0.00000E+00
         0.00000E+00
         0.00000E+00
         0.00000E+00
         0.00000E+00
         0.00000E+00
         0.00000E+00
         0.00000E+00
         0.00000E+00
         0.00000E+00
         0.00000E+00
         0.00000E+00
         0.00000E+00
         0.00000E+00
         0.00000E+00
         0.00000E+00
         0.00000E+00
         0.00000E+00
         0.00000E+00
         0.00000E+00
         0.00000E+00
         0.00000E+00
         0.00000E+00
         0.00000E+00
         0.00000E+00
         0.00000E+00
         0.00000E+00
         0.00000E+00
         0.00000E+00
         0.00000E+00
         0.00000E+00
         0.00000E+00
         0.00000E+00
         0.00000E+00
         0.00000E+00
         0.00000E+00
         0.00000E+00
         0.00000E+00
         0.00000E+00
         0.00000E+00
         0.00000E+00
         0.00000E+00
         0.00000E+00
         0.00000E+00
         0.00000E+00
         0.00000E+00
         0.00000E+00
         0.00000E+00
         0.00000E+00
         0.00000E+00
         0.00000E+00
         0.00000E+00
         0.00000E+00
         0.00000E+00
         0.00000E+00
         0.00000E+00
         0.00000E+00
         0.00000E+00
         0.00000E+00
         0.00000E+00
         0.00000E+00
         0.00000E+00
         0.00000E+00
         0.00000E+00
         0.00000E+00
         0.00000E+00
         0.00000E+00
         0.00000E+00
         0.00000E+00
         0.00000E+00
         0.00000E+00
         0.00000E+00
         0.00000E+00
         0.00000E+00
         0.00000E+00
         0.00000E+00
         0.00000E+00
         0.00000E+00
         0.00000E+00
         0.00000E+00
         0.00000E+00
         0.00000E+00
         0.00000E+00
         0.00000E+00
         0.00000E+00
         0.00000E+00
         0.00000E+00
         0.00000E+00
         0.00000E+00
         0.00000E+00
         0.00000E+00
         0.00000E+00
         0.00000E+00
         0.00000E+00
         0.00000E+00
         0.00000E+00
         0.00000E+00
         0.00000E+00
         0.00000E+00
         0.00000E+00
         0.00000E+00
         0.00000E+00
         0.00000E+00
         0.00000E+00
         0.00000E+00
         0.00000E+00
         0.00000E+00
         0.00000E+00
         0.00000E+00
         0.00000E+00
         0.00000E+00
         0.00000E+00
         0.00000E+00
         0.00000E+00
         0.00000E+00
         0.00000E+00
         0.00000E+00
         0.00000E+00
         0.00000E+00
         0.00000E+00
         0.00000E+00
         0.00000E+00
         0.00000E+00
         0.00000E+00
         0.00000E+00
         0.00000E+00
         0.00000E+00
         0.00000E+00
         0.00000E+00
         0.00000E+00
         0.00000E+00
         0.00000E+00
         0.00000E+00
         0.00000E+00
         0.00000E+00
         0.00000E+00
         0.00000E+00
         0.00000E+00
         0.00000E+00
         0.00000E+00
         0.00000E+00
         0.00000E+00
         0.00000E+00
         0.00000E+00
         0.00000E+00
         0.00000E+00
         0.00000E+00
         0.00000E+00
         0.00000E+00
         0.00000E+00
         0.00000E+00
         0.00000E+00
         0.00000E+00
         0.00000E+00
         0.00000E+00
         0.00000E+00
         0.00000E+00
         0.00000E+00
         0.00000E+00
         0.00000E+00
         0.00000E+00
         0.00000E+00
         0.00000E+00
         0.00000E+00
         0.00000E+00
         0.00000E+00
         0.00000E+00
         0.00000E+00
         0.00000E+00
         0.00000E+00
         0.00000E+00
         0.00000E+00
         0.00000E+00
         0.00000E+00
         0.00000E+00
         0.00000E+00
         0.00000E+00
         0.00000E+00
         0.00000E+00
         0.00000E+00
         0.00000E+00
         0.00000E+00
         0.00000E+00
         0.00000E+00
         0.00000E+00
         0.00000E+00
         0.00000E+00
         0.00000E+00
         0.00000E+00
         0.00000E+00
         0.00000E+00
         0.00000E+00
         0.00000E+00
         0.00000E+00
         0.00000E+00
         0.00000E+00
         0.00000E+00
         0.00000E+00
         0.00000E+00
         0.00000E+00
         0.00000E+00
         0.00000E+00
         0.00000E+00
         0.00000E+00
         0.00000E+00
         0.00000E+00
         0.00000E+00
         0.00000E+00
         0.00000E+00
         0.00000E+00
         0.00000E+00
         0.00000E+00
         0.00000E+00
         0.00000E+00
         0.00000E+00
         0.00000E+00
         0.00000E+00
         0.00000E+00
         0.00000E+00
         0.00000E+00
         0.00000E+00
         0.00000E+00
         0.00000E+00
         0.00000E+00
         0.00000E+00
         0.00000E+00
         0.00000E+00
         0.00000E+00
         0.00000E+00
         0.00000E+00
         0.00000E+00
         0.00000E+00
         0.00000E+00
         0.00000E+00
         0.00000E+00
         0.00000E+00
         0.00000E+00
         0.00000E+00
         0.00000E+00
         0.00000E+00
         0.00000E+00
         0.00000E+00
         0.00000E+00
         0.00000E+00
         0.00000E+00
         0.00000E+00
         0.00000E+00
         0.00000E+00
         0.00000E+00
         0.00000E+00
         0.00000E+00
         0.00000E+00
         0.00000E+00
         0.00000E+00
         0.00000E+00
         0.00000E+00
         0.00000E+00
         0.00000E+00
         0.00000E+00
         0.00000E+00
         0.00000E+00
         0.00000E+00
         0.00000E+00
         0.00000E+00
         0.00000E+00
         0.00000E+00
         0.00000E+00
         0.00000E+00
         0.00000E+00
         0.00000E+00
         0.00000E+00
         0.00000E+00
         0.00000E+00
         0.00000E+00
         0.00000E+00
         0.00000E+00
         0.00000E+00
         0.00000E+00
         0.00000E+00
         0.00000E+00
         0.00000E+00
         0.00000E+00
         0.00000E+00
         0.00000E+00
         0.00000E+00
         0.00000E+00
         0.00000E+00
         0.00000E+00
         0.00000E+00
         0.00000E+00
         0.00000E+00
         0.00000E+00
         0.00000E+00
         0.00000E+00
         0.00000E+00
         0.00000E+00
         0.00000E+00
         0.00000E+00
         0.00000E+00
         0.00000E+00
         0.00000E+00
         0.00000E+00
         0.00000E+00
         0.00000E+00
         0.00000E+00
         0.00000E+00
         0.00000E+00
         0.00000E+00
         0.00000E+00
         0.00000E+00
         0.00000E+00
         0.00000E+00
         0.00000E+00
         0.00000E+00
         0.00000E+00
         0.00000E+00
         0.00000E+00
         0.00000E+00
         0.00000E+00
         0.00000E+00
         0.00000E+00
         0.00000E+00
         0.00000E+00
         0.00000E+00
         0.00000E+00
         0.00000E+00
         0.00000E+00
         0.00000E+00
         0.00000E+00
         0.00000E+00
         0.00000E+00
         0.00000E+00
         0.00000E+00
         0.00000E+00
         0.00000E+00
         0.00000E+00
         0.00000E+00
         0.00000E+00
         0.00000E+00
         0.00000E+00
         0.00000E+00
         0.00000E+00
         0.00000E+00
         0.00000E+00
         0.00000E+00
         0.00000E+00
         0.00000E+00
         0.00000E+00
         0.00000E+00
         0.00000E+00
         0.00000E+00
         0.00000E+00
         0.00000E+00
         0.00000E+00
         0.00000E+00
         0.00000E+00
         0.00000E+00
         0.00000E+00
         0.00000E+00
         0.00000E+00
         0.00000E+00
         0.00000E+00
         0.00000E+00
         0.00000E+00
         0.00000E+00
         0.00000E+00
         0.00000E+00
         0.00000E+00
         0.00000E+00
         0.00000E+00
         0.00000E+00
         0.00000E+00
         0.00000E+00
         0.00000E+00
         0.00000E+00
         0.00000E+00
         0.00000E+00
         0.00000E+00
         0.00000E+00
         0.00000E+00
         0.00000E+00
         0.00000E+00
         0.00000E+00
         0.00000E+00
         0.00000E+00
         0.00000E+00
         0.00000E+00
         0.00000E+00
         0.00000E+00
         0.00000E+00
         0.00000E+00
         0.00000E+00
         0.00000E+00
         0.00000E+00
         0.00000E+00
         0.00000E+00
         0.00000E+00
         0.00000E+00
         0.00000E+00
         0.00000E+00
         0.00000E+00
         0.00000E+00
         0.00000E+00
         0.00000E+00
         0.00000E+00
         0.00000E+00
         0.00000E+00
         0.00000E+00
         0.00000E+00
         0.00000E+00
         0.00000E+00
         0.00000E+00
         0.00000E+00
         0.00000E+00
         0.00000E+00
         0.00000E+00
         0.00000E+00
         0.00000E+00
         0.00000E+00
         0.00000E+00
         0.00000E+00
         0.00000E+00
         0.00000E+00
         0.00000E+00
         0.00000E+00
         0.00000E+00
         0.00000E+00
         0.00000E+00
         0.00000E+00
         0.00000E+00
         0.00000E+00
         0.00000E+00
         0.00000E+00
         0.00000E+00
         0.00000E+00
         0.00000E+00
         0.00000E+00
         0.00000E+00
         0.00000E+00
         0.00000E+00
         0.00000E+00
         0.00000E+00
         0.00000E+00
         0.00000E+00
         0.00000E+00
         0.00000E+00
         0.00000E+00
         0.00000E+00
         0.00000E+00
         0.00000E+00
         0.00000E+00
         0.00000E+00
         0.00000E+00
         0.00000E+00
         0.00000E+00
         0.00000E+00
         0.00000E+00
         0.00000E+00
         0.00000E+00
         0.00000E+00
         0.00000E+00
         0.00000E+00
         0.00000E+00
         0.00000E+00
         0.00000E+00
         0.00000E+00
         0.00000E+00
         0.00000E+00
         0.00000E+00
         0.00000E+00
         0.00000E+00
         0.00000E+00
         0.00000E+00
         0.00000E+00
         0.00000E+00
         0.00000E+00
         0.00000E+00
         0.00000E+00
         0.00000E+00
         0.00000E+00
         0.00000E+00
         0.00000E+00
         0.00000E+00
         0.00000E+00
         0.00000E+00
         0.00000E+00
         0.00000E+00
         0.00000E+00
         0.00000E+00
         0.00000E+00
         0.00000E+00
         0.00000E+00
         0.00000E+00
         0.00000E+00
         0.00000E+00
         0.00000E+00
         0.00000E+00
         0.00000E+00
         0.00000E+00
         0.00000E+00
         0.00000E+00
         0.00000E+00
         0.00000E+00
         0.00000E+00
         0.00000E+00
         0.00000E+00
         0.00000E+00
         0.00000E+00
         0.00000E+00
         0.00000E+00
         0.00000E+00
         0.00000E+00
         0.00000E+00
         0.00000E+00
         0.00000E+00
         0.00000E+00
         0.00000E+00
         0.00000E+00
         0.00000E+00
         0.00000E+00
         0.00000E+00
         0.00000E+00
         0.00000E+00
         0.00000E+00
         0.00000E+00
         0.00000E+00
         0.00000E+00
         0.00000E+00
         0.00000E+00
         0.00000E+00
         0.00000E+00
         0.00000E+00
         0.00000E+00
         0.00000E+00
         0.00000E+00
         0.00000E+00
         0.00000E+00
         0.00000E+00
         0.00000E+00
         0.00000E+00
         0.00000E+00
         0.00000E+00
         0.00000E+00
         0.00000E+00
         0.00000E+00
         0.00000E+00
         0.00000E+00
         0.00000E+00
         0.00000E+00
         0.00000E+00
         0.00000E+00
         0.00000E+00
         0.00000E+00
         0.00000E+00
         0.00000E+00
         0.00000E+00
         0.00000E+00
         0.00000E+00
         0.00000E+00
         0.00000E+00
         0.00000E+00
         0.00000E+00
         0.00000E+00
         0.00000E+00
         0.00000E+00
         0.00000E+00
         0.00000E+00
         0.00000E+00
         0.00000E+00
         0.00000E+00
         0.00000E+00
         0.00000E+00
         0.00000E+00
         0.00000E+00
         0.00000E+00
         0.00000E+00
         0.00000E+00
         0.00000E+00
         0.00000E+00
         0.00000E+00
         0.00000E+00
         0.00000E+00
         0.00000E+00
         0.00000E+00
         0.00000E+00
         0.00000E+00
         0.00000E+00
         0.00000E+00
         0.00000E+00
         0.00000E+00
         0.00000E+00
         0.00000E+00
         0.00000E+00
         0.00000E+00
         0.00000E+00
         0.00000E+00
         0.00000E+00
         0.00000E+00
         0.00000E+00
         0.00000E+00
         0.00000E+00
         0.00000E+00
         0.00000E+00
         0.00000E+00
         0.00000E+00
         0.00000E+00
         0.00000E+00
         0.00000E+00
         0.00000E+00
         0.00000E+00
         0.00000E+00
         0.00000E+00
         0.00000E+00
         0.00000E+00
         0.00000E+00
         0.00000E+00
         0.00000E+00
         0.00000E+00
         0.00000E+00
         0.00000E+00
         0.00000E+00
         0.00000E+00
         0.00000E+00
         0.00000E+00
         0.00000E+00
         0.00000E+00
         0.00000E+00
         0.00000E+00
         0.00000E+00
         0.00000E+00
         0.00000E+00
         0.00000E+00
         0.00000E+00
         0.00000E+00
         0.00000E+00
         0.00000E+00
         0.00000E+00
         0.00000E+00
         0.00000E+00
         0.00000E+00
         0.00000E+00
         0.00000E+00
         0.00000E+00
         0.00000E+00
         0.00000E+00
         0.00000E+00
         0.00000E+00
         0.00000E+00
         0.00000E+00
         0.00000E+00
         0.00000E+00
         0.00000E+00
         0.00000E+00
         0.00000E+00
         0.00000E+00
         0.00000E+00
         0.00000E+00
         0.00000E+00
         0.00000E+00
         0.00000E+00
         0.00000E+00
         0.00000E+00
         0.00000E+00
         0.00000E+00
         0.00000E+00
         0.00000E+00
         0.00000E+00
         0.00000E+00
         0.00000E+00
         0.00000E+00
         0.00000E+00
         0.00000E+00
         0.00000E+00
         0.00000E+00
         0.00000E+00
         0.00000E+00
         0.00000E+00
         0.00000E+00
         0.00000E+00
         0.00000E+00
         0.00000E+00
         0.00000E+00
         0.00000E+00
         0.00000E+00
         0.00000E+00
         0.00000E+00
         0.00000E+00
         0.00000E+00
         0.00000E+00
         0.00000E+00
         0.00000E+00
         0.00000E+00
         0.00000E+00
         0.00000E+00
         0.00000E+00
         0.00000E+00
         0.00000E+00
         0.00000E+00
         0.00000E+00
         0.00000E+00
         0.00000E+00
         0.00000E+00
         0.00000E+00
         0.00000E+00
         0.00000E+00
         0.00000E+00
         0.00000E+00
         0.00000E+00
         0.00000E+00
         0.00000E+00
         0.00000E+00
         0.00000E+00
         0.00000E+00
         0.00000E+00
         0.00000E+00
         0.00000E+00
         0.00000E+00
         0.00000E+00
         0.00000E+00
         0.00000E+00
         0.00000E+00
         0.00000E+00
         0.00000E+00
         0.00000E+00
         0.00000E+00
         0.00000E+00
         0.00000E+00
         0.00000E+00
         0.00000E+00
         0.00000E+00
         0.00000E+00
         0.00000E+00
         0.00000E+00
         0.00000E+00
         0.00000E+00
         0.00000E+00
         0.00000E+00
         0.00000E+00
         0.00000E+00
         0.00000E+00
         0.00000E+00
         0.00000E+00
         0.00000E+00
         0.00000E+00
         0.00000E+00
         0.00000E+00
         0.00000E+00
         0.00000E+00
         0.00000E+00
         0.00000E+00
         0.00000E+00
         0.00000E+00
         0.00000E+00
         0.00000E+00
         0.00000E+00
         0.00000E+00
         0.00000E+00
         0.00000E+00
         0.00000E+00
         0.00000E+00
         0.00000E+00
         0.00000E+00
         0.00000E+00
         0.00000E+00
         0.00000E+00
         0.00000E+00
         0.00000E+00
         0.00000E+00
         0.00000E+00
         0.00000E+00
         0.00000E+00
         0.00000E+00
         0.00000E+00
         0.00000E+00
         0.00000E+00
         0.00000E+00
         0.00000E+00
         0.00000E+00
         0.00000E+00
         0.00000E+00
         0.00000E+00
         0.00000E+00
         0.00000E+00
         0.00000E+00
         0.00000E+00
         0.00000E+00
         0.00000E+00
         0.00000E+00
         0.00000E+00
         0.00000E+00
         0.00000E+00
         0.00000E+00
         0.00000E+00
         0.00000E+00
         0.00000E+00
         0.00000E+00
         0.00000E+00
         0.00000E+00
         0.00000E+00
         0.00000E+00
         0.00000E+00
         0.00000E+00
         0.00000E+00
         0.00000E+00
         0.00000E+00
         0.00000E+00
         0.00000E+00
         0.00000E+00
         0.00000E+00
         0.00000E+00
         0.00000E+00
         0.00000E+00
         0.00000E+00
         0.00000E+00
         0.00000E+00
         0.00000E+00
         0.00000E+00
         0.00000E+00
         0.00000E+00
         0.00000E+00
         0.00000E+00
         0.00000E+00
         0.00000E+00
         0.00000E+00
         0.00000E+00
         0.00000E+00
         0.00000E+00
         0.00000E+00
         0.00000E+00
         0.00000E+00
         0.00000E+00
         0.00000E+00
         0.00000E+00
         0.00000E+00
         0.00000E+00
         0.00000E+00
         0.00000E+00
         0.00000E+00
         0.00000E+00
         0.00000E+00
         0.00000E+00
         0.00000E+00
         0.00000E+00
         0.00000E+00
         0.00000E+00
         0.00000E+00
         0.00000E+00
         0.00000E+00
         0.00000E+00
         0.00000E+00
         0.00000E+00
         0.00000E+00
         0.00000E+00
         0.00000E+00
         0.00000E+00
         0.00000E+00
         0.00000E+00
         0.00000E+00
         0.00000E+00
         0.00000E+00
         0.00000E+00
         0.00000E+00
         0.00000E+00
         0.00000E+00
         0.00000E+00
         0.00000E+00
         0.00000E+00
         0.00000E+00
         0.00000E+00
         0.00000E+00
         0.00000E+00
         0.00000E+00
         0.00000E+00
         0.00000E+00
         0.00000E+00
         0.00000E+00
         0.00000E+00
         0.00000E+00
         0.00000E+00
         0.00000E+00
         0.00000E+00
         0.00000E+00
         0.00000E+00
         0.00000E+00
         0.00000E+00
         0.00000E+00
         0.00000E+00
         0.00000E+00
         0.00000E+00
         0.00000E+00
         0.00000E+00
         0.00000E+00
         0.00000E+00
         0.00000E+00
         0.00000E+00
         0.00000E+00
         0.00000E+00
         0.00000E+00
         0.00000E+00
         0.00000E+00
         0.00000E+00
         0.00000E+00
         0.00000E+00
         0.00000E+00
         0.00000E+00
         0.00000E+00
         0.00000E+00
         0.00000E+00
         0.00000E+00
         0.00000E+00
         0.00000E+00
         0.00000E+00
         0.00000E+00
         0.00000E+00
         0.00000E+00
         0.00000E+00
         0.00000E+00
         0.00000E+00
         0.00000E+00
         0.00000E+00
         0.00000E+00
         0.00000E+00
         0.00000E+00
         0.00000E+00
         0.00000E+00
         0.00000E+00
         0.00000E+00
         0.00000E+00
         0.00000E+00
         0.00000E+00
         0.00000E+00
         0.00000E+00
         0.00000E+00
         0.00000E+00
         0.00000E+00
         0.00000E+00
         0.00000E+00
         0.00000E+00
         0.00000E+00
         0.00000E+00
         0.00000E+00
         0.00000E+00
         0.00000E+00
         0.00000E+00
         0.00000E+00
         0.00000E+00
         0.00000E+00
         0.00000E+00
         0.00000E+00
         0.00000E+00
         0.00000E+00
         0.00000E+00
         0.00000E+00
         0.00000E+00
         0.00000E+00
         0.00000E+00
         0.00000E+00
         0.00000E+00
         0.00000E+00
         0.00000E+00
         0.00000E+00
         0.00000E+00
         0.00000E+00
         0.00000E+00
         0.00000E+00
         0.00000E+00
         0.00000E+00
         0.00000E+00
         0.00000E+00
         0.00000E+00
         0.00000E+00
         0.00000E+00
         0.00000E+00
         0.00000E+00
         0.00000E+00
         0.00000E+00
         0.00000E+00
         0.00000E+00
         0.00000E+00
         0.00000E+00
         0.00000E+00
         0.00000E+00
         0.00000E+00
         0.00000E+00
         0.00000E+00
         0.00000E+00
         0.00000E+00
         0.00000E+00
         0.00000E+00
         0.00000E+00
         0.00000E+00
         0.00000E+00
         0.00000E+00
         0.00000E+00
         0.00000E+00
         0.00000E+00
         0.00000E+00
         0.00000E+00
         0.00000E+00
         0.00000E+00
         0.00000E+00
         0.00000E+00
         0.00000E+00
         0.00000E+00
         0.00000E+00
         0.00000E+00
         0.00000E+00
         0.00000E+00
         0.00000E+00
         0.00000E+00
         0.00000E+00
         0.00000E+00
         0.00000E+00
         0.00000E+00
         0.00000E+00
         0.00000E+00
         0.00000E+00
         0.00000E+00
         0.00000E+00
         0.00000E+00
         0.00000E+00
         0.00000E+00
         0.00000E+00
         0.00000E+00
         0.00000E+00
         0.00000E+00
         0.00000E+00
         0.00000E+00
         0.00000E+00
         0.00000E+00
         0.00000E+00
         0.00000E+00
         0.00000E+00
         0.00000E+00
         0.00000E+00
         0.00000E+00
         0.00000E+00
         0.00000E+00
         0.00000E+00
         0.00000E+00
         0.00000E+00
         0.00000E+00
         0.00000E+00
         0.00000E+00
         0.00000E+00
         0.00000E+00
         0.00000E+00
         0.00000E+00
         0.00000E+00
         0.00000E+00
         0.00000E+00
         0.00000E+00
         0.00000E+00
         0.00000E+00
         0.00000E+00
         0.00000E+00
         0.00000E+00
         0.00000E+00
         0.00000E+00
         0.00000E+00
         0.00000E+00
         0.00000E+00
         0.00000E+00
         0.00000E+00
         0.00000E+00
         0.00000E+00
         0.00000E+00
         0.00000E+00
         0.00000E+00
         0.00000E+00
         0.00000E+00
         0.00000E+00
         0.00000E+00
         0.00000E+00
         0.00000E+00
         0.00000E+00
         0.00000E+00
         0.00000E+00
         0.00000E+00
         0.00000E+00
         0.00000E+00
         0.00000E+00
         0.00000E+00
         0.00000E+00
         0.00000E+00
         0.00000E+00
         0.00000E+00
         0.00000E+00
         0.00000E+00
         0.00000E+00
         0.00000E+00
         0.00000E+00
         0.00000E+00
         0.00000E+00
         0.00000E+00
         0.00000E+00
         0.00000E+00
         0.00000E+00
         0.00000E+00
         0.00000E+00
         0.00000E+00
         0.00000E+00
         0.00000E+00
         0.00000E+00
         0.00000E+00
         0.00000E+00
         0.00000E+00
         0.00000E+00
         0.00000E+00
         0.00000E+00
         0.00000E+00
         0.00000E+00
         0.00000E+00
         0.00000E+00
         0.00000E+00
         0.00000E+00
         0.00000E+00
         0.00000E+00
         0.00000E+00
         0.00000E+00
         0.00000E+00
         0.00000E+00
         0.00000E+00
         0.00000E+00
         0.00000E+00
         0.00000E+00
         0.00000E+00
         0.00000E+00
         0.00000E+00
         0.00000E+00
         0.00000E+00
         0.00000E+00
         0.00000E+00
         0.00000E+00
         0.00000E+00
         0.00000E+00
         0.00000E+00
         0.00000E+00
         0.00000E+00
         0.00000E+00
         0.00000E+00
         0.00000E+00
         0.00000E+00
         0.00000E+00
         0.00000E+00
         0.00000E+00
         0.00000E+00
         0.00000E+00
         0.00000E+00
         0.00000E+00
         0.00000E+00
         0.00000E+00
         0.00000E+00
         0.00000E+00
         0.00000E+00
         0.00000E+00
         0.00000E+00
         0.00000E+00
         0.00000E+00
         0.00000E+00
         0.00000E+00
         0.00000E+00
         0.00000E+00
         0.00000E+00
         0.00000E+00
         0.00000E+00
         0.00000E+00
         0.00000E+00
         0.00000E+00
         0.00000E+00
         0.00000E+00
         0.00000E+00
         0.00000E+00
         0.00000E+00
         0.00000E+00
         0.00000E+00
         0.00000E+00
         0.00000E+00
         0.00000E+00
         0.00000E+00
         0.00000E+00
         0.00000E+00
         0.00000E+00
         0.00000E+00
         0.00000E+00
         0.00000E+00
         0.00000E+00
         0.00000E+00
         0.00000E+00
         0.00000E+00
         0.00000E+00
         0.00000E+00
         0.00000E+00
         0.00000E+00
         0.00000E+00
         0.00000E+00
         0.00000E+00
         0.00000E+00
         0.00000E+00
         0.00000E+00
         0.00000E+00
         0.00000E+00
         0.00000E+00
         0.00000E+00
         0.00000E+00
         0.00000E+00
         0.00000E+00
         0.00000E+00
         0.00000E+00
         0.00000E+00
         0.00000E+00
         0.00000E+00
         0.00000E+00
         0.00000E+00
         0.00000E+00
         0.00000E+00
         0.00000E+00
         0.00000E+00
         0.00000E+00
         0.00000E+00
         0.00000E+00
         0.00000E+00
         0.00000E+00
         0.00000E+00
         0.00000E+00
         0.00000E+00
         0.00000E+00
         0.00000E+00
         0.00000E+00
         0.00000E+00
         0.00000E+00
         0.00000E+00
         0.00000E+00
         0.00000E+00
         0.00000E+00
         0.00000E+00
         0.00000E+00
         0.00000E+00
         0.00000E+00
         0.00000E+00
         0.00000E+00
         0.00000E+00
         0.00000E+00
         0.00000E+00
         0.00000E+00
         0.00000E+00
         0.00000E+00
         0.00000E+00
         0.00000E+00
         0.00000E+00
         0.00000E+00
         0.00000E+00
         0.00000E+00
         0.00000E+00
         0.00000E+00
         0.00000E+00
         0.00000E+00
         0.00000E+00
         0.00000E+00
         0.00000E+00
         0.00000E+00
         0.00000E+00
         0.00000E+00
         0.00000E+00
         0.00000E+00
         0.00000E+00
         0.00000E+00
         0.00000E+00
         0.00000E+00
         0.00000E+00
         0.00000E+00
         0.00000E+00
         0.00000E+00
         0.00000E+00
         0.00000E+00
         0.00000E+00
         0.00000E+00
         0.00000E+00
         0.00000E+00
         0.00000E+00
         0.00000E+00
         0.00000E+00
         0.00000E+00
         0.00000E+00
         0.00000E+00
         0.00000E+00
         0.00000E+00
         0.00000E+00
         0.00000E+00
         0.00000E+00
         0.00000E+00
         0.00000E+00
         0.00000E+00
         0.00000E+00
         0.00000E+00
         0.00000E+00
         0.00000E+00
         0.00000E+00
         0.00000E+00
         0.00000E+00
         0.00000E+00
         0.00000E+00
         0.00000E+00
         0.00000E+00
         0.00000E+00
         0.00000E+00
         0.00000E+00
         0.00000E+00
         0.00000E+00
         0.00000E+00
         0.00000E+00
         0.00000E+00
         0.00000E+00
         0.00000E+00
         0.00000E+00
         0.00000E+00
         0.00000E+00
         0.00000E+00
         0.00000E+00
         0.00000E+00
         0.00000E+00
         0.00000E+00
         0.00000E+00
         0.00000E+00
         0.00000E+00
         0.00000E+00
         0.00000E+00
         0.00000E+00
         0.00000E+00
         0.00000E+00
         0.00000E+00
         0.00000E+00
         0.00000E+00
         0.00000E+00
         0.00000E+00
         0.00000E+00
         0.00000E+00
         0.00000E+00
         0.00000E+00
         0.00000E+00
         0.00000E+00
         0.00000E+00
         0.00000E+00
         0.00000E+00
         0.00000E+00
         0.00000E+00
         0.00000E+00
         0.00000E+00
         0.00000E+00
         0.00000E+00
         0.00000E+00
         0.00000E+00
         0.00000E+00
         0.00000E+00
         0.00000E+00
         0.00000E+00
         0.00000E+00
         0.00000E+00
         0.00000E+00
         0.00000E+00
         0.00000E+00
         0.00000E+00
         0.00000E+00
         0.00000E+00
         0.00000E+00
         0.00000E+00
         0.00000E+00
         0.00000E+00
         0.00000E+00
         0.00000E+00
         0.00000E+00
         0.00000E+00
         0.00000E+00
         0.00000E+00
         0.00000E+00
         0.00000E+00
         0.00000E+00
         0.00000E+00
         0.00000E+00
         0.00000E+00
         0.00000E+00
         0.00000E+00
         0.00000E+00
         0.00000E+00
         0.00000E+00
         0.00000E+00
         0.00000E+00
         0.00000E+00
         0.00000E+00
         0.00000E+00
         0.00000E+00
         0.00000E+00
         0.00000E+00
         0.00000E+00
         0.00000E+00
         0.00000E+00
         0.00000E+00
         0.00000E+00
         0.00000E+00
         0.00000E+00
         0.00000E+00
         0.00000E+00
         0.00000E+00
         0.00000E+00
         0.00000E+00
         0.00000E+00
         0.00000E+00
         0.00000E+00
         0.00000E+00
         0.00000E+00
         0.00000E+00
         0.00000E+00
         0.00000E+00
         0.00000E+00
         0.00000E+00
         0.00000E+00
         0.00000E+00
         0.00000E+00
         0.00000E+00
         0.00000E+00
         0.00000E+00
         0.00000E+00
         0.00000E+00
         0.00000E+00
         0.00000E+00
         0.00000E+00
         0.00000E+00
         0.00000E+00
         0.00000E+00
         0.00000E+00
         0.00000E+00
         0.00000E+00
         0.00000E+00
         0.00000E+00
         0.00000E+00
         0.00000E+00
         0.00000E+00
         0.00000E+00
         0.00000E+00
         0.00000E+00
         0.00000E+00
         0.00000E+00
         0.00000E+00
         0.00000E+00
         0.00000E+00
         0.00000E+00
         0.00000E+00
         0.00000E+00
         0.00000E+00
         0.00000E+00
         0.00000E+00
         0.00000E+00
         0.00000E+00
         0.00000E+00
         0.00000E+00
         0.00000E+00
         0.00000E+00
         0.00000E+00
         0.00000E+00
         0.00000E+00
         0.00000E+00
         0.00000E+00
         0.00000E+00
         0.00000E+00
         0.00000E+00
         0.00000E+00
         0.00000E+00
         0.00000E+00
         0.00000E+00
         0.00000E+00
         0.00000E+00
         0.00000E+00
         0.00000E+00
  
SCALARS                     velocity_z  double 1
LOOKUP_TABLE default
        -0.37300E+03
        -0.37300E+03
        -0.37300E+03
        -0.37300E+03
         0.00000E+00
         0.00000E+00
         0.00000E+00
         0.00000E+00
        -0.37300E+03
        -0.37300E+03
         0.00000E+00
         0.00000E+00
        -0.37300E+03
        -0.37300E+03
         0.00000E+00
         0.00000E+00
        -0.37300E+03
        -0.37300E+03
         0.00000E+00
         0.00000E+00
        -0.37300E+03
        -0.37300E+03
        -0.37300E+03
         0.00000E+00
         0.00000E+00
         0.00000E+00
        -0.37300E+03
        -0.37300E+03
         0.00000E+00
         0.00000E+00
        -0.37300E+03
        -0.37300E+03
        -0.37300E+03
         0.00000E+00
         0.00000E+00
         0.00000E+00
        -0.37300E+03
        -0.37300E+03
         0.00000E+00
         0.00000E+00
        -0.37300E+03
        -0.37300E+03
         0.00000E+00
         0.00000E+00
        -0.37300E+03
        -0.37300E+03
         0.00000E+00
         0.00000E+00
        -0.37300E+03
         0.00000E+00
        -0.37300E+03
         0.00000E+00
        -0.37300E+03
         0.00000E+00
        -0.37300E+03
         0.00000E+00
        -0.37300E+03
        -0.37300E+03
         0.00000E+00
         0.00000E+00
        -0.37300E+03
        -0.37300E+03
         0.00000E+00
         0.00000E+00
        -0.37300E+03
         0.00000E+00
        -0.37300E+03
         0.00000E+00
        -0.37300E+03
        -0.37300E+03
         0.00000E+00
         0.00000E+00
        -0.37300E+03
         0.00000E+00
        -0.37300E+03
         0.00000E+00
        -0.37300E+03
         0.00000E+00
        -0.37300E+03
         0.00000E+00
        -0.37300E+03
        -0.37300E+03
         0.00000E+00
         0.00000E+00
        -0.37300E+03
         0.00000E+00
        -0.37300E+03
         0.00000E+00
        -0.37300E+03
         0.00000E+00
        -0.37300E+03
        -0.37300E+03
         0.00000E+00
         0.00000E+00
        -0.37300E+03
         0.00000E+00
        -0.37300E+03
         0.00000E+00
        -0.37300E+03
         0.00000E+00
        -0.37300E+03
        -0.37300E+03
         0.00000E+00
         0.00000E+00
        -0.37300E+03
        -0.37300E+03
         0.00000E+00
         0.00000E+00
        -0.37300E+03
         0.00000E+00
        -0.37300E+03
         0.00000E+00
        -0.37300E+03
         0.00000E+00
        -0.37300E+03
         0.00000E+00
        -0.37300E+03
         0.00000E+00
        -0.37300E+03
         0.00000E+00
        -0.37300E+03
         0.00000E+00
        -0.37300E+03
         0.00000E+00
        -0.37300E+03
         0.00000E+00
        -0.37300E+03
         0.00000E+00
        -0.37300E+03
         0.00000E+00
        -0.37300E+03
         0.00000E+00
        -0.37300E+03
         0.00000E+00
        -0.37300E+03
         0.00000E+00
        -0.37300E+03
         0.00000E+00
        -0.37300E+03
         0.00000E+00
        -0.37300E+03
         0.00000E+00
        -0.37300E+03
         0.00000E+00
        -0.37300E+03
         0.00000E+00
        -0.37300E+03
         0.00000E+00
        -0.37300E+03
         0.00000E+00
        -0.37300E+03
         0.00000E+00
        -0.37300E+03
         0.00000E+00
        -0.37300E+03
         0.00000E+00
        -0.37300E+03
        -0.37300E+03
        -0.37300E+03
        -0.37300E+03
        -0.37300E+03
        -0.37300E+03
        -0.37300E+03
        -0.37300E+03
        -0.37300E+03
        -0.37300E+03
        -0.37300E+03
        -0.37300E+03
        -0.37300E+03
        -0.37300E+03
        -0.37300E+03
        -0.37300E+03
        -0.37300E+03
        -0.37300E+03
        -0.37300E+03
        -0.37300E+03
        -0.37300E+03
        -0.37300E+03
        -0.37300E+03
        -0.37300E+03
        -0.37300E+03
        -0.37300E+03
        -0.37300E+03
        -0.37300E+03
        -0.37300E+03
        -0.37300E+03
        -0.37300E+03
        -0.37300E+03
        -0.37300E+03
        -0.37300E+03
        -0.37300E+03
        -0.37300E+03
        -0.37300E+03
        -0.37300E+03
        -0.37300E+03
        -0.37300E+03
        -0.37300E+03
        -0.37300E+03
        -0.37300E+03
        -0.37300E+03
        -0.37300E+03
        -0.37300E+03
        -0.37300E+03
        -0.37300E+03
        -0.37300E+03
        -0.37300E+03
        -0.37300E+03
        -0.37300E+03
        -0.37300E+03
        -0.37300E+03
        -0.37300E+03
        -0.37300E+03
        -0.37300E+03
        -0.37300E+03
        -0.37300E+03
        -0.37300E+03
        -0.37300E+03
        -0.37300E+03
        -0.37300E+03
        -0.37300E+03
        -0.37300E+03
        -0.37300E+03
        -0.37300E+03
        -0.37300E+03
        -0.37300E+03
        -0.37300E+03
        -0.37300E+03
        -0.37300E+03
        -0.37300E+03
        -0.37300E+03
        -0.37300E+03
        -0.37300E+03
        -0.37300E+03
        -0.37300E+03
        -0.37300E+03
        -0.37300E+03
        -0.37300E+03
        -0.37300E+03
        -0.37300E+03
        -0.37300E+03
        -0.37300E+03
        -0.37300E+03
        -0.37300E+03
        -0.37300E+03
        -0.37300E+03
        -0.37300E+03
        -0.37300E+03
        -0.37300E+03
        -0.37300E+03
        -0.37300E+03
        -0.37300E+03
        -0.37300E+03
        -0.37300E+03
        -0.37300E+03
        -0.37300E+03
        -0.37300E+03
        -0.37300E+03
        -0.37300E+03
        -0.37300E+03
        -0.37300E+03
        -0.37300E+03
        -0.37300E+03
        -0.37300E+03
        -0.37300E+03
        -0.37300E+03
        -0.37300E+03
        -0.37300E+03
        -0.37300E+03
        -0.37300E+03
        -0.37300E+03
        -0.37300E+03
        -0.37300E+03
        -0.37300E+03
        -0.37300E+03
        -0.37300E+03
        -0.37300E+03
        -0.37300E+03
        -0.37300E+03
        -0.37300E+03
        -0.37300E+03
        -0.37300E+03
        -0.37300E+03
        -0.37300E+03
        -0.37300E+03
        -0.37300E+03
        -0.37300E+03
        -0.37300E+03
        -0.37300E+03
        -0.37300E+03
        -0.37300E+03
        -0.37300E+03
        -0.37300E+03
        -0.37300E+03
        -0.37300E+03
        -0.37300E+03
        -0.37300E+03
        -0.37300E+03
        -0.37300E+03
        -0.37300E+03
        -0.37300E+03
        -0.37300E+03
        -0.37300E+03
        -0.37300E+03
        -0.37300E+03
        -0.37300E+03
        -0.37300E+03
        -0.37300E+03
        -0.37300E+03
        -0.37300E+03
        -0.37300E+03
        -0.37300E+03
        -0.37300E+03
        -0.37300E+03
        -0.37300E+03
        -0.37300E+03
        -0.37300E+03
        -0.37300E+03
        -0.37300E+03
        -0.37300E+03
        -0.37300E+03
        -0.37300E+03
        -0.37300E+03
        -0.37300E+03
        -0.37300E+03
        -0.37300E+03
        -0.37300E+03
        -0.37300E+03
        -0.37300E+03
        -0.37300E+03
        -0.37300E+03
        -0.37300E+03
        -0.37300E+03
        -0.37300E+03
        -0.37300E+03
        -0.37300E+03
        -0.37300E+03
        -0.37300E+03
        -0.37300E+03
        -0.37300E+03
        -0.37300E+03
        -0.37300E+03
        -0.37300E+03
        -0.37300E+03
        -0.37300E+03
        -0.37300E+03
        -0.37300E+03
        -0.37300E+03
        -0.37300E+03
        -0.37300E+03
        -0.37300E+03
        -0.37300E+03
        -0.37300E+03
        -0.37300E+03
        -0.37300E+03
        -0.37300E+03
        -0.37300E+03
        -0.37300E+03
        -0.37300E+03
        -0.37300E+03
        -0.37300E+03
        -0.37300E+03
        -0.37300E+03
        -0.37300E+03
        -0.37300E+03
        -0.37300E+03
        -0.37300E+03
        -0.37300E+03
        -0.37300E+03
        -0.37300E+03
        -0.37300E+03
        -0.37300E+03
        -0.37300E+03
        -0.37300E+03
        -0.37300E+03
        -0.37300E+03
        -0.37300E+03
        -0.37300E+03
        -0.37300E+03
        -0.37300E+03
        -0.37300E+03
        -0.37300E+03
        -0.37300E+03
        -0.37300E+03
        -0.37300E+03
        -0.37300E+03
        -0.37300E+03
        -0.37300E+03
        -0.37300E+03
        -0.37300E+03
        -0.37300E+03
        -0.37300E+03
        -0.37300E+03
        -0.37300E+03
        -0.37300E+03
        -0.37300E+03
        -0.37300E+03
        -0.37300E+03
        -0.37300E+03
        -0.37300E+03
        -0.37300E+03
        -0.37300E+03
        -0.37300E+03
        -0.37300E+03
        -0.37300E+03
        -0.37300E+03
        -0.37300E+03
        -0.37300E+03
        -0.37300E+03
        -0.37300E+03
        -0.37300E+03
        -0.37300E+03
        -0.37300E+03
        -0.37300E+03
        -0.37300E+03
        -0.37300E+03
        -0.37300E+03
        -0.37300E+03
        -0.37300E+03
        -0.37300E+03
        -0.37300E+03
        -0.37300E+03
        -0.37300E+03
        -0.37300E+03
        -0.37300E+03
        -0.37300E+03
        -0.37300E+03
        -0.37300E+03
        -0.37300E+03
        -0.37300E+03
        -0.37300E+03
        -0.37300E+03
        -0.37300E+03
        -0.37300E+03
        -0.37300E+03
        -0.37300E+03
        -0.37300E+03
        -0.37300E+03
        -0.37300E+03
        -0.37300E+03
        -0.37300E+03
        -0.37300E+03
        -0.37300E+03
        -0.37300E+03
        -0.37300E+03
        -0.37300E+03
        -0.37300E+03
        -0.37300E+03
        -0.37300E+03
        -0.37300E+03
        -0.37300E+03
        -0.37300E+03
        -0.37300E+03
        -0.37300E+03
        -0.37300E+03
        -0.37300E+03
        -0.37300E+03
        -0.37300E+03
        -0.37300E+03
        -0.37300E+03
        -0.37300E+03
        -0.37300E+03
        -0.37300E+03
        -0.37300E+03
        -0.37300E+03
        -0.37300E+03
        -0.37300E+03
        -0.37300E+03
        -0.37300E+03
        -0.37300E+03
        -0.37300E+03
        -0.37300E+03
        -0.37300E+03
        -0.37300E+03
        -0.37300E+03
        -0.37300E+03
        -0.37300E+03
        -0.37300E+03
        -0.37300E+03
        -0.37300E+03
        -0.37300E+03
        -0.37300E+03
        -0.37300E+03
        -0.37300E+03
        -0.37300E+03
        -0.37300E+03
        -0.37300E+03
        -0.37300E+03
        -0.37300E+03
        -0.37300E+03
        -0.37300E+03
        -0.37300E+03
        -0.37300E+03
        -0.37300E+03
        -0.37300E+03
        -0.37300E+03
        -0.37300E+03
        -0.37300E+03
        -0.37300E+03
        -0.37300E+03
        -0.37300E+03
        -0.37300E+03
        -0.37300E+03
        -0.37300E+03
        -0.37300E+03
        -0.37300E+03
        -0.37300E+03
        -0.37300E+03
        -0.37300E+03
        -0.37300E+03
        -0.37300E+03
        -0.37300E+03
        -0.37300E+03
        -0.37300E+03
        -0.37300E+03
        -0.37300E+03
        -0.37300E+03
        -0.37300E+03
        -0.37300E+03
        -0.37300E+03
        -0.37300E+03
        -0.37300E+03
        -0.37300E+03
        -0.37300E+03
        -0.37300E+03
        -0.37300E+03
        -0.37300E+03
        -0.37300E+03
        -0.37300E+03
        -0.37300E+03
        -0.37300E+03
        -0.37300E+03
        -0.37300E+03
        -0.37300E+03
        -0.37300E+03
        -0.37300E+03
        -0.37300E+03
        -0.37300E+03
        -0.37300E+03
        -0.37300E+03
        -0.37300E+03
        -0.37300E+03
        -0.37300E+03
        -0.37300E+03
        -0.37300E+03
        -0.37300E+03
        -0.37300E+03
        -0.37300E+03
        -0.37300E+03
        -0.37300E+03
        -0.37300E+03
        -0.37300E+03
        -0.37300E+03
        -0.37300E+03
        -0.37300E+03
        -0.37300E+03
        -0.37300E+03
        -0.37300E+03
        -0.37300E+03
        -0.37300E+03
        -0.37300E+03
        -0.37300E+03
        -0.37300E+03
        -0.37300E+03
        -0.37300E+03
        -0.37300E+03
        -0.37300E+03
        -0.37300E+03
        -0.37300E+03
        -0.37300E+03
        -0.37300E+03
        -0.37300E+03
        -0.37300E+03
        -0.37300E+03
        -0.37300E+03
        -0.37300E+03
        -0.37300E+03
        -0.37300E+03
        -0.37300E+03
        -0.37300E+03
        -0.37300E+03
        -0.37300E+03
        -0.37300E+03
        -0.37300E+03
        -0.37300E+03
        -0.37300E+03
        -0.37300E+03
        -0.37300E+03
        -0.37300E+03
        -0.37300E+03
        -0.37300E+03
        -0.37300E+03
        -0.37300E+03
        -0.37300E+03
        -0.37300E+03
        -0.37300E+03
        -0.37300E+03
        -0.37300E+03
        -0.37300E+03
        -0.37300E+03
        -0.37300E+03
        -0.37300E+03
        -0.37300E+03
        -0.37300E+03
        -0.37300E+03
        -0.37300E+03
        -0.37300E+03
        -0.37300E+03
        -0.37300E+03
        -0.37300E+03
        -0.37300E+03
        -0.37300E+03
        -0.37300E+03
        -0.37300E+03
        -0.37300E+03
        -0.37300E+03
        -0.37300E+03
        -0.37300E+03
        -0.37300E+03
        -0.37300E+03
        -0.37300E+03
        -0.37300E+03
        -0.37300E+03
        -0.37300E+03
        -0.37300E+03
        -0.37300E+03
        -0.37300E+03
        -0.37300E+03
        -0.37300E+03
        -0.37300E+03
        -0.37300E+03
        -0.37300E+03
        -0.37300E+03
        -0.37300E+03
        -0.37300E+03
        -0.37300E+03
        -0.37300E+03
        -0.37300E+03
        -0.37300E+03
        -0.37300E+03
        -0.37300E+03
        -0.37300E+03
        -0.37300E+03
        -0.37300E+03
        -0.37300E+03
        -0.37300E+03
        -0.37300E+03
        -0.37300E+03
        -0.37300E+03
        -0.37300E+03
        -0.37300E+03
        -0.37300E+03
        -0.37300E+03
        -0.37300E+03
        -0.37300E+03
        -0.37300E+03
        -0.37300E+03
        -0.37300E+03
        -0.37300E+03
        -0.37300E+03
        -0.37300E+03
        -0.37300E+03
        -0.37300E+03
        -0.37300E+03
        -0.37300E+03
        -0.37300E+03
        -0.37300E+03
        -0.37300E+03
        -0.37300E+03
        -0.37300E+03
        -0.37300E+03
        -0.37300E+03
        -0.37300E+03
        -0.37300E+03
        -0.37300E+03
        -0.37300E+03
        -0.37300E+03
        -0.37300E+03
        -0.37300E+03
        -0.37300E+03
        -0.37300E+03
        -0.37300E+03
        -0.37300E+03
        -0.37300E+03
        -0.37300E+03
        -0.37300E+03
        -0.37300E+03
        -0.37300E+03
        -0.37300E+03
        -0.37300E+03
        -0.37300E+03
        -0.37300E+03
        -0.37300E+03
        -0.37300E+03
        -0.37300E+03
        -0.37300E+03
        -0.37300E+03
        -0.37300E+03
        -0.37300E+03
        -0.37300E+03
        -0.37300E+03
        -0.37300E+03
        -0.37300E+03
        -0.37300E+03
        -0.37300E+03
        -0.37300E+03
        -0.37300E+03
        -0.37300E+03
        -0.37300E+03
        -0.37300E+03
        -0.37300E+03
        -0.37300E+03
        -0.37300E+03
        -0.37300E+03
        -0.37300E+03
        -0.37300E+03
        -0.37300E+03
        -0.37300E+03
        -0.37300E+03
        -0.37300E+03
        -0.37300E+03
        -0.37300E+03
        -0.37300E+03
        -0.37300E+03
        -0.37300E+03
        -0.37300E+03
        -0.37300E+03
        -0.37300E+03
        -0.37300E+03
        -0.37300E+03
        -0.37300E+03
        -0.37300E+03
        -0.37300E+03
        -0.37300E+03
        -0.37300E+03
        -0.37300E+03
        -0.37300E+03
        -0.37300E+03
        -0.37300E+03
        -0.37300E+03
        -0.37300E+03
        -0.37300E+03
        -0.37300E+03
        -0.37300E+03
        -0.37300E+03
        -0.37300E+03
        -0.37300E+03
        -0.37300E+03
        -0.37300E+03
        -0.37300E+03
        -0.37300E+03
        -0.37300E+03
        -0.37300E+03
        -0.37300E+03
        -0.37300E+03
        -0.37300E+03
        -0.37300E+03
        -0.37300E+03
        -0.37300E+03
        -0.37300E+03
        -0.37300E+03
        -0.37300E+03
        -0.37300E+03
        -0.37300E+03
        -0.37300E+03
        -0.37300E+03
        -0.37300E+03
        -0.37300E+03
        -0.37300E+03
        -0.37300E+03
        -0.37300E+03
        -0.37300E+03
        -0.37300E+03
        -0.37300E+03
        -0.37300E+03
        -0.37300E+03
        -0.37300E+03
        -0.37300E+03
        -0.37300E+03
        -0.37300E+03
        -0.37300E+03
        -0.37300E+03
        -0.37300E+03
        -0.37300E+03
        -0.37300E+03
        -0.37300E+03
        -0.37300E+03
        -0.37300E+03
        -0.37300E+03
        -0.37300E+03
        -0.37300E+03
        -0.37300E+03
        -0.37300E+03
        -0.37300E+03
        -0.37300E+03
        -0.37300E+03
        -0.37300E+03
        -0.37300E+03
        -0.37300E+03
        -0.37300E+03
        -0.37300E+03
        -0.37300E+03
        -0.37300E+03
        -0.37300E+03
        -0.37300E+03
        -0.37300E+03
        -0.37300E+03
        -0.37300E+03
        -0.37300E+03
        -0.37300E+03
        -0.37300E+03
        -0.37300E+03
        -0.37300E+03
        -0.37300E+03
        -0.37300E+03
        -0.37300E+03
        -0.37300E+03
        -0.37300E+03
        -0.37300E+03
        -0.37300E+03
        -0.37300E+03
        -0.37300E+03
        -0.37300E+03
        -0.37300E+03
        -0.37300E+03
        -0.37300E+03
        -0.37300E+03
        -0.37300E+03
        -0.37300E+03
        -0.37300E+03
        -0.37300E+03
        -0.37300E+03
        -0.37300E+03
        -0.37300E+03
        -0.37300E+03
        -0.37300E+03
        -0.37300E+03
        -0.37300E+03
        -0.37300E+03
        -0.37300E+03
        -0.37300E+03
        -0.37300E+03
        -0.37300E+03
        -0.37300E+03
        -0.37300E+03
        -0.37300E+03
        -0.37300E+03
        -0.37300E+03
        -0.37300E+03
        -0.37300E+03
        -0.37300E+03
        -0.37300E+03
        -0.37300E+03
        -0.37300E+03
        -0.37300E+03
        -0.37300E+03
        -0.37300E+03
        -0.37300E+03
        -0.37300E+03
        -0.37300E+03
        -0.37300E+03
        -0.37300E+03
        -0.37300E+03
        -0.37300E+03
        -0.37300E+03
        -0.37300E+03
        -0.37300E+03
        -0.37300E+03
        -0.37300E+03
        -0.37300E+03
        -0.37300E+03
        -0.37300E+03
        -0.37300E+03
        -0.37300E+03
        -0.37300E+03
        -0.37300E+03
        -0.37300E+03
        -0.37300E+03
        -0.37300E+03
        -0.37300E+03
        -0.37300E+03
        -0.37300E+03
        -0.37300E+03
        -0.37300E+03
        -0.37300E+03
        -0.37300E+03
        -0.37300E+03
        -0.37300E+03
        -0.37300E+03
        -0.37300E+03
        -0.37300E+03
        -0.37300E+03
        -0.37300E+03
        -0.37300E+03
        -0.37300E+03
        -0.37300E+03
        -0.37300E+03
        -0.37300E+03
        -0.37300E+03
        -0.37300E+03
        -0.37300E+03
        -0.37300E+03
        -0.37300E+03
        -0.37300E+03
        -0.37300E+03
        -0.37300E+03
        -0.37300E+03
        -0.37300E+03
        -0.37300E+03
        -0.37300E+03
        -0.37300E+03
        -0.37300E+03
        -0.37300E+03
        -0.37300E+03
        -0.37300E+03
        -0.37300E+03
        -0.37300E+03
        -0.37300E+03
        -0.37300E+03
        -0.37300E+03
        -0.37300E+03
        -0.37300E+03
        -0.37300E+03
        -0.37300E+03
        -0.37300E+03
        -0.37300E+03
        -0.37300E+03
        -0.37300E+03
        -0.37300E+03
        -0.37300E+03
        -0.37300E+03
        -0.37300E+03
        -0.37300E+03
        -0.37300E+03
        -0.37300E+03
        -0.37300E+03
        -0.37300E+03
        -0.37300E+03
        -0.37300E+03
        -0.37300E+03
        -0.37300E+03
        -0.37300E+03
        -0.37300E+03
        -0.37300E+03
        -0.37300E+03
        -0.37300E+03
        -0.37300E+03
        -0.37300E+03
        -0.37300E+03
        -0.37300E+03
        -0.37300E+03
        -0.37300E+03
        -0.37300E+03
        -0.37300E+03
        -0.37300E+03
        -0.37300E+03
        -0.37300E+03
        -0.37300E+03
        -0.37300E+03
        -0.37300E+03
        -0.37300E+03
        -0.37300E+03
        -0.37300E+03
        -0.37300E+03
        -0.37300E+03
        -0.37300E+03
        -0.37300E+03
        -0.37300E+03
        -0.37300E+03
        -0.37300E+03
        -0.37300E+03
        -0.37300E+03
        -0.37300E+03
        -0.37300E+03
        -0.37300E+03
        -0.37300E+03
        -0.37300E+03
        -0.37300E+03
        -0.37300E+03
        -0.37300E+03
        -0.37300E+03
        -0.37300E+03
        -0.37300E+03
        -0.37300E+03
        -0.37300E+03
        -0.37300E+03
        -0.37300E+03
        -0.37300E+03
        -0.37300E+03
        -0.37300E+03
        -0.37300E+03
        -0.37300E+03
        -0.37300E+03
        -0.37300E+03
        -0.37300E+03
        -0.37300E+03
        -0.37300E+03
        -0.37300E+03
        -0.37300E+03
        -0.37300E+03
        -0.37300E+03
        -0.37300E+03
        -0.37300E+03
        -0.37300E+03
        -0.37300E+03
        -0.37300E+03
        -0.37300E+03
        -0.37300E+03
        -0.37300E+03
        -0.37300E+03
        -0.37300E+03
        -0.37300E+03
        -0.37300E+03
        -0.37300E+03
        -0.37300E+03
        -0.37300E+03
        -0.37300E+03
        -0.37300E+03
        -0.37300E+03
        -0.37300E+03
        -0.37300E+03
        -0.37300E+03
        -0.37300E+03
        -0.37300E+03
        -0.37300E+03
        -0.37300E+03
        -0.37300E+03
        -0.37300E+03
        -0.37300E+03
        -0.37300E+03
        -0.37300E+03
        -0.37300E+03
        -0.37300E+03
        -0.37300E+03
        -0.37300E+03
        -0.37300E+03
        -0.37300E+03
        -0.37300E+03
        -0.37300E+03
        -0.37300E+03
        -0.37300E+03
        -0.37300E+03
        -0.37300E+03
        -0.37300E+03
        -0.37300E+03
        -0.37300E+03
        -0.37300E+03
        -0.37300E+03
        -0.37300E+03
        -0.37300E+03
        -0.37300E+03
        -0.37300E+03
        -0.37300E+03
        -0.37300E+03
        -0.37300E+03
        -0.37300E+03
        -0.37300E+03
        -0.37300E+03
        -0.37300E+03
        -0.37300E+03
        -0.37300E+03
        -0.37300E+03
        -0.37300E+03
        -0.37300E+03
        -0.37300E+03
        -0.37300E+03
        -0.37300E+03
        -0.37300E+03
        -0.37300E+03
        -0.37300E+03
        -0.37300E+03
        -0.37300E+03
        -0.37300E+03
        -0.37300E+03
        -0.37300E+03
        -0.37300E+03
        -0.37300E+03
        -0.37300E+03
        -0.37300E+03
        -0.37300E+03
        -0.37300E+03
        -0.37300E+03
        -0.37300E+03
        -0.37300E+03
        -0.37300E+03
        -0.37300E+03
        -0.37300E+03
        -0.37300E+03
        -0.37300E+03
        -0.37300E+03
        -0.37300E+03
        -0.37300E+03
        -0.37300E+03
        -0.37300E+03
        -0.37300E+03
        -0.37300E+03
        -0.37300E+03
        -0.37300E+03
        -0.37300E+03
        -0.37300E+03
        -0.37300E+03
        -0.37300E+03
        -0.37300E+03
        -0.37300E+03
        -0.37300E+03
        -0.37300E+03
        -0.37300E+03
        -0.37300E+03
        -0.37300E+03
        -0.37300E+03
        -0.37300E+03
        -0.37300E+03
        -0.37300E+03
        -0.37300E+03
        -0.37300E+03
        -0.37300E+03
        -0.37300E+03
        -0.37300E+03
        -0.37300E+03
        -0.37300E+03
        -0.37300E+03
        -0.37300E+03
        -0.37300E+03
        -0.37300E+03
        -0.37300E+03
        -0.37300E+03
        -0.37300E+03
        -0.37300E+03
        -0.37300E+03
        -0.37300E+03
        -0.37300E+03
        -0.37300E+03
        -0.37300E+03
        -0.37300E+03
        -0.37300E+03
        -0.37300E+03
        -0.37300E+03
        -0.37300E+03
        -0.37300E+03
        -0.37300E+03
        -0.37300E+03
        -0.37300E+03
        -0.37300E+03
        -0.37300E+03
        -0.37300E+03
        -0.37300E+03
        -0.37300E+03
        -0.37300E+03
        -0.37300E+03
        -0.37300E+03
        -0.37300E+03
        -0.37300E+03
        -0.37300E+03
        -0.37300E+03
        -0.37300E+03
        -0.37300E+03
        -0.37300E+03
        -0.37300E+03
        -0.37300E+03
        -0.37300E+03
        -0.37300E+03
        -0.37300E+03
        -0.37300E+03
        -0.37300E+03
        -0.37300E+03
        -0.37300E+03
        -0.37300E+03
        -0.37300E+03
        -0.37300E+03
        -0.37300E+03
        -0.37300E+03
        -0.37300E+03
        -0.37300E+03
        -0.37300E+03
        -0.37300E+03
        -0.37300E+03
        -0.37300E+03
        -0.37300E+03
        -0.37300E+03
        -0.37300E+03
        -0.37300E+03
        -0.37300E+03
        -0.37300E+03
        -0.37300E+03
        -0.37300E+03
        -0.37300E+03
        -0.37300E+03
        -0.37300E+03
        -0.37300E+03
        -0.37300E+03
        -0.37300E+03
        -0.37300E+03
        -0.37300E+03
        -0.37300E+03
        -0.37300E+03
        -0.37300E+03
        -0.37300E+03
        -0.37300E+03
        -0.37300E+03
        -0.37300E+03
        -0.37300E+03
        -0.37300E+03
        -0.37300E+03
        -0.37300E+03
        -0.37300E+03
        -0.37300E+03
        -0.37300E+03
        -0.37300E+03
        -0.37300E+03
        -0.37300E+03
        -0.37300E+03
        -0.37300E+03
        -0.37300E+03
        -0.37300E+03
        -0.37300E+03
        -0.37300E+03
        -0.37300E+03
        -0.37300E+03
        -0.37300E+03
        -0.37300E+03
        -0.37300E+03
        -0.37300E+03
        -0.37300E+03
        -0.37300E+03
        -0.37300E+03
        -0.37300E+03
        -0.37300E+03
        -0.37300E+03
        -0.37300E+03
        -0.37300E+03
        -0.37300E+03
        -0.37300E+03
        -0.37300E+03
        -0.37300E+03
        -0.37300E+03
        -0.37300E+03
        -0.37300E+03
        -0.37300E+03
        -0.37300E+03
        -0.37300E+03
        -0.37300E+03
        -0.37300E+03
        -0.37300E+03
        -0.37300E+03
        -0.37300E+03
        -0.37300E+03
        -0.37300E+03
        -0.37300E+03
        -0.37300E+03
        -0.37300E+03
        -0.37300E+03
        -0.37300E+03
        -0.37300E+03
        -0.37300E+03
        -0.37300E+03
        -0.37300E+03
        -0.37300E+03
        -0.37300E+03
        -0.37300E+03
        -0.37300E+03
        -0.37300E+03
        -0.37300E+03
        -0.37300E+03
        -0.37300E+03
        -0.37300E+03
        -0.37300E+03
        -0.37300E+03
        -0.37300E+03
        -0.37300E+03
        -0.37300E+03
        -0.37300E+03
        -0.37300E+03
        -0.37300E+03
        -0.37300E+03
        -0.37300E+03
        -0.37300E+03
        -0.37300E+03
        -0.37300E+03
        -0.37300E+03
        -0.37300E+03
        -0.37300E+03
        -0.37300E+03
        -0.37300E+03
        -0.37300E+03
        -0.37300E+03
        -0.37300E+03
        -0.37300E+03
        -0.37300E+03
        -0.37300E+03
        -0.37300E+03
        -0.37300E+03
        -0.37300E+03
        -0.37300E+03
        -0.37300E+03
        -0.37300E+03
        -0.37300E+03
        -0.37300E+03
        -0.37300E+03
        -0.37300E+03
        -0.37300E+03
        -0.37300E+03
        -0.37300E+03
        -0.37300E+03
        -0.37300E+03
        -0.37300E+03
        -0.37300E+03
        -0.37300E+03
        -0.37300E+03
        -0.37300E+03
        -0.37300E+03
        -0.37300E+03
        -0.37300E+03
        -0.37300E+03
        -0.37300E+03
        -0.37300E+03
        -0.37300E+03
        -0.37300E+03
        -0.37300E+03
        -0.37300E+03
        -0.37300E+03
        -0.37300E+03
        -0.37300E+03
        -0.37300E+03
        -0.37300E+03
        -0.37300E+03
        -0.37300E+03
        -0.37300E+03
        -0.37300E+03
        -0.37300E+03
        -0.37300E+03
        -0.37300E+03
        -0.37300E+03
        -0.37300E+03
        -0.37300E+03
        -0.37300E+03
        -0.37300E+03
        -0.37300E+03
        -0.37300E+03
        -0.37300E+03
        -0.37300E+03
        -0.37300E+03
        -0.37300E+03
        -0.37300E+03
        -0.37300E+03
        -0.37300E+03
        -0.37300E+03
        -0.37300E+03
        -0.37300E+03
        -0.37300E+03
        -0.37300E+03
        -0.37300E+03
        -0.37300E+03
        -0.37300E+03
        -0.37300E+03
        -0.37300E+03
        -0.37300E+03
        -0.37300E+03
        -0.37300E+03
        -0.37300E+03
        -0.37300E+03
        -0.37300E+03
        -0.37300E+03
        -0.37300E+03
        -0.37300E+03
        -0.37300E+03
        -0.37300E+03
        -0.37300E+03
        -0.37300E+03
        -0.37300E+03
        -0.37300E+03
        -0.37300E+03
        -0.37300E+03
        -0.37300E+03
        -0.37300E+03
        -0.37300E+03
        -0.37300E+03
        -0.37300E+03
        -0.37300E+03
        -0.37300E+03
        -0.37300E+03
        -0.37300E+03
        -0.37300E+03
        -0.37300E+03
        -0.37300E+03
        -0.37300E+03
        -0.37300E+03
        -0.37300E+03
        -0.37300E+03
        -0.37300E+03
        -0.37300E+03
        -0.37300E+03
        -0.37300E+03
        -0.37300E+03
        -0.37300E+03
        -0.37300E+03
        -0.37300E+03
        -0.37300E+03
        -0.37300E+03
        -0.37300E+03
        -0.37300E+03
        -0.37300E+03
        -0.37300E+03
        -0.37300E+03
        -0.37300E+03
        -0.37300E+03
        -0.37300E+03
        -0.37300E+03
        -0.37300E+03
        -0.37300E+03
        -0.37300E+03
        -0.37300E+03
        -0.37300E+03
        -0.37300E+03
        -0.37300E+03
        -0.37300E+03
        -0.37300E+03
        -0.37300E+03
        -0.37300E+03
        -0.37300E+03
        -0.37300E+03
        -0.37300E+03
        -0.37300E+03
        -0.37300E+03
        -0.37300E+03
        -0.37300E+03
        -0.37300E+03
        -0.37300E+03
        -0.37300E+03
        -0.37300E+03
        -0.37300E+03
        -0.37300E+03
        -0.37300E+03
        -0.37300E+03
        -0.37300E+03
        -0.37300E+03
        -0.37300E+03
        -0.37300E+03
        -0.37300E+03
        -0.37300E+03
        -0.37300E+03
        -0.37300E+03
        -0.37300E+03
        -0.37300E+03
        -0.37300E+03
        -0.37300E+03
        -0.37300E+03
        -0.37300E+03
        -0.37300E+03
        -0.37300E+03
        -0.37300E+03
        -0.37300E+03
        -0.37300E+03
        -0.37300E+03
        -0.37300E+03
        -0.37300E+03
        -0.37300E+03
        -0.37300E+03
        -0.37300E+03
        -0.37300E+03
        -0.37300E+03
        -0.37300E+03
        -0.37300E+03
        -0.37300E+03
        -0.37300E+03
        -0.37300E+03
        -0.37300E+03
        -0.37300E+03
        -0.37300E+03
        -0.37300E+03
        -0.37300E+03
        -0.37300E+03
        -0.37300E+03
        -0.37300E+03
        -0.37300E+03
        -0.37300E+03
        -0.37300E+03
        -0.37300E+03
        -0.37300E+03
        -0.37300E+03
        -0.37300E+03
        -0.37300E+03
        -0.37300E+03
        -0.37300E+03
        -0.37300E+03
        -0.37300E+03
        -0.37300E+03
        -0.37300E+03
        -0.37300E+03
        -0.37300E+03
        -0.37300E+03
        -0.37300E+03
        -0.37300E+03
        -0.37300E+03
        -0.37300E+03
        -0.37300E+03
        -0.37300E+03
        -0.37300E+03
        -0.37300E+03
        -0.37300E+03
        -0.37300E+03
        -0.37300E+03
        -0.37300E+03
        -0.37300E+03
        -0.37300E+03
        -0.37300E+03
        -0.37300E+03
        -0.37300E+03
        -0.37300E+03
        -0.37300E+03
        -0.37300E+03
        -0.37300E+03
        -0.37300E+03
        -0.37300E+03
        -0.37300E+03
        -0.37300E+03
        -0.37300E+03
        -0.37300E+03
        -0.37300E+03
        -0.37300E+03
        -0.37300E+03
        -0.37300E+03
        -0.37300E+03
        -0.37300E+03
        -0.37300E+03
        -0.37300E+03
        -0.37300E+03
        -0.37300E+03
        -0.37300E+03
        -0.37300E+03
        -0.37300E+03
        -0.37300E+03
        -0.37300E+03
        -0.37300E+03
        -0.37300E+03
        -0.37300E+03
        -0.37300E+03
        -0.37300E+03
        -0.37300E+03
        -0.37300E+03
        -0.37300E+03
        -0.37300E+03
        -0.37300E+03
        -0.37300E+03
        -0.37300E+03
        -0.37300E+03
        -0.37300E+03
        -0.37300E+03
        -0.37300E+03
        -0.37300E+03
        -0.37300E+03
        -0.37300E+03
        -0.37300E+03
        -0.37300E+03
        -0.37300E+03
        -0.37300E+03
        -0.37300E+03
        -0.37300E+03
        -0.37300E+03
        -0.37300E+03
        -0.37300E+03
        -0.37300E+03
        -0.37300E+03
        -0.37300E+03
        -0.37300E+03
        -0.37300E+03
        -0.37300E+03
        -0.37300E+03
        -0.37300E+03
        -0.37300E+03
        -0.37300E+03
        -0.37300E+03
        -0.37300E+03
        -0.37300E+03
        -0.37300E+03
        -0.37300E+03
        -0.37300E+03
        -0.37300E+03
        -0.37300E+03
        -0.37300E+03
        -0.37300E+03
        -0.37300E+03
        -0.37300E+03
        -0.37300E+03
        -0.37300E+03
        -0.37300E+03
        -0.37300E+03
        -0.37300E+03
        -0.37300E+03
        -0.37300E+03
        -0.37300E+03
        -0.37300E+03
        -0.37300E+03
        -0.37300E+03
        -0.37300E+03
        -0.37300E+03
        -0.37300E+03
        -0.37300E+03
        -0.37300E+03
        -0.37300E+03
        -0.37300E+03
        -0.37300E+03
        -0.37300E+03
        -0.37300E+03
        -0.37300E+03
        -0.37300E+03
        -0.37300E+03
        -0.37300E+03
        -0.37300E+03
        -0.37300E+03
        -0.37300E+03
        -0.37300E+03
        -0.37300E+03
        -0.37300E+03
        -0.37300E+03
        -0.37300E+03
        -0.37300E+03
        -0.37300E+03
        -0.37300E+03
        -0.37300E+03
        -0.37300E+03
        -0.37300E+03
        -0.37300E+03
        -0.37300E+03
        -0.37300E+03
        -0.37300E+03
        -0.37300E+03
        -0.37300E+03
        -0.37300E+03
        -0.37300E+03
        -0.37300E+03
        -0.37300E+03
        -0.37300E+03
        -0.37300E+03
        -0.37300E+03
        -0.37300E+03
        -0.37300E+03
        -0.37300E+03
        -0.37300E+03
        -0.37300E+03
        -0.37300E+03
        -0.37300E+03
        -0.37300E+03
        -0.37300E+03
        -0.37300E+03
        -0.37300E+03
        -0.37300E+03
        -0.37300E+03
        -0.37300E+03
        -0.37300E+03
        -0.37300E+03
        -0.37300E+03
        -0.37300E+03
        -0.37300E+03
        -0.37300E+03
        -0.37300E+03
        -0.37300E+03
        -0.37300E+03
        -0.37300E+03
        -0.37300E+03
        -0.37300E+03
        -0.37300E+03
        -0.37300E+03
        -0.37300E+03
        -0.37300E+03
        -0.37300E+03
        -0.37300E+03
        -0.37300E+03
        -0.37300E+03
        -0.37300E+03
        -0.37300E+03
        -0.37300E+03
        -0.37300E+03
        -0.37300E+03
        -0.37300E+03
        -0.37300E+03
        -0.37300E+03
        -0.37300E+03
        -0.37300E+03
        -0.37300E+03
        -0.37300E+03
        -0.37300E+03
        -0.37300E+03
        -0.37300E+03
        -0.37300E+03
        -0.37300E+03
        -0.37300E+03
        -0.37300E+03
        -0.37300E+03
        -0.37300E+03
        -0.37300E+03
        -0.37300E+03
        -0.37300E+03
        -0.37300E+03
        -0.37300E+03
        -0.37300E+03
        -0.37300E+03
        -0.37300E+03
        -0.37300E+03
        -0.37300E+03
        -0.37300E+03
        -0.37300E+03
        -0.37300E+03
        -0.37300E+03
        -0.37300E+03
        -0.37300E+03
        -0.37300E+03
        -0.37300E+03
        -0.37300E+03
        -0.37300E+03
        -0.37300E+03
        -0.37300E+03
        -0.37300E+03
        -0.37300E+03
        -0.37300E+03
        -0.37300E+03
        -0.37300E+03
        -0.37300E+03
        -0.37300E+03
        -0.37300E+03
        -0.37300E+03
        -0.37300E+03
        -0.37300E+03
        -0.37300E+03
        -0.37300E+03
        -0.37300E+03
        -0.37300E+03
        -0.37300E+03
        -0.37300E+03
        -0.37300E+03
        -0.37300E+03
        -0.37300E+03
        -0.37300E+03
        -0.37300E+03
        -0.37300E+03
        -0.37300E+03
        -0.37300E+03
        -0.37300E+03
        -0.37300E+03
        -0.37300E+03
        -0.37300E+03
        -0.37300E+03
        -0.37300E+03
        -0.37300E+03
        -0.37300E+03
        -0.37300E+03
        -0.37300E+03
        -0.37300E+03
        -0.37300E+03
        -0.37300E+03
        -0.37300E+03
        -0.37300E+03
        -0.37300E+03
        -0.37300E+03
        -0.37300E+03
        -0.37300E+03
        -0.37300E+03
        -0.37300E+03
        -0.37300E+03
        -0.37300E+03
        -0.37300E+03
        -0.37300E+03
        -0.37300E+03
        -0.37300E+03
        -0.37300E+03
        -0.37300E+03
        -0.37300E+03
        -0.37300E+03
        -0.37300E+03
        -0.37300E+03
        -0.37300E+03
        -0.37300E+03
        -0.37300E+03
        -0.37300E+03
        -0.37300E+03
        -0.37300E+03
        -0.37300E+03
        -0.37300E+03
        -0.37300E+03
        -0.37300E+03
        -0.37300E+03
        -0.37300E+03
        -0.37300E+03
        -0.37300E+03
        -0.37300E+03
        -0.37300E+03
        -0.37300E+03
        -0.37300E+03
        -0.37300E+03
        -0.37300E+03
        -0.37300E+03
        -0.37300E+03
        -0.37300E+03
        -0.37300E+03
        -0.37300E+03
        -0.37300E+03
        -0.37300E+03
        -0.37300E+03
        -0.37300E+03
        -0.37300E+03
        -0.37300E+03
        -0.37300E+03
        -0.37300E+03
        -0.37300E+03
        -0.37300E+03
        -0.37300E+03
        -0.37300E+03
        -0.37300E+03
        -0.37300E+03
        -0.37300E+03
        -0.37300E+03
        -0.37300E+03
        -0.37300E+03
        -0.37300E+03
        -0.37300E+03
        -0.37300E+03
        -0.37300E+03
        -0.37300E+03
        -0.37300E+03
        -0.37300E+03
        -0.37300E+03
        -0.37300E+03
        -0.37300E+03
        -0.37300E+03
        -0.37300E+03
        -0.37300E+03
        -0.37300E+03
        -0.37300E+03
        -0.37300E+03
        -0.37300E+03
        -0.37300E+03
        -0.37300E+03
        -0.37300E+03
        -0.37300E+03
        -0.37300E+03
        -0.37300E+03
        -0.37300E+03
        -0.37300E+03
        -0.37300E+03
        -0.37300E+03
        -0.37300E+03
        -0.37300E+03
        -0.37300E+03
        -0.37300E+03
        -0.37300E+03
        -0.37300E+03
        -0.37300E+03
        -0.37300E+03
        -0.37300E+03
        -0.37300E+03
        -0.37300E+03
        -0.37300E+03
        -0.37300E+03
        -0.37300E+03
        -0.37300E+03
        -0.37300E+03
        -0.37300E+03
        -0.37300E+03
        -0.37300E+03
        -0.37300E+03
        -0.37300E+03
        -0.37300E+03
        -0.37300E+03
        -0.37300E+03
        -0.37300E+03
        -0.37300E+03
        -0.37300E+03
        -0.37300E+03
        -0.37300E+03
        -0.37300E+03
        -0.37300E+03
        -0.37300E+03
        -0.37300E+03
        -0.37300E+03
        -0.37300E+03
        -0.37300E+03
        -0.37300E+03
        -0.37300E+03
        -0.37300E+03
        -0.37300E+03
        -0.37300E+03
        -0.37300E+03
        -0.37300E+03
        -0.37300E+03
        -0.37300E+03
        -0.37300E+03
        -0.37300E+03
        -0.37300E+03
        -0.37300E+03
        -0.37300E+03
        -0.37300E+03
        -0.37300E+03
        -0.37300E+03
        -0.37300E+03
        -0.37300E+03
        -0.37300E+03
        -0.37300E+03
        -0.37300E+03
        -0.37300E+03
        -0.37300E+03
        -0.37300E+03
        -0.37300E+03
        -0.37300E+03
        -0.37300E+03
        -0.37300E+03
        -0.37300E+03
        -0.37300E+03
        -0.37300E+03
        -0.37300E+03
        -0.37300E+03
        -0.37300E+03
        -0.37300E+03
        -0.37300E+03
        -0.37300E+03
        -0.37300E+03
        -0.37300E+03
        -0.37300E+03
        -0.37300E+03
        -0.37300E+03
        -0.37300E+03
        -0.37300E+03
        -0.37300E+03
        -0.37300E+03
        -0.37300E+03
        -0.37300E+03
        -0.37300E+03
        -0.37300E+03
        -0.37300E+03
        -0.37300E+03
        -0.37300E+03
        -0.37300E+03
        -0.37300E+03
        -0.37300E+03
        -0.37300E+03
        -0.37300E+03
        -0.37300E+03
        -0.37300E+03
        -0.37300E+03
        -0.37300E+03
        -0.37300E+03
        -0.37300E+03
        -0.37300E+03
        -0.37300E+03
        -0.37300E+03
        -0.37300E+03
        -0.37300E+03
        -0.37300E+03
        -0.37300E+03
        -0.37300E+03
        -0.37300E+03
        -0.37300E+03
        -0.37300E+03
  
SCALARS                 acceleration_x  double 1
LOOKUP_TABLE default
         0.00000E+00
         0.00000E+00
         0.00000E+00
         0.00000E+00
         0.00000E+00
         0.00000E+00
         0.00000E+00
         0.00000E+00
         0.00000E+00
         0.00000E+00
         0.00000E+00
         0.00000E+00
         0.00000E+00
         0.00000E+00
         0.00000E+00
         0.00000E+00
         0.00000E+00
         0.00000E+00
         0.00000E+00
         0.00000E+00
         0.00000E+00
         0.00000E+00
         0.00000E+00
         0.00000E+00
         0.00000E+00
         0.00000E+00
         0.00000E+00
         0.00000E+00
         0.00000E+00
         0.00000E+00
         0.00000E+00
         0.00000E+00
         0.00000E+00
         0.00000E+00
         0.00000E+00
         0.00000E+00
         0.00000E+00
         0.00000E+00
         0.00000E+00
         0.00000E+00
         0.00000E+00
         0.00000E+00
         0.00000E+00
         0.00000E+00
         0.00000E+00
         0.00000E+00
         0.00000E+00
         0.00000E+00
         0.00000E+00
         0.00000E+00
         0.00000E+00
         0.00000E+00
         0.00000E+00
         0.00000E+00
         0.00000E+00
         0.00000E+00
         0.00000E+00
         0.00000E+00
         0.00000E+00
         0.00000E+00
         0.00000E+00
         0.00000E+00
         0.00000E+00
         0.00000E+00
         0.00000E+00
         0.00000E+00
         0.00000E+00
         0.00000E+00
         0.00000E+00
         0.00000E+00
         0.00000E+00
         0.00000E+00
         0.00000E+00
         0.00000E+00
         0.00000E+00
         0.00000E+00
         0.00000E+00
         0.00000E+00
         0.00000E+00
         0.00000E+00
         0.00000E+00
         0.00000E+00
         0.00000E+00
         0.00000E+00
         0.00000E+00
         0.00000E+00
         0.00000E+00
         0.00000E+00
         0.00000E+00
         0.00000E+00
         0.00000E+00
         0.00000E+00
         0.00000E+00
         0.00000E+00
         0.00000E+00
         0.00000E+00
         0.00000E+00
         0.00000E+00
         0.00000E+00
         0.00000E+00
         0.00000E+00
         0.00000E+00
         0.00000E+00
         0.00000E+00
         0.00000E+00
         0.00000E+00
         0.00000E+00
         0.00000E+00
         0.00000E+00
         0.00000E+00
         0.00000E+00
         0.00000E+00
         0.00000E+00
         0.00000E+00
         0.00000E+00
         0.00000E+00
         0.00000E+00
         0.00000E+00
         0.00000E+00
         0.00000E+00
         0.00000E+00
         0.00000E+00
         0.00000E+00
         0.00000E+00
         0.00000E+00
         0.00000E+00
         0.00000E+00
         0.00000E+00
         0.00000E+00
         0.00000E+00
         0.00000E+00
         0.00000E+00
         0.00000E+00
         0.00000E+00
         0.00000E+00
         0.00000E+00
         0.00000E+00
         0.00000E+00
         0.00000E+00
         0.00000E+00
         0.00000E+00
         0.00000E+00
         0.00000E+00
         0.00000E+00
         0.00000E+00
         0.00000E+00
         0.00000E+00
         0.00000E+00
         0.00000E+00
         0.00000E+00
         0.00000E+00
         0.00000E+00
         0.00000E+00
         0.00000E+00
         0.00000E+00
         0.00000E+00
         0.00000E+00
         0.00000E+00
         0.00000E+00
         0.00000E+00
         0.00000E+00
         0.00000E+00
         0.00000E+00
         0.00000E+00
         0.00000E+00
         0.00000E+00
         0.00000E+00
         0.00000E+00
         0.00000E+00
         0.00000E+00
         0.00000E+00
         0.00000E+00
         0.00000E+00
         0.00000E+00
         0.00000E+00
         0.00000E+00
         0.00000E+00
         0.00000E+00
         0.00000E+00
         0.00000E+00
         0.00000E+00
         0.00000E+00
         0.00000E+00
         0.00000E+00
         0.00000E+00
         0.00000E+00
         0.00000E+00
         0.00000E+00
         0.00000E+00
         0.00000E+00
         0.00000E+00
         0.00000E+00
         0.00000E+00
         0.00000E+00
         0.00000E+00
         0.00000E+00
         0.00000E+00
         0.00000E+00
         0.00000E+00
         0.00000E+00
         0.00000E+00
         0.00000E+00
         0.00000E+00
         0.00000E+00
         0.00000E+00
         0.00000E+00
         0.00000E+00
         0.00000E+00
         0.00000E+00
         0.00000E+00
         0.00000E+00
         0.00000E+00
         0.00000E+00
         0.00000E+00
         0.00000E+00
         0.00000E+00
         0.00000E+00
         0.00000E+00
         0.00000E+00
         0.00000E+00
         0.00000E+00
         0.00000E+00
         0.00000E+00
         0.00000E+00
         0.00000E+00
         0.00000E+00
         0.00000E+00
         0.00000E+00
         0.00000E+00
         0.00000E+00
         0.00000E+00
         0.00000E+00
         0.00000E+00
         0.00000E+00
         0.00000E+00
         0.00000E+00
         0.00000E+00
         0.00000E+00
         0.00000E+00
         0.00000E+00
         0.00000E+00
         0.00000E+00
         0.00000E+00
         0.00000E+00
         0.00000E+00
         0.00000E+00
         0.00000E+00
         0.00000E+00
         0.00000E+00
         0.00000E+00
         0.00000E+00
         0.00000E+00
         0.00000E+00
         0.00000E+00
         0.00000E+00
         0.00000E+00
         0.00000E+00
         0.00000E+00
         0.00000E+00
         0.00000E+00
         0.00000E+00
         0.00000E+00
         0.00000E+00
         0.00000E+00
         0.00000E+00
         0.00000E+00
         0.00000E+00
         0.00000E+00
         0.00000E+00
         0.00000E+00
         0.00000E+00
         0.00000E+00
         0.00000E+00
         0.00000E+00
         0.00000E+00
         0.00000E+00
         0.00000E+00
         0.00000E+00
         0.00000E+00
         0.00000E+00
         0.00000E+00
         0.00000E+00
         0.00000E+00
         0.00000E+00
         0.00000E+00
         0.00000E+00
         0.00000E+00
         0.00000E+00
         0.00000E+00
         0.00000E+00
         0.00000E+00
         0.00000E+00
         0.00000E+00
         0.00000E+00
         0.00000E+00
         0.00000E+00
         0.00000E+00
         0.00000E+00
         0.00000E+00
         0.00000E+00
         0.00000E+00
         0.00000E+00
         0.00000E+00
         0.00000E+00
         0.00000E+00
         0.00000E+00
         0.00000E+00
         0.00000E+00
         0.00000E+00
         0.00000E+00
         0.00000E+00
         0.00000E+00
         0.00000E+00
         0.00000E+00
         0.00000E+00
         0.00000E+00
         0.00000E+00
         0.00000E+00
         0.00000E+00
         0.00000E+00
         0.00000E+00
         0.00000E+00
         0.00000E+00
         0.00000E+00
         0.00000E+00
         0.00000E+00
         0.00000E+00
         0.00000E+00
         0.00000E+00
         0.00000E+00
         0.00000E+00
         0.00000E+00
         0.00000E+00
         0.00000E+00
         0.00000E+00
         0.00000E+00
         0.00000E+00
         0.00000E+00
         0.00000E+00
         0.00000E+00
         0.00000E+00
         0.00000E+00
         0.00000E+00
         0.00000E+00
         0.00000E+00
         0.00000E+00
         0.00000E+00
         0.00000E+00
         0.00000E+00
         0.00000E+00
         0.00000E+00
         0.00000E+00
         0.00000E+00
         0.00000E+00
         0.00000E+00
         0.00000E+00
         0.00000E+00
         0.00000E+00
         0.00000E+00
         0.00000E+00
         0.00000E+00
         0.00000E+00
         0.00000E+00
         0.00000E+00
         0.00000E+00
         0.00000E+00
         0.00000E+00
         0.00000E+00
         0.00000E+00
         0.00000E+00
         0.00000E+00
         0.00000E+00
         0.00000E+00
         0.00000E+00
         0.00000E+00
         0.00000E+00
         0.00000E+00
         0.00000E+00
         0.00000E+00
         0.00000E+00
         0.00000E+00
         0.00000E+00
         0.00000E+00
         0.00000E+00
         0.00000E+00
         0.00000E+00
         0.00000E+00
         0.00000E+00
         0.00000E+00
         0.00000E+00
         0.00000E+00
         0.00000E+00
         0.00000E+00
         0.00000E+00
         0.00000E+00
         0.00000E+00
         0.00000E+00
         0.00000E+00
         0.00000E+00
         0.00000E+00
         0.00000E+00
         0.00000E+00
         0.00000E+00
         0.00000E+00
         0.00000E+00
         0.00000E+00
         0.00000E+00
         0.00000E+00
         0.00000E+00
         0.00000E+00
         0.00000E+00
         0.00000E+00
         0.00000E+00
         0.00000E+00
         0.00000E+00
         0.00000E+00
         0.00000E+00
         0.00000E+00
         0.00000E+00
         0.00000E+00
         0.00000E+00
         0.00000E+00
         0.00000E+00
         0.00000E+00
         0.00000E+00
         0.00000E+00
         0.00000E+00
         0.00000E+00
         0.00000E+00
         0.00000E+00
         0.00000E+00
         0.00000E+00
         0.00000E+00
         0.00000E+00
         0.00000E+00
         0.00000E+00
         0.00000E+00
         0.00000E+00
         0.00000E+00
         0.00000E+00
         0.00000E+00
         0.00000E+00
         0.00000E+00
         0.00000E+00
         0.00000E+00
         0.00000E+00
         0.00000E+00
         0.00000E+00
         0.00000E+00
         0.00000E+00
         0.00000E+00
         0.00000E+00
         0.00000E+00
         0.00000E+00
         0.00000E+00
         0.00000E+00
         0.00000E+00
         0.00000E+00
         0.00000E+00
         0.00000E+00
         0.00000E+00
         0.00000E+00
         0.00000E+00
         0.00000E+00
         0.00000E+00
         0.00000E+00
         0.00000E+00
         0.00000E+00
         0.00000E+00
         0.00000E+00
         0.00000E+00
         0.00000E+00
         0.00000E+00
         0.00000E+00
         0.00000E+00
         0.00000E+00
         0.00000E+00
         0.00000E+00
         0.00000E+00
         0.00000E+00
         0.00000E+00
         0.00000E+00
         0.00000E+00
         0.00000E+00
         0.00000E+00
         0.00000E+00
         0.00000E+00
         0.00000E+00
         0.00000E+00
         0.00000E+00
         0.00000E+00
         0.00000E+00
         0.00000E+00
         0.00000E+00
         0.00000E+00
         0.00000E+00
         0.00000E+00
         0.00000E+00
         0.00000E+00
         0.00000E+00
         0.00000E+00
         0.00000E+00
         0.00000E+00
         0.00000E+00
         0.00000E+00
         0.00000E+00
         0.00000E+00
         0.00000E+00
         0.00000E+00
         0.00000E+00
         0.00000E+00
         0.00000E+00
         0.00000E+00
         0.00000E+00
         0.00000E+00
         0.00000E+00
         0.00000E+00
         0.00000E+00
         0.00000E+00
         0.00000E+00
         0.00000E+00
         0.00000E+00
         0.00000E+00
         0.00000E+00
         0.00000E+00
         0.00000E+00
         0.00000E+00
         0.00000E+00
         0.00000E+00
         0.00000E+00
         0.00000E+00
         0.00000E+00
         0.00000E+00
         0.00000E+00
         0.00000E+00
         0.00000E+00
         0.00000E+00
         0.00000E+00
         0.00000E+00
         0.00000E+00
         0.00000E+00
         0.00000E+00
         0.00000E+00
         0.00000E+00
         0.00000E+00
         0.00000E+00
         0.00000E+00
         0.00000E+00
         0.00000E+00
         0.00000E+00
         0.00000E+00
         0.00000E+00
         0.00000E+00
         0.00000E+00
         0.00000E+00
         0.00000E+00
         0.00000E+00
         0.00000E+00
         0.00000E+00
         0.00000E+00
         0.00000E+00
         0.00000E+00
         0.00000E+00
         0.00000E+00
         0.00000E+00
         0.00000E+00
         0.00000E+00
         0.00000E+00
         0.00000E+00
         0.00000E+00
         0.00000E+00
         0.00000E+00
         0.00000E+00
         0.00000E+00
         0.00000E+00
         0.00000E+00
         0.00000E+00
         0.00000E+00
         0.00000E+00
         0.00000E+00
         0.00000E+00
         0.00000E+00
         0.00000E+00
         0.00000E+00
         0.00000E+00
         0.00000E+00
         0.00000E+00
         0.00000E+00
         0.00000E+00
         0.00000E+00
         0.00000E+00
         0.00000E+00
         0.00000E+00
         0.00000E+00
         0.00000E+00
         0.00000E+00
         0.00000E+00
         0.00000E+00
         0.00000E+00
         0.00000E+00
         0.00000E+00
         0.00000E+00
         0.00000E+00
         0.00000E+00
         0.00000E+00
         0.00000E+00
         0.00000E+00
         0.00000E+00
         0.00000E+00
         0.00000E+00
         0.00000E+00
         0.00000E+00
         0.00000E+00
         0.00000E+00
         0.00000E+00
         0.00000E+00
         0.00000E+00
         0.00000E+00
         0.00000E+00
         0.00000E+00
         0.00000E+00
         0.00000E+00
         0.00000E+00
         0.00000E+00
         0.00000E+00
         0.00000E+00
         0.00000E+00
         0.00000E+00
         0.00000E+00
         0.00000E+00
         0.00000E+00
         0.00000E+00
         0.00000E+00
         0.00000E+00
         0.00000E+00
         0.00000E+00
         0.00000E+00
         0.00000E+00
         0.00000E+00
         0.00000E+00
         0.00000E+00
         0.00000E+00
         0.00000E+00
         0.00000E+00
         0.00000E+00
         0.00000E+00
         0.00000E+00
         0.00000E+00
         0.00000E+00
         0.00000E+00
         0.00000E+00
         0.00000E+00
         0.00000E+00
         0.00000E+00
         0.00000E+00
         0.00000E+00
         0.00000E+00
         0.00000E+00
         0.00000E+00
         0.00000E+00
         0.00000E+00
         0.00000E+00
         0.00000E+00
         0.00000E+00
         0.00000E+00
         0.00000E+00
         0.00000E+00
         0.00000E+00
         0.00000E+00
         0.00000E+00
         0.00000E+00
         0.00000E+00
         0.00000E+00
         0.00000E+00
         0.00000E+00
         0.00000E+00
         0.00000E+00
         0.00000E+00
         0.00000E+00
         0.00000E+00
         0.00000E+00
         0.00000E+00
         0.00000E+00
         0.00000E+00
         0.00000E+00
         0.00000E+00
         0.00000E+00
         0.00000E+00
         0.00000E+00
         0.00000E+00
         0.00000E+00
         0.00000E+00
         0.00000E+00
         0.00000E+00
         0.00000E+00
         0.00000E+00
         0.00000E+00
         0.00000E+00
         0.00000E+00
         0.00000E+00
         0.00000E+00
         0.00000E+00
         0.00000E+00
         0.00000E+00
         0.00000E+00
         0.00000E+00
         0.00000E+00
         0.00000E+00
         0.00000E+00
         0.00000E+00
         0.00000E+00
         0.00000E+00
         0.00000E+00
         0.00000E+00
         0.00000E+00
         0.00000E+00
         0.00000E+00
         0.00000E+00
         0.00000E+00
         0.00000E+00
         0.00000E+00
         0.00000E+00
         0.00000E+00
         0.00000E+00
         0.00000E+00
         0.00000E+00
         0.00000E+00
         0.00000E+00
         0.00000E+00
         0.00000E+00
         0.00000E+00
         0.00000E+00
         0.00000E+00
         0.00000E+00
         0.00000E+00
         0.00000E+00
         0.00000E+00
         0.00000E+00
         0.00000E+00
         0.00000E+00
         0.00000E+00
         0.00000E+00
         0.00000E+00
         0.00000E+00
         0.00000E+00
         0.00000E+00
         0.00000E+00
         0.00000E+00
         0.00000E+00
         0.00000E+00
         0.00000E+00
         0.00000E+00
         0.00000E+00
         0.00000E+00
         0.00000E+00
         0.00000E+00
         0.00000E+00
         0.00000E+00
         0.00000E+00
         0.00000E+00
         0.00000E+00
         0.00000E+00
         0.00000E+00
         0.00000E+00
         0.00000E+00
         0.00000E+00
         0.00000E+00
         0.00000E+00
         0.00000E+00
         0.00000E+00
         0.00000E+00
         0.00000E+00
         0.00000E+00
         0.00000E+00
         0.00000E+00
         0.00000E+00
         0.00000E+00
         0.00000E+00
         0.00000E+00
         0.00000E+00
         0.00000E+00
         0.00000E+00
         0.00000E+00
         0.00000E+00
         0.00000E+00
         0.00000E+00
         0.00000E+00
         0.00000E+00
         0.00000E+00
         0.00000E+00
         0.00000E+00
         0.00000E+00
         0.00000E+00
         0.00000E+00
         0.00000E+00
         0.00000E+00
         0.00000E+00
         0.00000E+00
         0.00000E+00
         0.00000E+00
         0.00000E+00
         0.00000E+00
         0.00000E+00
         0.00000E+00
         0.00000E+00
         0.00000E+00
         0.00000E+00
         0.00000E+00
         0.00000E+00
         0.00000E+00
         0.00000E+00
         0.00000E+00
         0.00000E+00
         0.00000E+00
         0.00000E+00
         0.00000E+00
         0.00000E+00
         0.00000E+00
         0.00000E+00
         0.00000E+00
         0.00000E+00
         0.00000E+00
         0.00000E+00
         0.00000E+00
         0.00000E+00
         0.00000E+00
         0.00000E+00
         0.00000E+00
         0.00000E+00
         0.00000E+00
         0.00000E+00
         0.00000E+00
         0.00000E+00
         0.00000E+00
         0.00000E+00
         0.00000E+00
         0.00000E+00
         0.00000E+00
         0.00000E+00
         0.00000E+00
         0.00000E+00
         0.00000E+00
         0.00000E+00
         0.00000E+00
         0.00000E+00
         0.00000E+00
         0.00000E+00
         0.00000E+00
         0.00000E+00
         0.00000E+00
         0.00000E+00
         0.00000E+00
         0.00000E+00
         0.00000E+00
         0.00000E+00
         0.00000E+00
         0.00000E+00
         0.00000E+00
         0.00000E+00
         0.00000E+00
         0.00000E+00
         0.00000E+00
         0.00000E+00
         0.00000E+00
         0.00000E+00
         0.00000E+00
         0.00000E+00
         0.00000E+00
         0.00000E+00
         0.00000E+00
         0.00000E+00
         0.00000E+00
         0.00000E+00
         0.00000E+00
         0.00000E+00
         0.00000E+00
         0.00000E+00
         0.00000E+00
         0.00000E+00
         0.00000E+00
         0.00000E+00
         0.00000E+00
         0.00000E+00
         0.00000E+00
         0.00000E+00
         0.00000E+00
         0.00000E+00
         0.00000E+00
         0.00000E+00
         0.00000E+00
         0.00000E+00
         0.00000E+00
         0.00000E+00
         0.00000E+00
         0.00000E+00
         0.00000E+00
         0.00000E+00
         0.00000E+00
         0.00000E+00
         0.00000E+00
         0.00000E+00
         0.00000E+00
         0.00000E+00
         0.00000E+00
         0.00000E+00
         0.00000E+00
         0.00000E+00
         0.00000E+00
         0.00000E+00
         0.00000E+00
         0.00000E+00
         0.00000E+00
         0.00000E+00
         0.00000E+00
         0.00000E+00
         0.00000E+00
         0.00000E+00
         0.00000E+00
         0.00000E+00
         0.00000E+00
         0.00000E+00
         0.00000E+00
         0.00000E+00
         0.00000E+00
         0.00000E+00
         0.00000E+00
         0.00000E+00
         0.00000E+00
         0.00000E+00
         0.00000E+00
         0.00000E+00
         0.00000E+00
         0.00000E+00
         0.00000E+00
         0.00000E+00
         0.00000E+00
         0.00000E+00
         0.00000E+00
         0.00000E+00
         0.00000E+00
         0.00000E+00
         0.00000E+00
         0.00000E+00
         0.00000E+00
         0.00000E+00
         0.00000E+00
         0.00000E+00
         0.00000E+00
         0.00000E+00
         0.00000E+00
         0.00000E+00
         0.00000E+00
         0.00000E+00
         0.00000E+00
         0.00000E+00
         0.00000E+00
         0.00000E+00
         0.00000E+00
         0.00000E+00
         0.00000E+00
         0.00000E+00
         0.00000E+00
         0.00000E+00
         0.00000E+00
         0.00000E+00
         0.00000E+00
         0.00000E+00
         0.00000E+00
         0.00000E+00
         0.00000E+00
         0.00000E+00
         0.00000E+00
         0.00000E+00
         0.00000E+00
         0.00000E+00
         0.00000E+00
         0.00000E+00
         0.00000E+00
         0.00000E+00
         0.00000E+00
         0.00000E+00
         0.00000E+00
         0.00000E+00
         0.00000E+00
         0.00000E+00
         0.00000E+00
         0.00000E+00
         0.00000E+00
         0.00000E+00
         0.00000E+00
         0.00000E+00
         0.00000E+00
         0.00000E+00
         0.00000E+00
         0.00000E+00
         0.00000E+00
         0.00000E+00
         0.00000E+00
         0.00000E+00
         0.00000E+00
         0.00000E+00
         0.00000E+00
         0.00000E+00
         0.00000E+00
         0.00000E+00
         0.00000E+00
         0.00000E+00
         0.00000E+00
         0.00000E+00
         0.00000E+00
         0.00000E+00
         0.00000E+00
         0.00000E+00
         0.00000E+00
         0.00000E+00
         0.00000E+00
         0.00000E+00
         0.00000E+00
         0.00000E+00
         0.00000E+00
         0.00000E+00
         0.00000E+00
         0.00000E+00
         0.00000E+00
         0.00000E+00
         0.00000E+00
         0.00000E+00
         0.00000E+00
         0.00000E+00
         0.00000E+00
         0.00000E+00
         0.00000E+00
         0.00000E+00
         0.00000E+00
         0.00000E+00
         0.00000E+00
         0.00000E+00
         0.00000E+00
         0.00000E+00
         0.00000E+00
         0.00000E+00
         0.00000E+00
         0.00000E+00
         0.00000E+00
         0.00000E+00
         0.00000E+00
         0.00000E+00
         0.00000E+00
         0.00000E+00
         0.00000E+00
         0.00000E+00
         0.00000E+00
         0.00000E+00
         0.00000E+00
         0.00000E+00
         0.00000E+00
         0.00000E+00
         0.00000E+00
         0.00000E+00
         0.00000E+00
         0.00000E+00
         0.00000E+00
         0.00000E+00
         0.00000E+00
         0.00000E+00
         0.00000E+00
         0.00000E+00
         0.00000E+00
         0.00000E+00
         0.00000E+00
         0.00000E+00
         0.00000E+00
         0.00000E+00
         0.00000E+00
         0.00000E+00
         0.00000E+00
         0.00000E+00
         0.00000E+00
         0.00000E+00
         0.00000E+00
         0.00000E+00
         0.00000E+00
         0.00000E+00
         0.00000E+00
         0.00000E+00
         0.00000E+00
         0.00000E+00
         0.00000E+00
         0.00000E+00
         0.00000E+00
         0.00000E+00
         0.00000E+00
         0.00000E+00
         0.00000E+00
         0.00000E+00
         0.00000E+00
         0.00000E+00
         0.00000E+00
         0.00000E+00
         0.00000E+00
         0.00000E+00
         0.00000E+00
         0.00000E+00
         0.00000E+00
         0.00000E+00
         0.00000E+00
         0.00000E+00
         0.00000E+00
         0.00000E+00
         0.00000E+00
         0.00000E+00
         0.00000E+00
         0.00000E+00
         0.00000E+00
         0.00000E+00
         0.00000E+00
         0.00000E+00
         0.00000E+00
         0.00000E+00
         0.00000E+00
         0.00000E+00
         0.00000E+00
         0.00000E+00
         0.00000E+00
         0.00000E+00
         0.00000E+00
         0.00000E+00
         0.00000E+00
         0.00000E+00
         0.00000E+00
         0.00000E+00
         0.00000E+00
         0.00000E+00
         0.00000E+00
         0.00000E+00
         0.00000E+00
         0.00000E+00
         0.00000E+00
         0.00000E+00
         0.00000E+00
         0.00000E+00
         0.00000E+00
         0.00000E+00
         0.00000E+00
         0.00000E+00
         0.00000E+00
         0.00000E+00
         0.00000E+00
         0.00000E+00
         0.00000E+00
         0.00000E+00
         0.00000E+00
         0.00000E+00
         0.00000E+00
         0.00000E+00
         0.00000E+00
         0.00000E+00
         0.00000E+00
         0.00000E+00
         0.00000E+00
         0.00000E+00
         0.00000E+00
         0.00000E+00
         0.00000E+00
         0.00000E+00
         0.00000E+00
         0.00000E+00
         0.00000E+00
         0.00000E+00
         0.00000E+00
         0.00000E+00
         0.00000E+00
         0.00000E+00
         0.00000E+00
         0.00000E+00
         0.00000E+00
         0.00000E+00
         0.00000E+00
         0.00000E+00
         0.00000E+00
         0.00000E+00
         0.00000E+00
         0.00000E+00
         0.00000E+00
         0.00000E+00
         0.00000E+00
         0.00000E+00
         0.00000E+00
         0.00000E+00
         0.00000E+00
         0.00000E+00
         0.00000E+00
         0.00000E+00
         0.00000E+00
         0.00000E+00
         0.00000E+00
         0.00000E+00
         0.00000E+00
         0.00000E+00
         0.00000E+00
         0.00000E+00
         0.00000E+00
         0.00000E+00
         0.00000E+00
         0.00000E+00
         0.00000E+00
         0.00000E+00
         0.00000E+00
         0.00000E+00
         0.00000E+00
         0.00000E+00
         0.00000E+00
         0.00000E+00
         0.00000E+00
         0.00000E+00
         0.00000E+00
         0.00000E+00
         0.00000E+00
         0.00000E+00
         0.00000E+00
         0.00000E+00
         0.00000E+00
         0.00000E+00
         0.00000E+00
         0.00000E+00
         0.00000E+00
         0.00000E+00
         0.00000E+00
         0.00000E+00
         0.00000E+00
         0.00000E+00
         0.00000E+00
         0.00000E+00
         0.00000E+00
         0.00000E+00
         0.00000E+00
         0.00000E+00
         0.00000E+00
         0.00000E+00
         0.00000E+00
         0.00000E+00
         0.00000E+00
         0.00000E+00
         0.00000E+00
         0.00000E+00
         0.00000E+00
         0.00000E+00
         0.00000E+00
         0.00000E+00
         0.00000E+00
         0.00000E+00
         0.00000E+00
         0.00000E+00
         0.00000E+00
         0.00000E+00
         0.00000E+00
         0.00000E+00
         0.00000E+00
         0.00000E+00
         0.00000E+00
         0.00000E+00
         0.00000E+00
         0.00000E+00
         0.00000E+00
         0.00000E+00
         0.00000E+00
         0.00000E+00
         0.00000E+00
         0.00000E+00
         0.00000E+00
         0.00000E+00
         0.00000E+00
         0.00000E+00
         0.00000E+00
         0.00000E+00
         0.00000E+00
         0.00000E+00
         0.00000E+00
         0.00000E+00
         0.00000E+00
         0.00000E+00
         0.00000E+00
         0.00000E+00
         0.00000E+00
         0.00000E+00
         0.00000E+00
         0.00000E+00
         0.00000E+00
         0.00000E+00
         0.00000E+00
         0.00000E+00
         0.00000E+00
         0.00000E+00
         0.00000E+00
         0.00000E+00
         0.00000E+00
         0.00000E+00
         0.00000E+00
         0.00000E+00
         0.00000E+00
         0.00000E+00
         0.00000E+00
         0.00000E+00
         0.00000E+00
         0.00000E+00
         0.00000E+00
         0.00000E+00
         0.00000E+00
         0.00000E+00
         0.00000E+00
         0.00000E+00
         0.00000E+00
         0.00000E+00
         0.00000E+00
         0.00000E+00
         0.00000E+00
         0.00000E+00
         0.00000E+00
         0.00000E+00
         0.00000E+00
         0.00000E+00
         0.00000E+00
         0.00000E+00
         0.00000E+00
         0.00000E+00
         0.00000E+00
         0.00000E+00
         0.00000E+00
         0.00000E+00
         0.00000E+00
         0.00000E+00
         0.00000E+00
         0.00000E+00
         0.00000E+00
         0.00000E+00
         0.00000E+00
         0.00000E+00
         0.00000E+00
         0.00000E+00
         0.00000E+00
         0.00000E+00
         0.00000E+00
         0.00000E+00
         0.00000E+00
         0.00000E+00
         0.00000E+00
         0.00000E+00
         0.00000E+00
         0.00000E+00
         0.00000E+00
         0.00000E+00
         0.00000E+00
         0.00000E+00
         0.00000E+00
         0.00000E+00
         0.00000E+00
         0.00000E+00
         0.00000E+00
         0.00000E+00
         0.00000E+00
         0.00000E+00
         0.00000E+00
         0.00000E+00
         0.00000E+00
         0.00000E+00
         0.00000E+00
         0.00000E+00
         0.00000E+00
         0.00000E+00
         0.00000E+00
         0.00000E+00
         0.00000E+00
         0.00000E+00
         0.00000E+00
         0.00000E+00
         0.00000E+00
         0.00000E+00
         0.00000E+00
         0.00000E+00
         0.00000E+00
         0.00000E+00
         0.00000E+00
         0.00000E+00
         0.00000E+00
         0.00000E+00
         0.00000E+00
         0.00000E+00
         0.00000E+00
         0.00000E+00
         0.00000E+00
         0.00000E+00
         0.00000E+00
         0.00000E+00
         0.00000E+00
         0.00000E+00
         0.00000E+00
         0.00000E+00
         0.00000E+00
         0.00000E+00
         0.00000E+00
         0.00000E+00
         0.00000E+00
         0.00000E+00
         0.00000E+00
         0.00000E+00
         0.00000E+00
         0.00000E+00
         0.00000E+00
         0.00000E+00
         0.00000E+00
         0.00000E+00
         0.00000E+00
         0.00000E+00
         0.00000E+00
         0.00000E+00
         0.00000E+00
         0.00000E+00
         0.00000E+00
         0.00000E+00
         0.00000E+00
         0.00000E+00
         0.00000E+00
         0.00000E+00
         0.00000E+00
         0.00000E+00
         0.00000E+00
         0.00000E+00
         0.00000E+00
         0.00000E+00
         0.00000E+00
         0.00000E+00
         0.00000E+00
         0.00000E+00
         0.00000E+00
         0.00000E+00
         0.00000E+00
         0.00000E+00
         0.00000E+00
         0.00000E+00
         0.00000E+00
         0.00000E+00
         0.00000E+00
         0.00000E+00
         0.00000E+00
         0.00000E+00
         0.00000E+00
         0.00000E+00
         0.00000E+00
         0.00000E+00
         0.00000E+00
         0.00000E+00
         0.00000E+00
         0.00000E+00
         0.00000E+00
         0.00000E+00
         0.00000E+00
         0.00000E+00
         0.00000E+00
         0.00000E+00
         0.00000E+00
         0.00000E+00
         0.00000E+00
         0.00000E+00
         0.00000E+00
         0.00000E+00
         0.00000E+00
         0.00000E+00
         0.00000E+00
         0.00000E+00
         0.00000E+00
         0.00000E+00
         0.00000E+00
         0.00000E+00
         0.00000E+00
         0.00000E+00
         0.00000E+00
         0.00000E+00
         0.00000E+00
         0.00000E+00
         0.00000E+00
         0.00000E+00
         0.00000E+00
         0.00000E+00
         0.00000E+00
         0.00000E+00
         0.00000E+00
         0.00000E+00
         0.00000E+00
         0.00000E+00
         0.00000E+00
         0.00000E+00
         0.00000E+00
         0.00000E+00
         0.00000E+00
         0.00000E+00
         0.00000E+00
         0.00000E+00
         0.00000E+00
         0.00000E+00
         0.00000E+00
         0.00000E+00
         0.00000E+00
         0.00000E+00
         0.00000E+00
         0.00000E+00
         0.00000E+00
         0.00000E+00
         0.00000E+00
         0.00000E+00
         0.00000E+00
         0.00000E+00
         0.00000E+00
         0.00000E+00
         0.00000E+00
         0.00000E+00
         0.00000E+00
         0.00000E+00
         0.00000E+00
         0.00000E+00
         0.00000E+00
         0.00000E+00
         0.00000E+00
         0.00000E+00
         0.00000E+00
         0.00000E+00
         0.00000E+00
         0.00000E+00
         0.00000E+00
         0.00000E+00
         0.00000E+00
         0.00000E+00
         0.00000E+00
         0.00000E+00
         0.00000E+00
         0.00000E+00
         0.00000E+00
         0.00000E+00
         0.00000E+00
         0.00000E+00
         0.00000E+00
         0.00000E+00
         0.00000E+00
         0.00000E+00
         0.00000E+00
         0.00000E+00
         0.00000E+00
         0.00000E+00
         0.00000E+00
         0.00000E+00
         0.00000E+00
         0.00000E+00
         0.00000E+00
         0.00000E+00
         0.00000E+00
         0.00000E+00
         0.00000E+00
         0.00000E+00
         0.00000E+00
         0.00000E+00
         0.00000E+00
         0.00000E+00
         0.00000E+00
         0.00000E+00
         0.00000E+00
         0.00000E+00
         0.00000E+00
         0.00000E+00
         0.00000E+00
         0.00000E+00
         0.00000E+00
         0.00000E+00
         0.00000E+00
         0.00000E+00
         0.00000E+00
         0.00000E+00
         0.00000E+00
         0.00000E+00
         0.00000E+00
         0.00000E+00
         0.00000E+00
         0.00000E+00
         0.00000E+00
         0.00000E+00
         0.00000E+00
         0.00000E+00
         0.00000E+00
         0.00000E+00
         0.00000E+00
         0.00000E+00
         0.00000E+00
         0.00000E+00
         0.00000E+00
         0.00000E+00
         0.00000E+00
         0.00000E+00
         0.00000E+00
         0.00000E+00
         0.00000E+00
         0.00000E+00
         0.00000E+00
         0.00000E+00
         0.00000E+00
         0.00000E+00
         0.00000E+00
         0.00000E+00
         0.00000E+00
         0.00000E+00
         0.00000E+00
         0.00000E+00
         0.00000E+00
         0.00000E+00
         0.00000E+00
         0.00000E+00
         0.00000E+00
         0.00000E+00
         0.00000E+00
         0.00000E+00
         0.00000E+00
         0.00000E+00
         0.00000E+00
         0.00000E+00
         0.00000E+00
         0.00000E+00
         0.00000E+00
         0.00000E+00
         0.00000E+00
         0.00000E+00
         0.00000E+00
         0.00000E+00
         0.00000E+00
         0.00000E+00
         0.00000E+00
         0.00000E+00
         0.00000E+00
         0.00000E+00
         0.00000E+00
         0.00000E+00
         0.00000E+00
         0.00000E+00
         0.00000E+00
         0.00000E+00
         0.00000E+00
         0.00000E+00
         0.00000E+00
         0.00000E+00
         0.00000E+00
         0.00000E+00
         0.00000E+00
         0.00000E+00
         0.00000E+00
         0.00000E+00
         0.00000E+00
         0.00000E+00
         0.00000E+00
         0.00000E+00
         0.00000E+00
         0.00000E+00
         0.00000E+00
         0.00000E+00
         0.00000E+00
         0.00000E+00
         0.00000E+00
         0.00000E+00
         0.00000E+00
         0.00000E+00
         0.00000E+00
         0.00000E+00
         0.00000E+00
         0.00000E+00
         0.00000E+00
         0.00000E+00
         0.00000E+00
         0.00000E+00
         0.00000E+00
         0.00000E+00
         0.00000E+00
         0.00000E+00
         0.00000E+00
         0.00000E+00
         0.00000E+00
         0.00000E+00
         0.00000E+00
         0.00000E+00
         0.00000E+00
         0.00000E+00
         0.00000E+00
         0.00000E+00
         0.00000E+00
         0.00000E+00
         0.00000E+00
         0.00000E+00
         0.00000E+00
         0.00000E+00
         0.00000E+00
         0.00000E+00
         0.00000E+00
         0.00000E+00
         0.00000E+00
         0.00000E+00
         0.00000E+00
         0.00000E+00
         0.00000E+00
         0.00000E+00
         0.00000E+00
         0.00000E+00
         0.00000E+00
         0.00000E+00
         0.00000E+00
         0.00000E+00
         0.00000E+00
         0.00000E+00
         0.00000E+00
         0.00000E+00
         0.00000E+00
         0.00000E+00
         0.00000E+00
         0.00000E+00
         0.00000E+00
         0.00000E+00
         0.00000E+00
         0.00000E+00
         0.00000E+00
         0.00000E+00
         0.00000E+00
         0.00000E+00
         0.00000E+00
         0.00000E+00
         0.00000E+00
         0.00000E+00
         0.00000E+00
         0.00000E+00
         0.00000E+00
         0.00000E+00
         0.00000E+00
         0.00000E+00
         0.00000E+00
         0.00000E+00
         0.00000E+00
         0.00000E+00
         0.00000E+00
         0.00000E+00
         0.00000E+00
         0.00000E+00
         0.00000E+00
         0.00000E+00
         0.00000E+00
         0.00000E+00
         0.00000E+00
         0.00000E+00
         0.00000E+00
         0.00000E+00
         0.00000E+00
         0.00000E+00
         0.00000E+00
         0.00000E+00
         0.00000E+00
         0.00000E+00
         0.00000E+00
         0.00000E+00
         0.00000E+00
         0.00000E+00
         0.00000E+00
         0.00000E+00
         0.00000E+00
         0.00000E+00
         0.00000E+00
         0.00000E+00
         0.00000E+00
         0.00000E+00
         0.00000E+00
         0.00000E+00
         0.00000E+00
         0.00000E+00
         0.00000E+00
         0.00000E+00
         0.00000E+00
         0.00000E+00
         0.00000E+00
         0.00000E+00
         0.00000E+00
         0.00000E+00
         0.00000E+00
         0.00000E+00
         0.00000E+00
         0.00000E+00
         0.00000E+00
         0.00000E+00
         0.00000E+00
         0.00000E+00
         0.00000E+00
         0.00000E+00
         0.00000E+00
         0.00000E+00
         0.00000E+00
         0.00000E+00
         0.00000E+00
         0.00000E+00
         0.00000E+00
         0.00000E+00
         0.00000E+00
         0.00000E+00
         0.00000E+00
         0.00000E+00
         0.00000E+00
         0.00000E+00
         0.00000E+00
         0.00000E+00
         0.00000E+00
         0.00000E+00
         0.00000E+00
         0.00000E+00
         0.00000E+00
         0.00000E+00
         0.00000E+00
         0.00000E+00
         0.00000E+00
         0.00000E+00
         0.00000E+00
         0.00000E+00
         0.00000E+00
         0.00000E+00
         0.00000E+00
         0.00000E+00
         0.00000E+00
         0.00000E+00
         0.00000E+00
         0.00000E+00
         0.00000E+00
         0.00000E+00
         0.00000E+00
         0.00000E+00
         0.00000E+00
         0.00000E+00
         0.00000E+00
         0.00000E+00
         0.00000E+00
         0.00000E+00
         0.00000E+00
         0.00000E+00
         0.00000E+00
         0.00000E+00
         0.00000E+00
         0.00000E+00
         0.00000E+00
         0.00000E+00
         0.00000E+00
         0.00000E+00
         0.00000E+00
         0.00000E+00
         0.00000E+00
         0.00000E+00
         0.00000E+00
         0.00000E+00
         0.00000E+00
         0.00000E+00
         0.00000E+00
         0.00000E+00
         0.00000E+00
         0.00000E+00
         0.00000E+00
         0.00000E+00
         0.00000E+00
         0.00000E+00
         0.00000E+00
         0.00000E+00
         0.00000E+00
         0.00000E+00
         0.00000E+00
         0.00000E+00
         0.00000E+00
         0.00000E+00
         0.00000E+00
         0.00000E+00
         0.00000E+00
         0.00000E+00
         0.00000E+00
         0.00000E+00
         0.00000E+00
         0.00000E+00
         0.00000E+00
         0.00000E+00
         0.00000E+00
         0.00000E+00
         0.00000E+00
         0.00000E+00
         0.00000E+00
         0.00000E+00
         0.00000E+00
         0.00000E+00
         0.00000E+00
         0.00000E+00
         0.00000E+00
         0.00000E+00
         0.00000E+00
         0.00000E+00
         0.00000E+00
         0.00000E+00
         0.00000E+00
         0.00000E+00
         0.00000E+00
         0.00000E+00
         0.00000E+00
         0.00000E+00
         0.00000E+00
         0.00000E+00
         0.00000E+00
         0.00000E+00
         0.00000E+00
         0.00000E+00
         0.00000E+00
         0.00000E+00
         0.00000E+00
         0.00000E+00
         0.00000E+00
         0.00000E+00
         0.00000E+00
         0.00000E+00
         0.00000E+00
         0.00000E+00
         0.00000E+00
         0.00000E+00
         0.00000E+00
         0.00000E+00
         0.00000E+00
         0.00000E+00
         0.00000E+00
         0.00000E+00
         0.00000E+00
         0.00000E+00
         0.00000E+00
         0.00000E+00
         0.00000E+00
         0.00000E+00
         0.00000E+00
         0.00000E+00
         0.00000E+00
         0.00000E+00
         0.00000E+00
         0.00000E+00
         0.00000E+00
         0.00000E+00
         0.00000E+00
         0.00000E+00
         0.00000E+00
         0.00000E+00
         0.00000E+00
         0.00000E+00
         0.00000E+00
         0.00000E+00
         0.00000E+00
  
SCALARS                 acceleration_y  double 1
LOOKUP_TABLE default
         0.00000E+00
         0.00000E+00
         0.00000E+00
         0.00000E+00
         0.00000E+00
         0.00000E+00
         0.00000E+00
         0.00000E+00
         0.00000E+00
         0.00000E+00
         0.00000E+00
         0.00000E+00
         0.00000E+00
         0.00000E+00
         0.00000E+00
         0.00000E+00
         0.00000E+00
         0.00000E+00
         0.00000E+00
         0.00000E+00
         0.00000E+00
         0.00000E+00
         0.00000E+00
         0.00000E+00
         0.00000E+00
         0.00000E+00
         0.00000E+00
         0.00000E+00
         0.00000E+00
         0.00000E+00
         0.00000E+00
         0.00000E+00
         0.00000E+00
         0.00000E+00
         0.00000E+00
         0.00000E+00
         0.00000E+00
         0.00000E+00
         0.00000E+00
         0.00000E+00
         0.00000E+00
         0.00000E+00
         0.00000E+00
         0.00000E+00
         0.00000E+00
         0.00000E+00
         0.00000E+00
         0.00000E+00
         0.00000E+00
         0.00000E+00
         0.00000E+00
         0.00000E+00
         0.00000E+00
         0.00000E+00
         0.00000E+00
         0.00000E+00
         0.00000E+00
         0.00000E+00
         0.00000E+00
         0.00000E+00
         0.00000E+00
         0.00000E+00
         0.00000E+00
         0.00000E+00
         0.00000E+00
         0.00000E+00
         0.00000E+00
         0.00000E+00
         0.00000E+00
         0.00000E+00
         0.00000E+00
         0.00000E+00
         0.00000E+00
         0.00000E+00
         0.00000E+00
         0.00000E+00
         0.00000E+00
         0.00000E+00
         0.00000E+00
         0.00000E+00
         0.00000E+00
         0.00000E+00
         0.00000E+00
         0.00000E+00
         0.00000E+00
         0.00000E+00
         0.00000E+00
         0.00000E+00
         0.00000E+00
         0.00000E+00
         0.00000E+00
         0.00000E+00
         0.00000E+00
         0.00000E+00
         0.00000E+00
         0.00000E+00
         0.00000E+00
         0.00000E+00
         0.00000E+00
         0.00000E+00
         0.00000E+00
         0.00000E+00
         0.00000E+00
         0.00000E+00
         0.00000E+00
         0.00000E+00
         0.00000E+00
         0.00000E+00
         0.00000E+00
         0.00000E+00
         0.00000E+00
         0.00000E+00
         0.00000E+00
         0.00000E+00
         0.00000E+00
         0.00000E+00
         0.00000E+00
         0.00000E+00
         0.00000E+00
         0.00000E+00
         0.00000E+00
         0.00000E+00
         0.00000E+00
         0.00000E+00
         0.00000E+00
         0.00000E+00
         0.00000E+00
         0.00000E+00
         0.00000E+00
         0.00000E+00
         0.00000E+00
         0.00000E+00
         0.00000E+00
         0.00000E+00
         0.00000E+00
         0.00000E+00
         0.00000E+00
         0.00000E+00
         0.00000E+00
         0.00000E+00
         0.00000E+00
         0.00000E+00
         0.00000E+00
         0.00000E+00
         0.00000E+00
         0.00000E+00
         0.00000E+00
         0.00000E+00
         0.00000E+00
         0.00000E+00
         0.00000E+00
         0.00000E+00
         0.00000E+00
         0.00000E+00
         0.00000E+00
         0.00000E+00
         0.00000E+00
         0.00000E+00
         0.00000E+00
         0.00000E+00
         0.00000E+00
         0.00000E+00
         0.00000E+00
         0.00000E+00
         0.00000E+00
         0.00000E+00
         0.00000E+00
         0.00000E+00
         0.00000E+00
         0.00000E+00
         0.00000E+00
         0.00000E+00
         0.00000E+00
         0.00000E+00
         0.00000E+00
         0.00000E+00
         0.00000E+00
         0.00000E+00
         0.00000E+00
         0.00000E+00
         0.00000E+00
         0.00000E+00
         0.00000E+00
         0.00000E+00
         0.00000E+00
         0.00000E+00
         0.00000E+00
         0.00000E+00
         0.00000E+00
         0.00000E+00
         0.00000E+00
         0.00000E+00
         0.00000E+00
         0.00000E+00
         0.00000E+00
         0.00000E+00
         0.00000E+00
         0.00000E+00
         0.00000E+00
         0.00000E+00
         0.00000E+00
         0.00000E+00
         0.00000E+00
         0.00000E+00
         0.00000E+00
         0.00000E+00
         0.00000E+00
         0.00000E+00
         0.00000E+00
         0.00000E+00
         0.00000E+00
         0.00000E+00
         0.00000E+00
         0.00000E+00
         0.00000E+00
         0.00000E+00
         0.00000E+00
         0.00000E+00
         0.00000E+00
         0.00000E+00
         0.00000E+00
         0.00000E+00
         0.00000E+00
         0.00000E+00
         0.00000E+00
         0.00000E+00
         0.00000E+00
         0.00000E+00
         0.00000E+00
         0.00000E+00
         0.00000E+00
         0.00000E+00
         0.00000E+00
         0.00000E+00
         0.00000E+00
         0.00000E+00
         0.00000E+00
         0.00000E+00
         0.00000E+00
         0.00000E+00
         0.00000E+00
         0.00000E+00
         0.00000E+00
         0.00000E+00
         0.00000E+00
         0.00000E+00
         0.00000E+00
         0.00000E+00
         0.00000E+00
         0.00000E+00
         0.00000E+00
         0.00000E+00
         0.00000E+00
         0.00000E+00
         0.00000E+00
         0.00000E+00
         0.00000E+00
         0.00000E+00
         0.00000E+00
         0.00000E+00
         0.00000E+00
         0.00000E+00
         0.00000E+00
         0.00000E+00
         0.00000E+00
         0.00000E+00
         0.00000E+00
         0.00000E+00
         0.00000E+00
         0.00000E+00
         0.00000E+00
         0.00000E+00
         0.00000E+00
         0.00000E+00
         0.00000E+00
         0.00000E+00
         0.00000E+00
         0.00000E+00
         0.00000E+00
         0.00000E+00
         0.00000E+00
         0.00000E+00
         0.00000E+00
         0.00000E+00
         0.00000E+00
         0.00000E+00
         0.00000E+00
         0.00000E+00
         0.00000E+00
         0.00000E+00
         0.00000E+00
         0.00000E+00
         0.00000E+00
         0.00000E+00
         0.00000E+00
         0.00000E+00
         0.00000E+00
         0.00000E+00
         0.00000E+00
         0.00000E+00
         0.00000E+00
         0.00000E+00
         0.00000E+00
         0.00000E+00
         0.00000E+00
         0.00000E+00
         0.00000E+00
         0.00000E+00
         0.00000E+00
         0.00000E+00
         0.00000E+00
         0.00000E+00
         0.00000E+00
         0.00000E+00
         0.00000E+00
         0.00000E+00
         0.00000E+00
         0.00000E+00
         0.00000E+00
         0.00000E+00
         0.00000E+00
         0.00000E+00
         0.00000E+00
         0.00000E+00
         0.00000E+00
         0.00000E+00
         0.00000E+00
         0.00000E+00
         0.00000E+00
         0.00000E+00
         0.00000E+00
         0.00000E+00
         0.00000E+00
         0.00000E+00
         0.00000E+00
         0.00000E+00
         0.00000E+00
         0.00000E+00
         0.00000E+00
         0.00000E+00
         0.00000E+00
         0.00000E+00
         0.00000E+00
         0.00000E+00
         0.00000E+00
         0.00000E+00
         0.00000E+00
         0.00000E+00
         0.00000E+00
         0.00000E+00
         0.00000E+00
         0.00000E+00
         0.00000E+00
         0.00000E+00
         0.00000E+00
         0.00000E+00
         0.00000E+00
         0.00000E+00
         0.00000E+00
         0.00000E+00
         0.00000E+00
         0.00000E+00
         0.00000E+00
         0.00000E+00
         0.00000E+00
         0.00000E+00
         0.00000E+00
         0.00000E+00
         0.00000E+00
         0.00000E+00
         0.00000E+00
         0.00000E+00
         0.00000E+00
         0.00000E+00
         0.00000E+00
         0.00000E+00
         0.00000E+00
         0.00000E+00
         0.00000E+00
         0.00000E+00
         0.00000E+00
         0.00000E+00
         0.00000E+00
         0.00000E+00
         0.00000E+00
         0.00000E+00
         0.00000E+00
         0.00000E+00
         0.00000E+00
         0.00000E+00
         0.00000E+00
         0.00000E+00
         0.00000E+00
         0.00000E+00
         0.00000E+00
         0.00000E+00
         0.00000E+00
         0.00000E+00
         0.00000E+00
         0.00000E+00
         0.00000E+00
         0.00000E+00
         0.00000E+00
         0.00000E+00
         0.00000E+00
         0.00000E+00
         0.00000E+00
         0.00000E+00
         0.00000E+00
         0.00000E+00
         0.00000E+00
         0.00000E+00
         0.00000E+00
         0.00000E+00
         0.00000E+00
         0.00000E+00
         0.00000E+00
         0.00000E+00
         0.00000E+00
         0.00000E+00
         0.00000E+00
         0.00000E+00
         0.00000E+00
         0.00000E+00
         0.00000E+00
         0.00000E+00
         0.00000E+00
         0.00000E+00
         0.00000E+00
         0.00000E+00
         0.00000E+00
         0.00000E+00
         0.00000E+00
         0.00000E+00
         0.00000E+00
         0.00000E+00
         0.00000E+00
         0.00000E+00
         0.00000E+00
         0.00000E+00
         0.00000E+00
         0.00000E+00
         0.00000E+00
         0.00000E+00
         0.00000E+00
         0.00000E+00
         0.00000E+00
         0.00000E+00
         0.00000E+00
         0.00000E+00
         0.00000E+00
         0.00000E+00
         0.00000E+00
         0.00000E+00
         0.00000E+00
         0.00000E+00
         0.00000E+00
         0.00000E+00
         0.00000E+00
         0.00000E+00
         0.00000E+00
         0.00000E+00
         0.00000E+00
         0.00000E+00
         0.00000E+00
         0.00000E+00
         0.00000E+00
         0.00000E+00
         0.00000E+00
         0.00000E+00
         0.00000E+00
         0.00000E+00
         0.00000E+00
         0.00000E+00
         0.00000E+00
         0.00000E+00
         0.00000E+00
         0.00000E+00
         0.00000E+00
         0.00000E+00
         0.00000E+00
         0.00000E+00
         0.00000E+00
         0.00000E+00
         0.00000E+00
         0.00000E+00
         0.00000E+00
         0.00000E+00
         0.00000E+00
         0.00000E+00
         0.00000E+00
         0.00000E+00
         0.00000E+00
         0.00000E+00
         0.00000E+00
         0.00000E+00
         0.00000E+00
         0.00000E+00
         0.00000E+00
         0.00000E+00
         0.00000E+00
         0.00000E+00
         0.00000E+00
         0.00000E+00
         0.00000E+00
         0.00000E+00
         0.00000E+00
         0.00000E+00
         0.00000E+00
         0.00000E+00
         0.00000E+00
         0.00000E+00
         0.00000E+00
         0.00000E+00
         0.00000E+00
         0.00000E+00
         0.00000E+00
         0.00000E+00
         0.00000E+00
         0.00000E+00
         0.00000E+00
         0.00000E+00
         0.00000E+00
         0.00000E+00
         0.00000E+00
         0.00000E+00
         0.00000E+00
         0.00000E+00
         0.00000E+00
         0.00000E+00
         0.00000E+00
         0.00000E+00
         0.00000E+00
         0.00000E+00
         0.00000E+00
         0.00000E+00
         0.00000E+00
         0.00000E+00
         0.00000E+00
         0.00000E+00
         0.00000E+00
         0.00000E+00
         0.00000E+00
         0.00000E+00
         0.00000E+00
         0.00000E+00
         0.00000E+00
         0.00000E+00
         0.00000E+00
         0.00000E+00
         0.00000E+00
         0.00000E+00
         0.00000E+00
         0.00000E+00
         0.00000E+00
         0.00000E+00
         0.00000E+00
         0.00000E+00
         0.00000E+00
         0.00000E+00
         0.00000E+00
         0.00000E+00
         0.00000E+00
         0.00000E+00
         0.00000E+00
         0.00000E+00
         0.00000E+00
         0.00000E+00
         0.00000E+00
         0.00000E+00
         0.00000E+00
         0.00000E+00
         0.00000E+00
         0.00000E+00
         0.00000E+00
         0.00000E+00
         0.00000E+00
         0.00000E+00
         0.00000E+00
         0.00000E+00
         0.00000E+00
         0.00000E+00
         0.00000E+00
         0.00000E+00
         0.00000E+00
         0.00000E+00
         0.00000E+00
         0.00000E+00
         0.00000E+00
         0.00000E+00
         0.00000E+00
         0.00000E+00
         0.00000E+00
         0.00000E+00
         0.00000E+00
         0.00000E+00
         0.00000E+00
         0.00000E+00
         0.00000E+00
         0.00000E+00
         0.00000E+00
         0.00000E+00
         0.00000E+00
         0.00000E+00
         0.00000E+00
         0.00000E+00
         0.00000E+00
         0.00000E+00
         0.00000E+00
         0.00000E+00
         0.00000E+00
         0.00000E+00
         0.00000E+00
         0.00000E+00
         0.00000E+00
         0.00000E+00
         0.00000E+00
         0.00000E+00
         0.00000E+00
         0.00000E+00
         0.00000E+00
         0.00000E+00
         0.00000E+00
         0.00000E+00
         0.00000E+00
         0.00000E+00
         0.00000E+00
         0.00000E+00
         0.00000E+00
         0.00000E+00
         0.00000E+00
         0.00000E+00
         0.00000E+00
         0.00000E+00
         0.00000E+00
         0.00000E+00
         0.00000E+00
         0.00000E+00
         0.00000E+00
         0.00000E+00
         0.00000E+00
         0.00000E+00
         0.00000E+00
         0.00000E+00
         0.00000E+00
         0.00000E+00
         0.00000E+00
         0.00000E+00
         0.00000E+00
         0.00000E+00
         0.00000E+00
         0.00000E+00
         0.00000E+00
         0.00000E+00
         0.00000E+00
         0.00000E+00
         0.00000E+00
         0.00000E+00
         0.00000E+00
         0.00000E+00
         0.00000E+00
         0.00000E+00
         0.00000E+00
         0.00000E+00
         0.00000E+00
         0.00000E+00
         0.00000E+00
         0.00000E+00
         0.00000E+00
         0.00000E+00
         0.00000E+00
         0.00000E+00
         0.00000E+00
         0.00000E+00
         0.00000E+00
         0.00000E+00
         0.00000E+00
         0.00000E+00
         0.00000E+00
         0.00000E+00
         0.00000E+00
         0.00000E+00
         0.00000E+00
         0.00000E+00
         0.00000E+00
         0.00000E+00
         0.00000E+00
         0.00000E+00
         0.00000E+00
         0.00000E+00
         0.00000E+00
         0.00000E+00
         0.00000E+00
         0.00000E+00
         0.00000E+00
         0.00000E+00
         0.00000E+00
         0.00000E+00
         0.00000E+00
         0.00000E+00
         0.00000E+00
         0.00000E+00
         0.00000E+00
         0.00000E+00
         0.00000E+00
         0.00000E+00
         0.00000E+00
         0.00000E+00
         0.00000E+00
         0.00000E+00
         0.00000E+00
         0.00000E+00
         0.00000E+00
         0.00000E+00
         0.00000E+00
         0.00000E+00
         0.00000E+00
         0.00000E+00
         0.00000E+00
         0.00000E+00
         0.00000E+00
         0.00000E+00
         0.00000E+00
         0.00000E+00
         0.00000E+00
         0.00000E+00
         0.00000E+00
         0.00000E+00
         0.00000E+00
         0.00000E+00
         0.00000E+00
         0.00000E+00
         0.00000E+00
         0.00000E+00
         0.00000E+00
         0.00000E+00
         0.00000E+00
         0.00000E+00
         0.00000E+00
         0.00000E+00
         0.00000E+00
         0.00000E+00
         0.00000E+00
         0.00000E+00
         0.00000E+00
         0.00000E+00
         0.00000E+00
         0.00000E+00
         0.00000E+00
         0.00000E+00
         0.00000E+00
         0.00000E+00
         0.00000E+00
         0.00000E+00
         0.00000E+00
         0.00000E+00
         0.00000E+00
         0.00000E+00
         0.00000E+00
         0.00000E+00
         0.00000E+00
         0.00000E+00
         0.00000E+00
         0.00000E+00
         0.00000E+00
         0.00000E+00
         0.00000E+00
         0.00000E+00
         0.00000E+00
         0.00000E+00
         0.00000E+00
         0.00000E+00
         0.00000E+00
         0.00000E+00
         0.00000E+00
         0.00000E+00
         0.00000E+00
         0.00000E+00
         0.00000E+00
         0.00000E+00
         0.00000E+00
         0.00000E+00
         0.00000E+00
         0.00000E+00
         0.00000E+00
         0.00000E+00
         0.00000E+00
         0.00000E+00
         0.00000E+00
         0.00000E+00
         0.00000E+00
         0.00000E+00
         0.00000E+00
         0.00000E+00
         0.00000E+00
         0.00000E+00
         0.00000E+00
         0.00000E+00
         0.00000E+00
         0.00000E+00
         0.00000E+00
         0.00000E+00
         0.00000E+00
         0.00000E+00
         0.00000E+00
         0.00000E+00
         0.00000E+00
         0.00000E+00
         0.00000E+00
         0.00000E+00
         0.00000E+00
         0.00000E+00
         0.00000E+00
         0.00000E+00
         0.00000E+00
         0.00000E+00
         0.00000E+00
         0.00000E+00
         0.00000E+00
         0.00000E+00
         0.00000E+00
         0.00000E+00
         0.00000E+00
         0.00000E+00
         0.00000E+00
         0.00000E+00
         0.00000E+00
         0.00000E+00
         0.00000E+00
         0.00000E+00
         0.00000E+00
         0.00000E+00
         0.00000E+00
         0.00000E+00
         0.00000E+00
         0.00000E+00
         0.00000E+00
         0.00000E+00
         0.00000E+00
         0.00000E+00
         0.00000E+00
         0.00000E+00
         0.00000E+00
         0.00000E+00
         0.00000E+00
         0.00000E+00
         0.00000E+00
         0.00000E+00
         0.00000E+00
         0.00000E+00
         0.00000E+00
         0.00000E+00
         0.00000E+00
         0.00000E+00
         0.00000E+00
         0.00000E+00
         0.00000E+00
         0.00000E+00
         0.00000E+00
         0.00000E+00
         0.00000E+00
         0.00000E+00
         0.00000E+00
         0.00000E+00
         0.00000E+00
         0.00000E+00
         0.00000E+00
         0.00000E+00
         0.00000E+00
         0.00000E+00
         0.00000E+00
         0.00000E+00
         0.00000E+00
         0.00000E+00
         0.00000E+00
         0.00000E+00
         0.00000E+00
         0.00000E+00
         0.00000E+00
         0.00000E+00
         0.00000E+00
         0.00000E+00
         0.00000E+00
         0.00000E+00
         0.00000E+00
         0.00000E+00
         0.00000E+00
         0.00000E+00
         0.00000E+00
         0.00000E+00
         0.00000E+00
         0.00000E+00
         0.00000E+00
         0.00000E+00
         0.00000E+00
         0.00000E+00
         0.00000E+00
         0.00000E+00
         0.00000E+00
         0.00000E+00
         0.00000E+00
         0.00000E+00
         0.00000E+00
         0.00000E+00
         0.00000E+00
         0.00000E+00
         0.00000E+00
         0.00000E+00
         0.00000E+00
         0.00000E+00
         0.00000E+00
         0.00000E+00
         0.00000E+00
         0.00000E+00
         0.00000E+00
         0.00000E+00
         0.00000E+00
         0.00000E+00
         0.00000E+00
         0.00000E+00
         0.00000E+00
         0.00000E+00
         0.00000E+00
         0.00000E+00
         0.00000E+00
         0.00000E+00
         0.00000E+00
         0.00000E+00
         0.00000E+00
         0.00000E+00
         0.00000E+00
         0.00000E+00
         0.00000E+00
         0.00000E+00
         0.00000E+00
         0.00000E+00
         0.00000E+00
         0.00000E+00
         0.00000E+00
         0.00000E+00
         0.00000E+00
         0.00000E+00
         0.00000E+00
         0.00000E+00
         0.00000E+00
         0.00000E+00
         0.00000E+00
         0.00000E+00
         0.00000E+00
         0.00000E+00
         0.00000E+00
         0.00000E+00
         0.00000E+00
         0.00000E+00
         0.00000E+00
         0.00000E+00
         0.00000E+00
         0.00000E+00
         0.00000E+00
         0.00000E+00
         0.00000E+00
         0.00000E+00
         0.00000E+00
         0.00000E+00
         0.00000E+00
         0.00000E+00
         0.00000E+00
         0.00000E+00
         0.00000E+00
         0.00000E+00
         0.00000E+00
         0.00000E+00
         0.00000E+00
         0.00000E+00
         0.00000E+00
         0.00000E+00
         0.00000E+00
         0.00000E+00
         0.00000E+00
         0.00000E+00
         0.00000E+00
         0.00000E+00
         0.00000E+00
         0.00000E+00
         0.00000E+00
         0.00000E+00
         0.00000E+00
         0.00000E+00
         0.00000E+00
         0.00000E+00
         0.00000E+00
         0.00000E+00
         0.00000E+00
         0.00000E+00
         0.00000E+00
         0.00000E+00
         0.00000E+00
         0.00000E+00
         0.00000E+00
         0.00000E+00
         0.00000E+00
         0.00000E+00
         0.00000E+00
         0.00000E+00
         0.00000E+00
         0.00000E+00
         0.00000E+00
         0.00000E+00
         0.00000E+00
         0.00000E+00
         0.00000E+00
         0.00000E+00
         0.00000E+00
         0.00000E+00
         0.00000E+00
         0.00000E+00
         0.00000E+00
         0.00000E+00
         0.00000E+00
         0.00000E+00
         0.00000E+00
         0.00000E+00
         0.00000E+00
         0.00000E+00
         0.00000E+00
         0.00000E+00
         0.00000E+00
         0.00000E+00
         0.00000E+00
         0.00000E+00
         0.00000E+00
         0.00000E+00
         0.00000E+00
         0.00000E+00
         0.00000E+00
         0.00000E+00
         0.00000E+00
         0.00000E+00
         0.00000E+00
         0.00000E+00
         0.00000E+00
         0.00000E+00
         0.00000E+00
         0.00000E+00
         0.00000E+00
         0.00000E+00
         0.00000E+00
         0.00000E+00
         0.00000E+00
         0.00000E+00
         0.00000E+00
         0.00000E+00
         0.00000E+00
         0.00000E+00
         0.00000E+00
         0.00000E+00
         0.00000E+00
         0.00000E+00
         0.00000E+00
         0.00000E+00
         0.00000E+00
         0.00000E+00
         0.00000E+00
         0.00000E+00
         0.00000E+00
         0.00000E+00
         0.00000E+00
         0.00000E+00
         0.00000E+00
         0.00000E+00
         0.00000E+00
         0.00000E+00
         0.00000E+00
         0.00000E+00
         0.00000E+00
         0.00000E+00
         0.00000E+00
         0.00000E+00
         0.00000E+00
         0.00000E+00
         0.00000E+00
         0.00000E+00
         0.00000E+00
         0.00000E+00
         0.00000E+00
         0.00000E+00
         0.00000E+00
         0.00000E+00
         0.00000E+00
         0.00000E+00
         0.00000E+00
         0.00000E+00
         0.00000E+00
         0.00000E+00
         0.00000E+00
         0.00000E+00
         0.00000E+00
         0.00000E+00
         0.00000E+00
         0.00000E+00
         0.00000E+00
         0.00000E+00
         0.00000E+00
         0.00000E+00
         0.00000E+00
         0.00000E+00
         0.00000E+00
         0.00000E+00
         0.00000E+00
         0.00000E+00
         0.00000E+00
         0.00000E+00
         0.00000E+00
         0.00000E+00
         0.00000E+00
         0.00000E+00
         0.00000E+00
         0.00000E+00
         0.00000E+00
         0.00000E+00
         0.00000E+00
         0.00000E+00
         0.00000E+00
         0.00000E+00
         0.00000E+00
         0.00000E+00
         0.00000E+00
         0.00000E+00
         0.00000E+00
         0.00000E+00
         0.00000E+00
         0.00000E+00
         0.00000E+00
         0.00000E+00
         0.00000E+00
         0.00000E+00
         0.00000E+00
         0.00000E+00
         0.00000E+00
         0.00000E+00
         0.00000E+00
         0.00000E+00
         0.00000E+00
         0.00000E+00
         0.00000E+00
         0.00000E+00
         0.00000E+00
         0.00000E+00
         0.00000E+00
         0.00000E+00
         0.00000E+00
         0.00000E+00
         0.00000E+00
         0.00000E+00
         0.00000E+00
         0.00000E+00
         0.00000E+00
         0.00000E+00
         0.00000E+00
         0.00000E+00
         0.00000E+00
         0.00000E+00
         0.00000E+00
         0.00000E+00
         0.00000E+00
         0.00000E+00
         0.00000E+00
         0.00000E+00
         0.00000E+00
         0.00000E+00
         0.00000E+00
         0.00000E+00
         0.00000E+00
         0.00000E+00
         0.00000E+00
         0.00000E+00
         0.00000E+00
         0.00000E+00
         0.00000E+00
         0.00000E+00
         0.00000E+00
         0.00000E+00
         0.00000E+00
         0.00000E+00
         0.00000E+00
         0.00000E+00
         0.00000E+00
         0.00000E+00
         0.00000E+00
         0.00000E+00
         0.00000E+00
         0.00000E+00
         0.00000E+00
         0.00000E+00
         0.00000E+00
         0.00000E+00
         0.00000E+00
         0.00000E+00
         0.00000E+00
         0.00000E+00
         0.00000E+00
         0.00000E+00
         0.00000E+00
         0.00000E+00
         0.00000E+00
         0.00000E+00
         0.00000E+00
         0.00000E+00
         0.00000E+00
         0.00000E+00
         0.00000E+00
         0.00000E+00
         0.00000E+00
         0.00000E+00
         0.00000E+00
         0.00000E+00
         0.00000E+00
         0.00000E+00
         0.00000E+00
         0.00000E+00
         0.00000E+00
         0.00000E+00
         0.00000E+00
         0.00000E+00
         0.00000E+00
         0.00000E+00
         0.00000E+00
         0.00000E+00
         0.00000E+00
         0.00000E+00
         0.00000E+00
         0.00000E+00
         0.00000E+00
         0.00000E+00
         0.00000E+00
         0.00000E+00
         0.00000E+00
         0.00000E+00
         0.00000E+00
         0.00000E+00
         0.00000E+00
         0.00000E+00
         0.00000E+00
         0.00000E+00
         0.00000E+00
         0.00000E+00
         0.00000E+00
         0.00000E+00
         0.00000E+00
         0.00000E+00
         0.00000E+00
         0.00000E+00
         0.00000E+00
         0.00000E+00
         0.00000E+00
         0.00000E+00
         0.00000E+00
         0.00000E+00
         0.00000E+00
         0.00000E+00
         0.00000E+00
         0.00000E+00
         0.00000E+00
         0.00000E+00
         0.00000E+00
         0.00000E+00
         0.00000E+00
         0.00000E+00
         0.00000E+00
         0.00000E+00
         0.00000E+00
         0.00000E+00
         0.00000E+00
         0.00000E+00
         0.00000E+00
         0.00000E+00
         0.00000E+00
         0.00000E+00
         0.00000E+00
         0.00000E+00
         0.00000E+00
         0.00000E+00
         0.00000E+00
         0.00000E+00
         0.00000E+00
         0.00000E+00
         0.00000E+00
         0.00000E+00
         0.00000E+00
         0.00000E+00
         0.00000E+00
         0.00000E+00
         0.00000E+00
         0.00000E+00
         0.00000E+00
         0.00000E+00
         0.00000E+00
         0.00000E+00
         0.00000E+00
         0.00000E+00
         0.00000E+00
         0.00000E+00
         0.00000E+00
         0.00000E+00
         0.00000E+00
         0.00000E+00
         0.00000E+00
         0.00000E+00
         0.00000E+00
         0.00000E+00
         0.00000E+00
         0.00000E+00
         0.00000E+00
         0.00000E+00
         0.00000E+00
         0.00000E+00
         0.00000E+00
         0.00000E+00
         0.00000E+00
         0.00000E+00
         0.00000E+00
         0.00000E+00
         0.00000E+00
         0.00000E+00
         0.00000E+00
         0.00000E+00
         0.00000E+00
         0.00000E+00
         0.00000E+00
         0.00000E+00
         0.00000E+00
         0.00000E+00
         0.00000E+00
         0.00000E+00
         0.00000E+00
         0.00000E+00
         0.00000E+00
         0.00000E+00
         0.00000E+00
         0.00000E+00
         0.00000E+00
         0.00000E+00
         0.00000E+00
         0.00000E+00
         0.00000E+00
         0.00000E+00
         0.00000E+00
         0.00000E+00
         0.00000E+00
         0.00000E+00
         0.00000E+00
         0.00000E+00
         0.00000E+00
         0.00000E+00
         0.00000E+00
         0.00000E+00
         0.00000E+00
         0.00000E+00
         0.00000E+00
         0.00000E+00
         0.00000E+00
         0.00000E+00
         0.00000E+00
         0.00000E+00
         0.00000E+00
         0.00000E+00
         0.00000E+00
         0.00000E+00
         0.00000E+00
         0.00000E+00
         0.00000E+00
         0.00000E+00
         0.00000E+00
         0.00000E+00
         0.00000E+00
         0.00000E+00
         0.00000E+00
         0.00000E+00
         0.00000E+00
         0.00000E+00
         0.00000E+00
         0.00000E+00
         0.00000E+00
         0.00000E+00
         0.00000E+00
         0.00000E+00
         0.00000E+00
         0.00000E+00
         0.00000E+00
         0.00000E+00
         0.00000E+00
         0.00000E+00
         0.00000E+00
         0.00000E+00
         0.00000E+00
         0.00000E+00
         0.00000E+00
         0.00000E+00
         0.00000E+00
         0.00000E+00
         0.00000E+00
         0.00000E+00
         0.00000E+00
         0.00000E+00
         0.00000E+00
         0.00000E+00
         0.00000E+00
         0.00000E+00
         0.00000E+00
         0.00000E+00
         0.00000E+00
         0.00000E+00
         0.00000E+00
         0.00000E+00
         0.00000E+00
         0.00000E+00
         0.00000E+00
         0.00000E+00
         0.00000E+00
         0.00000E+00
         0.00000E+00
         0.00000E+00
         0.00000E+00
         0.00000E+00
         0.00000E+00
         0.00000E+00
         0.00000E+00
         0.00000E+00
         0.00000E+00
         0.00000E+00
         0.00000E+00
         0.00000E+00
         0.00000E+00
         0.00000E+00
         0.00000E+00
         0.00000E+00
         0.00000E+00
         0.00000E+00
         0.00000E+00
         0.00000E+00
         0.00000E+00
         0.00000E+00
         0.00000E+00
         0.00000E+00
         0.00000E+00
         0.00000E+00
         0.00000E+00
         0.00000E+00
         0.00000E+00
         0.00000E+00
         0.00000E+00
         0.00000E+00
         0.00000E+00
         0.00000E+00
         0.00000E+00
         0.00000E+00
         0.00000E+00
         0.00000E+00
         0.00000E+00
         0.00000E+00
         0.00000E+00
         0.00000E+00
         0.00000E+00
         0.00000E+00
         0.00000E+00
         0.00000E+00
         0.00000E+00
         0.00000E+00
         0.00000E+00
         0.00000E+00
         0.00000E+00
         0.00000E+00
         0.00000E+00
         0.00000E+00
         0.00000E+00
         0.00000E+00
         0.00000E+00
         0.00000E+00
         0.00000E+00
         0.00000E+00
         0.00000E+00
         0.00000E+00
         0.00000E+00
         0.00000E+00
         0.00000E+00
         0.00000E+00
         0.00000E+00
         0.00000E+00
         0.00000E+00
         0.00000E+00
         0.00000E+00
         0.00000E+00
         0.00000E+00
         0.00000E+00
         0.00000E+00
         0.00000E+00
         0.00000E+00
         0.00000E+00
         0.00000E+00
         0.00000E+00
         0.00000E+00
         0.00000E+00
         0.00000E+00
         0.00000E+00
         0.00000E+00
         0.00000E+00
         0.00000E+00
         0.00000E+00
         0.00000E+00
         0.00000E+00
         0.00000E+00
         0.00000E+00
         0.00000E+00
         0.00000E+00
         0.00000E+00
         0.00000E+00
         0.00000E+00
         0.00000E+00
         0.00000E+00
         0.00000E+00
         0.00000E+00
         0.00000E+00
         0.00000E+00
         0.00000E+00
         0.00000E+00
         0.00000E+00
         0.00000E+00
         0.00000E+00
         0.00000E+00
         0.00000E+00
         0.00000E+00
         0.00000E+00
         0.00000E+00
         0.00000E+00
         0.00000E+00
         0.00000E+00
         0.00000E+00
         0.00000E+00
         0.00000E+00
         0.00000E+00
         0.00000E+00
         0.00000E+00
         0.00000E+00
         0.00000E+00
         0.00000E+00
         0.00000E+00
         0.00000E+00
         0.00000E+00
         0.00000E+00
         0.00000E+00
         0.00000E+00
         0.00000E+00
         0.00000E+00
         0.00000E+00
         0.00000E+00
         0.00000E+00
         0.00000E+00
         0.00000E+00
         0.00000E+00
         0.00000E+00
         0.00000E+00
         0.00000E+00
         0.00000E+00
         0.00000E+00
         0.00000E+00
         0.00000E+00
         0.00000E+00
         0.00000E+00
         0.00000E+00
         0.00000E+00
         0.00000E+00
         0.00000E+00
         0.00000E+00
         0.00000E+00
         0.00000E+00
         0.00000E+00
         0.00000E+00
         0.00000E+00
         0.00000E+00
         0.00000E+00
         0.00000E+00
         0.00000E+00
         0.00000E+00
         0.00000E+00
         0.00000E+00
         0.00000E+00
         0.00000E+00
         0.00000E+00
         0.00000E+00
         0.00000E+00
         0.00000E+00
         0.00000E+00
         0.00000E+00
         0.00000E+00
         0.00000E+00
         0.00000E+00
         0.00000E+00
         0.00000E+00
         0.00000E+00
         0.00000E+00
         0.00000E+00
         0.00000E+00
         0.00000E+00
         0.00000E+00
         0.00000E+00
         0.00000E+00
         0.00000E+00
         0.00000E+00
         0.00000E+00
         0.00000E+00
         0.00000E+00
         0.00000E+00
         0.00000E+00
         0.00000E+00
         0.00000E+00
         0.00000E+00
         0.00000E+00
         0.00000E+00
         0.00000E+00
         0.00000E+00
         0.00000E+00
         0.00000E+00
         0.00000E+00
         0.00000E+00
         0.00000E+00
         0.00000E+00
         0.00000E+00
         0.00000E+00
         0.00000E+00
         0.00000E+00
         0.00000E+00
         0.00000E+00
         0.00000E+00
         0.00000E+00
         0.00000E+00
         0.00000E+00
         0.00000E+00
         0.00000E+00
         0.00000E+00
         0.00000E+00
         0.00000E+00
         0.00000E+00
         0.00000E+00
         0.00000E+00
         0.00000E+00
         0.00000E+00
         0.00000E+00
         0.00000E+00
         0.00000E+00
         0.00000E+00
         0.00000E+00
         0.00000E+00
         0.00000E+00
         0.00000E+00
         0.00000E+00
         0.00000E+00
         0.00000E+00
         0.00000E+00
         0.00000E+00
         0.00000E+00
         0.00000E+00
         0.00000E+00
         0.00000E+00
         0.00000E+00
         0.00000E+00
         0.00000E+00
         0.00000E+00
         0.00000E+00
         0.00000E+00
         0.00000E+00
         0.00000E+00
         0.00000E+00
         0.00000E+00
         0.00000E+00
         0.00000E+00
         0.00000E+00
         0.00000E+00
         0.00000E+00
         0.00000E+00
         0.00000E+00
         0.00000E+00
         0.00000E+00
         0.00000E+00
         0.00000E+00
         0.00000E+00
         0.00000E+00
         0.00000E+00
         0.00000E+00
         0.00000E+00
         0.00000E+00
         0.00000E+00
         0.00000E+00
         0.00000E+00
         0.00000E+00
         0.00000E+00
         0.00000E+00
         0.00000E+00
         0.00000E+00
         0.00000E+00
         0.00000E+00
         0.00000E+00
         0.00000E+00
         0.00000E+00
         0.00000E+00
         0.00000E+00
         0.00000E+00
         0.00000E+00
         0.00000E+00
         0.00000E+00
         0.00000E+00
         0.00000E+00
         0.00000E+00
         0.00000E+00
         0.00000E+00
         0.00000E+00
         0.00000E+00
         0.00000E+00
         0.00000E+00
         0.00000E+00
         0.00000E+00
         0.00000E+00
         0.00000E+00
         0.00000E+00
         0.00000E+00
         0.00000E+00
         0.00000E+00
         0.00000E+00
         0.00000E+00
         0.00000E+00
         0.00000E+00
         0.00000E+00
         0.00000E+00
         0.00000E+00
         0.00000E+00
         0.00000E+00
         0.00000E+00
         0.00000E+00
         0.00000E+00
         0.00000E+00
         0.00000E+00
         0.00000E+00
         0.00000E+00
         0.00000E+00
         0.00000E+00
         0.00000E+00
         0.00000E+00
         0.00000E+00
         0.00000E+00
         0.00000E+00
         0.00000E+00
         0.00000E+00
         0.00000E+00
         0.00000E+00
         0.00000E+00
         0.00000E+00
         0.00000E+00
         0.00000E+00
         0.00000E+00
         0.00000E+00
         0.00000E+00
         0.00000E+00
         0.00000E+00
         0.00000E+00
         0.00000E+00
         0.00000E+00
         0.00000E+00
         0.00000E+00
         0.00000E+00
         0.00000E+00
         0.00000E+00
         0.00000E+00
         0.00000E+00
         0.00000E+00
         0.00000E+00
         0.00000E+00
         0.00000E+00
         0.00000E+00
         0.00000E+00
         0.00000E+00
         0.00000E+00
         0.00000E+00
         0.00000E+00
         0.00000E+00
         0.00000E+00
         0.00000E+00
         0.00000E+00
         0.00000E+00
         0.00000E+00
         0.00000E+00
         0.00000E+00
         0.00000E+00
         0.00000E+00
         0.00000E+00
         0.00000E+00
         0.00000E+00
         0.00000E+00
         0.00000E+00
         0.00000E+00
         0.00000E+00
         0.00000E+00
         0.00000E+00
         0.00000E+00
         0.00000E+00
         0.00000E+00
         0.00000E+00
         0.00000E+00
         0.00000E+00
         0.00000E+00
         0.00000E+00
         0.00000E+00
         0.00000E+00
         0.00000E+00
         0.00000E+00
         0.00000E+00
         0.00000E+00
         0.00000E+00
         0.00000E+00
         0.00000E+00
         0.00000E+00
         0.00000E+00
         0.00000E+00
         0.00000E+00
         0.00000E+00
         0.00000E+00
         0.00000E+00
         0.00000E+00
         0.00000E+00
         0.00000E+00
         0.00000E+00
         0.00000E+00
         0.00000E+00
         0.00000E+00
         0.00000E+00
         0.00000E+00
         0.00000E+00
         0.00000E+00
         0.00000E+00
         0.00000E+00
         0.00000E+00
         0.00000E+00
         0.00000E+00
         0.00000E+00
         0.00000E+00
         0.00000E+00
         0.00000E+00
         0.00000E+00
         0.00000E+00
         0.00000E+00
         0.00000E+00
         0.00000E+00
         0.00000E+00
         0.00000E+00
         0.00000E+00
         0.00000E+00
         0.00000E+00
         0.00000E+00
         0.00000E+00
         0.00000E+00
         0.00000E+00
         0.00000E+00
         0.00000E+00
         0.00000E+00
         0.00000E+00
         0.00000E+00
         0.00000E+00
         0.00000E+00
         0.00000E+00
         0.00000E+00
         0.00000E+00
         0.00000E+00
         0.00000E+00
         0.00000E+00
         0.00000E+00
         0.00000E+00
         0.00000E+00
         0.00000E+00
         0.00000E+00
         0.00000E+00
         0.00000E+00
         0.00000E+00
         0.00000E+00
         0.00000E+00
         0.00000E+00
         0.00000E+00
         0.00000E+00
         0.00000E+00
         0.00000E+00
         0.00000E+00
         0.00000E+00
         0.00000E+00
         0.00000E+00
         0.00000E+00
         0.00000E+00
         0.00000E+00
         0.00000E+00
         0.00000E+00
         0.00000E+00
         0.00000E+00
         0.00000E+00
         0.00000E+00
         0.00000E+00
         0.00000E+00
         0.00000E+00
         0.00000E+00
         0.00000E+00
         0.00000E+00
         0.00000E+00
         0.00000E+00
         0.00000E+00
         0.00000E+00
         0.00000E+00
         0.00000E+00
         0.00000E+00
         0.00000E+00
         0.00000E+00
         0.00000E+00
         0.00000E+00
         0.00000E+00
         0.00000E+00
         0.00000E+00
         0.00000E+00
         0.00000E+00
         0.00000E+00
         0.00000E+00
         0.00000E+00
         0.00000E+00
         0.00000E+00
         0.00000E+00
         0.00000E+00
         0.00000E+00
         0.00000E+00
         0.00000E+00
         0.00000E+00
         0.00000E+00
         0.00000E+00
         0.00000E+00
         0.00000E+00
         0.00000E+00
         0.00000E+00
         0.00000E+00
         0.00000E+00
         0.00000E+00
         0.00000E+00
         0.00000E+00
         0.00000E+00
         0.00000E+00
         0.00000E+00
         0.00000E+00
         0.00000E+00
         0.00000E+00
  
SCALARS                 acceleration_z  double 1
LOOKUP_TABLE default
         0.00000E+00
         0.00000E+00
         0.00000E+00
         0.00000E+00
         0.00000E+00
         0.00000E+00
         0.00000E+00
         0.00000E+00
         0.00000E+00
         0.00000E+00
         0.00000E+00
         0.00000E+00
         0.00000E+00
         0.00000E+00
         0.00000E+00
         0.00000E+00
         0.00000E+00
         0.00000E+00
         0.00000E+00
         0.00000E+00
         0.00000E+00
         0.00000E+00
         0.00000E+00
         0.00000E+00
         0.00000E+00
         0.00000E+00
         0.00000E+00
         0.00000E+00
         0.00000E+00
         0.00000E+00
         0.00000E+00
         0.00000E+00
         0.00000E+00
         0.00000E+00
         0.00000E+00
         0.00000E+00
         0.00000E+00
         0.00000E+00
         0.00000E+00
         0.00000E+00
         0.00000E+00
         0.00000E+00
         0.00000E+00
         0.00000E+00
         0.00000E+00
         0.00000E+00
         0.00000E+00
         0.00000E+00
         0.00000E+00
         0.00000E+00
         0.00000E+00
         0.00000E+00
         0.00000E+00
         0.00000E+00
         0.00000E+00
         0.00000E+00
         0.00000E+00
         0.00000E+00
         0.00000E+00
         0.00000E+00
         0.00000E+00
         0.00000E+00
         0.00000E+00
         0.00000E+00
         0.00000E+00
         0.00000E+00
         0.00000E+00
         0.00000E+00
         0.00000E+00
         0.00000E+00
         0.00000E+00
         0.00000E+00
         0.00000E+00
         0.00000E+00
         0.00000E+00
         0.00000E+00
         0.00000E+00
         0.00000E+00
         0.00000E+00
         0.00000E+00
         0.00000E+00
         0.00000E+00
         0.00000E+00
         0.00000E+00
         0.00000E+00
         0.00000E+00
         0.00000E+00
         0.00000E+00
         0.00000E+00
         0.00000E+00
         0.00000E+00
         0.00000E+00
         0.00000E+00
         0.00000E+00
         0.00000E+00
         0.00000E+00
         0.00000E+00
         0.00000E+00
         0.00000E+00
         0.00000E+00
         0.00000E+00
         0.00000E+00
         0.00000E+00
         0.00000E+00
         0.00000E+00
         0.00000E+00
         0.00000E+00
         0.00000E+00
         0.00000E+00
         0.00000E+00
         0.00000E+00
         0.00000E+00
         0.00000E+00
         0.00000E+00
         0.00000E+00
         0.00000E+00
         0.00000E+00
         0.00000E+00
         0.00000E+00
         0.00000E+00
         0.00000E+00
         0.00000E+00
         0.00000E+00
         0.00000E+00
         0.00000E+00
         0.00000E+00
         0.00000E+00
         0.00000E+00
         0.00000E+00
         0.00000E+00
         0.00000E+00
         0.00000E+00
         0.00000E+00
         0.00000E+00
         0.00000E+00
         0.00000E+00
         0.00000E+00
         0.00000E+00
         0.00000E+00
         0.00000E+00
         0.00000E+00
         0.00000E+00
         0.00000E+00
         0.00000E+00
         0.00000E+00
         0.00000E+00
         0.00000E+00
         0.00000E+00
         0.00000E+00
         0.00000E+00
         0.00000E+00
         0.00000E+00
         0.00000E+00
         0.00000E+00
         0.00000E+00
         0.00000E+00
         0.00000E+00
         0.00000E+00
         0.00000E+00
         0.00000E+00
         0.00000E+00
         0.00000E+00
         0.00000E+00
         0.00000E+00
         0.00000E+00
         0.00000E+00
         0.00000E+00
         0.00000E+00
         0.00000E+00
         0.00000E+00
         0.00000E+00
         0.00000E+00
         0.00000E+00
         0.00000E+00
         0.00000E+00
         0.00000E+00
         0.00000E+00
         0.00000E+00
         0.00000E+00
         0.00000E+00
         0.00000E+00
         0.00000E+00
         0.00000E+00
         0.00000E+00
         0.00000E+00
         0.00000E+00
         0.00000E+00
         0.00000E+00
         0.00000E+00
         0.00000E+00
         0.00000E+00
         0.00000E+00
         0.00000E+00
         0.00000E+00
         0.00000E+00
         0.00000E+00
         0.00000E+00
         0.00000E+00
         0.00000E+00
         0.00000E+00
         0.00000E+00
         0.00000E+00
         0.00000E+00
         0.00000E+00
         0.00000E+00
         0.00000E+00
         0.00000E+00
         0.00000E+00
         0.00000E+00
         0.00000E+00
         0.00000E+00
         0.00000E+00
         0.00000E+00
         0.00000E+00
         0.00000E+00
         0.00000E+00
         0.00000E+00
         0.00000E+00
         0.00000E+00
         0.00000E+00
         0.00000E+00
         0.00000E+00
         0.00000E+00
         0.00000E+00
         0.00000E+00
         0.00000E+00
         0.00000E+00
         0.00000E+00
         0.00000E+00
         0.00000E+00
         0.00000E+00
         0.00000E+00
         0.00000E+00
         0.00000E+00
         0.00000E+00
         0.00000E+00
         0.00000E+00
         0.00000E+00
         0.00000E+00
         0.00000E+00
         0.00000E+00
         0.00000E+00
         0.00000E+00
         0.00000E+00
         0.00000E+00
         0.00000E+00
         0.00000E+00
         0.00000E+00
         0.00000E+00
         0.00000E+00
         0.00000E+00
         0.00000E+00
         0.00000E+00
         0.00000E+00
         0.00000E+00
         0.00000E+00
         0.00000E+00
         0.00000E+00
         0.00000E+00
         0.00000E+00
         0.00000E+00
         0.00000E+00
         0.00000E+00
         0.00000E+00
         0.00000E+00
         0.00000E+00
         0.00000E+00
         0.00000E+00
         0.00000E+00
         0.00000E+00
         0.00000E+00
         0.00000E+00
         0.00000E+00
         0.00000E+00
         0.00000E+00
         0.00000E+00
         0.00000E+00
         0.00000E+00
         0.00000E+00
         0.00000E+00
         0.00000E+00
         0.00000E+00
         0.00000E+00
         0.00000E+00
         0.00000E+00
         0.00000E+00
         0.00000E+00
         0.00000E+00
         0.00000E+00
         0.00000E+00
         0.00000E+00
         0.00000E+00
         0.00000E+00
         0.00000E+00
         0.00000E+00
         0.00000E+00
         0.00000E+00
         0.00000E+00
         0.00000E+00
         0.00000E+00
         0.00000E+00
         0.00000E+00
         0.00000E+00
         0.00000E+00
         0.00000E+00
         0.00000E+00
         0.00000E+00
         0.00000E+00
         0.00000E+00
         0.00000E+00
         0.00000E+00
         0.00000E+00
         0.00000E+00
         0.00000E+00
         0.00000E+00
         0.00000E+00
         0.00000E+00
         0.00000E+00
         0.00000E+00
         0.00000E+00
         0.00000E+00
         0.00000E+00
         0.00000E+00
         0.00000E+00
         0.00000E+00
         0.00000E+00
         0.00000E+00
         0.00000E+00
         0.00000E+00
         0.00000E+00
         0.00000E+00
         0.00000E+00
         0.00000E+00
         0.00000E+00
         0.00000E+00
         0.00000E+00
         0.00000E+00
         0.00000E+00
         0.00000E+00
         0.00000E+00
         0.00000E+00
         0.00000E+00
         0.00000E+00
         0.00000E+00
         0.00000E+00
         0.00000E+00
         0.00000E+00
         0.00000E+00
         0.00000E+00
         0.00000E+00
         0.00000E+00
         0.00000E+00
         0.00000E+00
         0.00000E+00
         0.00000E+00
         0.00000E+00
         0.00000E+00
         0.00000E+00
         0.00000E+00
         0.00000E+00
         0.00000E+00
         0.00000E+00
         0.00000E+00
         0.00000E+00
         0.00000E+00
         0.00000E+00
         0.00000E+00
         0.00000E+00
         0.00000E+00
         0.00000E+00
         0.00000E+00
         0.00000E+00
         0.00000E+00
         0.00000E+00
         0.00000E+00
         0.00000E+00
         0.00000E+00
         0.00000E+00
         0.00000E+00
         0.00000E+00
         0.00000E+00
         0.00000E+00
         0.00000E+00
         0.00000E+00
         0.00000E+00
         0.00000E+00
         0.00000E+00
         0.00000E+00
         0.00000E+00
         0.00000E+00
         0.00000E+00
         0.00000E+00
         0.00000E+00
         0.00000E+00
         0.00000E+00
         0.00000E+00
         0.00000E+00
         0.00000E+00
         0.00000E+00
         0.00000E+00
         0.00000E+00
         0.00000E+00
         0.00000E+00
         0.00000E+00
         0.00000E+00
         0.00000E+00
         0.00000E+00
         0.00000E+00
         0.00000E+00
         0.00000E+00
         0.00000E+00
         0.00000E+00
         0.00000E+00
         0.00000E+00
         0.00000E+00
         0.00000E+00
         0.00000E+00
         0.00000E+00
         0.00000E+00
         0.00000E+00
         0.00000E+00
         0.00000E+00
         0.00000E+00
         0.00000E+00
         0.00000E+00
         0.00000E+00
         0.00000E+00
         0.00000E+00
         0.00000E+00
         0.00000E+00
         0.00000E+00
         0.00000E+00
         0.00000E+00
         0.00000E+00
         0.00000E+00
         0.00000E+00
         0.00000E+00
         0.00000E+00
         0.00000E+00
         0.00000E+00
         0.00000E+00
         0.00000E+00
         0.00000E+00
         0.00000E+00
         0.00000E+00
         0.00000E+00
         0.00000E+00
         0.00000E+00
         0.00000E+00
         0.00000E+00
         0.00000E+00
         0.00000E+00
         0.00000E+00
         0.00000E+00
         0.00000E+00
         0.00000E+00
         0.00000E+00
         0.00000E+00
         0.00000E+00
         0.00000E+00
         0.00000E+00
         0.00000E+00
         0.00000E+00
         0.00000E+00
         0.00000E+00
         0.00000E+00
         0.00000E+00
         0.00000E+00
         0.00000E+00
         0.00000E+00
         0.00000E+00
         0.00000E+00
         0.00000E+00
         0.00000E+00
         0.00000E+00
         0.00000E+00
         0.00000E+00
         0.00000E+00
         0.00000E+00
         0.00000E+00
         0.00000E+00
         0.00000E+00
         0.00000E+00
         0.00000E+00
         0.00000E+00
         0.00000E+00
         0.00000E+00
         0.00000E+00
         0.00000E+00
         0.00000E+00
         0.00000E+00
         0.00000E+00
         0.00000E+00
         0.00000E+00
         0.00000E+00
         0.00000E+00
         0.00000E+00
         0.00000E+00
         0.00000E+00
         0.00000E+00
         0.00000E+00
         0.00000E+00
         0.00000E+00
         0.00000E+00
         0.00000E+00
         0.00000E+00
         0.00000E+00
         0.00000E+00
         0.00000E+00
         0.00000E+00
         0.00000E+00
         0.00000E+00
         0.00000E+00
         0.00000E+00
         0.00000E+00
         0.00000E+00
         0.00000E+00
         0.00000E+00
         0.00000E+00
         0.00000E+00
         0.00000E+00
         0.00000E+00
         0.00000E+00
         0.00000E+00
         0.00000E+00
         0.00000E+00
         0.00000E+00
         0.00000E+00
         0.00000E+00
         0.00000E+00
         0.00000E+00
         0.00000E+00
         0.00000E+00
         0.00000E+00
         0.00000E+00
         0.00000E+00
         0.00000E+00
         0.00000E+00
         0.00000E+00
         0.00000E+00
         0.00000E+00
         0.00000E+00
         0.00000E+00
         0.00000E+00
         0.00000E+00
         0.00000E+00
         0.00000E+00
         0.00000E+00
         0.00000E+00
         0.00000E+00
         0.00000E+00
         0.00000E+00
         0.00000E+00
         0.00000E+00
         0.00000E+00
         0.00000E+00
         0.00000E+00
         0.00000E+00
         0.00000E+00
         0.00000E+00
         0.00000E+00
         0.00000E+00
         0.00000E+00
         0.00000E+00
         0.00000E+00
         0.00000E+00
         0.00000E+00
         0.00000E+00
         0.00000E+00
         0.00000E+00
         0.00000E+00
         0.00000E+00
         0.00000E+00
         0.00000E+00
         0.00000E+00
         0.00000E+00
         0.00000E+00
         0.00000E+00
         0.00000E+00
         0.00000E+00
         0.00000E+00
         0.00000E+00
         0.00000E+00
         0.00000E+00
         0.00000E+00
         0.00000E+00
         0.00000E+00
         0.00000E+00
         0.00000E+00
         0.00000E+00
         0.00000E+00
         0.00000E+00
         0.00000E+00
         0.00000E+00
         0.00000E+00
         0.00000E+00
         0.00000E+00
         0.00000E+00
         0.00000E+00
         0.00000E+00
         0.00000E+00
         0.00000E+00
         0.00000E+00
         0.00000E+00
         0.00000E+00
         0.00000E+00
         0.00000E+00
         0.00000E+00
         0.00000E+00
         0.00000E+00
         0.00000E+00
         0.00000E+00
         0.00000E+00
         0.00000E+00
         0.00000E+00
         0.00000E+00
         0.00000E+00
         0.00000E+00
         0.00000E+00
         0.00000E+00
         0.00000E+00
         0.00000E+00
         0.00000E+00
         0.00000E+00
         0.00000E+00
         0.00000E+00
         0.00000E+00
         0.00000E+00
         0.00000E+00
         0.00000E+00
         0.00000E+00
         0.00000E+00
         0.00000E+00
         0.00000E+00
         0.00000E+00
         0.00000E+00
         0.00000E+00
         0.00000E+00
         0.00000E+00
         0.00000E+00
         0.00000E+00
         0.00000E+00
         0.00000E+00
         0.00000E+00
         0.00000E+00
         0.00000E+00
         0.00000E+00
         0.00000E+00
         0.00000E+00
         0.00000E+00
         0.00000E+00
         0.00000E+00
         0.00000E+00
         0.00000E+00
         0.00000E+00
         0.00000E+00
         0.00000E+00
         0.00000E+00
         0.00000E+00
         0.00000E+00
         0.00000E+00
         0.00000E+00
         0.00000E+00
         0.00000E+00
         0.00000E+00
         0.00000E+00
         0.00000E+00
         0.00000E+00
         0.00000E+00
         0.00000E+00
         0.00000E+00
         0.00000E+00
         0.00000E+00
         0.00000E+00
         0.00000E+00
         0.00000E+00
         0.00000E+00
         0.00000E+00
         0.00000E+00
         0.00000E+00
         0.00000E+00
         0.00000E+00
         0.00000E+00
         0.00000E+00
         0.00000E+00
         0.00000E+00
         0.00000E+00
         0.00000E+00
         0.00000E+00
         0.00000E+00
         0.00000E+00
         0.00000E+00
         0.00000E+00
         0.00000E+00
         0.00000E+00
         0.00000E+00
         0.00000E+00
         0.00000E+00
         0.00000E+00
         0.00000E+00
         0.00000E+00
         0.00000E+00
         0.00000E+00
         0.00000E+00
         0.00000E+00
         0.00000E+00
         0.00000E+00
         0.00000E+00
         0.00000E+00
         0.00000E+00
         0.00000E+00
         0.00000E+00
         0.00000E+00
         0.00000E+00
         0.00000E+00
         0.00000E+00
         0.00000E+00
         0.00000E+00
         0.00000E+00
         0.00000E+00
         0.00000E+00
         0.00000E+00
         0.00000E+00
         0.00000E+00
         0.00000E+00
         0.00000E+00
         0.00000E+00
         0.00000E+00
         0.00000E+00
         0.00000E+00
         0.00000E+00
         0.00000E+00
         0.00000E+00
         0.00000E+00
         0.00000E+00
         0.00000E+00
         0.00000E+00
         0.00000E+00
         0.00000E+00
         0.00000E+00
         0.00000E+00
         0.00000E+00
         0.00000E+00
         0.00000E+00
         0.00000E+00
         0.00000E+00
         0.00000E+00
         0.00000E+00
         0.00000E+00
         0.00000E+00
         0.00000E+00
         0.00000E+00
         0.00000E+00
         0.00000E+00
         0.00000E+00
         0.00000E+00
         0.00000E+00
         0.00000E+00
         0.00000E+00
         0.00000E+00
         0.00000E+00
         0.00000E+00
         0.00000E+00
         0.00000E+00
         0.00000E+00
         0.00000E+00
         0.00000E+00
         0.00000E+00
         0.00000E+00
         0.00000E+00
         0.00000E+00
         0.00000E+00
         0.00000E+00
         0.00000E+00
         0.00000E+00
         0.00000E+00
         0.00000E+00
         0.00000E+00
         0.00000E+00
         0.00000E+00
         0.00000E+00
         0.00000E+00
         0.00000E+00
         0.00000E+00
         0.00000E+00
         0.00000E+00
         0.00000E+00
         0.00000E+00
         0.00000E+00
         0.00000E+00
         0.00000E+00
         0.00000E+00
         0.00000E+00
         0.00000E+00
         0.00000E+00
         0.00000E+00
         0.00000E+00
         0.00000E+00
         0.00000E+00
         0.00000E+00
         0.00000E+00
         0.00000E+00
         0.00000E+00
         0.00000E+00
         0.00000E+00
         0.00000E+00
         0.00000E+00
         0.00000E+00
         0.00000E+00
         0.00000E+00
         0.00000E+00
         0.00000E+00
         0.00000E+00
         0.00000E+00
         0.00000E+00
         0.00000E+00
         0.00000E+00
         0.00000E+00
         0.00000E+00
         0.00000E+00
         0.00000E+00
         0.00000E+00
         0.00000E+00
         0.00000E+00
         0.00000E+00
         0.00000E+00
         0.00000E+00
         0.00000E+00
         0.00000E+00
         0.00000E+00
         0.00000E+00
         0.00000E+00
         0.00000E+00
         0.00000E+00
         0.00000E+00
         0.00000E+00
         0.00000E+00
         0.00000E+00
         0.00000E+00
         0.00000E+00
         0.00000E+00
         0.00000E+00
         0.00000E+00
         0.00000E+00
         0.00000E+00
         0.00000E+00
         0.00000E+00
         0.00000E+00
         0.00000E+00
         0.00000E+00
         0.00000E+00
         0.00000E+00
         0.00000E+00
         0.00000E+00
         0.00000E+00
         0.00000E+00
         0.00000E+00
         0.00000E+00
         0.00000E+00
         0.00000E+00
         0.00000E+00
         0.00000E+00
         0.00000E+00
         0.00000E+00
         0.00000E+00
         0.00000E+00
         0.00000E+00
         0.00000E+00
         0.00000E+00
         0.00000E+00
         0.00000E+00
         0.00000E+00
         0.00000E+00
         0.00000E+00
         0.00000E+00
         0.00000E+00
         0.00000E+00
         0.00000E+00
         0.00000E+00
         0.00000E+00
         0.00000E+00
         0.00000E+00
         0.00000E+00
         0.00000E+00
         0.00000E+00
         0.00000E+00
         0.00000E+00
         0.00000E+00
         0.00000E+00
         0.00000E+00
         0.00000E+00
         0.00000E+00
         0.00000E+00
         0.00000E+00
         0.00000E+00
         0.00000E+00
         0.00000E+00
         0.00000E+00
         0.00000E+00
         0.00000E+00
         0.00000E+00
         0.00000E+00
         0.00000E+00
         0.00000E+00
         0.00000E+00
         0.00000E+00
         0.00000E+00
         0.00000E+00
         0.00000E+00
         0.00000E+00
         0.00000E+00
         0.00000E+00
         0.00000E+00
         0.00000E+00
         0.00000E+00
         0.00000E+00
         0.00000E+00
         0.00000E+00
         0.00000E+00
         0.00000E+00
         0.00000E+00
         0.00000E+00
         0.00000E+00
         0.00000E+00
         0.00000E+00
         0.00000E+00
         0.00000E+00
         0.00000E+00
         0.00000E+00
         0.00000E+00
         0.00000E+00
         0.00000E+00
         0.00000E+00
         0.00000E+00
         0.00000E+00
         0.00000E+00
         0.00000E+00
         0.00000E+00
         0.00000E+00
         0.00000E+00
         0.00000E+00
         0.00000E+00
         0.00000E+00
         0.00000E+00
         0.00000E+00
         0.00000E+00
         0.00000E+00
         0.00000E+00
         0.00000E+00
         0.00000E+00
         0.00000E+00
         0.00000E+00
         0.00000E+00
         0.00000E+00
         0.00000E+00
         0.00000E+00
         0.00000E+00
         0.00000E+00
         0.00000E+00
         0.00000E+00
         0.00000E+00
         0.00000E+00
         0.00000E+00
         0.00000E+00
         0.00000E+00
         0.00000E+00
         0.00000E+00
         0.00000E+00
         0.00000E+00
         0.00000E+00
         0.00000E+00
         0.00000E+00
         0.00000E+00
         0.00000E+00
         0.00000E+00
         0.00000E+00
         0.00000E+00
         0.00000E+00
         0.00000E+00
         0.00000E+00
         0.00000E+00
         0.00000E+00
         0.00000E+00
         0.00000E+00
         0.00000E+00
         0.00000E+00
         0.00000E+00
         0.00000E+00
         0.00000E+00
         0.00000E+00
         0.00000E+00
         0.00000E+00
         0.00000E+00
         0.00000E+00
         0.00000E+00
         0.00000E+00
         0.00000E+00
         0.00000E+00
         0.00000E+00
         0.00000E+00
         0.00000E+00
         0.00000E+00
         0.00000E+00
         0.00000E+00
         0.00000E+00
         0.00000E+00
         0.00000E+00
         0.00000E+00
         0.00000E+00
         0.00000E+00
         0.00000E+00
         0.00000E+00
         0.00000E+00
         0.00000E+00
         0.00000E+00
         0.00000E+00
         0.00000E+00
         0.00000E+00
         0.00000E+00
         0.00000E+00
         0.00000E+00
         0.00000E+00
         0.00000E+00
         0.00000E+00
         0.00000E+00
         0.00000E+00
         0.00000E+00
         0.00000E+00
         0.00000E+00
         0.00000E+00
         0.00000E+00
         0.00000E+00
         0.00000E+00
         0.00000E+00
         0.00000E+00
         0.00000E+00
         0.00000E+00
         0.00000E+00
         0.00000E+00
         0.00000E+00
         0.00000E+00
         0.00000E+00
         0.00000E+00
         0.00000E+00
         0.00000E+00
         0.00000E+00
         0.00000E+00
         0.00000E+00
         0.00000E+00
         0.00000E+00
         0.00000E+00
         0.00000E+00
         0.00000E+00
         0.00000E+00
         0.00000E+00
         0.00000E+00
         0.00000E+00
         0.00000E+00
         0.00000E+00
         0.00000E+00
         0.00000E+00
         0.00000E+00
         0.00000E+00
         0.00000E+00
         0.00000E+00
         0.00000E+00
         0.00000E+00
         0.00000E+00
         0.00000E+00
         0.00000E+00
         0.00000E+00
         0.00000E+00
         0.00000E+00
         0.00000E+00
         0.00000E+00
         0.00000E+00
         0.00000E+00
         0.00000E+00
         0.00000E+00
         0.00000E+00
         0.00000E+00
         0.00000E+00
         0.00000E+00
         0.00000E+00
         0.00000E+00
         0.00000E+00
         0.00000E+00
         0.00000E+00
         0.00000E+00
         0.00000E+00
         0.00000E+00
         0.00000E+00
         0.00000E+00
         0.00000E+00
         0.00000E+00
         0.00000E+00
         0.00000E+00
         0.00000E+00
         0.00000E+00
         0.00000E+00
         0.00000E+00
         0.00000E+00
         0.00000E+00
         0.00000E+00
         0.00000E+00
         0.00000E+00
         0.00000E+00
         0.00000E+00
         0.00000E+00
         0.00000E+00
         0.00000E+00
         0.00000E+00
         0.00000E+00
         0.00000E+00
         0.00000E+00
         0.00000E+00
         0.00000E+00
         0.00000E+00
         0.00000E+00
         0.00000E+00
         0.00000E+00
         0.00000E+00
         0.00000E+00
         0.00000E+00
         0.00000E+00
         0.00000E+00
         0.00000E+00
         0.00000E+00
         0.00000E+00
         0.00000E+00
         0.00000E+00
         0.00000E+00
         0.00000E+00
         0.00000E+00
         0.00000E+00
         0.00000E+00
         0.00000E+00
         0.00000E+00
         0.00000E+00
         0.00000E+00
         0.00000E+00
         0.00000E+00
         0.00000E+00
         0.00000E+00
         0.00000E+00
         0.00000E+00
         0.00000E+00
         0.00000E+00
         0.00000E+00
         0.00000E+00
         0.00000E+00
         0.00000E+00
         0.00000E+00
         0.00000E+00
         0.00000E+00
         0.00000E+00
         0.00000E+00
         0.00000E+00
         0.00000E+00
         0.00000E+00
         0.00000E+00
         0.00000E+00
         0.00000E+00
         0.00000E+00
         0.00000E+00
         0.00000E+00
         0.00000E+00
         0.00000E+00
         0.00000E+00
         0.00000E+00
         0.00000E+00
         0.00000E+00
         0.00000E+00
         0.00000E+00
         0.00000E+00
         0.00000E+00
         0.00000E+00
         0.00000E+00
         0.00000E+00
         0.00000E+00
         0.00000E+00
         0.00000E+00
         0.00000E+00
         0.00000E+00
         0.00000E+00
         0.00000E+00
         0.00000E+00
         0.00000E+00
         0.00000E+00
         0.00000E+00
         0.00000E+00
         0.00000E+00
         0.00000E+00
         0.00000E+00
         0.00000E+00
         0.00000E+00
         0.00000E+00
         0.00000E+00
         0.00000E+00
         0.00000E+00
         0.00000E+00
         0.00000E+00
         0.00000E+00
         0.00000E+00
         0.00000E+00
         0.00000E+00
         0.00000E+00
         0.00000E+00
         0.00000E+00
         0.00000E+00
         0.00000E+00
         0.00000E+00
         0.00000E+00
         0.00000E+00
         0.00000E+00
         0.00000E+00
         0.00000E+00
         0.00000E+00
         0.00000E+00
         0.00000E+00
         0.00000E+00
         0.00000E+00
         0.00000E+00
         0.00000E+00
         0.00000E+00
         0.00000E+00
         0.00000E+00
         0.00000E+00
         0.00000E+00
         0.00000E+00
         0.00000E+00
         0.00000E+00
         0.00000E+00
         0.00000E+00
         0.00000E+00
         0.00000E+00
         0.00000E+00
         0.00000E+00
         0.00000E+00
         0.00000E+00
         0.00000E+00
         0.00000E+00
         0.00000E+00
         0.00000E+00
         0.00000E+00
         0.00000E+00
         0.00000E+00
         0.00000E+00
         0.00000E+00
         0.00000E+00
         0.00000E+00
         0.00000E+00
         0.00000E+00
         0.00000E+00
         0.00000E+00
         0.00000E+00
         0.00000E+00
         0.00000E+00
         0.00000E+00
         0.00000E+00
         0.00000E+00
         0.00000E+00
         0.00000E+00
         0.00000E+00
         0.00000E+00
         0.00000E+00
         0.00000E+00
         0.00000E+00
         0.00000E+00
         0.00000E+00
         0.00000E+00
         0.00000E+00
         0.00000E+00
         0.00000E+00
         0.00000E+00
         0.00000E+00
         0.00000E+00
         0.00000E+00
         0.00000E+00
         0.00000E+00
         0.00000E+00
         0.00000E+00
         0.00000E+00
         0.00000E+00
         0.00000E+00
         0.00000E+00
         0.00000E+00
         0.00000E+00
         0.00000E+00
         0.00000E+00
         0.00000E+00
         0.00000E+00
         0.00000E+00
         0.00000E+00
         0.00000E+00
         0.00000E+00
         0.00000E+00
         0.00000E+00
         0.00000E+00
         0.00000E+00
         0.00000E+00
         0.00000E+00
         0.00000E+00
         0.00000E+00
         0.00000E+00
         0.00000E+00
         0.00000E+00
         0.00000E+00
         0.00000E+00
         0.00000E+00
         0.00000E+00
         0.00000E+00
         0.00000E+00
         0.00000E+00
         0.00000E+00
         0.00000E+00
         0.00000E+00
         0.00000E+00
         0.00000E+00
         0.00000E+00
         0.00000E+00
         0.00000E+00
         0.00000E+00
         0.00000E+00
         0.00000E+00
         0.00000E+00
         0.00000E+00
         0.00000E+00
         0.00000E+00
         0.00000E+00
         0.00000E+00
         0.00000E+00
         0.00000E+00
         0.00000E+00
         0.00000E+00
         0.00000E+00
         0.00000E+00
         0.00000E+00
         0.00000E+00
         0.00000E+00
         0.00000E+00
         0.00000E+00
         0.00000E+00
         0.00000E+00
         0.00000E+00
         0.00000E+00
         0.00000E+00
         0.00000E+00
         0.00000E+00
         0.00000E+00
         0.00000E+00
         0.00000E+00
         0.00000E+00
         0.00000E+00
         0.00000E+00
         0.00000E+00
         0.00000E+00
         0.00000E+00
         0.00000E+00
         0.00000E+00
         0.00000E+00
         0.00000E+00
         0.00000E+00
         0.00000E+00
         0.00000E+00
         0.00000E+00
         0.00000E+00
         0.00000E+00
         0.00000E+00
         0.00000E+00
         0.00000E+00
         0.00000E+00
         0.00000E+00
         0.00000E+00
         0.00000E+00
         0.00000E+00
         0.00000E+00
         0.00000E+00
         0.00000E+00
         0.00000E+00
         0.00000E+00
         0.00000E+00
         0.00000E+00
         0.00000E+00
         0.00000E+00
         0.00000E+00
         0.00000E+00
         0.00000E+00
         0.00000E+00
         0.00000E+00
         0.00000E+00
         0.00000E+00
         0.00000E+00
         0.00000E+00
         0.00000E+00
         0.00000E+00
         0.00000E+00
         0.00000E+00
         0.00000E+00
         0.00000E+00
         0.00000E+00
         0.00000E+00
         0.00000E+00
         0.00000E+00
         0.00000E+00
         0.00000E+00
         0.00000E+00
         0.00000E+00
         0.00000E+00
         0.00000E+00
         0.00000E+00
         0.00000E+00
         0.00000E+00
         0.00000E+00
         0.00000E+00
         0.00000E+00
         0.00000E+00
         0.00000E+00
         0.00000E+00
         0.00000E+00
         0.00000E+00
         0.00000E+00
         0.00000E+00
         0.00000E+00
         0.00000E+00
         0.00000E+00
         0.00000E+00
         0.00000E+00
         0.00000E+00
         0.00000E+00
         0.00000E+00
         0.00000E+00
         0.00000E+00
         0.00000E+00
         0.00000E+00
         0.00000E+00
         0.00000E+00
         0.00000E+00
         0.00000E+00
         0.00000E+00
         0.00000E+00
         0.00000E+00
         0.00000E+00
         0.00000E+00
         0.00000E+00
         0.00000E+00
         0.00000E+00
         0.00000E+00
         0.00000E+00
         0.00000E+00
         0.00000E+00
         0.00000E+00
         0.00000E+00
         0.00000E+00
         0.00000E+00
         0.00000E+00
         0.00000E+00
         0.00000E+00
         0.00000E+00
         0.00000E+00
         0.00000E+00
         0.00000E+00
         0.00000E+00
         0.00000E+00
         0.00000E+00
         0.00000E+00
         0.00000E+00
         0.00000E+00
         0.00000E+00
         0.00000E+00
         0.00000E+00
         0.00000E+00
         0.00000E+00
         0.00000E+00
         0.00000E+00
         0.00000E+00
         0.00000E+00
         0.00000E+00
         0.00000E+00
         0.00000E+00
         0.00000E+00
         0.00000E+00
         0.00000E+00
         0.00000E+00
         0.00000E+00
         0.00000E+00
         0.00000E+00
         0.00000E+00
         0.00000E+00
         0.00000E+00
         0.00000E+00
         0.00000E+00
         0.00000E+00
         0.00000E+00
         0.00000E+00
         0.00000E+00
         0.00000E+00
         0.00000E+00
         0.00000E+00
         0.00000E+00
         0.00000E+00
         0.00000E+00
         0.00000E+00
         0.00000E+00
         0.00000E+00
         0.00000E+00
         0.00000E+00
         0.00000E+00
         0.00000E+00
         0.00000E+00
         0.00000E+00
         0.00000E+00
         0.00000E+00
         0.00000E+00
         0.00000E+00
         0.00000E+00
         0.00000E+00
         0.00000E+00
         0.00000E+00
         0.00000E+00
         0.00000E+00
         0.00000E+00
         0.00000E+00
         0.00000E+00
         0.00000E+00
         0.00000E+00
         0.00000E+00
         0.00000E+00
         0.00000E+00
         0.00000E+00
         0.00000E+00
         0.00000E+00
         0.00000E+00
         0.00000E+00
         0.00000E+00
         0.00000E+00
         0.00000E+00
         0.00000E+00
         0.00000E+00
         0.00000E+00
         0.00000E+00
         0.00000E+00
         0.00000E+00
         0.00000E+00
         0.00000E+00
         0.00000E+00
         0.00000E+00
         0.00000E+00
         0.00000E+00
         0.00000E+00
         0.00000E+00
         0.00000E+00
         0.00000E+00
         0.00000E+00
         0.00000E+00
         0.00000E+00
         0.00000E+00
         0.00000E+00
         0.00000E+00
         0.00000E+00
         0.00000E+00
         0.00000E+00
         0.00000E+00
         0.00000E+00
         0.00000E+00
         0.00000E+00
         0.00000E+00
         0.00000E+00
         0.00000E+00
         0.00000E+00
         0.00000E+00
         0.00000E+00
         0.00000E+00
         0.00000E+00
         0.00000E+00
         0.00000E+00
         0.00000E+00
         0.00000E+00
         0.00000E+00
         0.00000E+00
         0.00000E+00
         0.00000E+00
         0.00000E+00
         0.00000E+00
         0.00000E+00
         0.00000E+00
         0.00000E+00
         0.00000E+00
         0.00000E+00
         0.00000E+00
         0.00000E+00
         0.00000E+00
         0.00000E+00
         0.00000E+00
         0.00000E+00
         0.00000E+00
         0.00000E+00
         0.00000E+00
         0.00000E+00
         0.00000E+00
         0.00000E+00
         0.00000E+00
         0.00000E+00
         0.00000E+00
         0.00000E+00
         0.00000E+00
         0.00000E+00
         0.00000E+00
         0.00000E+00
         0.00000E+00
         0.00000E+00
         0.00000E+00
         0.00000E+00
         0.00000E+00
         0.00000E+00
         0.00000E+00
         0.00000E+00
         0.00000E+00
         0.00000E+00
         0.00000E+00
         0.00000E+00
         0.00000E+00
         0.00000E+00
         0.00000E+00
         0.00000E+00
         0.00000E+00
         0.00000E+00
         0.00000E+00
         0.00000E+00
         0.00000E+00
         0.00000E+00
         0.00000E+00
         0.00000E+00
         0.00000E+00
         0.00000E+00
         0.00000E+00
         0.00000E+00
         0.00000E+00
         0.00000E+00
         0.00000E+00
         0.00000E+00
         0.00000E+00
         0.00000E+00
         0.00000E+00
         0.00000E+00
         0.00000E+00
         0.00000E+00
         0.00000E+00
         0.00000E+00
         0.00000E+00
         0.00000E+00
         0.00000E+00
         0.00000E+00
         0.00000E+00
         0.00000E+00
         0.00000E+00
         0.00000E+00
         0.00000E+00
         0.00000E+00
         0.00000E+00
         0.00000E+00
         0.00000E+00
         0.00000E+00
         0.00000E+00
         0.00000E+00
         0.00000E+00
         0.00000E+00
         0.00000E+00
         0.00000E+00
         0.00000E+00
         0.00000E+00
         0.00000E+00
         0.00000E+00
         0.00000E+00
         0.00000E+00
         0.00000E+00
         0.00000E+00
         0.00000E+00
         0.00000E+00
         0.00000E+00
         0.00000E+00
         0.00000E+00
         0.00000E+00
         0.00000E+00
         0.00000E+00
         0.00000E+00
         0.00000E+00
         0.00000E+00
         0.00000E+00
         0.00000E+00
         0.00000E+00
         0.00000E+00
         0.00000E+00
         0.00000E+00
         0.00000E+00
         0.00000E+00
         0.00000E+00
         0.00000E+00
         0.00000E+00
         0.00000E+00
         0.00000E+00
         0.00000E+00
         0.00000E+00
         0.00000E+00
         0.00000E+00
         0.00000E+00
         0.00000E+00
         0.00000E+00
         0.00000E+00
         0.00000E+00
         0.00000E+00
         0.00000E+00
         0.00000E+00
         0.00000E+00
         0.00000E+00
         0.00000E+00
         0.00000E+00
         0.00000E+00
         0.00000E+00
         0.00000E+00
         0.00000E+00
         0.00000E+00
         0.00000E+00
         0.00000E+00
         0.00000E+00
         0.00000E+00
         0.00000E+00
         0.00000E+00
         0.00000E+00
         0.00000E+00
         0.00000E+00
         0.00000E+00
         0.00000E+00
         0.00000E+00
         0.00000E+00
         0.00000E+00
         0.00000E+00
         0.00000E+00
         0.00000E+00
         0.00000E+00
         0.00000E+00
         0.00000E+00
         0.00000E+00
         0.00000E+00
         0.00000E+00
         0.00000E+00
         0.00000E+00
         0.00000E+00
         0.00000E+00
         0.00000E+00
         0.00000E+00
         0.00000E+00
         0.00000E+00
         0.00000E+00
         0.00000E+00
         0.00000E+00
         0.00000E+00
         0.00000E+00
         0.00000E+00
         0.00000E+00
         0.00000E+00
         0.00000E+00
         0.00000E+00
         0.00000E+00
         0.00000E+00
         0.00000E+00
         0.00000E+00
         0.00000E+00
         0.00000E+00
         0.00000E+00
         0.00000E+00
         0.00000E+00
         0.00000E+00
         0.00000E+00
         0.00000E+00
         0.00000E+00
         0.00000E+00
         0.00000E+00
         0.00000E+00
         0.00000E+00
         0.00000E+00
         0.00000E+00
         0.00000E+00
         0.00000E+00
         0.00000E+00
         0.00000E+00
         0.00000E+00
         0.00000E+00
         0.00000E+00
         0.00000E+00
         0.00000E+00
         0.00000E+00
         0.00000E+00
         0.00000E+00
         0.00000E+00
         0.00000E+00
         0.00000E+00
         0.00000E+00
         0.00000E+00
         0.00000E+00
         0.00000E+00
         0.00000E+00
         0.00000E+00
         0.00000E+00
         0.00000E+00
         0.00000E+00
         0.00000E+00
         0.00000E+00
         0.00000E+00
         0.00000E+00
         0.00000E+00
         0.00000E+00
         0.00000E+00
         0.00000E+00
         0.00000E+00
         0.00000E+00
         0.00000E+00
         0.00000E+00
         0.00000E+00
         0.00000E+00
         0.00000E+00
         0.00000E+00
         0.00000E+00
         0.00000E+00
         0.00000E+00
         0.00000E+00
         0.00000E+00
         0.00000E+00
         0.00000E+00
         0.00000E+00
         0.00000E+00
         0.00000E+00
         0.00000E+00
         0.00000E+00
         0.00000E+00
         0.00000E+00
         0.00000E+00
         0.00000E+00
         0.00000E+00
         0.00000E+00
         0.00000E+00
         0.00000E+00
         0.00000E+00
         0.00000E+00
         0.00000E+00
         0.00000E+00
         0.00000E+00
         0.00000E+00
         0.00000E+00
         0.00000E+00
         0.00000E+00
         0.00000E+00
         0.00000E+00
         0.00000E+00
         0.00000E+00
         0.00000E+00
         0.00000E+00
         0.00000E+00
         0.00000E+00
         0.00000E+00
         0.00000E+00
         0.00000E+00
         0.00000E+00
         0.00000E+00
         0.00000E+00
         0.00000E+00
         0.00000E+00
         0.00000E+00
         0.00000E+00
         0.00000E+00
         0.00000E+00
         0.00000E+00
         0.00000E+00
         0.00000E+00
         0.00000E+00
         0.00000E+00
         0.00000E+00
         0.00000E+00
         0.00000E+00
         0.00000E+00
         0.00000E+00
         0.00000E+00
         0.00000E+00
         0.00000E+00
         0.00000E+00
         0.00000E+00
         0.00000E+00
         0.00000E+00
         0.00000E+00
         0.00000E+00
         0.00000E+00
         0.00000E+00
         0.00000E+00
         0.00000E+00
         0.00000E+00
         0.00000E+00
         0.00000E+00
         0.00000E+00
         0.00000E+00
         0.00000E+00
         0.00000E+00
         0.00000E+00
         0.00000E+00
         0.00000E+00
         0.00000E+00
         0.00000E+00
         0.00000E+00
         0.00000E+00
         0.00000E+00
         0.00000E+00
         0.00000E+00
         0.00000E+00
         0.00000E+00
         0.00000E+00
         0.00000E+00
         0.00000E+00
         0.00000E+00
         0.00000E+00
         0.00000E+00
         0.00000E+00
         0.00000E+00
         0.00000E+00
         0.00000E+00
         0.00000E+00
         0.00000E+00
         0.00000E+00
         0.00000E+00
         0.00000E+00
         0.00000E+00
         0.00000E+00
         0.00000E+00
         0.00000E+00
         0.00000E+00
         0.00000E+00
         0.00000E+00
         0.00000E+00
         0.00000E+00
         0.00000E+00
         0.00000E+00
         0.00000E+00
         0.00000E+00
         0.00000E+00
         0.00000E+00
         0.00000E+00
         0.00000E+00
         0.00000E+00
         0.00000E+00
         0.00000E+00
         0.00000E+00
         0.00000E+00
  
SCALARS                         fint_x  double 1
LOOKUP_TABLE default
         0.00000E+00
         0.00000E+00
         0.00000E+00
         0.00000E+00
         0.00000E+00
         0.00000E+00
         0.00000E+00
         0.00000E+00
         0.00000E+00
         0.00000E+00
         0.00000E+00
         0.00000E+00
         0.00000E+00
         0.00000E+00
         0.00000E+00
         0.00000E+00
         0.00000E+00
         0.00000E+00
         0.00000E+00
         0.00000E+00
         0.00000E+00
         0.00000E+00
         0.00000E+00
         0.00000E+00
         0.00000E+00
         0.00000E+00
         0.00000E+00
         0.00000E+00
         0.00000E+00
         0.00000E+00
         0.00000E+00
         0.00000E+00
         0.00000E+00
         0.00000E+00
         0.00000E+00
         0.00000E+00
         0.00000E+00
         0.00000E+00
         0.00000E+00
         0.00000E+00
         0.00000E+00
         0.00000E+00
         0.00000E+00
         0.00000E+00
         0.00000E+00
         0.00000E+00
         0.00000E+00
         0.00000E+00
         0.00000E+00
         0.00000E+00
         0.00000E+00
         0.00000E+00
         0.00000E+00
         0.00000E+00
         0.00000E+00
         0.00000E+00
         0.00000E+00
         0.00000E+00
         0.00000E+00
         0.00000E+00
         0.00000E+00
         0.00000E+00
         0.00000E+00
         0.00000E+00
         0.00000E+00
         0.00000E+00
         0.00000E+00
         0.00000E+00
         0.00000E+00
         0.00000E+00
         0.00000E+00
         0.00000E+00
         0.00000E+00
         0.00000E+00
         0.00000E+00
         0.00000E+00
         0.00000E+00
         0.00000E+00
         0.00000E+00
         0.00000E+00
         0.00000E+00
         0.00000E+00
         0.00000E+00
         0.00000E+00
         0.00000E+00
         0.00000E+00
         0.00000E+00
         0.00000E+00
         0.00000E+00
         0.00000E+00
         0.00000E+00
         0.00000E+00
         0.00000E+00
         0.00000E+00
         0.00000E+00
         0.00000E+00
         0.00000E+00
         0.00000E+00
         0.00000E+00
         0.00000E+00
         0.00000E+00
         0.00000E+00
         0.00000E+00
         0.00000E+00
         0.00000E+00
         0.00000E+00
         0.00000E+00
         0.00000E+00
         0.00000E+00
         0.00000E+00
         0.00000E+00
         0.00000E+00
         0.00000E+00
         0.00000E+00
         0.00000E+00
         0.00000E+00
         0.00000E+00
         0.00000E+00
         0.00000E+00
         0.00000E+00
         0.00000E+00
         0.00000E+00
         0.00000E+00
         0.00000E+00
         0.00000E+00
         0.00000E+00
         0.00000E+00
         0.00000E+00
         0.00000E+00
         0.00000E+00
         0.00000E+00
         0.00000E+00
         0.00000E+00
         0.00000E+00
         0.00000E+00
         0.00000E+00
         0.00000E+00
         0.00000E+00
         0.00000E+00
         0.00000E+00
         0.00000E+00
         0.00000E+00
         0.00000E+00
         0.00000E+00
         0.00000E+00
         0.00000E+00
         0.00000E+00
         0.00000E+00
         0.00000E+00
         0.00000E+00
         0.00000E+00
         0.00000E+00
         0.00000E+00
         0.00000E+00
         0.00000E+00
         0.00000E+00
         0.00000E+00
         0.00000E+00
         0.00000E+00
         0.00000E+00
         0.00000E+00
         0.00000E+00
         0.00000E+00
         0.00000E+00
         0.00000E+00
         0.00000E+00
         0.00000E+00
         0.00000E+00
         0.00000E+00
         0.00000E+00
         0.00000E+00
         0.00000E+00
         0.00000E+00
         0.00000E+00
         0.00000E+00
         0.00000E+00
         0.00000E+00
         0.00000E+00
         0.00000E+00
         0.00000E+00
         0.00000E+00
         0.00000E+00
         0.00000E+00
         0.00000E+00
         0.00000E+00
         0.00000E+00
         0.00000E+00
         0.00000E+00
         0.00000E+00
         0.00000E+00
         0.00000E+00
         0.00000E+00
         0.00000E+00
         0.00000E+00
         0.00000E+00
         0.00000E+00
         0.00000E+00
         0.00000E+00
         0.00000E+00
         0.00000E+00
         0.00000E+00
         0.00000E+00
         0.00000E+00
         0.00000E+00
         0.00000E+00
         0.00000E+00
         0.00000E+00
         0.00000E+00
         0.00000E+00
         0.00000E+00
         0.00000E+00
         0.00000E+00
         0.00000E+00
         0.00000E+00
         0.00000E+00
         0.00000E+00
         0.00000E+00
         0.00000E+00
         0.00000E+00
         0.00000E+00
         0.00000E+00
         0.00000E+00
         0.00000E+00
         0.00000E+00
         0.00000E+00
         0.00000E+00
         0.00000E+00
         0.00000E+00
         0.00000E+00
         0.00000E+00
         0.00000E+00
         0.00000E+00
         0.00000E+00
         0.00000E+00
         0.00000E+00
         0.00000E+00
         0.00000E+00
         0.00000E+00
         0.00000E+00
         0.00000E+00
         0.00000E+00
         0.00000E+00
         0.00000E+00
         0.00000E+00
         0.00000E+00
         0.00000E+00
         0.00000E+00
         0.00000E+00
         0.00000E+00
         0.00000E+00
         0.00000E+00
         0.00000E+00
         0.00000E+00
         0.00000E+00
         0.00000E+00
         0.00000E+00
         0.00000E+00
         0.00000E+00
         0.00000E+00
         0.00000E+00
         0.00000E+00
         0.00000E+00
         0.00000E+00
         0.00000E+00
         0.00000E+00
         0.00000E+00
         0.00000E+00
         0.00000E+00
         0.00000E+00
         0.00000E+00
         0.00000E+00
         0.00000E+00
         0.00000E+00
         0.00000E+00
         0.00000E+00
         0.00000E+00
         0.00000E+00
         0.00000E+00
         0.00000E+00
         0.00000E+00
         0.00000E+00
         0.00000E+00
         0.00000E+00
         0.00000E+00
         0.00000E+00
         0.00000E+00
         0.00000E+00
         0.00000E+00
         0.00000E+00
         0.00000E+00
         0.00000E+00
         0.00000E+00
         0.00000E+00
         0.00000E+00
         0.00000E+00
         0.00000E+00
         0.00000E+00
         0.00000E+00
         0.00000E+00
         0.00000E+00
         0.00000E+00
         0.00000E+00
         0.00000E+00
         0.00000E+00
         0.00000E+00
         0.00000E+00
         0.00000E+00
         0.00000E+00
         0.00000E+00
         0.00000E+00
         0.00000E+00
         0.00000E+00
         0.00000E+00
         0.00000E+00
         0.00000E+00
         0.00000E+00
         0.00000E+00
         0.00000E+00
         0.00000E+00
         0.00000E+00
         0.00000E+00
         0.00000E+00
         0.00000E+00
         0.00000E+00
         0.00000E+00
         0.00000E+00
         0.00000E+00
         0.00000E+00
         0.00000E+00
         0.00000E+00
         0.00000E+00
         0.00000E+00
         0.00000E+00
         0.00000E+00
         0.00000E+00
         0.00000E+00
         0.00000E+00
         0.00000E+00
         0.00000E+00
         0.00000E+00
         0.00000E+00
         0.00000E+00
         0.00000E+00
         0.00000E+00
         0.00000E+00
         0.00000E+00
         0.00000E+00
         0.00000E+00
         0.00000E+00
         0.00000E+00
         0.00000E+00
         0.00000E+00
         0.00000E+00
         0.00000E+00
         0.00000E+00
         0.00000E+00
         0.00000E+00
         0.00000E+00
         0.00000E+00
         0.00000E+00
         0.00000E+00
         0.00000E+00
         0.00000E+00
         0.00000E+00
         0.00000E+00
         0.00000E+00
         0.00000E+00
         0.00000E+00
         0.00000E+00
         0.00000E+00
         0.00000E+00
         0.00000E+00
         0.00000E+00
         0.00000E+00
         0.00000E+00
         0.00000E+00
         0.00000E+00
         0.00000E+00
         0.00000E+00
         0.00000E+00
         0.00000E+00
         0.00000E+00
         0.00000E+00
         0.00000E+00
         0.00000E+00
         0.00000E+00
         0.00000E+00
         0.00000E+00
         0.00000E+00
         0.00000E+00
         0.00000E+00
         0.00000E+00
         0.00000E+00
         0.00000E+00
         0.00000E+00
         0.00000E+00
         0.00000E+00
         0.00000E+00
         0.00000E+00
         0.00000E+00
         0.00000E+00
         0.00000E+00
         0.00000E+00
         0.00000E+00
         0.00000E+00
         0.00000E+00
         0.00000E+00
         0.00000E+00
         0.00000E+00
         0.00000E+00
         0.00000E+00
         0.00000E+00
         0.00000E+00
         0.00000E+00
         0.00000E+00
         0.00000E+00
         0.00000E+00
         0.00000E+00
         0.00000E+00
         0.00000E+00
         0.00000E+00
         0.00000E+00
         0.00000E+00
         0.00000E+00
         0.00000E+00
         0.00000E+00
         0.00000E+00
         0.00000E+00
         0.00000E+00
         0.00000E+00
         0.00000E+00
         0.00000E+00
         0.00000E+00
         0.00000E+00
         0.00000E+00
         0.00000E+00
         0.00000E+00
         0.00000E+00
         0.00000E+00
         0.00000E+00
         0.00000E+00
         0.00000E+00
         0.00000E+00
         0.00000E+00
         0.00000E+00
         0.00000E+00
         0.00000E+00
         0.00000E+00
         0.00000E+00
         0.00000E+00
         0.00000E+00
         0.00000E+00
         0.00000E+00
         0.00000E+00
         0.00000E+00
         0.00000E+00
         0.00000E+00
         0.00000E+00
         0.00000E+00
         0.00000E+00
         0.00000E+00
         0.00000E+00
         0.00000E+00
         0.00000E+00
         0.00000E+00
         0.00000E+00
         0.00000E+00
         0.00000E+00
         0.00000E+00
         0.00000E+00
         0.00000E+00
         0.00000E+00
         0.00000E+00
         0.00000E+00
         0.00000E+00
         0.00000E+00
         0.00000E+00
         0.00000E+00
         0.00000E+00
         0.00000E+00
         0.00000E+00
         0.00000E+00
         0.00000E+00
         0.00000E+00
         0.00000E+00
         0.00000E+00
         0.00000E+00
         0.00000E+00
         0.00000E+00
         0.00000E+00
         0.00000E+00
         0.00000E+00
         0.00000E+00
         0.00000E+00
         0.00000E+00
         0.00000E+00
         0.00000E+00
         0.00000E+00
         0.00000E+00
         0.00000E+00
         0.00000E+00
         0.00000E+00
         0.00000E+00
         0.00000E+00
         0.00000E+00
         0.00000E+00
         0.00000E+00
         0.00000E+00
         0.00000E+00
         0.00000E+00
         0.00000E+00
         0.00000E+00
         0.00000E+00
         0.00000E+00
         0.00000E+00
         0.00000E+00
         0.00000E+00
         0.00000E+00
         0.00000E+00
         0.00000E+00
         0.00000E+00
         0.00000E+00
         0.00000E+00
         0.00000E+00
         0.00000E+00
         0.00000E+00
         0.00000E+00
         0.00000E+00
         0.00000E+00
         0.00000E+00
         0.00000E+00
         0.00000E+00
         0.00000E+00
         0.00000E+00
         0.00000E+00
         0.00000E+00
         0.00000E+00
         0.00000E+00
         0.00000E+00
         0.00000E+00
         0.00000E+00
         0.00000E+00
         0.00000E+00
         0.00000E+00
         0.00000E+00
         0.00000E+00
         0.00000E+00
         0.00000E+00
         0.00000E+00
         0.00000E+00
         0.00000E+00
         0.00000E+00
         0.00000E+00
         0.00000E+00
         0.00000E+00
         0.00000E+00
         0.00000E+00
         0.00000E+00
         0.00000E+00
         0.00000E+00
         0.00000E+00
         0.00000E+00
         0.00000E+00
         0.00000E+00
         0.00000E+00
         0.00000E+00
         0.00000E+00
         0.00000E+00
         0.00000E+00
         0.00000E+00
         0.00000E+00
         0.00000E+00
         0.00000E+00
         0.00000E+00
         0.00000E+00
         0.00000E+00
         0.00000E+00
         0.00000E+00
         0.00000E+00
         0.00000E+00
         0.00000E+00
         0.00000E+00
         0.00000E+00
         0.00000E+00
         0.00000E+00
         0.00000E+00
         0.00000E+00
         0.00000E+00
         0.00000E+00
         0.00000E+00
         0.00000E+00
         0.00000E+00
         0.00000E+00
         0.00000E+00
         0.00000E+00
         0.00000E+00
         0.00000E+00
         0.00000E+00
         0.00000E+00
         0.00000E+00
         0.00000E+00
         0.00000E+00
         0.00000E+00
         0.00000E+00
         0.00000E+00
         0.00000E+00
         0.00000E+00
         0.00000E+00
         0.00000E+00
         0.00000E+00
         0.00000E+00
         0.00000E+00
         0.00000E+00
         0.00000E+00
         0.00000E+00
         0.00000E+00
         0.00000E+00
         0.00000E+00
         0.00000E+00
         0.00000E+00
         0.00000E+00
         0.00000E+00
         0.00000E+00
         0.00000E+00
         0.00000E+00
         0.00000E+00
         0.00000E+00
         0.00000E+00
         0.00000E+00
         0.00000E+00
         0.00000E+00
         0.00000E+00
         0.00000E+00
         0.00000E+00
         0.00000E+00
         0.00000E+00
         0.00000E+00
         0.00000E+00
         0.00000E+00
         0.00000E+00
         0.00000E+00
         0.00000E+00
         0.00000E+00
         0.00000E+00
         0.00000E+00
         0.00000E+00
         0.00000E+00
         0.00000E+00
         0.00000E+00
         0.00000E+00
         0.00000E+00
         0.00000E+00
         0.00000E+00
         0.00000E+00
         0.00000E+00
         0.00000E+00
         0.00000E+00
         0.00000E+00
         0.00000E+00
         0.00000E+00
         0.00000E+00
         0.00000E+00
         0.00000E+00
         0.00000E+00
         0.00000E+00
         0.00000E+00
         0.00000E+00
         0.00000E+00
         0.00000E+00
         0.00000E+00
         0.00000E+00
         0.00000E+00
         0.00000E+00
         0.00000E+00
         0.00000E+00
         0.00000E+00
         0.00000E+00
         0.00000E+00
         0.00000E+00
         0.00000E+00
         0.00000E+00
         0.00000E+00
         0.00000E+00
         0.00000E+00
         0.00000E+00
         0.00000E+00
         0.00000E+00
         0.00000E+00
         0.00000E+00
         0.00000E+00
         0.00000E+00
         0.00000E+00
         0.00000E+00
         0.00000E+00
         0.00000E+00
         0.00000E+00
         0.00000E+00
         0.00000E+00
         0.00000E+00
         0.00000E+00
         0.00000E+00
         0.00000E+00
         0.00000E+00
         0.00000E+00
         0.00000E+00
         0.00000E+00
         0.00000E+00
         0.00000E+00
         0.00000E+00
         0.00000E+00
         0.00000E+00
         0.00000E+00
         0.00000E+00
         0.00000E+00
         0.00000E+00
         0.00000E+00
         0.00000E+00
         0.00000E+00
         0.00000E+00
         0.00000E+00
         0.00000E+00
         0.00000E+00
         0.00000E+00
         0.00000E+00
         0.00000E+00
         0.00000E+00
         0.00000E+00
         0.00000E+00
         0.00000E+00
         0.00000E+00
         0.00000E+00
         0.00000E+00
         0.00000E+00
         0.00000E+00
         0.00000E+00
         0.00000E+00
         0.00000E+00
         0.00000E+00
         0.00000E+00
         0.00000E+00
         0.00000E+00
         0.00000E+00
         0.00000E+00
         0.00000E+00
         0.00000E+00
         0.00000E+00
         0.00000E+00
         0.00000E+00
         0.00000E+00
         0.00000E+00
         0.00000E+00
         0.00000E+00
         0.00000E+00
         0.00000E+00
         0.00000E+00
         0.00000E+00
         0.00000E+00
         0.00000E+00
         0.00000E+00
         0.00000E+00
         0.00000E+00
         0.00000E+00
         0.00000E+00
         0.00000E+00
         0.00000E+00
         0.00000E+00
         0.00000E+00
         0.00000E+00
         0.00000E+00
         0.00000E+00
         0.00000E+00
         0.00000E+00
         0.00000E+00
         0.00000E+00
         0.00000E+00
         0.00000E+00
         0.00000E+00
         0.00000E+00
         0.00000E+00
         0.00000E+00
         0.00000E+00
         0.00000E+00
         0.00000E+00
         0.00000E+00
         0.00000E+00
         0.00000E+00
         0.00000E+00
         0.00000E+00
         0.00000E+00
         0.00000E+00
         0.00000E+00
         0.00000E+00
         0.00000E+00
         0.00000E+00
         0.00000E+00
         0.00000E+00
         0.00000E+00
         0.00000E+00
         0.00000E+00
         0.00000E+00
         0.00000E+00
         0.00000E+00
         0.00000E+00
         0.00000E+00
         0.00000E+00
         0.00000E+00
         0.00000E+00
         0.00000E+00
         0.00000E+00
         0.00000E+00
         0.00000E+00
         0.00000E+00
         0.00000E+00
         0.00000E+00
         0.00000E+00
         0.00000E+00
         0.00000E+00
         0.00000E+00
         0.00000E+00
         0.00000E+00
         0.00000E+00
         0.00000E+00
         0.00000E+00
         0.00000E+00
         0.00000E+00
         0.00000E+00
         0.00000E+00
         0.00000E+00
         0.00000E+00
         0.00000E+00
         0.00000E+00
         0.00000E+00
         0.00000E+00
         0.00000E+00
         0.00000E+00
         0.00000E+00
         0.00000E+00
         0.00000E+00
         0.00000E+00
         0.00000E+00
         0.00000E+00
         0.00000E+00
         0.00000E+00
         0.00000E+00
         0.00000E+00
         0.00000E+00
         0.00000E+00
         0.00000E+00
         0.00000E+00
         0.00000E+00
         0.00000E+00
         0.00000E+00
         0.00000E+00
         0.00000E+00
         0.00000E+00
         0.00000E+00
         0.00000E+00
         0.00000E+00
         0.00000E+00
         0.00000E+00
         0.00000E+00
         0.00000E+00
         0.00000E+00
         0.00000E+00
         0.00000E+00
         0.00000E+00
         0.00000E+00
         0.00000E+00
         0.00000E+00
         0.00000E+00
         0.00000E+00
         0.00000E+00
         0.00000E+00
         0.00000E+00
         0.00000E+00
         0.00000E+00
         0.00000E+00
         0.00000E+00
         0.00000E+00
         0.00000E+00
         0.00000E+00
         0.00000E+00
         0.00000E+00
         0.00000E+00
         0.00000E+00
         0.00000E+00
         0.00000E+00
         0.00000E+00
         0.00000E+00
         0.00000E+00
         0.00000E+00
         0.00000E+00
         0.00000E+00
         0.00000E+00
         0.00000E+00
         0.00000E+00
         0.00000E+00
         0.00000E+00
         0.00000E+00
         0.00000E+00
         0.00000E+00
         0.00000E+00
         0.00000E+00
         0.00000E+00
         0.00000E+00
         0.00000E+00
         0.00000E+00
         0.00000E+00
         0.00000E+00
         0.00000E+00
         0.00000E+00
         0.00000E+00
         0.00000E+00
         0.00000E+00
         0.00000E+00
         0.00000E+00
         0.00000E+00
         0.00000E+00
         0.00000E+00
         0.00000E+00
         0.00000E+00
         0.00000E+00
         0.00000E+00
         0.00000E+00
         0.00000E+00
         0.00000E+00
         0.00000E+00
         0.00000E+00
         0.00000E+00
         0.00000E+00
         0.00000E+00
         0.00000E+00
         0.00000E+00
         0.00000E+00
         0.00000E+00
         0.00000E+00
         0.00000E+00
         0.00000E+00
         0.00000E+00
         0.00000E+00
         0.00000E+00
         0.00000E+00
         0.00000E+00
         0.00000E+00
         0.00000E+00
         0.00000E+00
         0.00000E+00
         0.00000E+00
         0.00000E+00
         0.00000E+00
         0.00000E+00
         0.00000E+00
         0.00000E+00
         0.00000E+00
         0.00000E+00
         0.00000E+00
         0.00000E+00
         0.00000E+00
         0.00000E+00
         0.00000E+00
         0.00000E+00
         0.00000E+00
         0.00000E+00
         0.00000E+00
         0.00000E+00
         0.00000E+00
         0.00000E+00
         0.00000E+00
         0.00000E+00
         0.00000E+00
         0.00000E+00
         0.00000E+00
         0.00000E+00
         0.00000E+00
         0.00000E+00
         0.00000E+00
         0.00000E+00
         0.00000E+00
         0.00000E+00
         0.00000E+00
         0.00000E+00
         0.00000E+00
         0.00000E+00
         0.00000E+00
         0.00000E+00
         0.00000E+00
         0.00000E+00
         0.00000E+00
         0.00000E+00
         0.00000E+00
         0.00000E+00
         0.00000E+00
         0.00000E+00
         0.00000E+00
         0.00000E+00
         0.00000E+00
         0.00000E+00
         0.00000E+00
         0.00000E+00
         0.00000E+00
         0.00000E+00
         0.00000E+00
         0.00000E+00
         0.00000E+00
         0.00000E+00
         0.00000E+00
         0.00000E+00
         0.00000E+00
         0.00000E+00
         0.00000E+00
         0.00000E+00
         0.00000E+00
         0.00000E+00
         0.00000E+00
         0.00000E+00
         0.00000E+00
         0.00000E+00
         0.00000E+00
         0.00000E+00
         0.00000E+00
         0.00000E+00
         0.00000E+00
         0.00000E+00
         0.00000E+00
         0.00000E+00
         0.00000E+00
         0.00000E+00
         0.00000E+00
         0.00000E+00
         0.00000E+00
         0.00000E+00
         0.00000E+00
         0.00000E+00
         0.00000E+00
         0.00000E+00
         0.00000E+00
         0.00000E+00
         0.00000E+00
         0.00000E+00
         0.00000E+00
         0.00000E+00
         0.00000E+00
         0.00000E+00
         0.00000E+00
         0.00000E+00
         0.00000E+00
         0.00000E+00
         0.00000E+00
         0.00000E+00
         0.00000E+00
         0.00000E+00
         0.00000E+00
         0.00000E+00
         0.00000E+00
         0.00000E+00
         0.00000E+00
         0.00000E+00
         0.00000E+00
         0.00000E+00
         0.00000E+00
         0.00000E+00
         0.00000E+00
         0.00000E+00
         0.00000E+00
         0.00000E+00
         0.00000E+00
         0.00000E+00
         0.00000E+00
         0.00000E+00
         0.00000E+00
         0.00000E+00
         0.00000E+00
         0.00000E+00
         0.00000E+00
         0.00000E+00
         0.00000E+00
         0.00000E+00
         0.00000E+00
         0.00000E+00
         0.00000E+00
         0.00000E+00
         0.00000E+00
         0.00000E+00
         0.00000E+00
         0.00000E+00
         0.00000E+00
         0.00000E+00
         0.00000E+00
         0.00000E+00
         0.00000E+00
         0.00000E+00
         0.00000E+00
         0.00000E+00
         0.00000E+00
         0.00000E+00
         0.00000E+00
         0.00000E+00
         0.00000E+00
         0.00000E+00
         0.00000E+00
         0.00000E+00
         0.00000E+00
         0.00000E+00
         0.00000E+00
         0.00000E+00
         0.00000E+00
         0.00000E+00
         0.00000E+00
         0.00000E+00
         0.00000E+00
         0.00000E+00
         0.00000E+00
         0.00000E+00
         0.00000E+00
         0.00000E+00
         0.00000E+00
         0.00000E+00
         0.00000E+00
         0.00000E+00
         0.00000E+00
         0.00000E+00
         0.00000E+00
         0.00000E+00
         0.00000E+00
         0.00000E+00
         0.00000E+00
         0.00000E+00
         0.00000E+00
         0.00000E+00
         0.00000E+00
         0.00000E+00
         0.00000E+00
         0.00000E+00
         0.00000E+00
         0.00000E+00
         0.00000E+00
         0.00000E+00
         0.00000E+00
         0.00000E+00
         0.00000E+00
         0.00000E+00
         0.00000E+00
         0.00000E+00
         0.00000E+00
         0.00000E+00
         0.00000E+00
         0.00000E+00
         0.00000E+00
         0.00000E+00
         0.00000E+00
         0.00000E+00
         0.00000E+00
         0.00000E+00
         0.00000E+00
         0.00000E+00
         0.00000E+00
         0.00000E+00
         0.00000E+00
         0.00000E+00
         0.00000E+00
         0.00000E+00
         0.00000E+00
         0.00000E+00
         0.00000E+00
         0.00000E+00
         0.00000E+00
         0.00000E+00
         0.00000E+00
         0.00000E+00
         0.00000E+00
         0.00000E+00
         0.00000E+00
         0.00000E+00
         0.00000E+00
         0.00000E+00
         0.00000E+00
         0.00000E+00
         0.00000E+00
         0.00000E+00
         0.00000E+00
         0.00000E+00
         0.00000E+00
         0.00000E+00
         0.00000E+00
         0.00000E+00
         0.00000E+00
         0.00000E+00
         0.00000E+00
         0.00000E+00
         0.00000E+00
         0.00000E+00
         0.00000E+00
         0.00000E+00
         0.00000E+00
         0.00000E+00
         0.00000E+00
         0.00000E+00
         0.00000E+00
         0.00000E+00
         0.00000E+00
         0.00000E+00
         0.00000E+00
         0.00000E+00
         0.00000E+00
         0.00000E+00
         0.00000E+00
         0.00000E+00
         0.00000E+00
         0.00000E+00
         0.00000E+00
         0.00000E+00
         0.00000E+00
         0.00000E+00
         0.00000E+00
         0.00000E+00
         0.00000E+00
         0.00000E+00
         0.00000E+00
         0.00000E+00
         0.00000E+00
         0.00000E+00
         0.00000E+00
         0.00000E+00
         0.00000E+00
         0.00000E+00
         0.00000E+00
         0.00000E+00
         0.00000E+00
         0.00000E+00
         0.00000E+00
         0.00000E+00
         0.00000E+00
         0.00000E+00
         0.00000E+00
         0.00000E+00
         0.00000E+00
         0.00000E+00
         0.00000E+00
         0.00000E+00
         0.00000E+00
         0.00000E+00
         0.00000E+00
         0.00000E+00
         0.00000E+00
         0.00000E+00
         0.00000E+00
         0.00000E+00
         0.00000E+00
         0.00000E+00
         0.00000E+00
         0.00000E+00
         0.00000E+00
         0.00000E+00
         0.00000E+00
         0.00000E+00
         0.00000E+00
         0.00000E+00
         0.00000E+00
         0.00000E+00
         0.00000E+00
         0.00000E+00
         0.00000E+00
         0.00000E+00
         0.00000E+00
         0.00000E+00
         0.00000E+00
         0.00000E+00
         0.00000E+00
         0.00000E+00
         0.00000E+00
         0.00000E+00
         0.00000E+00
         0.00000E+00
         0.00000E+00
         0.00000E+00
         0.00000E+00
         0.00000E+00
         0.00000E+00
         0.00000E+00
         0.00000E+00
         0.00000E+00
         0.00000E+00
         0.00000E+00
         0.00000E+00
         0.00000E+00
         0.00000E+00
         0.00000E+00
         0.00000E+00
         0.00000E+00
         0.00000E+00
         0.00000E+00
         0.00000E+00
         0.00000E+00
         0.00000E+00
         0.00000E+00
         0.00000E+00
         0.00000E+00
         0.00000E+00
         0.00000E+00
         0.00000E+00
         0.00000E+00
         0.00000E+00
         0.00000E+00
         0.00000E+00
         0.00000E+00
         0.00000E+00
         0.00000E+00
         0.00000E+00
         0.00000E+00
         0.00000E+00
         0.00000E+00
         0.00000E+00
         0.00000E+00
         0.00000E+00
         0.00000E+00
         0.00000E+00
         0.00000E+00
         0.00000E+00
         0.00000E+00
         0.00000E+00
         0.00000E+00
         0.00000E+00
         0.00000E+00
         0.00000E+00
         0.00000E+00
         0.00000E+00
         0.00000E+00
         0.00000E+00
         0.00000E+00
         0.00000E+00
         0.00000E+00
         0.00000E+00
         0.00000E+00
         0.00000E+00
         0.00000E+00
         0.00000E+00
         0.00000E+00
         0.00000E+00
         0.00000E+00
         0.00000E+00
         0.00000E+00
         0.00000E+00
         0.00000E+00
         0.00000E+00
         0.00000E+00
         0.00000E+00
         0.00000E+00
         0.00000E+00
         0.00000E+00
         0.00000E+00
         0.00000E+00
         0.00000E+00
         0.00000E+00
         0.00000E+00
         0.00000E+00
         0.00000E+00
         0.00000E+00
         0.00000E+00
         0.00000E+00
         0.00000E+00
         0.00000E+00
         0.00000E+00
         0.00000E+00
         0.00000E+00
         0.00000E+00
         0.00000E+00
         0.00000E+00
         0.00000E+00
         0.00000E+00
         0.00000E+00
         0.00000E+00
         0.00000E+00
         0.00000E+00
         0.00000E+00
         0.00000E+00
         0.00000E+00
         0.00000E+00
         0.00000E+00
         0.00000E+00
         0.00000E+00
         0.00000E+00
         0.00000E+00
         0.00000E+00
         0.00000E+00
         0.00000E+00
         0.00000E+00
         0.00000E+00
         0.00000E+00
         0.00000E+00
         0.00000E+00
         0.00000E+00
         0.00000E+00
         0.00000E+00
         0.00000E+00
         0.00000E+00
         0.00000E+00
         0.00000E+00
         0.00000E+00
         0.00000E+00
         0.00000E+00
         0.00000E+00
         0.00000E+00
         0.00000E+00
         0.00000E+00
         0.00000E+00
         0.00000E+00
         0.00000E+00
         0.00000E+00
         0.00000E+00
         0.00000E+00
         0.00000E+00
         0.00000E+00
         0.00000E+00
         0.00000E+00
         0.00000E+00
         0.00000E+00
         0.00000E+00
         0.00000E+00
         0.00000E+00
         0.00000E+00
         0.00000E+00
         0.00000E+00
         0.00000E+00
         0.00000E+00
         0.00000E+00
         0.00000E+00
         0.00000E+00
         0.00000E+00
         0.00000E+00
         0.00000E+00
         0.00000E+00
         0.00000E+00
         0.00000E+00
         0.00000E+00
         0.00000E+00
         0.00000E+00
         0.00000E+00
         0.00000E+00
         0.00000E+00
         0.00000E+00
         0.00000E+00
         0.00000E+00
         0.00000E+00
         0.00000E+00
         0.00000E+00
         0.00000E+00
         0.00000E+00
         0.00000E+00
         0.00000E+00
         0.00000E+00
         0.00000E+00
         0.00000E+00
         0.00000E+00
         0.00000E+00
         0.00000E+00
         0.00000E+00
         0.00000E+00
         0.00000E+00
         0.00000E+00
         0.00000E+00
         0.00000E+00
         0.00000E+00
         0.00000E+00
         0.00000E+00
         0.00000E+00
         0.00000E+00
         0.00000E+00
         0.00000E+00
         0.00000E+00
         0.00000E+00
         0.00000E+00
         0.00000E+00
         0.00000E+00
         0.00000E+00
         0.00000E+00
         0.00000E+00
         0.00000E+00
         0.00000E+00
         0.00000E+00
         0.00000E+00
         0.00000E+00
         0.00000E+00
         0.00000E+00
         0.00000E+00
         0.00000E+00
         0.00000E+00
         0.00000E+00
         0.00000E+00
         0.00000E+00
         0.00000E+00
         0.00000E+00
         0.00000E+00
         0.00000E+00
         0.00000E+00
         0.00000E+00
         0.00000E+00
         0.00000E+00
         0.00000E+00
         0.00000E+00
         0.00000E+00
         0.00000E+00
         0.00000E+00
         0.00000E+00
         0.00000E+00
         0.00000E+00
         0.00000E+00
         0.00000E+00
         0.00000E+00
         0.00000E+00
         0.00000E+00
         0.00000E+00
         0.00000E+00
         0.00000E+00
         0.00000E+00
         0.00000E+00
         0.00000E+00
         0.00000E+00
         0.00000E+00
         0.00000E+00
         0.00000E+00
         0.00000E+00
         0.00000E+00
         0.00000E+00
         0.00000E+00
         0.00000E+00
         0.00000E+00
         0.00000E+00
         0.00000E+00
         0.00000E+00
         0.00000E+00
         0.00000E+00
         0.00000E+00
         0.00000E+00
         0.00000E+00
         0.00000E+00
         0.00000E+00
         0.00000E+00
         0.00000E+00
         0.00000E+00
         0.00000E+00
         0.00000E+00
         0.00000E+00
         0.00000E+00
         0.00000E+00
         0.00000E+00
         0.00000E+00
         0.00000E+00
         0.00000E+00
         0.00000E+00
         0.00000E+00
         0.00000E+00
         0.00000E+00
         0.00000E+00
         0.00000E+00
         0.00000E+00
         0.00000E+00
         0.00000E+00
         0.00000E+00
         0.00000E+00
         0.00000E+00
         0.00000E+00
         0.00000E+00
         0.00000E+00
         0.00000E+00
         0.00000E+00
         0.00000E+00
         0.00000E+00
         0.00000E+00
         0.00000E+00
         0.00000E+00
         0.00000E+00
         0.00000E+00
         0.00000E+00
         0.00000E+00
         0.00000E+00
         0.00000E+00
         0.00000E+00
         0.00000E+00
         0.00000E+00
         0.00000E+00
         0.00000E+00
         0.00000E+00
         0.00000E+00
         0.00000E+00
         0.00000E+00
         0.00000E+00
         0.00000E+00
         0.00000E+00
         0.00000E+00
         0.00000E+00
         0.00000E+00
         0.00000E+00
         0.00000E+00
         0.00000E+00
         0.00000E+00
         0.00000E+00
         0.00000E+00
         0.00000E+00
         0.00000E+00
         0.00000E+00
         0.00000E+00
         0.00000E+00
         0.00000E+00
         0.00000E+00
         0.00000E+00
         0.00000E+00
         0.00000E+00
         0.00000E+00
         0.00000E+00
         0.00000E+00
         0.00000E+00
         0.00000E+00
         0.00000E+00
         0.00000E+00
         0.00000E+00
         0.00000E+00
         0.00000E+00
         0.00000E+00
         0.00000E+00
         0.00000E+00
         0.00000E+00
         0.00000E+00
         0.00000E+00
         0.00000E+00
         0.00000E+00
         0.00000E+00
         0.00000E+00
         0.00000E+00
         0.00000E+00
         0.00000E+00
         0.00000E+00
         0.00000E+00
         0.00000E+00
         0.00000E+00
         0.00000E+00
         0.00000E+00
         0.00000E+00
         0.00000E+00
         0.00000E+00
         0.00000E+00
         0.00000E+00
         0.00000E+00
         0.00000E+00
         0.00000E+00
         0.00000E+00
         0.00000E+00
         0.00000E+00
         0.00000E+00
         0.00000E+00
         0.00000E+00
         0.00000E+00
         0.00000E+00
         0.00000E+00
         0.00000E+00
         0.00000E+00
         0.00000E+00
         0.00000E+00
         0.00000E+00
         0.00000E+00
         0.00000E+00
         0.00000E+00
         0.00000E+00
         0.00000E+00
         0.00000E+00
         0.00000E+00
         0.00000E+00
         0.00000E+00
         0.00000E+00
         0.00000E+00
         0.00000E+00
         0.00000E+00
         0.00000E+00
         0.00000E+00
         0.00000E+00
         0.00000E+00
         0.00000E+00
         0.00000E+00
         0.00000E+00
         0.00000E+00
         0.00000E+00
         0.00000E+00
         0.00000E+00
         0.00000E+00
         0.00000E+00
         0.00000E+00
         0.00000E+00
         0.00000E+00
         0.00000E+00
         0.00000E+00
         0.00000E+00
         0.00000E+00
         0.00000E+00
         0.00000E+00
         0.00000E+00
         0.00000E+00
         0.00000E+00
         0.00000E+00
         0.00000E+00
         0.00000E+00
         0.00000E+00
         0.00000E+00
         0.00000E+00
         0.00000E+00
         0.00000E+00
         0.00000E+00
         0.00000E+00
         0.00000E+00
         0.00000E+00
         0.00000E+00
         0.00000E+00
         0.00000E+00
         0.00000E+00
         0.00000E+00
         0.00000E+00
         0.00000E+00
         0.00000E+00
         0.00000E+00
         0.00000E+00
         0.00000E+00
         0.00000E+00
         0.00000E+00
         0.00000E+00
         0.00000E+00
         0.00000E+00
         0.00000E+00
         0.00000E+00
         0.00000E+00
         0.00000E+00
         0.00000E+00
         0.00000E+00
         0.00000E+00
         0.00000E+00
         0.00000E+00
         0.00000E+00
         0.00000E+00
         0.00000E+00
         0.00000E+00
         0.00000E+00
         0.00000E+00
         0.00000E+00
         0.00000E+00
         0.00000E+00
         0.00000E+00
         0.00000E+00
         0.00000E+00
         0.00000E+00
         0.00000E+00
         0.00000E+00
         0.00000E+00
         0.00000E+00
         0.00000E+00
         0.00000E+00
         0.00000E+00
         0.00000E+00
         0.00000E+00
         0.00000E+00
         0.00000E+00
         0.00000E+00
         0.00000E+00
         0.00000E+00
         0.00000E+00
         0.00000E+00
         0.00000E+00
         0.00000E+00
         0.00000E+00
         0.00000E+00
         0.00000E+00
         0.00000E+00
         0.00000E+00
         0.00000E+00
         0.00000E+00
         0.00000E+00
         0.00000E+00
         0.00000E+00
         0.00000E+00
         0.00000E+00
         0.00000E+00
         0.00000E+00
         0.00000E+00
         0.00000E+00
         0.00000E+00
         0.00000E+00
         0.00000E+00
         0.00000E+00
         0.00000E+00
         0.00000E+00
         0.00000E+00
         0.00000E+00
         0.00000E+00
         0.00000E+00
         0.00000E+00
         0.00000E+00
         0.00000E+00
         0.00000E+00
         0.00000E+00
         0.00000E+00
         0.00000E+00
         0.00000E+00
         0.00000E+00
         0.00000E+00
         0.00000E+00
         0.00000E+00
         0.00000E+00
         0.00000E+00
         0.00000E+00
         0.00000E+00
         0.00000E+00
         0.00000E+00
         0.00000E+00
         0.00000E+00
         0.00000E+00
         0.00000E+00
         0.00000E+00
         0.00000E+00
         0.00000E+00
         0.00000E+00
         0.00000E+00
         0.00000E+00
         0.00000E+00
         0.00000E+00
         0.00000E+00
         0.00000E+00
         0.00000E+00
         0.00000E+00
         0.00000E+00
         0.00000E+00
         0.00000E+00
         0.00000E+00
         0.00000E+00
         0.00000E+00
         0.00000E+00
         0.00000E+00
         0.00000E+00
         0.00000E+00
         0.00000E+00
         0.00000E+00
         0.00000E+00
         0.00000E+00
         0.00000E+00
         0.00000E+00
         0.00000E+00
         0.00000E+00
         0.00000E+00
         0.00000E+00
         0.00000E+00
         0.00000E+00
         0.00000E+00
         0.00000E+00
         0.00000E+00
         0.00000E+00
         0.00000E+00
         0.00000E+00
         0.00000E+00
         0.00000E+00
         0.00000E+00
         0.00000E+00
         0.00000E+00
         0.00000E+00
         0.00000E+00
         0.00000E+00
         0.00000E+00
         0.00000E+00
         0.00000E+00
         0.00000E+00
         0.00000E+00
         0.00000E+00
         0.00000E+00
         0.00000E+00
         0.00000E+00
         0.00000E+00
         0.00000E+00
         0.00000E+00
         0.00000E+00
         0.00000E+00
         0.00000E+00
         0.00000E+00
         0.00000E+00
         0.00000E+00
         0.00000E+00
         0.00000E+00
         0.00000E+00
         0.00000E+00
         0.00000E+00
         0.00000E+00
         0.00000E+00
         0.00000E+00
         0.00000E+00
         0.00000E+00
         0.00000E+00
         0.00000E+00
         0.00000E+00
         0.00000E+00
         0.00000E+00
         0.00000E+00
         0.00000E+00
         0.00000E+00
         0.00000E+00
         0.00000E+00
         0.00000E+00
         0.00000E+00
         0.00000E+00
         0.00000E+00
         0.00000E+00
         0.00000E+00
         0.00000E+00
         0.00000E+00
         0.00000E+00
         0.00000E+00
         0.00000E+00
         0.00000E+00
         0.00000E+00
         0.00000E+00
         0.00000E+00
         0.00000E+00
         0.00000E+00
         0.00000E+00
         0.00000E+00
         0.00000E+00
         0.00000E+00
         0.00000E+00
         0.00000E+00
         0.00000E+00
         0.00000E+00
         0.00000E+00
         0.00000E+00
         0.00000E+00
         0.00000E+00
         0.00000E+00
         0.00000E+00
         0.00000E+00
         0.00000E+00
         0.00000E+00
         0.00000E+00
         0.00000E+00
         0.00000E+00
         0.00000E+00
         0.00000E+00
         0.00000E+00
         0.00000E+00
         0.00000E+00
         0.00000E+00
         0.00000E+00
         0.00000E+00
         0.00000E+00
         0.00000E+00
         0.00000E+00
         0.00000E+00
         0.00000E+00
         0.00000E+00
         0.00000E+00
  
SCALARS                         fint_y  double 1
LOOKUP_TABLE default
         0.00000E+00
         0.00000E+00
         0.00000E+00
         0.00000E+00
         0.00000E+00
         0.00000E+00
         0.00000E+00
         0.00000E+00
         0.00000E+00
         0.00000E+00
         0.00000E+00
         0.00000E+00
         0.00000E+00
         0.00000E+00
         0.00000E+00
         0.00000E+00
         0.00000E+00
         0.00000E+00
         0.00000E+00
         0.00000E+00
         0.00000E+00
         0.00000E+00
         0.00000E+00
         0.00000E+00
         0.00000E+00
         0.00000E+00
         0.00000E+00
         0.00000E+00
         0.00000E+00
         0.00000E+00
         0.00000E+00
         0.00000E+00
         0.00000E+00
         0.00000E+00
         0.00000E+00
         0.00000E+00
         0.00000E+00
         0.00000E+00
         0.00000E+00
         0.00000E+00
         0.00000E+00
         0.00000E+00
         0.00000E+00
         0.00000E+00
         0.00000E+00
         0.00000E+00
         0.00000E+00
         0.00000E+00
         0.00000E+00
         0.00000E+00
         0.00000E+00
         0.00000E+00
         0.00000E+00
         0.00000E+00
         0.00000E+00
         0.00000E+00
         0.00000E+00
         0.00000E+00
         0.00000E+00
         0.00000E+00
         0.00000E+00
         0.00000E+00
         0.00000E+00
         0.00000E+00
         0.00000E+00
         0.00000E+00
         0.00000E+00
         0.00000E+00
         0.00000E+00
         0.00000E+00
         0.00000E+00
         0.00000E+00
         0.00000E+00
         0.00000E+00
         0.00000E+00
         0.00000E+00
         0.00000E+00
         0.00000E+00
         0.00000E+00
         0.00000E+00
         0.00000E+00
         0.00000E+00
         0.00000E+00
         0.00000E+00
         0.00000E+00
         0.00000E+00
         0.00000E+00
         0.00000E+00
         0.00000E+00
         0.00000E+00
         0.00000E+00
         0.00000E+00
         0.00000E+00
         0.00000E+00
         0.00000E+00
         0.00000E+00
         0.00000E+00
         0.00000E+00
         0.00000E+00
         0.00000E+00
         0.00000E+00
         0.00000E+00
         0.00000E+00
         0.00000E+00
         0.00000E+00
         0.00000E+00
         0.00000E+00
         0.00000E+00
         0.00000E+00
         0.00000E+00
         0.00000E+00
         0.00000E+00
         0.00000E+00
         0.00000E+00
         0.00000E+00
         0.00000E+00
         0.00000E+00
         0.00000E+00
         0.00000E+00
         0.00000E+00
         0.00000E+00
         0.00000E+00
         0.00000E+00
         0.00000E+00
         0.00000E+00
         0.00000E+00
         0.00000E+00
         0.00000E+00
         0.00000E+00
         0.00000E+00
         0.00000E+00
         0.00000E+00
         0.00000E+00
         0.00000E+00
         0.00000E+00
         0.00000E+00
         0.00000E+00
         0.00000E+00
         0.00000E+00
         0.00000E+00
         0.00000E+00
         0.00000E+00
         0.00000E+00
         0.00000E+00
         0.00000E+00
         0.00000E+00
         0.00000E+00
         0.00000E+00
         0.00000E+00
         0.00000E+00
         0.00000E+00
         0.00000E+00
         0.00000E+00
         0.00000E+00
         0.00000E+00
         0.00000E+00
         0.00000E+00
         0.00000E+00
         0.00000E+00
         0.00000E+00
         0.00000E+00
         0.00000E+00
         0.00000E+00
         0.00000E+00
         0.00000E+00
         0.00000E+00
         0.00000E+00
         0.00000E+00
         0.00000E+00
         0.00000E+00
         0.00000E+00
         0.00000E+00
         0.00000E+00
         0.00000E+00
         0.00000E+00
         0.00000E+00
         0.00000E+00
         0.00000E+00
         0.00000E+00
         0.00000E+00
         0.00000E+00
         0.00000E+00
         0.00000E+00
         0.00000E+00
         0.00000E+00
         0.00000E+00
         0.00000E+00
         0.00000E+00
         0.00000E+00
         0.00000E+00
         0.00000E+00
         0.00000E+00
         0.00000E+00
         0.00000E+00
         0.00000E+00
         0.00000E+00
         0.00000E+00
         0.00000E+00
         0.00000E+00
         0.00000E+00
         0.00000E+00
         0.00000E+00
         0.00000E+00
         0.00000E+00
         0.00000E+00
         0.00000E+00
         0.00000E+00
         0.00000E+00
         0.00000E+00
         0.00000E+00
         0.00000E+00
         0.00000E+00
         0.00000E+00
         0.00000E+00
         0.00000E+00
         0.00000E+00
         0.00000E+00
         0.00000E+00
         0.00000E+00
         0.00000E+00
         0.00000E+00
         0.00000E+00
         0.00000E+00
         0.00000E+00
         0.00000E+00
         0.00000E+00
         0.00000E+00
         0.00000E+00
         0.00000E+00
         0.00000E+00
         0.00000E+00
         0.00000E+00
         0.00000E+00
         0.00000E+00
         0.00000E+00
         0.00000E+00
         0.00000E+00
         0.00000E+00
         0.00000E+00
         0.00000E+00
         0.00000E+00
         0.00000E+00
         0.00000E+00
         0.00000E+00
         0.00000E+00
         0.00000E+00
         0.00000E+00
         0.00000E+00
         0.00000E+00
         0.00000E+00
         0.00000E+00
         0.00000E+00
         0.00000E+00
         0.00000E+00
         0.00000E+00
         0.00000E+00
         0.00000E+00
         0.00000E+00
         0.00000E+00
         0.00000E+00
         0.00000E+00
         0.00000E+00
         0.00000E+00
         0.00000E+00
         0.00000E+00
         0.00000E+00
         0.00000E+00
         0.00000E+00
         0.00000E+00
         0.00000E+00
         0.00000E+00
         0.00000E+00
         0.00000E+00
         0.00000E+00
         0.00000E+00
         0.00000E+00
         0.00000E+00
         0.00000E+00
         0.00000E+00
         0.00000E+00
         0.00000E+00
         0.00000E+00
         0.00000E+00
         0.00000E+00
         0.00000E+00
         0.00000E+00
         0.00000E+00
         0.00000E+00
         0.00000E+00
         0.00000E+00
         0.00000E+00
         0.00000E+00
         0.00000E+00
         0.00000E+00
         0.00000E+00
         0.00000E+00
         0.00000E+00
         0.00000E+00
         0.00000E+00
         0.00000E+00
         0.00000E+00
         0.00000E+00
         0.00000E+00
         0.00000E+00
         0.00000E+00
         0.00000E+00
         0.00000E+00
         0.00000E+00
         0.00000E+00
         0.00000E+00
         0.00000E+00
         0.00000E+00
         0.00000E+00
         0.00000E+00
         0.00000E+00
         0.00000E+00
         0.00000E+00
         0.00000E+00
         0.00000E+00
         0.00000E+00
         0.00000E+00
         0.00000E+00
         0.00000E+00
         0.00000E+00
         0.00000E+00
         0.00000E+00
         0.00000E+00
         0.00000E+00
         0.00000E+00
         0.00000E+00
         0.00000E+00
         0.00000E+00
         0.00000E+00
         0.00000E+00
         0.00000E+00
         0.00000E+00
         0.00000E+00
         0.00000E+00
         0.00000E+00
         0.00000E+00
         0.00000E+00
         0.00000E+00
         0.00000E+00
         0.00000E+00
         0.00000E+00
         0.00000E+00
         0.00000E+00
         0.00000E+00
         0.00000E+00
         0.00000E+00
         0.00000E+00
         0.00000E+00
         0.00000E+00
         0.00000E+00
         0.00000E+00
         0.00000E+00
         0.00000E+00
         0.00000E+00
         0.00000E+00
         0.00000E+00
         0.00000E+00
         0.00000E+00
         0.00000E+00
         0.00000E+00
         0.00000E+00
         0.00000E+00
         0.00000E+00
         0.00000E+00
         0.00000E+00
         0.00000E+00
         0.00000E+00
         0.00000E+00
         0.00000E+00
         0.00000E+00
         0.00000E+00
         0.00000E+00
         0.00000E+00
         0.00000E+00
         0.00000E+00
         0.00000E+00
         0.00000E+00
         0.00000E+00
         0.00000E+00
         0.00000E+00
         0.00000E+00
         0.00000E+00
         0.00000E+00
         0.00000E+00
         0.00000E+00
         0.00000E+00
         0.00000E+00
         0.00000E+00
         0.00000E+00
         0.00000E+00
         0.00000E+00
         0.00000E+00
         0.00000E+00
         0.00000E+00
         0.00000E+00
         0.00000E+00
         0.00000E+00
         0.00000E+00
         0.00000E+00
         0.00000E+00
         0.00000E+00
         0.00000E+00
         0.00000E+00
         0.00000E+00
         0.00000E+00
         0.00000E+00
         0.00000E+00
         0.00000E+00
         0.00000E+00
         0.00000E+00
         0.00000E+00
         0.00000E+00
         0.00000E+00
         0.00000E+00
         0.00000E+00
         0.00000E+00
         0.00000E+00
         0.00000E+00
         0.00000E+00
         0.00000E+00
         0.00000E+00
         0.00000E+00
         0.00000E+00
         0.00000E+00
         0.00000E+00
         0.00000E+00
         0.00000E+00
         0.00000E+00
         0.00000E+00
         0.00000E+00
         0.00000E+00
         0.00000E+00
         0.00000E+00
         0.00000E+00
         0.00000E+00
         0.00000E+00
         0.00000E+00
         0.00000E+00
         0.00000E+00
         0.00000E+00
         0.00000E+00
         0.00000E+00
         0.00000E+00
         0.00000E+00
         0.00000E+00
         0.00000E+00
         0.00000E+00
         0.00000E+00
         0.00000E+00
         0.00000E+00
         0.00000E+00
         0.00000E+00
         0.00000E+00
         0.00000E+00
         0.00000E+00
         0.00000E+00
         0.00000E+00
         0.00000E+00
         0.00000E+00
         0.00000E+00
         0.00000E+00
         0.00000E+00
         0.00000E+00
         0.00000E+00
         0.00000E+00
         0.00000E+00
         0.00000E+00
         0.00000E+00
         0.00000E+00
         0.00000E+00
         0.00000E+00
         0.00000E+00
         0.00000E+00
         0.00000E+00
         0.00000E+00
         0.00000E+00
         0.00000E+00
         0.00000E+00
         0.00000E+00
         0.00000E+00
         0.00000E+00
         0.00000E+00
         0.00000E+00
         0.00000E+00
         0.00000E+00
         0.00000E+00
         0.00000E+00
         0.00000E+00
         0.00000E+00
         0.00000E+00
         0.00000E+00
         0.00000E+00
         0.00000E+00
         0.00000E+00
         0.00000E+00
         0.00000E+00
         0.00000E+00
         0.00000E+00
         0.00000E+00
         0.00000E+00
         0.00000E+00
         0.00000E+00
         0.00000E+00
         0.00000E+00
         0.00000E+00
         0.00000E+00
         0.00000E+00
         0.00000E+00
         0.00000E+00
         0.00000E+00
         0.00000E+00
         0.00000E+00
         0.00000E+00
         0.00000E+00
         0.00000E+00
         0.00000E+00
         0.00000E+00
         0.00000E+00
         0.00000E+00
         0.00000E+00
         0.00000E+00
         0.00000E+00
         0.00000E+00
         0.00000E+00
         0.00000E+00
         0.00000E+00
         0.00000E+00
         0.00000E+00
         0.00000E+00
         0.00000E+00
         0.00000E+00
         0.00000E+00
         0.00000E+00
         0.00000E+00
         0.00000E+00
         0.00000E+00
         0.00000E+00
         0.00000E+00
         0.00000E+00
         0.00000E+00
         0.00000E+00
         0.00000E+00
         0.00000E+00
         0.00000E+00
         0.00000E+00
         0.00000E+00
         0.00000E+00
         0.00000E+00
         0.00000E+00
         0.00000E+00
         0.00000E+00
         0.00000E+00
         0.00000E+00
         0.00000E+00
         0.00000E+00
         0.00000E+00
         0.00000E+00
         0.00000E+00
         0.00000E+00
         0.00000E+00
         0.00000E+00
         0.00000E+00
         0.00000E+00
         0.00000E+00
         0.00000E+00
         0.00000E+00
         0.00000E+00
         0.00000E+00
         0.00000E+00
         0.00000E+00
         0.00000E+00
         0.00000E+00
         0.00000E+00
         0.00000E+00
         0.00000E+00
         0.00000E+00
         0.00000E+00
         0.00000E+00
         0.00000E+00
         0.00000E+00
         0.00000E+00
         0.00000E+00
         0.00000E+00
         0.00000E+00
         0.00000E+00
         0.00000E+00
         0.00000E+00
         0.00000E+00
         0.00000E+00
         0.00000E+00
         0.00000E+00
         0.00000E+00
         0.00000E+00
         0.00000E+00
         0.00000E+00
         0.00000E+00
         0.00000E+00
         0.00000E+00
         0.00000E+00
         0.00000E+00
         0.00000E+00
         0.00000E+00
         0.00000E+00
         0.00000E+00
         0.00000E+00
         0.00000E+00
         0.00000E+00
         0.00000E+00
         0.00000E+00
         0.00000E+00
         0.00000E+00
         0.00000E+00
         0.00000E+00
         0.00000E+00
         0.00000E+00
         0.00000E+00
         0.00000E+00
         0.00000E+00
         0.00000E+00
         0.00000E+00
         0.00000E+00
         0.00000E+00
         0.00000E+00
         0.00000E+00
         0.00000E+00
         0.00000E+00
         0.00000E+00
         0.00000E+00
         0.00000E+00
         0.00000E+00
         0.00000E+00
         0.00000E+00
         0.00000E+00
         0.00000E+00
         0.00000E+00
         0.00000E+00
         0.00000E+00
         0.00000E+00
         0.00000E+00
         0.00000E+00
         0.00000E+00
         0.00000E+00
         0.00000E+00
         0.00000E+00
         0.00000E+00
         0.00000E+00
         0.00000E+00
         0.00000E+00
         0.00000E+00
         0.00000E+00
         0.00000E+00
         0.00000E+00
         0.00000E+00
         0.00000E+00
         0.00000E+00
         0.00000E+00
         0.00000E+00
         0.00000E+00
         0.00000E+00
         0.00000E+00
         0.00000E+00
         0.00000E+00
         0.00000E+00
         0.00000E+00
         0.00000E+00
         0.00000E+00
         0.00000E+00
         0.00000E+00
         0.00000E+00
         0.00000E+00
         0.00000E+00
         0.00000E+00
         0.00000E+00
         0.00000E+00
         0.00000E+00
         0.00000E+00
         0.00000E+00
         0.00000E+00
         0.00000E+00
         0.00000E+00
         0.00000E+00
         0.00000E+00
         0.00000E+00
         0.00000E+00
         0.00000E+00
         0.00000E+00
         0.00000E+00
         0.00000E+00
         0.00000E+00
         0.00000E+00
         0.00000E+00
         0.00000E+00
         0.00000E+00
         0.00000E+00
         0.00000E+00
         0.00000E+00
         0.00000E+00
         0.00000E+00
         0.00000E+00
         0.00000E+00
         0.00000E+00
         0.00000E+00
         0.00000E+00
         0.00000E+00
         0.00000E+00
         0.00000E+00
         0.00000E+00
         0.00000E+00
         0.00000E+00
         0.00000E+00
         0.00000E+00
         0.00000E+00
         0.00000E+00
         0.00000E+00
         0.00000E+00
         0.00000E+00
         0.00000E+00
         0.00000E+00
         0.00000E+00
         0.00000E+00
         0.00000E+00
         0.00000E+00
         0.00000E+00
         0.00000E+00
         0.00000E+00
         0.00000E+00
         0.00000E+00
         0.00000E+00
         0.00000E+00
         0.00000E+00
         0.00000E+00
         0.00000E+00
         0.00000E+00
         0.00000E+00
         0.00000E+00
         0.00000E+00
         0.00000E+00
         0.00000E+00
         0.00000E+00
         0.00000E+00
         0.00000E+00
         0.00000E+00
         0.00000E+00
         0.00000E+00
         0.00000E+00
         0.00000E+00
         0.00000E+00
         0.00000E+00
         0.00000E+00
         0.00000E+00
         0.00000E+00
         0.00000E+00
         0.00000E+00
         0.00000E+00
         0.00000E+00
         0.00000E+00
         0.00000E+00
         0.00000E+00
         0.00000E+00
         0.00000E+00
         0.00000E+00
         0.00000E+00
         0.00000E+00
         0.00000E+00
         0.00000E+00
         0.00000E+00
         0.00000E+00
         0.00000E+00
         0.00000E+00
         0.00000E+00
         0.00000E+00
         0.00000E+00
         0.00000E+00
         0.00000E+00
         0.00000E+00
         0.00000E+00
         0.00000E+00
         0.00000E+00
         0.00000E+00
         0.00000E+00
         0.00000E+00
         0.00000E+00
         0.00000E+00
         0.00000E+00
         0.00000E+00
         0.00000E+00
         0.00000E+00
         0.00000E+00
         0.00000E+00
         0.00000E+00
         0.00000E+00
         0.00000E+00
         0.00000E+00
         0.00000E+00
         0.00000E+00
         0.00000E+00
         0.00000E+00
         0.00000E+00
         0.00000E+00
         0.00000E+00
         0.00000E+00
         0.00000E+00
         0.00000E+00
         0.00000E+00
         0.00000E+00
         0.00000E+00
         0.00000E+00
         0.00000E+00
         0.00000E+00
         0.00000E+00
         0.00000E+00
         0.00000E+00
         0.00000E+00
         0.00000E+00
         0.00000E+00
         0.00000E+00
         0.00000E+00
         0.00000E+00
         0.00000E+00
         0.00000E+00
         0.00000E+00
         0.00000E+00
         0.00000E+00
         0.00000E+00
         0.00000E+00
         0.00000E+00
         0.00000E+00
         0.00000E+00
         0.00000E+00
         0.00000E+00
         0.00000E+00
         0.00000E+00
         0.00000E+00
         0.00000E+00
         0.00000E+00
         0.00000E+00
         0.00000E+00
         0.00000E+00
         0.00000E+00
         0.00000E+00
         0.00000E+00
         0.00000E+00
         0.00000E+00
         0.00000E+00
         0.00000E+00
         0.00000E+00
         0.00000E+00
         0.00000E+00
         0.00000E+00
         0.00000E+00
         0.00000E+00
         0.00000E+00
         0.00000E+00
         0.00000E+00
         0.00000E+00
         0.00000E+00
         0.00000E+00
         0.00000E+00
         0.00000E+00
         0.00000E+00
         0.00000E+00
         0.00000E+00
         0.00000E+00
         0.00000E+00
         0.00000E+00
         0.00000E+00
         0.00000E+00
         0.00000E+00
         0.00000E+00
         0.00000E+00
         0.00000E+00
         0.00000E+00
         0.00000E+00
         0.00000E+00
         0.00000E+00
         0.00000E+00
         0.00000E+00
         0.00000E+00
         0.00000E+00
         0.00000E+00
         0.00000E+00
         0.00000E+00
         0.00000E+00
         0.00000E+00
         0.00000E+00
         0.00000E+00
         0.00000E+00
         0.00000E+00
         0.00000E+00
         0.00000E+00
         0.00000E+00
         0.00000E+00
         0.00000E+00
         0.00000E+00
         0.00000E+00
         0.00000E+00
         0.00000E+00
         0.00000E+00
         0.00000E+00
         0.00000E+00
         0.00000E+00
         0.00000E+00
         0.00000E+00
         0.00000E+00
         0.00000E+00
         0.00000E+00
         0.00000E+00
         0.00000E+00
         0.00000E+00
         0.00000E+00
         0.00000E+00
         0.00000E+00
         0.00000E+00
         0.00000E+00
         0.00000E+00
         0.00000E+00
         0.00000E+00
         0.00000E+00
         0.00000E+00
         0.00000E+00
         0.00000E+00
         0.00000E+00
         0.00000E+00
         0.00000E+00
         0.00000E+00
         0.00000E+00
         0.00000E+00
         0.00000E+00
         0.00000E+00
         0.00000E+00
         0.00000E+00
         0.00000E+00
         0.00000E+00
         0.00000E+00
         0.00000E+00
         0.00000E+00
         0.00000E+00
         0.00000E+00
         0.00000E+00
         0.00000E+00
         0.00000E+00
         0.00000E+00
         0.00000E+00
         0.00000E+00
         0.00000E+00
         0.00000E+00
         0.00000E+00
         0.00000E+00
         0.00000E+00
         0.00000E+00
         0.00000E+00
         0.00000E+00
         0.00000E+00
         0.00000E+00
         0.00000E+00
         0.00000E+00
         0.00000E+00
         0.00000E+00
         0.00000E+00
         0.00000E+00
         0.00000E+00
         0.00000E+00
         0.00000E+00
         0.00000E+00
         0.00000E+00
         0.00000E+00
         0.00000E+00
         0.00000E+00
         0.00000E+00
         0.00000E+00
         0.00000E+00
         0.00000E+00
         0.00000E+00
         0.00000E+00
         0.00000E+00
         0.00000E+00
         0.00000E+00
         0.00000E+00
         0.00000E+00
         0.00000E+00
         0.00000E+00
         0.00000E+00
         0.00000E+00
         0.00000E+00
         0.00000E+00
         0.00000E+00
         0.00000E+00
         0.00000E+00
         0.00000E+00
         0.00000E+00
         0.00000E+00
         0.00000E+00
         0.00000E+00
         0.00000E+00
         0.00000E+00
         0.00000E+00
         0.00000E+00
         0.00000E+00
         0.00000E+00
         0.00000E+00
         0.00000E+00
         0.00000E+00
         0.00000E+00
         0.00000E+00
         0.00000E+00
         0.00000E+00
         0.00000E+00
         0.00000E+00
         0.00000E+00
         0.00000E+00
         0.00000E+00
         0.00000E+00
         0.00000E+00
         0.00000E+00
         0.00000E+00
         0.00000E+00
         0.00000E+00
         0.00000E+00
         0.00000E+00
         0.00000E+00
         0.00000E+00
         0.00000E+00
         0.00000E+00
         0.00000E+00
         0.00000E+00
         0.00000E+00
         0.00000E+00
         0.00000E+00
         0.00000E+00
         0.00000E+00
         0.00000E+00
         0.00000E+00
         0.00000E+00
         0.00000E+00
         0.00000E+00
         0.00000E+00
         0.00000E+00
         0.00000E+00
         0.00000E+00
         0.00000E+00
         0.00000E+00
         0.00000E+00
         0.00000E+00
         0.00000E+00
         0.00000E+00
         0.00000E+00
         0.00000E+00
         0.00000E+00
         0.00000E+00
         0.00000E+00
         0.00000E+00
         0.00000E+00
         0.00000E+00
         0.00000E+00
         0.00000E+00
         0.00000E+00
         0.00000E+00
         0.00000E+00
         0.00000E+00
         0.00000E+00
         0.00000E+00
         0.00000E+00
         0.00000E+00
         0.00000E+00
         0.00000E+00
         0.00000E+00
         0.00000E+00
         0.00000E+00
         0.00000E+00
         0.00000E+00
         0.00000E+00
         0.00000E+00
         0.00000E+00
         0.00000E+00
         0.00000E+00
         0.00000E+00
         0.00000E+00
         0.00000E+00
         0.00000E+00
         0.00000E+00
         0.00000E+00
         0.00000E+00
         0.00000E+00
         0.00000E+00
         0.00000E+00
         0.00000E+00
         0.00000E+00
         0.00000E+00
         0.00000E+00
         0.00000E+00
         0.00000E+00
         0.00000E+00
         0.00000E+00
         0.00000E+00
         0.00000E+00
         0.00000E+00
         0.00000E+00
         0.00000E+00
         0.00000E+00
         0.00000E+00
         0.00000E+00
         0.00000E+00
         0.00000E+00
         0.00000E+00
         0.00000E+00
         0.00000E+00
         0.00000E+00
         0.00000E+00
         0.00000E+00
         0.00000E+00
         0.00000E+00
         0.00000E+00
         0.00000E+00
         0.00000E+00
         0.00000E+00
         0.00000E+00
         0.00000E+00
         0.00000E+00
         0.00000E+00
         0.00000E+00
         0.00000E+00
         0.00000E+00
         0.00000E+00
         0.00000E+00
         0.00000E+00
         0.00000E+00
         0.00000E+00
         0.00000E+00
         0.00000E+00
         0.00000E+00
         0.00000E+00
         0.00000E+00
         0.00000E+00
         0.00000E+00
         0.00000E+00
         0.00000E+00
         0.00000E+00
         0.00000E+00
         0.00000E+00
         0.00000E+00
         0.00000E+00
         0.00000E+00
         0.00000E+00
         0.00000E+00
         0.00000E+00
         0.00000E+00
         0.00000E+00
         0.00000E+00
         0.00000E+00
         0.00000E+00
         0.00000E+00
         0.00000E+00
         0.00000E+00
         0.00000E+00
         0.00000E+00
         0.00000E+00
         0.00000E+00
         0.00000E+00
         0.00000E+00
         0.00000E+00
         0.00000E+00
         0.00000E+00
         0.00000E+00
         0.00000E+00
         0.00000E+00
         0.00000E+00
         0.00000E+00
         0.00000E+00
         0.00000E+00
         0.00000E+00
         0.00000E+00
         0.00000E+00
         0.00000E+00
         0.00000E+00
         0.00000E+00
         0.00000E+00
         0.00000E+00
         0.00000E+00
         0.00000E+00
         0.00000E+00
         0.00000E+00
         0.00000E+00
         0.00000E+00
         0.00000E+00
         0.00000E+00
         0.00000E+00
         0.00000E+00
         0.00000E+00
         0.00000E+00
         0.00000E+00
         0.00000E+00
         0.00000E+00
         0.00000E+00
         0.00000E+00
         0.00000E+00
         0.00000E+00
         0.00000E+00
         0.00000E+00
         0.00000E+00
         0.00000E+00
         0.00000E+00
         0.00000E+00
         0.00000E+00
         0.00000E+00
         0.00000E+00
         0.00000E+00
         0.00000E+00
         0.00000E+00
         0.00000E+00
         0.00000E+00
         0.00000E+00
         0.00000E+00
         0.00000E+00
         0.00000E+00
         0.00000E+00
         0.00000E+00
         0.00000E+00
         0.00000E+00
         0.00000E+00
         0.00000E+00
         0.00000E+00
         0.00000E+00
         0.00000E+00
         0.00000E+00
         0.00000E+00
         0.00000E+00
         0.00000E+00
         0.00000E+00
         0.00000E+00
         0.00000E+00
         0.00000E+00
         0.00000E+00
         0.00000E+00
         0.00000E+00
         0.00000E+00
         0.00000E+00
         0.00000E+00
         0.00000E+00
         0.00000E+00
         0.00000E+00
         0.00000E+00
         0.00000E+00
         0.00000E+00
         0.00000E+00
         0.00000E+00
         0.00000E+00
         0.00000E+00
         0.00000E+00
         0.00000E+00
         0.00000E+00
         0.00000E+00
         0.00000E+00
         0.00000E+00
         0.00000E+00
         0.00000E+00
         0.00000E+00
         0.00000E+00
         0.00000E+00
         0.00000E+00
         0.00000E+00
         0.00000E+00
         0.00000E+00
         0.00000E+00
         0.00000E+00
         0.00000E+00
         0.00000E+00
         0.00000E+00
         0.00000E+00
         0.00000E+00
         0.00000E+00
         0.00000E+00
         0.00000E+00
         0.00000E+00
         0.00000E+00
         0.00000E+00
         0.00000E+00
         0.00000E+00
         0.00000E+00
         0.00000E+00
         0.00000E+00
         0.00000E+00
         0.00000E+00
         0.00000E+00
         0.00000E+00
         0.00000E+00
         0.00000E+00
         0.00000E+00
         0.00000E+00
         0.00000E+00
         0.00000E+00
         0.00000E+00
         0.00000E+00
         0.00000E+00
         0.00000E+00
         0.00000E+00
         0.00000E+00
         0.00000E+00
         0.00000E+00
         0.00000E+00
         0.00000E+00
         0.00000E+00
         0.00000E+00
         0.00000E+00
         0.00000E+00
         0.00000E+00
         0.00000E+00
         0.00000E+00
         0.00000E+00
         0.00000E+00
         0.00000E+00
         0.00000E+00
         0.00000E+00
         0.00000E+00
         0.00000E+00
         0.00000E+00
         0.00000E+00
         0.00000E+00
         0.00000E+00
         0.00000E+00
         0.00000E+00
         0.00000E+00
         0.00000E+00
         0.00000E+00
         0.00000E+00
         0.00000E+00
         0.00000E+00
         0.00000E+00
         0.00000E+00
         0.00000E+00
         0.00000E+00
         0.00000E+00
         0.00000E+00
         0.00000E+00
         0.00000E+00
         0.00000E+00
         0.00000E+00
         0.00000E+00
         0.00000E+00
         0.00000E+00
         0.00000E+00
         0.00000E+00
         0.00000E+00
         0.00000E+00
         0.00000E+00
         0.00000E+00
         0.00000E+00
         0.00000E+00
         0.00000E+00
         0.00000E+00
         0.00000E+00
         0.00000E+00
         0.00000E+00
         0.00000E+00
         0.00000E+00
         0.00000E+00
         0.00000E+00
         0.00000E+00
         0.00000E+00
         0.00000E+00
         0.00000E+00
         0.00000E+00
         0.00000E+00
         0.00000E+00
         0.00000E+00
         0.00000E+00
         0.00000E+00
         0.00000E+00
         0.00000E+00
         0.00000E+00
         0.00000E+00
         0.00000E+00
         0.00000E+00
         0.00000E+00
         0.00000E+00
         0.00000E+00
         0.00000E+00
         0.00000E+00
         0.00000E+00
         0.00000E+00
         0.00000E+00
         0.00000E+00
         0.00000E+00
         0.00000E+00
         0.00000E+00
         0.00000E+00
         0.00000E+00
         0.00000E+00
         0.00000E+00
         0.00000E+00
         0.00000E+00
         0.00000E+00
         0.00000E+00
         0.00000E+00
         0.00000E+00
         0.00000E+00
         0.00000E+00
         0.00000E+00
         0.00000E+00
         0.00000E+00
         0.00000E+00
         0.00000E+00
         0.00000E+00
         0.00000E+00
         0.00000E+00
         0.00000E+00
         0.00000E+00
         0.00000E+00
         0.00000E+00
         0.00000E+00
         0.00000E+00
         0.00000E+00
         0.00000E+00
         0.00000E+00
         0.00000E+00
         0.00000E+00
         0.00000E+00
         0.00000E+00
         0.00000E+00
         0.00000E+00
         0.00000E+00
         0.00000E+00
         0.00000E+00
         0.00000E+00
         0.00000E+00
         0.00000E+00
         0.00000E+00
         0.00000E+00
         0.00000E+00
         0.00000E+00
         0.00000E+00
         0.00000E+00
         0.00000E+00
         0.00000E+00
         0.00000E+00
         0.00000E+00
         0.00000E+00
         0.00000E+00
         0.00000E+00
         0.00000E+00
         0.00000E+00
         0.00000E+00
         0.00000E+00
         0.00000E+00
         0.00000E+00
         0.00000E+00
         0.00000E+00
         0.00000E+00
         0.00000E+00
         0.00000E+00
         0.00000E+00
         0.00000E+00
         0.00000E+00
         0.00000E+00
         0.00000E+00
         0.00000E+00
         0.00000E+00
         0.00000E+00
         0.00000E+00
         0.00000E+00
         0.00000E+00
         0.00000E+00
         0.00000E+00
         0.00000E+00
         0.00000E+00
         0.00000E+00
         0.00000E+00
         0.00000E+00
         0.00000E+00
         0.00000E+00
         0.00000E+00
         0.00000E+00
         0.00000E+00
         0.00000E+00
         0.00000E+00
         0.00000E+00
         0.00000E+00
         0.00000E+00
         0.00000E+00
         0.00000E+00
         0.00000E+00
         0.00000E+00
         0.00000E+00
         0.00000E+00
         0.00000E+00
         0.00000E+00
         0.00000E+00
         0.00000E+00
         0.00000E+00
         0.00000E+00
         0.00000E+00
         0.00000E+00
         0.00000E+00
         0.00000E+00
         0.00000E+00
         0.00000E+00
         0.00000E+00
         0.00000E+00
         0.00000E+00
         0.00000E+00
         0.00000E+00
         0.00000E+00
         0.00000E+00
         0.00000E+00
         0.00000E+00
         0.00000E+00
         0.00000E+00
         0.00000E+00
         0.00000E+00
         0.00000E+00
         0.00000E+00
         0.00000E+00
         0.00000E+00
         0.00000E+00
         0.00000E+00
         0.00000E+00
         0.00000E+00
         0.00000E+00
         0.00000E+00
         0.00000E+00
         0.00000E+00
         0.00000E+00
         0.00000E+00
         0.00000E+00
         0.00000E+00
         0.00000E+00
         0.00000E+00
         0.00000E+00
         0.00000E+00
         0.00000E+00
         0.00000E+00
         0.00000E+00
         0.00000E+00
         0.00000E+00
         0.00000E+00
         0.00000E+00
         0.00000E+00
         0.00000E+00
         0.00000E+00
         0.00000E+00
         0.00000E+00
         0.00000E+00
         0.00000E+00
         0.00000E+00
         0.00000E+00
         0.00000E+00
         0.00000E+00
         0.00000E+00
         0.00000E+00
         0.00000E+00
         0.00000E+00
         0.00000E+00
         0.00000E+00
         0.00000E+00
         0.00000E+00
         0.00000E+00
         0.00000E+00
         0.00000E+00
         0.00000E+00
         0.00000E+00
         0.00000E+00
         0.00000E+00
         0.00000E+00
         0.00000E+00
         0.00000E+00
         0.00000E+00
         0.00000E+00
         0.00000E+00
         0.00000E+00
         0.00000E+00
         0.00000E+00
         0.00000E+00
         0.00000E+00
         0.00000E+00
         0.00000E+00
         0.00000E+00
         0.00000E+00
         0.00000E+00
         0.00000E+00
         0.00000E+00
         0.00000E+00
         0.00000E+00
         0.00000E+00
         0.00000E+00
         0.00000E+00
         0.00000E+00
         0.00000E+00
         0.00000E+00
         0.00000E+00
         0.00000E+00
         0.00000E+00
         0.00000E+00
         0.00000E+00
         0.00000E+00
         0.00000E+00
         0.00000E+00
         0.00000E+00
         0.00000E+00
         0.00000E+00
         0.00000E+00
         0.00000E+00
         0.00000E+00
         0.00000E+00
         0.00000E+00
         0.00000E+00
         0.00000E+00
         0.00000E+00
         0.00000E+00
         0.00000E+00
         0.00000E+00
         0.00000E+00
         0.00000E+00
         0.00000E+00
         0.00000E+00
         0.00000E+00
         0.00000E+00
         0.00000E+00
         0.00000E+00
         0.00000E+00
         0.00000E+00
         0.00000E+00
         0.00000E+00
         0.00000E+00
         0.00000E+00
         0.00000E+00
         0.00000E+00
         0.00000E+00
         0.00000E+00
         0.00000E+00
         0.00000E+00
         0.00000E+00
         0.00000E+00
         0.00000E+00
         0.00000E+00
         0.00000E+00
         0.00000E+00
         0.00000E+00
         0.00000E+00
         0.00000E+00
         0.00000E+00
         0.00000E+00
         0.00000E+00
         0.00000E+00
         0.00000E+00
         0.00000E+00
         0.00000E+00
         0.00000E+00
         0.00000E+00
         0.00000E+00
         0.00000E+00
         0.00000E+00
         0.00000E+00
         0.00000E+00
         0.00000E+00
         0.00000E+00
         0.00000E+00
         0.00000E+00
         0.00000E+00
         0.00000E+00
         0.00000E+00
         0.00000E+00
         0.00000E+00
         0.00000E+00
         0.00000E+00
         0.00000E+00
         0.00000E+00
         0.00000E+00
         0.00000E+00
         0.00000E+00
         0.00000E+00
         0.00000E+00
         0.00000E+00
         0.00000E+00
         0.00000E+00
         0.00000E+00
         0.00000E+00
         0.00000E+00
         0.00000E+00
         0.00000E+00
         0.00000E+00
         0.00000E+00
         0.00000E+00
         0.00000E+00
         0.00000E+00
         0.00000E+00
         0.00000E+00
         0.00000E+00
         0.00000E+00
         0.00000E+00
         0.00000E+00
         0.00000E+00
         0.00000E+00
         0.00000E+00
         0.00000E+00
         0.00000E+00
         0.00000E+00
         0.00000E+00
         0.00000E+00
         0.00000E+00
         0.00000E+00
         0.00000E+00
         0.00000E+00
         0.00000E+00
         0.00000E+00
         0.00000E+00
         0.00000E+00
         0.00000E+00
         0.00000E+00
         0.00000E+00
         0.00000E+00
         0.00000E+00
         0.00000E+00
         0.00000E+00
         0.00000E+00
         0.00000E+00
         0.00000E+00
         0.00000E+00
         0.00000E+00
         0.00000E+00
         0.00000E+00
         0.00000E+00
         0.00000E+00
         0.00000E+00
         0.00000E+00
         0.00000E+00
         0.00000E+00
         0.00000E+00
         0.00000E+00
         0.00000E+00
         0.00000E+00
         0.00000E+00
         0.00000E+00
         0.00000E+00
         0.00000E+00
         0.00000E+00
         0.00000E+00
         0.00000E+00
         0.00000E+00
         0.00000E+00
         0.00000E+00
         0.00000E+00
         0.00000E+00
         0.00000E+00
         0.00000E+00
         0.00000E+00
         0.00000E+00
         0.00000E+00
         0.00000E+00
         0.00000E+00
         0.00000E+00
         0.00000E+00
         0.00000E+00
         0.00000E+00
         0.00000E+00
         0.00000E+00
         0.00000E+00
         0.00000E+00
         0.00000E+00
         0.00000E+00
         0.00000E+00
         0.00000E+00
         0.00000E+00
         0.00000E+00
         0.00000E+00
         0.00000E+00
         0.00000E+00
         0.00000E+00
         0.00000E+00
         0.00000E+00
         0.00000E+00
         0.00000E+00
         0.00000E+00
         0.00000E+00
         0.00000E+00
         0.00000E+00
         0.00000E+00
         0.00000E+00
         0.00000E+00
         0.00000E+00
         0.00000E+00
         0.00000E+00
         0.00000E+00
         0.00000E+00
         0.00000E+00
         0.00000E+00
         0.00000E+00
         0.00000E+00
         0.00000E+00
         0.00000E+00
         0.00000E+00
         0.00000E+00
         0.00000E+00
         0.00000E+00
         0.00000E+00
         0.00000E+00
         0.00000E+00
         0.00000E+00
         0.00000E+00
         0.00000E+00
         0.00000E+00
         0.00000E+00
         0.00000E+00
         0.00000E+00
         0.00000E+00
         0.00000E+00
         0.00000E+00
         0.00000E+00
         0.00000E+00
         0.00000E+00
         0.00000E+00
         0.00000E+00
         0.00000E+00
         0.00000E+00
         0.00000E+00
         0.00000E+00
         0.00000E+00
         0.00000E+00
         0.00000E+00
         0.00000E+00
         0.00000E+00
         0.00000E+00
         0.00000E+00
         0.00000E+00
         0.00000E+00
         0.00000E+00
         0.00000E+00
         0.00000E+00
         0.00000E+00
         0.00000E+00
         0.00000E+00
         0.00000E+00
         0.00000E+00
         0.00000E+00
         0.00000E+00
         0.00000E+00
         0.00000E+00
         0.00000E+00
         0.00000E+00
         0.00000E+00
         0.00000E+00
         0.00000E+00
         0.00000E+00
         0.00000E+00
         0.00000E+00
         0.00000E+00
         0.00000E+00
         0.00000E+00
         0.00000E+00
         0.00000E+00
         0.00000E+00
         0.00000E+00
         0.00000E+00
         0.00000E+00
         0.00000E+00
         0.00000E+00
         0.00000E+00
         0.00000E+00
         0.00000E+00
         0.00000E+00
         0.00000E+00
         0.00000E+00
         0.00000E+00
         0.00000E+00
         0.00000E+00
         0.00000E+00
         0.00000E+00
         0.00000E+00
         0.00000E+00
         0.00000E+00
         0.00000E+00
         0.00000E+00
         0.00000E+00
         0.00000E+00
         0.00000E+00
         0.00000E+00
         0.00000E+00
         0.00000E+00
         0.00000E+00
         0.00000E+00
         0.00000E+00
         0.00000E+00
         0.00000E+00
         0.00000E+00
         0.00000E+00
         0.00000E+00
         0.00000E+00
         0.00000E+00
         0.00000E+00
         0.00000E+00
         0.00000E+00
         0.00000E+00
         0.00000E+00
         0.00000E+00
         0.00000E+00
         0.00000E+00
         0.00000E+00
         0.00000E+00
         0.00000E+00
         0.00000E+00
         0.00000E+00
         0.00000E+00
         0.00000E+00
         0.00000E+00
         0.00000E+00
         0.00000E+00
         0.00000E+00
         0.00000E+00
         0.00000E+00
         0.00000E+00
         0.00000E+00
         0.00000E+00
         0.00000E+00
         0.00000E+00
         0.00000E+00
         0.00000E+00
         0.00000E+00
         0.00000E+00
         0.00000E+00
         0.00000E+00
         0.00000E+00
         0.00000E+00
         0.00000E+00
         0.00000E+00
         0.00000E+00
         0.00000E+00
         0.00000E+00
         0.00000E+00
         0.00000E+00
         0.00000E+00
         0.00000E+00
         0.00000E+00
         0.00000E+00
         0.00000E+00
         0.00000E+00
         0.00000E+00
         0.00000E+00
         0.00000E+00
         0.00000E+00
         0.00000E+00
         0.00000E+00
         0.00000E+00
         0.00000E+00
         0.00000E+00
         0.00000E+00
         0.00000E+00
         0.00000E+00
         0.00000E+00
  
SCALARS                         fint_z  double 1
LOOKUP_TABLE default
         0.00000E+00
         0.00000E+00
         0.00000E+00
         0.00000E+00
         0.00000E+00
         0.00000E+00
         0.00000E+00
         0.00000E+00
         0.00000E+00
         0.00000E+00
         0.00000E+00
         0.00000E+00
         0.00000E+00
         0.00000E+00
         0.00000E+00
         0.00000E+00
         0.00000E+00
         0.00000E+00
         0.00000E+00
         0.00000E+00
         0.00000E+00
         0.00000E+00
         0.00000E+00
         0.00000E+00
         0.00000E+00
         0.00000E+00
         0.00000E+00
         0.00000E+00
         0.00000E+00
         0.00000E+00
         0.00000E+00
         0.00000E+00
         0.00000E+00
         0.00000E+00
         0.00000E+00
         0.00000E+00
         0.00000E+00
         0.00000E+00
         0.00000E+00
         0.00000E+00
         0.00000E+00
         0.00000E+00
         0.00000E+00
         0.00000E+00
         0.00000E+00
         0.00000E+00
         0.00000E+00
         0.00000E+00
         0.00000E+00
         0.00000E+00
         0.00000E+00
         0.00000E+00
         0.00000E+00
         0.00000E+00
         0.00000E+00
         0.00000E+00
         0.00000E+00
         0.00000E+00
         0.00000E+00
         0.00000E+00
         0.00000E+00
         0.00000E+00
         0.00000E+00
         0.00000E+00
         0.00000E+00
         0.00000E+00
         0.00000E+00
         0.00000E+00
         0.00000E+00
         0.00000E+00
         0.00000E+00
         0.00000E+00
         0.00000E+00
         0.00000E+00
         0.00000E+00
         0.00000E+00
         0.00000E+00
         0.00000E+00
         0.00000E+00
         0.00000E+00
         0.00000E+00
         0.00000E+00
         0.00000E+00
         0.00000E+00
         0.00000E+00
         0.00000E+00
         0.00000E+00
         0.00000E+00
         0.00000E+00
         0.00000E+00
         0.00000E+00
         0.00000E+00
         0.00000E+00
         0.00000E+00
         0.00000E+00
         0.00000E+00
         0.00000E+00
         0.00000E+00
         0.00000E+00
         0.00000E+00
         0.00000E+00
         0.00000E+00
         0.00000E+00
         0.00000E+00
         0.00000E+00
         0.00000E+00
         0.00000E+00
         0.00000E+00
         0.00000E+00
         0.00000E+00
         0.00000E+00
         0.00000E+00
         0.00000E+00
         0.00000E+00
         0.00000E+00
         0.00000E+00
         0.00000E+00
         0.00000E+00
         0.00000E+00
         0.00000E+00
         0.00000E+00
         0.00000E+00
         0.00000E+00
         0.00000E+00
         0.00000E+00
         0.00000E+00
         0.00000E+00
         0.00000E+00
         0.00000E+00
         0.00000E+00
         0.00000E+00
         0.00000E+00
         0.00000E+00
         0.00000E+00
         0.00000E+00
         0.00000E+00
         0.00000E+00
         0.00000E+00
         0.00000E+00
         0.00000E+00
         0.00000E+00
         0.00000E+00
         0.00000E+00
         0.00000E+00
         0.00000E+00
         0.00000E+00
         0.00000E+00
         0.00000E+00
         0.00000E+00
         0.00000E+00
         0.00000E+00
         0.00000E+00
         0.00000E+00
         0.00000E+00
         0.00000E+00
         0.00000E+00
         0.00000E+00
         0.00000E+00
         0.00000E+00
         0.00000E+00
         0.00000E+00
         0.00000E+00
         0.00000E+00
         0.00000E+00
         0.00000E+00
         0.00000E+00
         0.00000E+00
         0.00000E+00
         0.00000E+00
         0.00000E+00
         0.00000E+00
         0.00000E+00
         0.00000E+00
         0.00000E+00
         0.00000E+00
         0.00000E+00
         0.00000E+00
         0.00000E+00
         0.00000E+00
         0.00000E+00
         0.00000E+00
         0.00000E+00
         0.00000E+00
         0.00000E+00
         0.00000E+00
         0.00000E+00
         0.00000E+00
         0.00000E+00
         0.00000E+00
         0.00000E+00
         0.00000E+00
         0.00000E+00
         0.00000E+00
         0.00000E+00
         0.00000E+00
         0.00000E+00
         0.00000E+00
         0.00000E+00
         0.00000E+00
         0.00000E+00
         0.00000E+00
         0.00000E+00
         0.00000E+00
         0.00000E+00
         0.00000E+00
         0.00000E+00
         0.00000E+00
         0.00000E+00
         0.00000E+00
         0.00000E+00
         0.00000E+00
         0.00000E+00
         0.00000E+00
         0.00000E+00
         0.00000E+00
         0.00000E+00
         0.00000E+00
         0.00000E+00
         0.00000E+00
         0.00000E+00
         0.00000E+00
         0.00000E+00
         0.00000E+00
         0.00000E+00
         0.00000E+00
         0.00000E+00
         0.00000E+00
         0.00000E+00
         0.00000E+00
         0.00000E+00
         0.00000E+00
         0.00000E+00
         0.00000E+00
         0.00000E+00
         0.00000E+00
         0.00000E+00
         0.00000E+00
         0.00000E+00
         0.00000E+00
         0.00000E+00
         0.00000E+00
         0.00000E+00
         0.00000E+00
         0.00000E+00
         0.00000E+00
         0.00000E+00
         0.00000E+00
         0.00000E+00
         0.00000E+00
         0.00000E+00
         0.00000E+00
         0.00000E+00
         0.00000E+00
         0.00000E+00
         0.00000E+00
         0.00000E+00
         0.00000E+00
         0.00000E+00
         0.00000E+00
         0.00000E+00
         0.00000E+00
         0.00000E+00
         0.00000E+00
         0.00000E+00
         0.00000E+00
         0.00000E+00
         0.00000E+00
         0.00000E+00
         0.00000E+00
         0.00000E+00
         0.00000E+00
         0.00000E+00
         0.00000E+00
         0.00000E+00
         0.00000E+00
         0.00000E+00
         0.00000E+00
         0.00000E+00
         0.00000E+00
         0.00000E+00
         0.00000E+00
         0.00000E+00
         0.00000E+00
         0.00000E+00
         0.00000E+00
         0.00000E+00
         0.00000E+00
         0.00000E+00
         0.00000E+00
         0.00000E+00
         0.00000E+00
         0.00000E+00
         0.00000E+00
         0.00000E+00
         0.00000E+00
         0.00000E+00
         0.00000E+00
         0.00000E+00
         0.00000E+00
         0.00000E+00
         0.00000E+00
         0.00000E+00
         0.00000E+00
         0.00000E+00
         0.00000E+00
         0.00000E+00
         0.00000E+00
         0.00000E+00
         0.00000E+00
         0.00000E+00
         0.00000E+00
         0.00000E+00
         0.00000E+00
         0.00000E+00
         0.00000E+00
         0.00000E+00
         0.00000E+00
         0.00000E+00
         0.00000E+00
         0.00000E+00
         0.00000E+00
         0.00000E+00
         0.00000E+00
         0.00000E+00
         0.00000E+00
         0.00000E+00
         0.00000E+00
         0.00000E+00
         0.00000E+00
         0.00000E+00
         0.00000E+00
         0.00000E+00
         0.00000E+00
         0.00000E+00
         0.00000E+00
         0.00000E+00
         0.00000E+00
         0.00000E+00
         0.00000E+00
         0.00000E+00
         0.00000E+00
         0.00000E+00
         0.00000E+00
         0.00000E+00
         0.00000E+00
         0.00000E+00
         0.00000E+00
         0.00000E+00
         0.00000E+00
         0.00000E+00
         0.00000E+00
         0.00000E+00
         0.00000E+00
         0.00000E+00
         0.00000E+00
         0.00000E+00
         0.00000E+00
         0.00000E+00
         0.00000E+00
         0.00000E+00
         0.00000E+00
         0.00000E+00
         0.00000E+00
         0.00000E+00
         0.00000E+00
         0.00000E+00
         0.00000E+00
         0.00000E+00
         0.00000E+00
         0.00000E+00
         0.00000E+00
         0.00000E+00
         0.00000E+00
         0.00000E+00
         0.00000E+00
         0.00000E+00
         0.00000E+00
         0.00000E+00
         0.00000E+00
         0.00000E+00
         0.00000E+00
         0.00000E+00
         0.00000E+00
         0.00000E+00
         0.00000E+00
         0.00000E+00
         0.00000E+00
         0.00000E+00
         0.00000E+00
         0.00000E+00
         0.00000E+00
         0.00000E+00
         0.00000E+00
         0.00000E+00
         0.00000E+00
         0.00000E+00
         0.00000E+00
         0.00000E+00
         0.00000E+00
         0.00000E+00
         0.00000E+00
         0.00000E+00
         0.00000E+00
         0.00000E+00
         0.00000E+00
         0.00000E+00
         0.00000E+00
         0.00000E+00
         0.00000E+00
         0.00000E+00
         0.00000E+00
         0.00000E+00
         0.00000E+00
         0.00000E+00
         0.00000E+00
         0.00000E+00
         0.00000E+00
         0.00000E+00
         0.00000E+00
         0.00000E+00
         0.00000E+00
         0.00000E+00
         0.00000E+00
         0.00000E+00
         0.00000E+00
         0.00000E+00
         0.00000E+00
         0.00000E+00
         0.00000E+00
         0.00000E+00
         0.00000E+00
         0.00000E+00
         0.00000E+00
         0.00000E+00
         0.00000E+00
         0.00000E+00
         0.00000E+00
         0.00000E+00
         0.00000E+00
         0.00000E+00
         0.00000E+00
         0.00000E+00
         0.00000E+00
         0.00000E+00
         0.00000E+00
         0.00000E+00
         0.00000E+00
         0.00000E+00
         0.00000E+00
         0.00000E+00
         0.00000E+00
         0.00000E+00
         0.00000E+00
         0.00000E+00
         0.00000E+00
         0.00000E+00
         0.00000E+00
         0.00000E+00
         0.00000E+00
         0.00000E+00
         0.00000E+00
         0.00000E+00
         0.00000E+00
         0.00000E+00
         0.00000E+00
         0.00000E+00
         0.00000E+00
         0.00000E+00
         0.00000E+00
         0.00000E+00
         0.00000E+00
         0.00000E+00
         0.00000E+00
         0.00000E+00
         0.00000E+00
         0.00000E+00
         0.00000E+00
         0.00000E+00
         0.00000E+00
         0.00000E+00
         0.00000E+00
         0.00000E+00
         0.00000E+00
         0.00000E+00
         0.00000E+00
         0.00000E+00
         0.00000E+00
         0.00000E+00
         0.00000E+00
         0.00000E+00
         0.00000E+00
         0.00000E+00
         0.00000E+00
         0.00000E+00
         0.00000E+00
         0.00000E+00
         0.00000E+00
         0.00000E+00
         0.00000E+00
         0.00000E+00
         0.00000E+00
         0.00000E+00
         0.00000E+00
         0.00000E+00
         0.00000E+00
         0.00000E+00
         0.00000E+00
         0.00000E+00
         0.00000E+00
         0.00000E+00
         0.00000E+00
         0.00000E+00
         0.00000E+00
         0.00000E+00
         0.00000E+00
         0.00000E+00
         0.00000E+00
         0.00000E+00
         0.00000E+00
         0.00000E+00
         0.00000E+00
         0.00000E+00
         0.00000E+00
         0.00000E+00
         0.00000E+00
         0.00000E+00
         0.00000E+00
         0.00000E+00
         0.00000E+00
         0.00000E+00
         0.00000E+00
         0.00000E+00
         0.00000E+00
         0.00000E+00
         0.00000E+00
         0.00000E+00
         0.00000E+00
         0.00000E+00
         0.00000E+00
         0.00000E+00
         0.00000E+00
         0.00000E+00
         0.00000E+00
         0.00000E+00
         0.00000E+00
         0.00000E+00
         0.00000E+00
         0.00000E+00
         0.00000E+00
         0.00000E+00
         0.00000E+00
         0.00000E+00
         0.00000E+00
         0.00000E+00
         0.00000E+00
         0.00000E+00
         0.00000E+00
         0.00000E+00
         0.00000E+00
         0.00000E+00
         0.00000E+00
         0.00000E+00
         0.00000E+00
         0.00000E+00
         0.00000E+00
         0.00000E+00
         0.00000E+00
         0.00000E+00
         0.00000E+00
         0.00000E+00
         0.00000E+00
         0.00000E+00
         0.00000E+00
         0.00000E+00
         0.00000E+00
         0.00000E+00
         0.00000E+00
         0.00000E+00
         0.00000E+00
         0.00000E+00
         0.00000E+00
         0.00000E+00
         0.00000E+00
         0.00000E+00
         0.00000E+00
         0.00000E+00
         0.00000E+00
         0.00000E+00
         0.00000E+00
         0.00000E+00
         0.00000E+00
         0.00000E+00
         0.00000E+00
         0.00000E+00
         0.00000E+00
         0.00000E+00
         0.00000E+00
         0.00000E+00
         0.00000E+00
         0.00000E+00
         0.00000E+00
         0.00000E+00
         0.00000E+00
         0.00000E+00
         0.00000E+00
         0.00000E+00
         0.00000E+00
         0.00000E+00
         0.00000E+00
         0.00000E+00
         0.00000E+00
         0.00000E+00
         0.00000E+00
         0.00000E+00
         0.00000E+00
         0.00000E+00
         0.00000E+00
         0.00000E+00
         0.00000E+00
         0.00000E+00
         0.00000E+00
         0.00000E+00
         0.00000E+00
         0.00000E+00
         0.00000E+00
         0.00000E+00
         0.00000E+00
         0.00000E+00
         0.00000E+00
         0.00000E+00
         0.00000E+00
         0.00000E+00
         0.00000E+00
         0.00000E+00
         0.00000E+00
         0.00000E+00
         0.00000E+00
         0.00000E+00
         0.00000E+00
         0.00000E+00
         0.00000E+00
         0.00000E+00
         0.00000E+00
         0.00000E+00
         0.00000E+00
         0.00000E+00
         0.00000E+00
         0.00000E+00
         0.00000E+00
         0.00000E+00
         0.00000E+00
         0.00000E+00
         0.00000E+00
         0.00000E+00
         0.00000E+00
         0.00000E+00
         0.00000E+00
         0.00000E+00
         0.00000E+00
         0.00000E+00
         0.00000E+00
         0.00000E+00
         0.00000E+00
         0.00000E+00
         0.00000E+00
         0.00000E+00
         0.00000E+00
         0.00000E+00
         0.00000E+00
         0.00000E+00
         0.00000E+00
         0.00000E+00
         0.00000E+00
         0.00000E+00
         0.00000E+00
         0.00000E+00
         0.00000E+00
         0.00000E+00
         0.00000E+00
         0.00000E+00
         0.00000E+00
         0.00000E+00
         0.00000E+00
         0.00000E+00
         0.00000E+00
         0.00000E+00
         0.00000E+00
         0.00000E+00
         0.00000E+00
         0.00000E+00
         0.00000E+00
         0.00000E+00
         0.00000E+00
         0.00000E+00
         0.00000E+00
         0.00000E+00
         0.00000E+00
         0.00000E+00
         0.00000E+00
         0.00000E+00
         0.00000E+00
         0.00000E+00
         0.00000E+00
         0.00000E+00
         0.00000E+00
         0.00000E+00
         0.00000E+00
         0.00000E+00
         0.00000E+00
         0.00000E+00
         0.00000E+00
         0.00000E+00
         0.00000E+00
         0.00000E+00
         0.00000E+00
         0.00000E+00
         0.00000E+00
         0.00000E+00
         0.00000E+00
         0.00000E+00
         0.00000E+00
         0.00000E+00
         0.00000E+00
         0.00000E+00
         0.00000E+00
         0.00000E+00
         0.00000E+00
         0.00000E+00
         0.00000E+00
         0.00000E+00
         0.00000E+00
         0.00000E+00
         0.00000E+00
         0.00000E+00
         0.00000E+00
         0.00000E+00
         0.00000E+00
         0.00000E+00
         0.00000E+00
         0.00000E+00
         0.00000E+00
         0.00000E+00
         0.00000E+00
         0.00000E+00
         0.00000E+00
         0.00000E+00
         0.00000E+00
         0.00000E+00
         0.00000E+00
         0.00000E+00
         0.00000E+00
         0.00000E+00
         0.00000E+00
         0.00000E+00
         0.00000E+00
         0.00000E+00
         0.00000E+00
         0.00000E+00
         0.00000E+00
         0.00000E+00
         0.00000E+00
         0.00000E+00
         0.00000E+00
         0.00000E+00
         0.00000E+00
         0.00000E+00
         0.00000E+00
         0.00000E+00
         0.00000E+00
         0.00000E+00
         0.00000E+00
         0.00000E+00
         0.00000E+00
         0.00000E+00
         0.00000E+00
         0.00000E+00
         0.00000E+00
         0.00000E+00
         0.00000E+00
         0.00000E+00
         0.00000E+00
         0.00000E+00
         0.00000E+00
         0.00000E+00
         0.00000E+00
         0.00000E+00
         0.00000E+00
         0.00000E+00
         0.00000E+00
         0.00000E+00
         0.00000E+00
         0.00000E+00
         0.00000E+00
         0.00000E+00
         0.00000E+00
         0.00000E+00
         0.00000E+00
         0.00000E+00
         0.00000E+00
         0.00000E+00
         0.00000E+00
         0.00000E+00
         0.00000E+00
         0.00000E+00
         0.00000E+00
         0.00000E+00
         0.00000E+00
         0.00000E+00
         0.00000E+00
         0.00000E+00
         0.00000E+00
         0.00000E+00
         0.00000E+00
         0.00000E+00
         0.00000E+00
         0.00000E+00
         0.00000E+00
         0.00000E+00
         0.00000E+00
         0.00000E+00
         0.00000E+00
         0.00000E+00
         0.00000E+00
         0.00000E+00
         0.00000E+00
         0.00000E+00
         0.00000E+00
         0.00000E+00
         0.00000E+00
         0.00000E+00
         0.00000E+00
         0.00000E+00
         0.00000E+00
         0.00000E+00
         0.00000E+00
         0.00000E+00
         0.00000E+00
         0.00000E+00
         0.00000E+00
         0.00000E+00
         0.00000E+00
         0.00000E+00
         0.00000E+00
         0.00000E+00
         0.00000E+00
         0.00000E+00
         0.00000E+00
         0.00000E+00
         0.00000E+00
         0.00000E+00
         0.00000E+00
         0.00000E+00
         0.00000E+00
         0.00000E+00
         0.00000E+00
         0.00000E+00
         0.00000E+00
         0.00000E+00
         0.00000E+00
         0.00000E+00
         0.00000E+00
         0.00000E+00
         0.00000E+00
         0.00000E+00
         0.00000E+00
         0.00000E+00
         0.00000E+00
         0.00000E+00
         0.00000E+00
         0.00000E+00
         0.00000E+00
         0.00000E+00
         0.00000E+00
         0.00000E+00
         0.00000E+00
         0.00000E+00
         0.00000E+00
         0.00000E+00
         0.00000E+00
         0.00000E+00
         0.00000E+00
         0.00000E+00
         0.00000E+00
         0.00000E+00
         0.00000E+00
         0.00000E+00
         0.00000E+00
         0.00000E+00
         0.00000E+00
         0.00000E+00
         0.00000E+00
         0.00000E+00
         0.00000E+00
         0.00000E+00
         0.00000E+00
         0.00000E+00
         0.00000E+00
         0.00000E+00
         0.00000E+00
         0.00000E+00
         0.00000E+00
         0.00000E+00
         0.00000E+00
         0.00000E+00
         0.00000E+00
         0.00000E+00
         0.00000E+00
         0.00000E+00
         0.00000E+00
         0.00000E+00
         0.00000E+00
         0.00000E+00
         0.00000E+00
         0.00000E+00
         0.00000E+00
         0.00000E+00
         0.00000E+00
         0.00000E+00
         0.00000E+00
         0.00000E+00
         0.00000E+00
         0.00000E+00
         0.00000E+00
         0.00000E+00
         0.00000E+00
         0.00000E+00
         0.00000E+00
         0.00000E+00
         0.00000E+00
         0.00000E+00
         0.00000E+00
         0.00000E+00
         0.00000E+00
         0.00000E+00
         0.00000E+00
         0.00000E+00
         0.00000E+00
         0.00000E+00
         0.00000E+00
         0.00000E+00
         0.00000E+00
         0.00000E+00
         0.00000E+00
         0.00000E+00
         0.00000E+00
         0.00000E+00
         0.00000E+00
         0.00000E+00
         0.00000E+00
         0.00000E+00
         0.00000E+00
         0.00000E+00
         0.00000E+00
         0.00000E+00
         0.00000E+00
         0.00000E+00
         0.00000E+00
         0.00000E+00
         0.00000E+00
         0.00000E+00
         0.00000E+00
         0.00000E+00
         0.00000E+00
         0.00000E+00
         0.00000E+00
         0.00000E+00
         0.00000E+00
         0.00000E+00
         0.00000E+00
         0.00000E+00
         0.00000E+00
         0.00000E+00
         0.00000E+00
         0.00000E+00
         0.00000E+00
         0.00000E+00
         0.00000E+00
         0.00000E+00
         0.00000E+00
         0.00000E+00
         0.00000E+00
         0.00000E+00
         0.00000E+00
         0.00000E+00
         0.00000E+00
         0.00000E+00
         0.00000E+00
         0.00000E+00
         0.00000E+00
         0.00000E+00
         0.00000E+00
         0.00000E+00
         0.00000E+00
         0.00000E+00
         0.00000E+00
         0.00000E+00
         0.00000E+00
         0.00000E+00
         0.00000E+00
         0.00000E+00
         0.00000E+00
         0.00000E+00
         0.00000E+00
         0.00000E+00
         0.00000E+00
         0.00000E+00
         0.00000E+00
         0.00000E+00
         0.00000E+00
         0.00000E+00
         0.00000E+00
         0.00000E+00
         0.00000E+00
         0.00000E+00
         0.00000E+00
         0.00000E+00
         0.00000E+00
         0.00000E+00
         0.00000E+00
         0.00000E+00
         0.00000E+00
         0.00000E+00
         0.00000E+00
         0.00000E+00
         0.00000E+00
         0.00000E+00
         0.00000E+00
         0.00000E+00
         0.00000E+00
         0.00000E+00
         0.00000E+00
         0.00000E+00
         0.00000E+00
         0.00000E+00
         0.00000E+00
         0.00000E+00
         0.00000E+00
         0.00000E+00
         0.00000E+00
         0.00000E+00
         0.00000E+00
         0.00000E+00
         0.00000E+00
         0.00000E+00
         0.00000E+00
         0.00000E+00
         0.00000E+00
         0.00000E+00
         0.00000E+00
         0.00000E+00
         0.00000E+00
         0.00000E+00
         0.00000E+00
         0.00000E+00
         0.00000E+00
         0.00000E+00
         0.00000E+00
         0.00000E+00
         0.00000E+00
         0.00000E+00
         0.00000E+00
         0.00000E+00
         0.00000E+00
         0.00000E+00
         0.00000E+00
         0.00000E+00
         0.00000E+00
         0.00000E+00
         0.00000E+00
         0.00000E+00
         0.00000E+00
         0.00000E+00
         0.00000E+00
         0.00000E+00
         0.00000E+00
         0.00000E+00
         0.00000E+00
         0.00000E+00
         0.00000E+00
         0.00000E+00
         0.00000E+00
         0.00000E+00
         0.00000E+00
         0.00000E+00
         0.00000E+00
         0.00000E+00
         0.00000E+00
         0.00000E+00
         0.00000E+00
         0.00000E+00
         0.00000E+00
         0.00000E+00
         0.00000E+00
         0.00000E+00
         0.00000E+00
         0.00000E+00
         0.00000E+00
         0.00000E+00
         0.00000E+00
         0.00000E+00
         0.00000E+00
         0.00000E+00
         0.00000E+00
         0.00000E+00
         0.00000E+00
         0.00000E+00
         0.00000E+00
         0.00000E+00
         0.00000E+00
         0.00000E+00
         0.00000E+00
         0.00000E+00
         0.00000E+00
         0.00000E+00
         0.00000E+00
         0.00000E+00
         0.00000E+00
         0.00000E+00
         0.00000E+00
         0.00000E+00
         0.00000E+00
         0.00000E+00
         0.00000E+00
         0.00000E+00
         0.00000E+00
         0.00000E+00
         0.00000E+00
         0.00000E+00
         0.00000E+00
         0.00000E+00
         0.00000E+00
         0.00000E+00
         0.00000E+00
         0.00000E+00
         0.00000E+00
         0.00000E+00
         0.00000E+00
         0.00000E+00
         0.00000E+00
         0.00000E+00
         0.00000E+00
         0.00000E+00
         0.00000E+00
         0.00000E+00
         0.00000E+00
         0.00000E+00
         0.00000E+00
         0.00000E+00
         0.00000E+00
         0.00000E+00
         0.00000E+00
         0.00000E+00
         0.00000E+00
         0.00000E+00
         0.00000E+00
         0.00000E+00
         0.00000E+00
         0.00000E+00
         0.00000E+00
         0.00000E+00
         0.00000E+00
         0.00000E+00
         0.00000E+00
         0.00000E+00
         0.00000E+00
         0.00000E+00
         0.00000E+00
         0.00000E+00
         0.00000E+00
         0.00000E+00
         0.00000E+00
         0.00000E+00
         0.00000E+00
         0.00000E+00
         0.00000E+00
         0.00000E+00
         0.00000E+00
         0.00000E+00
         0.00000E+00
         0.00000E+00
         0.00000E+00
         0.00000E+00
         0.00000E+00
         0.00000E+00
         0.00000E+00
         0.00000E+00
         0.00000E+00
         0.00000E+00
         0.00000E+00
         0.00000E+00
         0.00000E+00
         0.00000E+00
         0.00000E+00
         0.00000E+00
         0.00000E+00
         0.00000E+00
         0.00000E+00
         0.00000E+00
         0.00000E+00
         0.00000E+00
         0.00000E+00
         0.00000E+00
         0.00000E+00
         0.00000E+00
         0.00000E+00
         0.00000E+00
         0.00000E+00
         0.00000E+00
         0.00000E+00
         0.00000E+00
         0.00000E+00
         0.00000E+00
         0.00000E+00
         0.00000E+00
         0.00000E+00
         0.00000E+00
         0.00000E+00
         0.00000E+00
         0.00000E+00
         0.00000E+00
         0.00000E+00
         0.00000E+00
         0.00000E+00
         0.00000E+00
         0.00000E+00
         0.00000E+00
         0.00000E+00
         0.00000E+00
         0.00000E+00
         0.00000E+00
         0.00000E+00
         0.00000E+00
         0.00000E+00
         0.00000E+00
         0.00000E+00
         0.00000E+00
         0.00000E+00
         0.00000E+00
         0.00000E+00
         0.00000E+00
         0.00000E+00
         0.00000E+00
         0.00000E+00
         0.00000E+00
         0.00000E+00
         0.00000E+00
         0.00000E+00
         0.00000E+00
         0.00000E+00
         0.00000E+00
         0.00000E+00
         0.00000E+00
         0.00000E+00
         0.00000E+00
         0.00000E+00
         0.00000E+00
         0.00000E+00
         0.00000E+00
         0.00000E+00
         0.00000E+00
         0.00000E+00
         0.00000E+00
         0.00000E+00
         0.00000E+00
         0.00000E+00
         0.00000E+00
         0.00000E+00
         0.00000E+00
         0.00000E+00
         0.00000E+00
         0.00000E+00
         0.00000E+00
         0.00000E+00
         0.00000E+00
         0.00000E+00
         0.00000E+00
         0.00000E+00
         0.00000E+00
         0.00000E+00
         0.00000E+00
         0.00000E+00
         0.00000E+00
         0.00000E+00
         0.00000E+00
         0.00000E+00
         0.00000E+00
         0.00000E+00
         0.00000E+00
         0.00000E+00
         0.00000E+00
         0.00000E+00
         0.00000E+00
         0.00000E+00
         0.00000E+00
         0.00000E+00
         0.00000E+00
         0.00000E+00
         0.00000E+00
         0.00000E+00
         0.00000E+00
         0.00000E+00
         0.00000E+00
         0.00000E+00
         0.00000E+00
         0.00000E+00
         0.00000E+00
         0.00000E+00
         0.00000E+00
         0.00000E+00
         0.00000E+00
         0.00000E+00
         0.00000E+00
         0.00000E+00
         0.00000E+00
         0.00000E+00
         0.00000E+00
         0.00000E+00
         0.00000E+00
         0.00000E+00
         0.00000E+00
         0.00000E+00
         0.00000E+00
         0.00000E+00
         0.00000E+00
         0.00000E+00
         0.00000E+00
         0.00000E+00
         0.00000E+00
         0.00000E+00
         0.00000E+00
         0.00000E+00
         0.00000E+00
         0.00000E+00
         0.00000E+00
         0.00000E+00
         0.00000E+00
         0.00000E+00
         0.00000E+00
         0.00000E+00
         0.00000E+00
         0.00000E+00
         0.00000E+00
         0.00000E+00
         0.00000E+00
         0.00000E+00
         0.00000E+00
         0.00000E+00
         0.00000E+00
         0.00000E+00
         0.00000E+00
         0.00000E+00
         0.00000E+00
         0.00000E+00
         0.00000E+00
         0.00000E+00
         0.00000E+00
         0.00000E+00
         0.00000E+00
         0.00000E+00
         0.00000E+00
         0.00000E+00
         0.00000E+00
         0.00000E+00
         0.00000E+00
         0.00000E+00
         0.00000E+00
         0.00000E+00
         0.00000E+00
         0.00000E+00
         0.00000E+00
         0.00000E+00
         0.00000E+00
         0.00000E+00
         0.00000E+00
         0.00000E+00
         0.00000E+00
         0.00000E+00
         0.00000E+00
         0.00000E+00
         0.00000E+00
         0.00000E+00
         0.00000E+00
         0.00000E+00
         0.00000E+00
         0.00000E+00
         0.00000E+00
         0.00000E+00
         0.00000E+00
         0.00000E+00
         0.00000E+00
         0.00000E+00
         0.00000E+00
         0.00000E+00
         0.00000E+00
         0.00000E+00
         0.00000E+00
         0.00000E+00
         0.00000E+00
         0.00000E+00
         0.00000E+00
         0.00000E+00
         0.00000E+00
         0.00000E+00
         0.00000E+00
         0.00000E+00
         0.00000E+00
         0.00000E+00
         0.00000E+00
         0.00000E+00
         0.00000E+00
         0.00000E+00
         0.00000E+00
         0.00000E+00
         0.00000E+00
         0.00000E+00
         0.00000E+00
         0.00000E+00
         0.00000E+00
         0.00000E+00
         0.00000E+00
         0.00000E+00
         0.00000E+00
         0.00000E+00
         0.00000E+00
         0.00000E+00
         0.00000E+00
         0.00000E+00
         0.00000E+00
         0.00000E+00
         0.00000E+00
         0.00000E+00
         0.00000E+00
         0.00000E+00
         0.00000E+00
         0.00000E+00
         0.00000E+00
         0.00000E+00
         0.00000E+00
         0.00000E+00
         0.00000E+00
         0.00000E+00
         0.00000E+00
         0.00000E+00
         0.00000E+00
         0.00000E+00
         0.00000E+00
         0.00000E+00
         0.00000E+00
         0.00000E+00
         0.00000E+00
         0.00000E+00
         0.00000E+00
         0.00000E+00
         0.00000E+00
         0.00000E+00
         0.00000E+00
         0.00000E+00
         0.00000E+00
         0.00000E+00
         0.00000E+00
         0.00000E+00
         0.00000E+00
         0.00000E+00
         0.00000E+00
         0.00000E+00
         0.00000E+00
         0.00000E+00
         0.00000E+00
         0.00000E+00
         0.00000E+00
         0.00000E+00
         0.00000E+00
         0.00000E+00
         0.00000E+00
         0.00000E+00
         0.00000E+00
         0.00000E+00
         0.00000E+00
         0.00000E+00
         0.00000E+00
         0.00000E+00
         0.00000E+00
         0.00000E+00
         0.00000E+00
         0.00000E+00
         0.00000E+00
         0.00000E+00
         0.00000E+00
         0.00000E+00
         0.00000E+00
         0.00000E+00
         0.00000E+00
         0.00000E+00
         0.00000E+00
         0.00000E+00
         0.00000E+00
         0.00000E+00
         0.00000E+00
         0.00000E+00
         0.00000E+00
         0.00000E+00
         0.00000E+00
         0.00000E+00
         0.00000E+00
         0.00000E+00
         0.00000E+00
         0.00000E+00
         0.00000E+00
         0.00000E+00
         0.00000E+00
         0.00000E+00
         0.00000E+00
         0.00000E+00
         0.00000E+00
         0.00000E+00
         0.00000E+00
         0.00000E+00
         0.00000E+00
         0.00000E+00
         0.00000E+00
         0.00000E+00
         0.00000E+00
         0.00000E+00
         0.00000E+00
         0.00000E+00
         0.00000E+00
         0.00000E+00
         0.00000E+00
         0.00000E+00
         0.00000E+00
         0.00000E+00
         0.00000E+00
         0.00000E+00
         0.00000E+00
         0.00000E+00
         0.00000E+00
         0.00000E+00
         0.00000E+00
         0.00000E+00
         0.00000E+00
         0.00000E+00
         0.00000E+00
         0.00000E+00
         0.00000E+00
         0.00000E+00
         0.00000E+00
         0.00000E+00
         0.00000E+00
         0.00000E+00
         0.00000E+00
         0.00000E+00
         0.00000E+00
         0.00000E+00
         0.00000E+00
         0.00000E+00
         0.00000E+00
         0.00000E+00
         0.00000E+00
         0.00000E+00
         0.00000E+00
         0.00000E+00
         0.00000E+00
         0.00000E+00
         0.00000E+00
         0.00000E+00
         0.00000E+00
         0.00000E+00
         0.00000E+00
         0.00000E+00
         0.00000E+00
         0.00000E+00
         0.00000E+00
         0.00000E+00
         0.00000E+00
         0.00000E+00
         0.00000E+00
         0.00000E+00
         0.00000E+00
         0.00000E+00
         0.00000E+00
         0.00000E+00
         0.00000E+00
         0.00000E+00
         0.00000E+00
         0.00000E+00
         0.00000E+00
         0.00000E+00
         0.00000E+00
         0.00000E+00
         0.00000E+00
         0.00000E+00
         0.00000E+00
         0.00000E+00
         0.00000E+00
         0.00000E+00
         0.00000E+00
         0.00000E+00
         0.00000E+00
         0.00000E+00
         0.00000E+00
         0.00000E+00
         0.00000E+00
         0.00000E+00
         0.00000E+00
         0.00000E+00
         0.00000E+00
         0.00000E+00
         0.00000E+00
         0.00000E+00
         0.00000E+00
         0.00000E+00
         0.00000E+00
         0.00000E+00
         0.00000E+00
         0.00000E+00
         0.00000E+00
         0.00000E+00
         0.00000E+00
         0.00000E+00
         0.00000E+00
         0.00000E+00
         0.00000E+00
         0.00000E+00
         0.00000E+00
         0.00000E+00
         0.00000E+00
         0.00000E+00
         0.00000E+00
         0.00000E+00
         0.00000E+00
         0.00000E+00
         0.00000E+00
         0.00000E+00
         0.00000E+00
         0.00000E+00
         0.00000E+00
         0.00000E+00
         0.00000E+00
         0.00000E+00
         0.00000E+00
         0.00000E+00
         0.00000E+00
         0.00000E+00
         0.00000E+00
         0.00000E+00
         0.00000E+00
         0.00000E+00
         0.00000E+00
         0.00000E+00
         0.00000E+00
         0.00000E+00
         0.00000E+00
         0.00000E+00
         0.00000E+00
         0.00000E+00
         0.00000E+00
         0.00000E+00
         0.00000E+00
         0.00000E+00
         0.00000E+00
         0.00000E+00
         0.00000E+00
         0.00000E+00
         0.00000E+00
         0.00000E+00
         0.00000E+00
         0.00000E+00
         0.00000E+00
         0.00000E+00
         0.00000E+00
         0.00000E+00
         0.00000E+00
         0.00000E+00
         0.00000E+00
         0.00000E+00
         0.00000E+00
         0.00000E+00
         0.00000E+00
         0.00000E+00
         0.00000E+00
         0.00000E+00
         0.00000E+00
         0.00000E+00
         0.00000E+00
         0.00000E+00
         0.00000E+00
         0.00000E+00
         0.00000E+00
         0.00000E+00
         0.00000E+00
         0.00000E+00
         0.00000E+00
         0.00000E+00
         0.00000E+00
         0.00000E+00
         0.00000E+00
         0.00000E+00
         0.00000E+00
         0.00000E+00
         0.00000E+00
         0.00000E+00
         0.00000E+00
         0.00000E+00
         0.00000E+00
         0.00000E+00
         0.00000E+00
         0.00000E+00
         0.00000E+00
         0.00000E+00
         0.00000E+00
         0.00000E+00
         0.00000E+00
         0.00000E+00
         0.00000E+00
         0.00000E+00
         0.00000E+00
         0.00000E+00
         0.00000E+00
         0.00000E+00
         0.00000E+00
         0.00000E+00
         0.00000E+00
         0.00000E+00
         0.00000E+00
         0.00000E+00
         0.00000E+00
         0.00000E+00
         0.00000E+00
         0.00000E+00
         0.00000E+00
         0.00000E+00
         0.00000E+00
         0.00000E+00
         0.00000E+00
         0.00000E+00
         0.00000E+00
         0.00000E+00
         0.00000E+00
         0.00000E+00
         0.00000E+00
         0.00000E+00
         0.00000E+00
         0.00000E+00
         0.00000E+00
         0.00000E+00
         0.00000E+00
         0.00000E+00
         0.00000E+00
         0.00000E+00
         0.00000E+00
         0.00000E+00
         0.00000E+00
         0.00000E+00
         0.00000E+00
         0.00000E+00
         0.00000E+00
         0.00000E+00
         0.00000E+00
         0.00000E+00
         0.00000E+00
         0.00000E+00
         0.00000E+00
         0.00000E+00
         0.00000E+00
         0.00000E+00
         0.00000E+00
         0.00000E+00
         0.00000E+00
         0.00000E+00
         0.00000E+00
         0.00000E+00
         0.00000E+00
         0.00000E+00
         0.00000E+00
         0.00000E+00
         0.00000E+00
         0.00000E+00
         0.00000E+00
         0.00000E+00
         0.00000E+00
         0.00000E+00
         0.00000E+00
         0.00000E+00
         0.00000E+00
         0.00000E+00
         0.00000E+00
         0.00000E+00
         0.00000E+00
         0.00000E+00
         0.00000E+00
         0.00000E+00
         0.00000E+00
         0.00000E+00
         0.00000E+00
         0.00000E+00
         0.00000E+00
         0.00000E+00
         0.00000E+00
         0.00000E+00
         0.00000E+00
         0.00000E+00
         0.00000E+00
         0.00000E+00
         0.00000E+00
         0.00000E+00
         0.00000E+00
         0.00000E+00
         0.00000E+00
         0.00000E+00
         0.00000E+00
         0.00000E+00
         0.00000E+00
         0.00000E+00
         0.00000E+00
         0.00000E+00
         0.00000E+00
         0.00000E+00
         0.00000E+00
         0.00000E+00
         0.00000E+00
         0.00000E+00
         0.00000E+00
         0.00000E+00
         0.00000E+00
         0.00000E+00
         0.00000E+00
         0.00000E+00
         0.00000E+00
         0.00000E+00
         0.00000E+00
         0.00000E+00
         0.00000E+00
         0.00000E+00
         0.00000E+00
         0.00000E+00
         0.00000E+00
         0.00000E+00
         0.00000E+00
         0.00000E+00
         0.00000E+00
         0.00000E+00
         0.00000E+00
         0.00000E+00
         0.00000E+00
         0.00000E+00
         0.00000E+00
         0.00000E+00
         0.00000E+00
         0.00000E+00
         0.00000E+00
         0.00000E+00
         0.00000E+00
         0.00000E+00
         0.00000E+00
         0.00000E+00
         0.00000E+00
         0.00000E+00
         0.00000E+00
         0.00000E+00
         0.00000E+00
         0.00000E+00
         0.00000E+00
         0.00000E+00
         0.00000E+00
         0.00000E+00
         0.00000E+00
         0.00000E+00
         0.00000E+00
         0.00000E+00
         0.00000E+00
         0.00000E+00
         0.00000E+00
         0.00000E+00
         0.00000E+00
         0.00000E+00
         0.00000E+00
         0.00000E+00
         0.00000E+00
         0.00000E+00
         0.00000E+00
         0.00000E+00
         0.00000E+00
         0.00000E+00
         0.00000E+00
         0.00000E+00
         0.00000E+00
         0.00000E+00
         0.00000E+00
         0.00000E+00
         0.00000E+00
         0.00000E+00
         0.00000E+00
         0.00000E+00
         0.00000E+00
         0.00000E+00
         0.00000E+00
         0.00000E+00
         0.00000E+00
         0.00000E+00
         0.00000E+00
         0.00000E+00
         0.00000E+00
         0.00000E+00
         0.00000E+00
         0.00000E+00
         0.00000E+00
         0.00000E+00
         0.00000E+00
         0.00000E+00
         0.00000E+00
         0.00000E+00
         0.00000E+00
         0.00000E+00
         0.00000E+00
         0.00000E+00
         0.00000E+00
         0.00000E+00
         0.00000E+00
         0.00000E+00
         0.00000E+00
         0.00000E+00
         0.00000E+00
         0.00000E+00
         0.00000E+00
         0.00000E+00
         0.00000E+00
         0.00000E+00
         0.00000E+00
         0.00000E+00
         0.00000E+00
         0.00000E+00
         0.00000E+00
         0.00000E+00
         0.00000E+00
         0.00000E+00
         0.00000E+00
         0.00000E+00
         0.00000E+00
         0.00000E+00
         0.00000E+00
         0.00000E+00
         0.00000E+00
         0.00000E+00
         0.00000E+00
         0.00000E+00
         0.00000E+00
         0.00000E+00
         0.00000E+00
         0.00000E+00
         0.00000E+00
  
SCALARS        characteristic_distance  double 1
LOOKUP_TABLE default
         0.00000E+00
         0.00000E+00
         0.00000E+00
         0.00000E+00
         0.00000E+00
         0.00000E+00
         0.00000E+00
         0.00000E+00
         0.00000E+00
         0.00000E+00
         0.00000E+00
         0.00000E+00
         0.00000E+00
         0.00000E+00
         0.00000E+00
         0.00000E+00
         0.00000E+00
         0.00000E+00
         0.00000E+00
         0.00000E+00
         0.00000E+00
         0.00000E+00
         0.00000E+00
         0.00000E+00
         0.00000E+00
         0.00000E+00
         0.00000E+00
         0.00000E+00
         0.00000E+00
         0.00000E+00
         0.00000E+00
         0.00000E+00
         0.00000E+00
         0.00000E+00
         0.00000E+00
         0.00000E+00
         0.00000E+00
         0.00000E+00
         0.00000E+00
         0.00000E+00
         0.00000E+00
         0.00000E+00
         0.00000E+00
         0.00000E+00
         0.00000E+00
         0.00000E+00
         0.00000E+00
         0.00000E+00
         0.00000E+00
         0.00000E+00
         0.00000E+00
         0.00000E+00
         0.00000E+00
         0.00000E+00
         0.00000E+00
         0.00000E+00
         0.00000E+00
         0.00000E+00
         0.00000E+00
         0.00000E+00
         0.00000E+00
         0.00000E+00
         0.00000E+00
         0.00000E+00
         0.00000E+00
         0.00000E+00
         0.00000E+00
         0.00000E+00
         0.00000E+00
         0.00000E+00
         0.00000E+00
         0.00000E+00
         0.00000E+00
         0.00000E+00
         0.00000E+00
         0.00000E+00
         0.00000E+00
         0.00000E+00
         0.00000E+00
         0.00000E+00
         0.00000E+00
         0.00000E+00
         0.00000E+00
         0.00000E+00
         0.00000E+00
         0.00000E+00
         0.00000E+00
         0.00000E+00
         0.00000E+00
         0.00000E+00
         0.00000E+00
         0.00000E+00
         0.00000E+00
         0.00000E+00
         0.00000E+00
         0.00000E+00
         0.00000E+00
         0.00000E+00
         0.00000E+00
         0.00000E+00
         0.00000E+00
         0.00000E+00
         0.00000E+00
         0.00000E+00
         0.00000E+00
         0.00000E+00
         0.00000E+00
         0.00000E+00
         0.00000E+00
         0.00000E+00
         0.00000E+00
         0.00000E+00
         0.00000E+00
         0.00000E+00
         0.00000E+00
         0.00000E+00
         0.00000E+00
         0.00000E+00
         0.00000E+00
         0.00000E+00
         0.00000E+00
         0.00000E+00
         0.00000E+00
         0.00000E+00
         0.00000E+00
         0.00000E+00
         0.00000E+00
         0.00000E+00
         0.00000E+00
         0.00000E+00
         0.00000E+00
         0.00000E+00
         0.00000E+00
         0.00000E+00
         0.00000E+00
         0.00000E+00
         0.00000E+00
         0.00000E+00
         0.00000E+00
         0.00000E+00
         0.00000E+00
         0.00000E+00
         0.00000E+00
         0.00000E+00
         0.00000E+00
         0.00000E+00
         0.00000E+00
         0.00000E+00
         0.00000E+00
         0.00000E+00
         0.00000E+00
         0.00000E+00
         0.00000E+00
         0.00000E+00
         0.00000E+00
         0.00000E+00
         0.00000E+00
         0.00000E+00
         0.00000E+00
         0.00000E+00
         0.00000E+00
         0.00000E+00
         0.00000E+00
         0.00000E+00
         0.00000E+00
         0.00000E+00
         0.00000E+00
         0.00000E+00
         0.00000E+00
         0.00000E+00
         0.00000E+00
         0.00000E+00
         0.00000E+00
         0.00000E+00
         0.00000E+00
         0.00000E+00
         0.00000E+00
         0.00000E+00
         0.00000E+00
         0.00000E+00
         0.00000E+00
         0.00000E+00
         0.00000E+00
         0.00000E+00
         0.00000E+00
         0.00000E+00
         0.00000E+00
         0.00000E+00
         0.00000E+00
         0.00000E+00
         0.00000E+00
         0.00000E+00
         0.00000E+00
         0.00000E+00
         0.00000E+00
         0.00000E+00
         0.00000E+00
         0.00000E+00
         0.00000E+00
         0.00000E+00
         0.00000E+00
         0.00000E+00
         0.00000E+00
         0.00000E+00
         0.00000E+00
         0.00000E+00
         0.00000E+00
         0.00000E+00
         0.00000E+00
         0.00000E+00
         0.00000E+00
         0.00000E+00
         0.00000E+00
         0.00000E+00
         0.00000E+00
         0.00000E+00
         0.00000E+00
         0.00000E+00
         0.00000E+00
         0.00000E+00
         0.00000E+00
         0.00000E+00
         0.00000E+00
         0.00000E+00
         0.00000E+00
         0.00000E+00
         0.00000E+00
         0.00000E+00
         0.00000E+00
         0.00000E+00
         0.00000E+00
         0.00000E+00
         0.00000E+00
         0.00000E+00
         0.00000E+00
         0.00000E+00
         0.00000E+00
         0.00000E+00
         0.00000E+00
         0.00000E+00
         0.00000E+00
         0.00000E+00
         0.00000E+00
         0.00000E+00
         0.00000E+00
         0.00000E+00
         0.00000E+00
         0.00000E+00
         0.00000E+00
         0.00000E+00
         0.00000E+00
         0.00000E+00
         0.00000E+00
         0.00000E+00
         0.00000E+00
         0.00000E+00
         0.00000E+00
         0.00000E+00
         0.00000E+00
         0.00000E+00
         0.00000E+00
         0.00000E+00
         0.00000E+00
         0.00000E+00
         0.00000E+00
         0.00000E+00
         0.00000E+00
         0.00000E+00
         0.00000E+00
         0.00000E+00
         0.00000E+00
         0.00000E+00
         0.00000E+00
         0.00000E+00
         0.00000E+00
         0.00000E+00
         0.00000E+00
         0.00000E+00
         0.00000E+00
         0.00000E+00
         0.00000E+00
         0.00000E+00
         0.00000E+00
         0.00000E+00
         0.00000E+00
         0.00000E+00
         0.00000E+00
         0.00000E+00
         0.00000E+00
         0.00000E+00
         0.00000E+00
         0.00000E+00
         0.00000E+00
         0.00000E+00
         0.00000E+00
         0.00000E+00
         0.00000E+00
         0.00000E+00
         0.00000E+00
         0.00000E+00
         0.00000E+00
         0.00000E+00
         0.00000E+00
         0.00000E+00
         0.00000E+00
         0.00000E+00
         0.00000E+00
         0.00000E+00
         0.00000E+00
         0.00000E+00
         0.00000E+00
         0.00000E+00
         0.00000E+00
         0.00000E+00
         0.00000E+00
         0.00000E+00
         0.00000E+00
         0.00000E+00
         0.00000E+00
         0.00000E+00
         0.00000E+00
         0.00000E+00
         0.00000E+00
         0.00000E+00
         0.00000E+00
         0.00000E+00
         0.00000E+00
         0.00000E+00
         0.00000E+00
         0.00000E+00
         0.00000E+00
         0.00000E+00
         0.00000E+00
         0.00000E+00
         0.00000E+00
         0.00000E+00
         0.00000E+00
         0.00000E+00
         0.00000E+00
         0.00000E+00
         0.00000E+00
         0.00000E+00
         0.00000E+00
         0.00000E+00
         0.00000E+00
         0.00000E+00
         0.00000E+00
         0.00000E+00
         0.00000E+00
         0.00000E+00
         0.00000E+00
         0.00000E+00
         0.00000E+00
         0.00000E+00
         0.00000E+00
         0.00000E+00
         0.00000E+00
         0.00000E+00
         0.00000E+00
         0.00000E+00
         0.00000E+00
         0.00000E+00
         0.00000E+00
         0.00000E+00
         0.00000E+00
         0.00000E+00
         0.00000E+00
         0.00000E+00
         0.00000E+00
         0.00000E+00
         0.00000E+00
         0.00000E+00
         0.00000E+00
         0.00000E+00
         0.00000E+00
         0.00000E+00
         0.00000E+00
         0.00000E+00
         0.00000E+00
         0.00000E+00
         0.00000E+00
         0.00000E+00
         0.00000E+00
         0.00000E+00
         0.00000E+00
         0.00000E+00
         0.00000E+00
         0.00000E+00
         0.00000E+00
         0.00000E+00
         0.00000E+00
         0.00000E+00
         0.00000E+00
         0.00000E+00
         0.00000E+00
         0.00000E+00
         0.00000E+00
         0.00000E+00
         0.00000E+00
         0.00000E+00
         0.00000E+00
         0.00000E+00
         0.00000E+00
         0.00000E+00
         0.00000E+00
         0.00000E+00
         0.00000E+00
         0.00000E+00
         0.00000E+00
         0.00000E+00
         0.00000E+00
         0.00000E+00
         0.00000E+00
         0.00000E+00
         0.00000E+00
         0.00000E+00
         0.00000E+00
         0.00000E+00
         0.00000E+00
         0.00000E+00
         0.00000E+00
         0.00000E+00
         0.00000E+00
         0.00000E+00
         0.00000E+00
         0.00000E+00
         0.00000E+00
         0.00000E+00
         0.00000E+00
         0.00000E+00
         0.00000E+00
         0.00000E+00
         0.00000E+00
         0.00000E+00
         0.00000E+00
         0.00000E+00
         0.00000E+00
         0.00000E+00
         0.00000E+00
         0.00000E+00
         0.00000E+00
         0.00000E+00
         0.00000E+00
         0.00000E+00
         0.00000E+00
         0.00000E+00
         0.00000E+00
         0.00000E+00
         0.00000E+00
         0.00000E+00
         0.00000E+00
         0.00000E+00
         0.00000E+00
         0.00000E+00
         0.00000E+00
         0.00000E+00
         0.00000E+00
         0.00000E+00
         0.00000E+00
         0.00000E+00
         0.00000E+00
         0.00000E+00
         0.00000E+00
         0.00000E+00
         0.00000E+00
         0.00000E+00
         0.00000E+00
         0.00000E+00
         0.00000E+00
         0.00000E+00
         0.00000E+00
         0.00000E+00
         0.00000E+00
         0.00000E+00
         0.00000E+00
         0.00000E+00
         0.00000E+00
         0.00000E+00
         0.00000E+00
         0.00000E+00
         0.00000E+00
         0.00000E+00
         0.00000E+00
         0.00000E+00
         0.00000E+00
         0.00000E+00
         0.00000E+00
         0.00000E+00
         0.00000E+00
         0.00000E+00
         0.00000E+00
         0.00000E+00
         0.00000E+00
         0.00000E+00
         0.00000E+00
         0.00000E+00
         0.00000E+00
         0.00000E+00
         0.00000E+00
         0.00000E+00
         0.00000E+00
         0.00000E+00
         0.00000E+00
         0.00000E+00
         0.00000E+00
         0.00000E+00
         0.00000E+00
         0.00000E+00
         0.00000E+00
         0.00000E+00
         0.00000E+00
         0.00000E+00
         0.00000E+00
         0.00000E+00
         0.00000E+00
         0.00000E+00
         0.00000E+00
         0.00000E+00
         0.00000E+00
         0.00000E+00
         0.00000E+00
         0.00000E+00
         0.00000E+00
         0.00000E+00
         0.00000E+00
         0.00000E+00
         0.00000E+00
         0.00000E+00
         0.00000E+00
         0.00000E+00
         0.00000E+00
         0.00000E+00
         0.00000E+00
         0.00000E+00
         0.00000E+00
         0.00000E+00
         0.00000E+00
         0.00000E+00
         0.00000E+00
         0.00000E+00
         0.00000E+00
         0.00000E+00
         0.00000E+00
         0.00000E+00
         0.00000E+00
         0.00000E+00
         0.00000E+00
         0.00000E+00
         0.00000E+00
         0.00000E+00
         0.00000E+00
         0.00000E+00
         0.00000E+00
         0.00000E+00
         0.00000E+00
         0.00000E+00
         0.00000E+00
         0.00000E+00
         0.00000E+00
         0.00000E+00
         0.00000E+00
         0.00000E+00
         0.00000E+00
         0.00000E+00
         0.00000E+00
         0.00000E+00
         0.00000E+00
         0.00000E+00
         0.00000E+00
         0.00000E+00
         0.00000E+00
         0.00000E+00
         0.00000E+00
         0.00000E+00
         0.00000E+00
         0.00000E+00
         0.00000E+00
         0.00000E+00
         0.00000E+00
         0.00000E+00
         0.00000E+00
         0.00000E+00
         0.00000E+00
         0.00000E+00
         0.00000E+00
         0.00000E+00
         0.00000E+00
         0.00000E+00
         0.00000E+00
         0.00000E+00
         0.00000E+00
         0.00000E+00
         0.00000E+00
         0.00000E+00
         0.00000E+00
         0.00000E+00
         0.00000E+00
         0.00000E+00
         0.00000E+00
         0.00000E+00
         0.00000E+00
         0.00000E+00
         0.00000E+00
         0.00000E+00
         0.00000E+00
         0.00000E+00
         0.00000E+00
         0.00000E+00
         0.00000E+00
         0.00000E+00
         0.00000E+00
         0.00000E+00
         0.00000E+00
         0.00000E+00
         0.00000E+00
         0.00000E+00
         0.00000E+00
         0.00000E+00
         0.00000E+00
         0.00000E+00
         0.00000E+00
         0.00000E+00
         0.00000E+00
         0.00000E+00
         0.00000E+00
         0.00000E+00
         0.00000E+00
         0.00000E+00
         0.00000E+00
         0.00000E+00
         0.00000E+00
         0.00000E+00
         0.00000E+00
         0.00000E+00
         0.00000E+00
         0.00000E+00
         0.00000E+00
         0.00000E+00
         0.00000E+00
         0.00000E+00
         0.00000E+00
         0.00000E+00
         0.00000E+00
         0.00000E+00
         0.00000E+00
         0.00000E+00
         0.00000E+00
         0.00000E+00
         0.00000E+00
         0.00000E+00
         0.00000E+00
         0.00000E+00
         0.00000E+00
         0.00000E+00
         0.00000E+00
         0.00000E+00
         0.00000E+00
         0.00000E+00
         0.00000E+00
         0.00000E+00
         0.00000E+00
         0.00000E+00
         0.00000E+00
         0.00000E+00
         0.00000E+00
         0.00000E+00
         0.00000E+00
         0.00000E+00
         0.00000E+00
         0.00000E+00
         0.00000E+00
         0.00000E+00
         0.00000E+00
         0.00000E+00
         0.00000E+00
         0.00000E+00
         0.00000E+00
         0.00000E+00
         0.00000E+00
         0.00000E+00
         0.00000E+00
         0.00000E+00
         0.00000E+00
         0.00000E+00
         0.00000E+00
         0.00000E+00
         0.00000E+00
         0.00000E+00
         0.00000E+00
         0.00000E+00
         0.00000E+00
         0.00000E+00
         0.00000E+00
         0.00000E+00
         0.00000E+00
         0.00000E+00
         0.00000E+00
         0.00000E+00
         0.00000E+00
         0.00000E+00
         0.00000E+00
         0.00000E+00
         0.00000E+00
         0.00000E+00
         0.00000E+00
         0.00000E+00
         0.00000E+00
         0.00000E+00
         0.00000E+00
         0.00000E+00
         0.00000E+00
         0.00000E+00
         0.00000E+00
         0.00000E+00
         0.00000E+00
         0.00000E+00
         0.00000E+00
         0.00000E+00
         0.00000E+00
         0.00000E+00
         0.00000E+00
         0.00000E+00
         0.00000E+00
         0.00000E+00
         0.00000E+00
         0.00000E+00
         0.00000E+00
         0.00000E+00
         0.00000E+00
         0.00000E+00
         0.00000E+00
         0.00000E+00
         0.00000E+00
         0.00000E+00
         0.00000E+00
         0.00000E+00
         0.00000E+00
         0.00000E+00
         0.00000E+00
         0.00000E+00
         0.00000E+00
         0.00000E+00
         0.00000E+00
         0.00000E+00
         0.00000E+00
         0.00000E+00
         0.00000E+00
         0.00000E+00
         0.00000E+00
         0.00000E+00
         0.00000E+00
         0.00000E+00
         0.00000E+00
         0.00000E+00
         0.00000E+00
         0.00000E+00
         0.00000E+00
         0.00000E+00
         0.00000E+00
         0.00000E+00
         0.00000E+00
         0.00000E+00
         0.00000E+00
         0.00000E+00
         0.00000E+00
         0.00000E+00
         0.00000E+00
         0.00000E+00
         0.00000E+00
         0.00000E+00
         0.00000E+00
         0.00000E+00
         0.00000E+00
         0.00000E+00
         0.00000E+00
         0.00000E+00
         0.00000E+00
         0.00000E+00
         0.00000E+00
         0.00000E+00
         0.00000E+00
         0.00000E+00
         0.00000E+00
         0.00000E+00
         0.00000E+00
         0.00000E+00
         0.00000E+00
         0.00000E+00
         0.00000E+00
         0.00000E+00
         0.00000E+00
         0.00000E+00
         0.00000E+00
         0.00000E+00
         0.00000E+00
         0.00000E+00
         0.00000E+00
         0.00000E+00
         0.00000E+00
         0.00000E+00
         0.00000E+00
         0.00000E+00
         0.00000E+00
         0.00000E+00
         0.00000E+00
         0.00000E+00
         0.00000E+00
         0.00000E+00
         0.00000E+00
         0.00000E+00
         0.00000E+00
         0.00000E+00
         0.00000E+00
         0.00000E+00
         0.00000E+00
         0.00000E+00
         0.00000E+00
         0.00000E+00
         0.00000E+00
         0.00000E+00
         0.00000E+00
         0.00000E+00
         0.00000E+00
         0.00000E+00
         0.00000E+00
         0.00000E+00
         0.00000E+00
         0.00000E+00
         0.00000E+00
         0.00000E+00
         0.00000E+00
         0.00000E+00
         0.00000E+00
         0.00000E+00
         0.00000E+00
         0.00000E+00
         0.00000E+00
         0.00000E+00
         0.00000E+00
         0.00000E+00
         0.00000E+00
         0.00000E+00
         0.00000E+00
         0.00000E+00
         0.00000E+00
         0.00000E+00
         0.00000E+00
         0.00000E+00
         0.00000E+00
         0.00000E+00
         0.00000E+00
         0.00000E+00
         0.00000E+00
         0.00000E+00
         0.00000E+00
         0.00000E+00
         0.00000E+00
         0.00000E+00
         0.00000E+00
         0.00000E+00
         0.00000E+00
         0.00000E+00
         0.00000E+00
         0.00000E+00
         0.00000E+00
         0.00000E+00
         0.00000E+00
         0.00000E+00
         0.00000E+00
         0.00000E+00
         0.00000E+00
         0.00000E+00
         0.00000E+00
         0.00000E+00
         0.00000E+00
         0.00000E+00
         0.00000E+00
         0.00000E+00
         0.00000E+00
         0.00000E+00
         0.00000E+00
         0.00000E+00
         0.00000E+00
         0.00000E+00
         0.00000E+00
         0.00000E+00
         0.00000E+00
         0.00000E+00
         0.00000E+00
         0.00000E+00
         0.00000E+00
         0.00000E+00
         0.00000E+00
         0.00000E+00
         0.00000E+00
         0.00000E+00
         0.00000E+00
         0.00000E+00
         0.00000E+00
         0.00000E+00
         0.00000E+00
         0.00000E+00
         0.00000E+00
         0.00000E+00
         0.00000E+00
         0.00000E+00
         0.00000E+00
         0.00000E+00
         0.00000E+00
         0.00000E+00
         0.00000E+00
         0.00000E+00
         0.00000E+00
         0.00000E+00
         0.00000E+00
         0.00000E+00
         0.00000E+00
         0.00000E+00
         0.00000E+00
         0.00000E+00
         0.00000E+00
         0.00000E+00
         0.00000E+00
         0.00000E+00
         0.00000E+00
         0.00000E+00
         0.00000E+00
         0.00000E+00
         0.00000E+00
         0.00000E+00
         0.00000E+00
         0.00000E+00
         0.00000E+00
         0.00000E+00
         0.00000E+00
         0.00000E+00
         0.00000E+00
         0.00000E+00
         0.00000E+00
         0.00000E+00
         0.00000E+00
         0.00000E+00
         0.00000E+00
         0.00000E+00
         0.00000E+00
         0.00000E+00
         0.00000E+00
         0.00000E+00
         0.00000E+00
         0.00000E+00
         0.00000E+00
         0.00000E+00
         0.00000E+00
         0.00000E+00
         0.00000E+00
         0.00000E+00
         0.00000E+00
         0.00000E+00
         0.00000E+00
         0.00000E+00
         0.00000E+00
         0.00000E+00
         0.00000E+00
         0.00000E+00
         0.00000E+00
         0.00000E+00
         0.00000E+00
         0.00000E+00
         0.00000E+00
         0.00000E+00
         0.00000E+00
         0.00000E+00
         0.00000E+00
         0.00000E+00
         0.00000E+00
         0.00000E+00
         0.00000E+00
         0.00000E+00
         0.00000E+00
         0.00000E+00
         0.00000E+00
         0.00000E+00
         0.00000E+00
         0.00000E+00
         0.00000E+00
         0.00000E+00
         0.00000E+00
         0.00000E+00
         0.00000E+00
         0.00000E+00
         0.00000E+00
         0.00000E+00
         0.00000E+00
         0.00000E+00
         0.00000E+00
         0.00000E+00
         0.00000E+00
         0.00000E+00
         0.00000E+00
         0.00000E+00
         0.00000E+00
         0.00000E+00
         0.00000E+00
         0.00000E+00
         0.00000E+00
         0.00000E+00
         0.00000E+00
         0.00000E+00
         0.00000E+00
         0.00000E+00
         0.00000E+00
         0.00000E+00
         0.00000E+00
         0.00000E+00
         0.00000E+00
         0.00000E+00
         0.00000E+00
         0.00000E+00
         0.00000E+00
         0.00000E+00
         0.00000E+00
         0.00000E+00
         0.00000E+00
         0.00000E+00
         0.00000E+00
         0.00000E+00
         0.00000E+00
         0.00000E+00
         0.00000E+00
         0.00000E+00
         0.00000E+00
         0.00000E+00
         0.00000E+00
         0.00000E+00
         0.00000E+00
         0.00000E+00
         0.00000E+00
         0.00000E+00
         0.00000E+00
         0.00000E+00
         0.00000E+00
         0.00000E+00
         0.00000E+00
         0.00000E+00
         0.00000E+00
         0.00000E+00
         0.00000E+00
         0.00000E+00
         0.00000E+00
         0.00000E+00
         0.00000E+00
         0.00000E+00
         0.00000E+00
         0.00000E+00
         0.00000E+00
         0.00000E+00
         0.00000E+00
         0.00000E+00
         0.00000E+00
         0.00000E+00
         0.00000E+00
         0.00000E+00
         0.00000E+00
         0.00000E+00
         0.00000E+00
         0.00000E+00
         0.00000E+00
         0.00000E+00
         0.00000E+00
         0.00000E+00
         0.00000E+00
         0.00000E+00
         0.00000E+00
         0.00000E+00
         0.00000E+00
         0.00000E+00
         0.00000E+00
         0.00000E+00
         0.00000E+00
         0.00000E+00
         0.00000E+00
         0.00000E+00
         0.00000E+00
         0.00000E+00
         0.00000E+00
         0.00000E+00
         0.00000E+00
         0.00000E+00
         0.00000E+00
         0.00000E+00
         0.00000E+00
         0.00000E+00
         0.00000E+00
         0.00000E+00
         0.00000E+00
         0.00000E+00
         0.00000E+00
         0.00000E+00
         0.00000E+00
         0.00000E+00
         0.00000E+00
         0.00000E+00
         0.00000E+00
         0.00000E+00
         0.00000E+00
         0.00000E+00
         0.00000E+00
         0.00000E+00
         0.00000E+00
         0.00000E+00
         0.00000E+00
         0.00000E+00
         0.00000E+00
         0.00000E+00
         0.00000E+00
         0.00000E+00
         0.00000E+00
         0.00000E+00
         0.00000E+00
         0.00000E+00
         0.00000E+00
         0.00000E+00
         0.00000E+00
         0.00000E+00
         0.00000E+00
         0.00000E+00
         0.00000E+00
         0.00000E+00
         0.00000E+00
         0.00000E+00
         0.00000E+00
         0.00000E+00
         0.00000E+00
         0.00000E+00
         0.00000E+00
         0.00000E+00
         0.00000E+00
         0.00000E+00
         0.00000E+00
         0.00000E+00
         0.00000E+00
         0.00000E+00
         0.00000E+00
         0.00000E+00
         0.00000E+00
         0.00000E+00
         0.00000E+00
         0.00000E+00
         0.00000E+00
         0.00000E+00
         0.00000E+00
         0.00000E+00
         0.00000E+00
         0.00000E+00
         0.00000E+00
         0.00000E+00
         0.00000E+00
         0.00000E+00
         0.00000E+00
         0.00000E+00
         0.00000E+00
         0.00000E+00
         0.00000E+00
         0.00000E+00
         0.00000E+00
         0.00000E+00
         0.00000E+00
         0.00000E+00
         0.00000E+00
         0.00000E+00
         0.00000E+00
         0.00000E+00
         0.00000E+00
         0.00000E+00
         0.00000E+00
         0.00000E+00
         0.00000E+00
         0.00000E+00
         0.00000E+00
         0.00000E+00
         0.00000E+00
         0.00000E+00
         0.00000E+00
         0.00000E+00
         0.00000E+00
         0.00000E+00
         0.00000E+00
         0.00000E+00
         0.00000E+00
         0.00000E+00
         0.00000E+00
         0.00000E+00
         0.00000E+00
         0.00000E+00
         0.00000E+00
         0.00000E+00
         0.00000E+00
         0.00000E+00
         0.00000E+00
         0.00000E+00
         0.00000E+00
         0.00000E+00
         0.00000E+00
         0.00000E+00
         0.00000E+00
         0.00000E+00
         0.00000E+00
         0.00000E+00
         0.00000E+00
         0.00000E+00
         0.00000E+00
         0.00000E+00
         0.00000E+00
         0.00000E+00
         0.00000E+00
         0.00000E+00
         0.00000E+00
         0.00000E+00
         0.00000E+00
         0.00000E+00
         0.00000E+00
         0.00000E+00
         0.00000E+00
         0.00000E+00
         0.00000E+00
         0.00000E+00
         0.00000E+00
         0.00000E+00
         0.00000E+00
         0.00000E+00
         0.00000E+00
         0.00000E+00
         0.00000E+00
         0.00000E+00
         0.00000E+00
         0.00000E+00
         0.00000E+00
         0.00000E+00
         0.00000E+00
         0.00000E+00
         0.00000E+00
         0.00000E+00
         0.00000E+00
         0.00000E+00
         0.00000E+00
         0.00000E+00
         0.00000E+00
         0.00000E+00
         0.00000E+00
         0.00000E+00
         0.00000E+00
         0.00000E+00
         0.00000E+00
         0.00000E+00
         0.00000E+00
         0.00000E+00
         0.00000E+00
         0.00000E+00
         0.00000E+00
         0.00000E+00
         0.00000E+00
         0.00000E+00
         0.00000E+00
         0.00000E+00
         0.00000E+00
         0.00000E+00
         0.00000E+00
         0.00000E+00
         0.00000E+00
         0.00000E+00
         0.00000E+00
         0.00000E+00
         0.00000E+00
         0.00000E+00
         0.00000E+00
         0.00000E+00
         0.00000E+00
         0.00000E+00
         0.00000E+00
         0.00000E+00
         0.00000E+00
         0.00000E+00
         0.00000E+00
         0.00000E+00
         0.00000E+00
         0.00000E+00
         0.00000E+00
         0.00000E+00
         0.00000E+00
         0.00000E+00
         0.00000E+00
         0.00000E+00
         0.00000E+00
         0.00000E+00
         0.00000E+00
         0.00000E+00
         0.00000E+00
         0.00000E+00
         0.00000E+00
         0.00000E+00
         0.00000E+00
         0.00000E+00
         0.00000E+00
         0.00000E+00
         0.00000E+00
         0.00000E+00
         0.00000E+00
         0.00000E+00
         0.00000E+00
         0.00000E+00
         0.00000E+00
         0.00000E+00
         0.00000E+00
         0.00000E+00
         0.00000E+00
         0.00000E+00
         0.00000E+00
         0.00000E+00
         0.00000E+00
         0.00000E+00
         0.00000E+00
         0.00000E+00
         0.00000E+00
         0.00000E+00
         0.00000E+00
         0.00000E+00
         0.00000E+00
         0.00000E+00
         0.00000E+00
         0.00000E+00
         0.00000E+00
         0.00000E+00
         0.00000E+00
         0.00000E+00
         0.00000E+00
         0.00000E+00
         0.00000E+00
         0.00000E+00
         0.00000E+00
         0.00000E+00
         0.00000E+00
         0.00000E+00
         0.00000E+00
         0.00000E+00
         0.00000E+00
         0.00000E+00
         0.00000E+00
         0.00000E+00
         0.00000E+00
         0.00000E+00
         0.00000E+00
         0.00000E+00
         0.00000E+00
         0.00000E+00
         0.00000E+00
         0.00000E+00
         0.00000E+00
         0.00000E+00
         0.00000E+00
         0.00000E+00
         0.00000E+00
         0.00000E+00
         0.00000E+00
         0.00000E+00
         0.00000E+00
         0.00000E+00
         0.00000E+00
         0.00000E+00
         0.00000E+00
         0.00000E+00
         0.00000E+00
         0.00000E+00
         0.00000E+00
         0.00000E+00
         0.00000E+00
         0.00000E+00
         0.00000E+00
         0.00000E+00
         0.00000E+00
         0.00000E+00
         0.00000E+00
         0.00000E+00
         0.00000E+00
         0.00000E+00
         0.00000E+00
         0.00000E+00
         0.00000E+00
         0.00000E+00
         0.00000E+00
         0.00000E+00
         0.00000E+00
         0.00000E+00
         0.00000E+00
         0.00000E+00
         0.00000E+00
         0.00000E+00
         0.00000E+00
         0.00000E+00
         0.00000E+00
         0.00000E+00
         0.00000E+00
         0.00000E+00
         0.00000E+00
         0.00000E+00
         0.00000E+00
         0.00000E+00
         0.00000E+00
         0.00000E+00
         0.00000E+00
         0.00000E+00
         0.00000E+00
         0.00000E+00
         0.00000E+00
         0.00000E+00
         0.00000E+00
         0.00000E+00
         0.00000E+00
         0.00000E+00
         0.00000E+00
         0.00000E+00
         0.00000E+00
         0.00000E+00
         0.00000E+00
         0.00000E+00
         0.00000E+00
         0.00000E+00
         0.00000E+00
         0.00000E+00
         0.00000E+00
         0.00000E+00
         0.00000E+00
         0.00000E+00
         0.00000E+00
         0.00000E+00
         0.00000E+00
         0.00000E+00
         0.00000E+00
         0.00000E+00
         0.00000E+00
         0.00000E+00
         0.00000E+00
         0.00000E+00
         0.00000E+00
         0.00000E+00
         0.00000E+00
         0.00000E+00
         0.00000E+00
         0.00000E+00
         0.00000E+00
         0.00000E+00
         0.00000E+00
         0.00000E+00
         0.00000E+00
         0.00000E+00
         0.00000E+00
         0.00000E+00
         0.00000E+00
         0.00000E+00
         0.00000E+00
         0.00000E+00
         0.00000E+00
         0.00000E+00
         0.00000E+00
         0.00000E+00
         0.00000E+00
         0.00000E+00
         0.00000E+00
         0.00000E+00
         0.00000E+00
         0.00000E+00
         0.00000E+00
         0.00000E+00
         0.00000E+00
         0.00000E+00
         0.00000E+00
         0.00000E+00
         0.00000E+00
         0.00000E+00
         0.00000E+00
         0.00000E+00
         0.00000E+00
         0.00000E+00
         0.00000E+00
         0.00000E+00
         0.00000E+00
         0.00000E+00
         0.00000E+00
         0.00000E+00
         0.00000E+00
         0.00000E+00
         0.00000E+00
         0.00000E+00
         0.00000E+00
         0.00000E+00
         0.00000E+00
         0.00000E+00
         0.00000E+00
         0.00000E+00
         0.00000E+00
         0.00000E+00
         0.00000E+00
         0.00000E+00
         0.00000E+00
         0.00000E+00
         0.00000E+00
         0.00000E+00
         0.00000E+00
         0.00000E+00
         0.00000E+00
         0.00000E+00
         0.00000E+00
         0.00000E+00
         0.00000E+00
         0.00000E+00
         0.00000E+00
         0.00000E+00
         0.00000E+00
         0.00000E+00
         0.00000E+00
         0.00000E+00
         0.00000E+00
         0.00000E+00
         0.00000E+00
         0.00000E+00
         0.00000E+00
         0.00000E+00
         0.00000E+00
         0.00000E+00
         0.00000E+00
         0.00000E+00
         0.00000E+00
         0.00000E+00
         0.00000E+00
         0.00000E+00
         0.00000E+00
         0.00000E+00
         0.00000E+00
         0.00000E+00
         0.00000E+00
         0.00000E+00
         0.00000E+00
         0.00000E+00
         0.00000E+00
         0.00000E+00
         0.00000E+00
         0.00000E+00
         0.00000E+00
         0.00000E+00
         0.00000E+00
         0.00000E+00
         0.00000E+00
         0.00000E+00
         0.00000E+00
         0.00000E+00
         0.00000E+00
         0.00000E+00
         0.00000E+00
         0.00000E+00
         0.00000E+00
         0.00000E+00
         0.00000E+00
         0.00000E+00
         0.00000E+00
         0.00000E+00
         0.00000E+00
         0.00000E+00
         0.00000E+00
         0.00000E+00
         0.00000E+00
         0.00000E+00
         0.00000E+00
         0.00000E+00
         0.00000E+00
         0.00000E+00
         0.00000E+00
         0.00000E+00
         0.00000E+00
         0.00000E+00
         0.00000E+00
         0.00000E+00
         0.00000E+00
         0.00000E+00
         0.00000E+00
         0.00000E+00
         0.00000E+00
         0.00000E+00
         0.00000E+00
         0.00000E+00
         0.00000E+00
         0.00000E+00
         0.00000E+00
         0.00000E+00
         0.00000E+00
         0.00000E+00
         0.00000E+00
         0.00000E+00
         0.00000E+00
         0.00000E+00
         0.00000E+00
         0.00000E+00
         0.00000E+00
         0.00000E+00
         0.00000E+00
         0.00000E+00
         0.00000E+00
         0.00000E+00
         0.00000E+00
         0.00000E+00
         0.00000E+00
         0.00000E+00
         0.00000E+00
         0.00000E+00
         0.00000E+00
         0.00000E+00
         0.00000E+00
         0.00000E+00
         0.00000E+00
         0.00000E+00
         0.00000E+00
         0.00000E+00
         0.00000E+00
         0.00000E+00
         0.00000E+00
         0.00000E+00
         0.00000E+00
         0.00000E+00
         0.00000E+00
         0.00000E+00
         0.00000E+00
         0.00000E+00
         0.00000E+00
         0.00000E+00
         0.00000E+00
         0.00000E+00
         0.00000E+00
         0.00000E+00
         0.00000E+00
         0.00000E+00
         0.00000E+00
         0.00000E+00
         0.00000E+00
         0.00000E+00
         0.00000E+00
         0.00000E+00
         0.00000E+00
         0.00000E+00
         0.00000E+00
         0.00000E+00
         0.00000E+00
         0.00000E+00
         0.00000E+00
         0.00000E+00
         0.00000E+00
         0.00000E+00
         0.00000E+00
         0.00000E+00
         0.00000E+00
         0.00000E+00
         0.00000E+00
         0.00000E+00
         0.00000E+00
         0.00000E+00
         0.00000E+00
         0.00000E+00
         0.00000E+00
         0.00000E+00
         0.00000E+00
         0.00000E+00
         0.00000E+00
         0.00000E+00
         0.00000E+00
         0.00000E+00
         0.00000E+00
         0.00000E+00
         0.00000E+00
         0.00000E+00
         0.00000E+00
         0.00000E+00
         0.00000E+00
         0.00000E+00
         0.00000E+00
         0.00000E+00
         0.00000E+00
         0.00000E+00
         0.00000E+00
         0.00000E+00
         0.00000E+00
         0.00000E+00
         0.00000E+00
         0.00000E+00
         0.00000E+00
         0.00000E+00
         0.00000E+00
         0.00000E+00
         0.00000E+00
         0.00000E+00
         0.00000E+00
         0.00000E+00
         0.00000E+00
         0.00000E+00
         0.00000E+00
         0.00000E+00
         0.00000E+00
         0.00000E+00
         0.00000E+00
         0.00000E+00
         0.00000E+00
         0.00000E+00
         0.00000E+00
         0.00000E+00
         0.00000E+00
         0.00000E+00
         0.00000E+00
         0.00000E+00
         0.00000E+00
         0.00000E+00
         0.00000E+00
         0.00000E+00
         0.00000E+00
         0.00000E+00
         0.00000E+00
         0.00000E+00
         0.00000E+00
         0.00000E+00
         0.00000E+00
         0.00000E+00
         0.00000E+00
         0.00000E+00
         0.00000E+00
         0.00000E+00
         0.00000E+00
         0.00000E+00
         0.00000E+00
         0.00000E+00
         0.00000E+00
         0.00000E+00
         0.00000E+00
         0.00000E+00
         0.00000E+00
         0.00000E+00
         0.00000E+00
         0.00000E+00
         0.00000E+00
         0.00000E+00
         0.00000E+00
         0.00000E+00
         0.00000E+00
         0.00000E+00
         0.00000E+00
         0.00000E+00
         0.00000E+00
         0.00000E+00
         0.00000E+00
         0.00000E+00
         0.00000E+00
         0.00000E+00
         0.00000E+00
         0.00000E+00
         0.00000E+00
         0.00000E+00
         0.00000E+00
         0.00000E+00
         0.00000E+00
         0.00000E+00
         0.00000E+00
         0.00000E+00
         0.00000E+00
         0.00000E+00
         0.00000E+00
         0.00000E+00
         0.00000E+00
         0.00000E+00
         0.00000E+00
         0.00000E+00
         0.00000E+00
         0.00000E+00
         0.00000E+00
         0.00000E+00
         0.00000E+00
         0.00000E+00
         0.00000E+00
         0.00000E+00
         0.00000E+00
         0.00000E+00
         0.00000E+00
         0.00000E+00
         0.00000E+00
         0.00000E+00
         0.00000E+00
         0.00000E+00
         0.00000E+00
         0.00000E+00
         0.00000E+00
         0.00000E+00
         0.00000E+00
         0.00000E+00
         0.00000E+00
         0.00000E+00
         0.00000E+00
         0.00000E+00
         0.00000E+00
         0.00000E+00
         0.00000E+00
         0.00000E+00
         0.00000E+00
         0.00000E+00
         0.00000E+00
         0.00000E+00
         0.00000E+00
         0.00000E+00
         0.00000E+00
         0.00000E+00
         0.00000E+00
         0.00000E+00
         0.00000E+00
         0.00000E+00
         0.00000E+00
         0.00000E+00
         0.00000E+00
         0.00000E+00
         0.00000E+00
         0.00000E+00
         0.00000E+00
         0.00000E+00
         0.00000E+00
         0.00000E+00
         0.00000E+00
         0.00000E+00
         0.00000E+00
         0.00000E+00
         0.00000E+00
         0.00000E+00
         0.00000E+00
         0.00000E+00
         0.00000E+00
         0.00000E+00
         0.00000E+00
         0.00000E+00
         0.00000E+00
         0.00000E+00
         0.00000E+00
         0.00000E+00
         0.00000E+00
         0.00000E+00
         0.00000E+00
         0.00000E+00
         0.00000E+00
         0.00000E+00
         0.00000E+00
         0.00000E+00
         0.00000E+00
         0.00000E+00
         0.00000E+00
         0.00000E+00
         0.00000E+00
         0.00000E+00
         0.00000E+00
         0.00000E+00
         0.00000E+00
         0.00000E+00
         0.00000E+00
         0.00000E+00
         0.00000E+00
         0.00000E+00
         0.00000E+00
         0.00000E+00
         0.00000E+00
         0.00000E+00
         0.00000E+00
         0.00000E+00
         0.00000E+00
         0.00000E+00
         0.00000E+00
         0.00000E+00
         0.00000E+00
         0.00000E+00
         0.00000E+00
         0.00000E+00
         0.00000E+00
         0.00000E+00
         0.00000E+00
         0.00000E+00
         0.00000E+00
         0.00000E+00
         0.00000E+00
         0.00000E+00
         0.00000E+00
         0.00000E+00
         0.00000E+00
         0.00000E+00
         0.00000E+00
         0.00000E+00
         0.00000E+00
         0.00000E+00
         0.00000E+00
         0.00000E+00
         0.00000E+00
         0.00000E+00
         0.00000E+00
         0.00000E+00
         0.00000E+00
         0.00000E+00
         0.00000E+00
         0.00000E+00
         0.00000E+00
         0.00000E+00
         0.00000E+00
         0.00000E+00
         0.00000E+00
         0.00000E+00
         0.00000E+00
         0.00000E+00
         0.00000E+00
         0.00000E+00
         0.00000E+00
         0.00000E+00
         0.00000E+00
         0.00000E+00
         0.00000E+00
         0.00000E+00
         0.00000E+00
         0.00000E+00
         0.00000E+00
         0.00000E+00
         0.00000E+00
         0.00000E+00
         0.00000E+00
         0.00000E+00
         0.00000E+00
         0.00000E+00
         0.00000E+00
         0.00000E+00
         0.00000E+00
         0.00000E+00
         0.00000E+00
         0.00000E+00
         0.00000E+00
         0.00000E+00
         0.00000E+00
         0.00000E+00
         0.00000E+00
         0.00000E+00
         0.00000E+00
         0.00000E+00
         0.00000E+00
         0.00000E+00
         0.00000E+00
         0.00000E+00
         0.00000E+00
         0.00000E+00
  
SCALARS                   max_wave_vel  double 1
LOOKUP_TABLE default
         0.00000E+00
         0.00000E+00
         0.00000E+00
         0.00000E+00
         0.00000E+00
         0.00000E+00
         0.00000E+00
         0.00000E+00
         0.00000E+00
         0.00000E+00
         0.00000E+00
         0.00000E+00
         0.00000E+00
         0.00000E+00
         0.00000E+00
         0.00000E+00
         0.00000E+00
         0.00000E+00
         0.00000E+00
         0.00000E+00
         0.00000E+00
         0.00000E+00
         0.00000E+00
         0.00000E+00
         0.00000E+00
         0.00000E+00
         0.00000E+00
         0.00000E+00
         0.00000E+00
         0.00000E+00
         0.00000E+00
         0.00000E+00
         0.00000E+00
         0.00000E+00
         0.00000E+00
         0.00000E+00
         0.00000E+00
         0.00000E+00
         0.00000E+00
         0.00000E+00
         0.00000E+00
         0.00000E+00
         0.00000E+00
         0.00000E+00
         0.00000E+00
         0.00000E+00
         0.00000E+00
         0.00000E+00
         0.00000E+00
         0.00000E+00
         0.00000E+00
         0.00000E+00
         0.00000E+00
         0.00000E+00
         0.00000E+00
         0.00000E+00
         0.00000E+00
         0.00000E+00
         0.00000E+00
         0.00000E+00
         0.00000E+00
         0.00000E+00
         0.00000E+00
         0.00000E+00
         0.00000E+00
         0.00000E+00
         0.00000E+00
         0.00000E+00
         0.00000E+00
         0.00000E+00
         0.00000E+00
         0.00000E+00
         0.00000E+00
         0.00000E+00
         0.00000E+00
         0.00000E+00
         0.00000E+00
         0.00000E+00
         0.00000E+00
         0.00000E+00
         0.00000E+00
         0.00000E+00
         0.00000E+00
         0.00000E+00
         0.00000E+00
         0.00000E+00
         0.00000E+00
         0.00000E+00
         0.00000E+00
         0.00000E+00
         0.00000E+00
         0.00000E+00
         0.00000E+00
         0.00000E+00
         0.00000E+00
         0.00000E+00
         0.00000E+00
         0.00000E+00
         0.00000E+00
         0.00000E+00
         0.00000E+00
         0.00000E+00
         0.00000E+00
         0.00000E+00
         0.00000E+00
         0.00000E+00
         0.00000E+00
         0.00000E+00
         0.00000E+00
         0.00000E+00
         0.00000E+00
         0.00000E+00
         0.00000E+00
         0.00000E+00
         0.00000E+00
         0.00000E+00
         0.00000E+00
         0.00000E+00
         0.00000E+00
         0.00000E+00
         0.00000E+00
         0.00000E+00
         0.00000E+00
         0.00000E+00
         0.00000E+00
         0.00000E+00
         0.00000E+00
         0.00000E+00
         0.00000E+00
         0.00000E+00
         0.00000E+00
         0.00000E+00
         0.00000E+00
         0.00000E+00
         0.00000E+00
         0.00000E+00
         0.00000E+00
         0.00000E+00
         0.00000E+00
         0.00000E+00
         0.00000E+00
         0.00000E+00
         0.00000E+00
         0.00000E+00
         0.00000E+00
         0.00000E+00
         0.00000E+00
         0.00000E+00
         0.00000E+00
         0.00000E+00
         0.00000E+00
         0.00000E+00
         0.00000E+00
         0.00000E+00
         0.00000E+00
         0.00000E+00
         0.00000E+00
         0.00000E+00
         0.00000E+00
         0.00000E+00
         0.00000E+00
         0.00000E+00
         0.00000E+00
         0.00000E+00
         0.00000E+00
         0.00000E+00
         0.00000E+00
         0.00000E+00
         0.00000E+00
         0.00000E+00
         0.00000E+00
         0.00000E+00
         0.00000E+00
         0.00000E+00
         0.00000E+00
         0.00000E+00
         0.00000E+00
         0.00000E+00
         0.00000E+00
         0.00000E+00
         0.00000E+00
         0.00000E+00
         0.00000E+00
         0.00000E+00
         0.00000E+00
         0.00000E+00
         0.00000E+00
         0.00000E+00
         0.00000E+00
         0.00000E+00
         0.00000E+00
         0.00000E+00
         0.00000E+00
         0.00000E+00
         0.00000E+00
         0.00000E+00
         0.00000E+00
         0.00000E+00
         0.00000E+00
         0.00000E+00
         0.00000E+00
         0.00000E+00
         0.00000E+00
         0.00000E+00
         0.00000E+00
         0.00000E+00
         0.00000E+00
         0.00000E+00
         0.00000E+00
         0.00000E+00
         0.00000E+00
         0.00000E+00
         0.00000E+00
         0.00000E+00
         0.00000E+00
         0.00000E+00
         0.00000E+00
         0.00000E+00
         0.00000E+00
         0.00000E+00
         0.00000E+00
         0.00000E+00
         0.00000E+00
         0.00000E+00
         0.00000E+00
         0.00000E+00
         0.00000E+00
         0.00000E+00
         0.00000E+00
         0.00000E+00
         0.00000E+00
         0.00000E+00
         0.00000E+00
         0.00000E+00
         0.00000E+00
         0.00000E+00
         0.00000E+00
         0.00000E+00
         0.00000E+00
         0.00000E+00
         0.00000E+00
         0.00000E+00
         0.00000E+00
         0.00000E+00
         0.00000E+00
         0.00000E+00
         0.00000E+00
         0.00000E+00
         0.00000E+00
         0.00000E+00
         0.00000E+00
         0.00000E+00
         0.00000E+00
         0.00000E+00
         0.00000E+00
         0.00000E+00
         0.00000E+00
         0.00000E+00
         0.00000E+00
         0.00000E+00
         0.00000E+00
         0.00000E+00
         0.00000E+00
         0.00000E+00
         0.00000E+00
         0.00000E+00
         0.00000E+00
         0.00000E+00
         0.00000E+00
         0.00000E+00
         0.00000E+00
         0.00000E+00
         0.00000E+00
         0.00000E+00
         0.00000E+00
         0.00000E+00
         0.00000E+00
         0.00000E+00
         0.00000E+00
         0.00000E+00
         0.00000E+00
         0.00000E+00
         0.00000E+00
         0.00000E+00
         0.00000E+00
         0.00000E+00
         0.00000E+00
         0.00000E+00
         0.00000E+00
         0.00000E+00
         0.00000E+00
         0.00000E+00
         0.00000E+00
         0.00000E+00
         0.00000E+00
         0.00000E+00
         0.00000E+00
         0.00000E+00
         0.00000E+00
         0.00000E+00
         0.00000E+00
         0.00000E+00
         0.00000E+00
         0.00000E+00
         0.00000E+00
         0.00000E+00
         0.00000E+00
         0.00000E+00
         0.00000E+00
         0.00000E+00
         0.00000E+00
         0.00000E+00
         0.00000E+00
         0.00000E+00
         0.00000E+00
         0.00000E+00
         0.00000E+00
         0.00000E+00
         0.00000E+00
         0.00000E+00
         0.00000E+00
         0.00000E+00
         0.00000E+00
         0.00000E+00
         0.00000E+00
         0.00000E+00
         0.00000E+00
         0.00000E+00
         0.00000E+00
         0.00000E+00
         0.00000E+00
         0.00000E+00
         0.00000E+00
         0.00000E+00
         0.00000E+00
         0.00000E+00
         0.00000E+00
         0.00000E+00
         0.00000E+00
         0.00000E+00
         0.00000E+00
         0.00000E+00
         0.00000E+00
         0.00000E+00
         0.00000E+00
         0.00000E+00
         0.00000E+00
         0.00000E+00
         0.00000E+00
         0.00000E+00
         0.00000E+00
         0.00000E+00
         0.00000E+00
         0.00000E+00
         0.00000E+00
         0.00000E+00
         0.00000E+00
         0.00000E+00
         0.00000E+00
         0.00000E+00
         0.00000E+00
         0.00000E+00
         0.00000E+00
         0.00000E+00
         0.00000E+00
         0.00000E+00
         0.00000E+00
         0.00000E+00
         0.00000E+00
         0.00000E+00
         0.00000E+00
         0.00000E+00
         0.00000E+00
         0.00000E+00
         0.00000E+00
         0.00000E+00
         0.00000E+00
         0.00000E+00
         0.00000E+00
         0.00000E+00
         0.00000E+00
         0.00000E+00
         0.00000E+00
         0.00000E+00
         0.00000E+00
         0.00000E+00
         0.00000E+00
         0.00000E+00
         0.00000E+00
         0.00000E+00
         0.00000E+00
         0.00000E+00
         0.00000E+00
         0.00000E+00
         0.00000E+00
         0.00000E+00
         0.00000E+00
         0.00000E+00
         0.00000E+00
         0.00000E+00
         0.00000E+00
         0.00000E+00
         0.00000E+00
         0.00000E+00
         0.00000E+00
         0.00000E+00
         0.00000E+00
         0.00000E+00
         0.00000E+00
         0.00000E+00
         0.00000E+00
         0.00000E+00
         0.00000E+00
         0.00000E+00
         0.00000E+00
         0.00000E+00
         0.00000E+00
         0.00000E+00
         0.00000E+00
         0.00000E+00
         0.00000E+00
         0.00000E+00
         0.00000E+00
         0.00000E+00
         0.00000E+00
         0.00000E+00
         0.00000E+00
         0.00000E+00
         0.00000E+00
         0.00000E+00
         0.00000E+00
         0.00000E+00
         0.00000E+00
         0.00000E+00
         0.00000E+00
         0.00000E+00
         0.00000E+00
         0.00000E+00
         0.00000E+00
         0.00000E+00
         0.00000E+00
         0.00000E+00
         0.00000E+00
         0.00000E+00
         0.00000E+00
         0.00000E+00
         0.00000E+00
         0.00000E+00
         0.00000E+00
         0.00000E+00
         0.00000E+00
         0.00000E+00
         0.00000E+00
         0.00000E+00
         0.00000E+00
         0.00000E+00
         0.00000E+00
         0.00000E+00
         0.00000E+00
         0.00000E+00
         0.00000E+00
         0.00000E+00
         0.00000E+00
         0.00000E+00
         0.00000E+00
         0.00000E+00
         0.00000E+00
         0.00000E+00
         0.00000E+00
         0.00000E+00
         0.00000E+00
         0.00000E+00
         0.00000E+00
         0.00000E+00
         0.00000E+00
         0.00000E+00
         0.00000E+00
         0.00000E+00
         0.00000E+00
         0.00000E+00
         0.00000E+00
         0.00000E+00
         0.00000E+00
         0.00000E+00
         0.00000E+00
         0.00000E+00
         0.00000E+00
         0.00000E+00
         0.00000E+00
         0.00000E+00
         0.00000E+00
         0.00000E+00
         0.00000E+00
         0.00000E+00
         0.00000E+00
         0.00000E+00
         0.00000E+00
         0.00000E+00
         0.00000E+00
         0.00000E+00
         0.00000E+00
         0.00000E+00
         0.00000E+00
         0.00000E+00
         0.00000E+00
         0.00000E+00
         0.00000E+00
         0.00000E+00
         0.00000E+00
         0.00000E+00
         0.00000E+00
         0.00000E+00
         0.00000E+00
         0.00000E+00
         0.00000E+00
         0.00000E+00
         0.00000E+00
         0.00000E+00
         0.00000E+00
         0.00000E+00
         0.00000E+00
         0.00000E+00
         0.00000E+00
         0.00000E+00
         0.00000E+00
         0.00000E+00
         0.00000E+00
         0.00000E+00
         0.00000E+00
         0.00000E+00
         0.00000E+00
         0.00000E+00
         0.00000E+00
         0.00000E+00
         0.00000E+00
         0.00000E+00
         0.00000E+00
         0.00000E+00
         0.00000E+00
         0.00000E+00
         0.00000E+00
         0.00000E+00
         0.00000E+00
         0.00000E+00
         0.00000E+00
         0.00000E+00
         0.00000E+00
         0.00000E+00
         0.00000E+00
         0.00000E+00
         0.00000E+00
         0.00000E+00
         0.00000E+00
         0.00000E+00
         0.00000E+00
         0.00000E+00
         0.00000E+00
         0.00000E+00
         0.00000E+00
         0.00000E+00
         0.00000E+00
         0.00000E+00
         0.00000E+00
         0.00000E+00
         0.00000E+00
         0.00000E+00
         0.00000E+00
         0.00000E+00
         0.00000E+00
         0.00000E+00
         0.00000E+00
         0.00000E+00
         0.00000E+00
         0.00000E+00
         0.00000E+00
         0.00000E+00
         0.00000E+00
         0.00000E+00
         0.00000E+00
         0.00000E+00
         0.00000E+00
         0.00000E+00
         0.00000E+00
         0.00000E+00
         0.00000E+00
         0.00000E+00
         0.00000E+00
         0.00000E+00
         0.00000E+00
         0.00000E+00
         0.00000E+00
         0.00000E+00
         0.00000E+00
         0.00000E+00
         0.00000E+00
         0.00000E+00
         0.00000E+00
         0.00000E+00
         0.00000E+00
         0.00000E+00
         0.00000E+00
         0.00000E+00
         0.00000E+00
         0.00000E+00
         0.00000E+00
         0.00000E+00
         0.00000E+00
         0.00000E+00
         0.00000E+00
         0.00000E+00
         0.00000E+00
         0.00000E+00
         0.00000E+00
         0.00000E+00
         0.00000E+00
         0.00000E+00
         0.00000E+00
         0.00000E+00
         0.00000E+00
         0.00000E+00
         0.00000E+00
         0.00000E+00
         0.00000E+00
         0.00000E+00
         0.00000E+00
         0.00000E+00
         0.00000E+00
         0.00000E+00
         0.00000E+00
         0.00000E+00
         0.00000E+00
         0.00000E+00
         0.00000E+00
         0.00000E+00
         0.00000E+00
         0.00000E+00
         0.00000E+00
         0.00000E+00
         0.00000E+00
         0.00000E+00
         0.00000E+00
         0.00000E+00
         0.00000E+00
         0.00000E+00
         0.00000E+00
         0.00000E+00
         0.00000E+00
         0.00000E+00
         0.00000E+00
         0.00000E+00
         0.00000E+00
         0.00000E+00
         0.00000E+00
         0.00000E+00
         0.00000E+00
         0.00000E+00
         0.00000E+00
         0.00000E+00
         0.00000E+00
         0.00000E+00
         0.00000E+00
         0.00000E+00
         0.00000E+00
         0.00000E+00
         0.00000E+00
         0.00000E+00
         0.00000E+00
         0.00000E+00
         0.00000E+00
         0.00000E+00
         0.00000E+00
         0.00000E+00
         0.00000E+00
         0.00000E+00
         0.00000E+00
         0.00000E+00
         0.00000E+00
         0.00000E+00
         0.00000E+00
         0.00000E+00
         0.00000E+00
         0.00000E+00
         0.00000E+00
         0.00000E+00
         0.00000E+00
         0.00000E+00
         0.00000E+00
         0.00000E+00
         0.00000E+00
         0.00000E+00
         0.00000E+00
         0.00000E+00
         0.00000E+00
         0.00000E+00
         0.00000E+00
         0.00000E+00
         0.00000E+00
         0.00000E+00
         0.00000E+00
         0.00000E+00
         0.00000E+00
         0.00000E+00
         0.00000E+00
         0.00000E+00
         0.00000E+00
         0.00000E+00
         0.00000E+00
         0.00000E+00
         0.00000E+00
         0.00000E+00
         0.00000E+00
         0.00000E+00
         0.00000E+00
         0.00000E+00
         0.00000E+00
         0.00000E+00
         0.00000E+00
         0.00000E+00
         0.00000E+00
         0.00000E+00
         0.00000E+00
         0.00000E+00
         0.00000E+00
         0.00000E+00
         0.00000E+00
         0.00000E+00
         0.00000E+00
         0.00000E+00
         0.00000E+00
         0.00000E+00
         0.00000E+00
         0.00000E+00
         0.00000E+00
         0.00000E+00
         0.00000E+00
         0.00000E+00
         0.00000E+00
         0.00000E+00
         0.00000E+00
         0.00000E+00
         0.00000E+00
         0.00000E+00
         0.00000E+00
         0.00000E+00
         0.00000E+00
         0.00000E+00
         0.00000E+00
         0.00000E+00
         0.00000E+00
         0.00000E+00
         0.00000E+00
         0.00000E+00
         0.00000E+00
         0.00000E+00
         0.00000E+00
         0.00000E+00
         0.00000E+00
         0.00000E+00
         0.00000E+00
         0.00000E+00
         0.00000E+00
         0.00000E+00
         0.00000E+00
         0.00000E+00
         0.00000E+00
         0.00000E+00
         0.00000E+00
         0.00000E+00
         0.00000E+00
         0.00000E+00
         0.00000E+00
         0.00000E+00
         0.00000E+00
         0.00000E+00
         0.00000E+00
         0.00000E+00
         0.00000E+00
         0.00000E+00
         0.00000E+00
         0.00000E+00
         0.00000E+00
         0.00000E+00
         0.00000E+00
         0.00000E+00
         0.00000E+00
         0.00000E+00
         0.00000E+00
         0.00000E+00
         0.00000E+00
         0.00000E+00
         0.00000E+00
         0.00000E+00
         0.00000E+00
         0.00000E+00
         0.00000E+00
         0.00000E+00
         0.00000E+00
         0.00000E+00
         0.00000E+00
         0.00000E+00
         0.00000E+00
         0.00000E+00
         0.00000E+00
         0.00000E+00
         0.00000E+00
         0.00000E+00
         0.00000E+00
         0.00000E+00
         0.00000E+00
         0.00000E+00
         0.00000E+00
         0.00000E+00
         0.00000E+00
         0.00000E+00
         0.00000E+00
         0.00000E+00
         0.00000E+00
         0.00000E+00
         0.00000E+00
         0.00000E+00
         0.00000E+00
         0.00000E+00
         0.00000E+00
         0.00000E+00
         0.00000E+00
         0.00000E+00
         0.00000E+00
         0.00000E+00
         0.00000E+00
         0.00000E+00
         0.00000E+00
         0.00000E+00
         0.00000E+00
         0.00000E+00
         0.00000E+00
         0.00000E+00
         0.00000E+00
         0.00000E+00
         0.00000E+00
         0.00000E+00
         0.00000E+00
         0.00000E+00
         0.00000E+00
         0.00000E+00
         0.00000E+00
         0.00000E+00
         0.00000E+00
         0.00000E+00
         0.00000E+00
         0.00000E+00
         0.00000E+00
         0.00000E+00
         0.00000E+00
         0.00000E+00
         0.00000E+00
         0.00000E+00
         0.00000E+00
         0.00000E+00
         0.00000E+00
         0.00000E+00
         0.00000E+00
         0.00000E+00
         0.00000E+00
         0.00000E+00
         0.00000E+00
         0.00000E+00
         0.00000E+00
         0.00000E+00
         0.00000E+00
         0.00000E+00
         0.00000E+00
         0.00000E+00
         0.00000E+00
         0.00000E+00
         0.00000E+00
         0.00000E+00
         0.00000E+00
         0.00000E+00
         0.00000E+00
         0.00000E+00
         0.00000E+00
         0.00000E+00
         0.00000E+00
         0.00000E+00
         0.00000E+00
         0.00000E+00
         0.00000E+00
         0.00000E+00
         0.00000E+00
         0.00000E+00
         0.00000E+00
         0.00000E+00
         0.00000E+00
         0.00000E+00
         0.00000E+00
         0.00000E+00
         0.00000E+00
         0.00000E+00
         0.00000E+00
         0.00000E+00
         0.00000E+00
         0.00000E+00
         0.00000E+00
         0.00000E+00
         0.00000E+00
         0.00000E+00
         0.00000E+00
         0.00000E+00
         0.00000E+00
         0.00000E+00
         0.00000E+00
         0.00000E+00
         0.00000E+00
         0.00000E+00
         0.00000E+00
         0.00000E+00
         0.00000E+00
         0.00000E+00
         0.00000E+00
         0.00000E+00
         0.00000E+00
         0.00000E+00
         0.00000E+00
         0.00000E+00
         0.00000E+00
         0.00000E+00
         0.00000E+00
         0.00000E+00
         0.00000E+00
         0.00000E+00
         0.00000E+00
         0.00000E+00
         0.00000E+00
         0.00000E+00
         0.00000E+00
         0.00000E+00
         0.00000E+00
         0.00000E+00
         0.00000E+00
         0.00000E+00
         0.00000E+00
         0.00000E+00
         0.00000E+00
         0.00000E+00
         0.00000E+00
         0.00000E+00
         0.00000E+00
         0.00000E+00
         0.00000E+00
         0.00000E+00
         0.00000E+00
         0.00000E+00
         0.00000E+00
         0.00000E+00
         0.00000E+00
         0.00000E+00
         0.00000E+00
         0.00000E+00
         0.00000E+00
         0.00000E+00
         0.00000E+00
         0.00000E+00
         0.00000E+00
         0.00000E+00
         0.00000E+00
         0.00000E+00
         0.00000E+00
         0.00000E+00
         0.00000E+00
         0.00000E+00
         0.00000E+00
         0.00000E+00
         0.00000E+00
         0.00000E+00
         0.00000E+00
         0.00000E+00
         0.00000E+00
         0.00000E+00
         0.00000E+00
         0.00000E+00
         0.00000E+00
         0.00000E+00
         0.00000E+00
         0.00000E+00
         0.00000E+00
         0.00000E+00
         0.00000E+00
         0.00000E+00
         0.00000E+00
         0.00000E+00
         0.00000E+00
         0.00000E+00
         0.00000E+00
         0.00000E+00
         0.00000E+00
         0.00000E+00
         0.00000E+00
         0.00000E+00
         0.00000E+00
         0.00000E+00
         0.00000E+00
         0.00000E+00
         0.00000E+00
         0.00000E+00
         0.00000E+00
         0.00000E+00
         0.00000E+00
         0.00000E+00
         0.00000E+00
         0.00000E+00
         0.00000E+00
         0.00000E+00
         0.00000E+00
         0.00000E+00
         0.00000E+00
         0.00000E+00
         0.00000E+00
         0.00000E+00
         0.00000E+00
         0.00000E+00
         0.00000E+00
         0.00000E+00
         0.00000E+00
         0.00000E+00
         0.00000E+00
         0.00000E+00
         0.00000E+00
         0.00000E+00
         0.00000E+00
         0.00000E+00
         0.00000E+00
         0.00000E+00
         0.00000E+00
         0.00000E+00
         0.00000E+00
         0.00000E+00
         0.00000E+00
         0.00000E+00
         0.00000E+00
         0.00000E+00
         0.00000E+00
         0.00000E+00
         0.00000E+00
         0.00000E+00
         0.00000E+00
         0.00000E+00
         0.00000E+00
         0.00000E+00
         0.00000E+00
         0.00000E+00
         0.00000E+00
         0.00000E+00
         0.00000E+00
         0.00000E+00
         0.00000E+00
         0.00000E+00
         0.00000E+00
         0.00000E+00
         0.00000E+00
         0.00000E+00
         0.00000E+00
         0.00000E+00
         0.00000E+00
         0.00000E+00
         0.00000E+00
         0.00000E+00
         0.00000E+00
         0.00000E+00
         0.00000E+00
         0.00000E+00
         0.00000E+00
         0.00000E+00
         0.00000E+00
         0.00000E+00
         0.00000E+00
         0.00000E+00
         0.00000E+00
         0.00000E+00
         0.00000E+00
         0.00000E+00
         0.00000E+00
         0.00000E+00
         0.00000E+00
         0.00000E+00
         0.00000E+00
         0.00000E+00
         0.00000E+00
         0.00000E+00
         0.00000E+00
         0.00000E+00
         0.00000E+00
         0.00000E+00
         0.00000E+00
         0.00000E+00
         0.00000E+00
         0.00000E+00
         0.00000E+00
         0.00000E+00
         0.00000E+00
         0.00000E+00
         0.00000E+00
         0.00000E+00
         0.00000E+00
         0.00000E+00
         0.00000E+00
         0.00000E+00
         0.00000E+00
         0.00000E+00
         0.00000E+00
         0.00000E+00
         0.00000E+00
         0.00000E+00
         0.00000E+00
         0.00000E+00
         0.00000E+00
         0.00000E+00
         0.00000E+00
         0.00000E+00
         0.00000E+00
         0.00000E+00
         0.00000E+00
         0.00000E+00
         0.00000E+00
         0.00000E+00
         0.00000E+00
         0.00000E+00
         0.00000E+00
         0.00000E+00
         0.00000E+00
         0.00000E+00
         0.00000E+00
         0.00000E+00
         0.00000E+00
         0.00000E+00
         0.00000E+00
         0.00000E+00
         0.00000E+00
         0.00000E+00
         0.00000E+00
         0.00000E+00
         0.00000E+00
         0.00000E+00
         0.00000E+00
         0.00000E+00
         0.00000E+00
         0.00000E+00
         0.00000E+00
         0.00000E+00
         0.00000E+00
         0.00000E+00
         0.00000E+00
         0.00000E+00
         0.00000E+00
         0.00000E+00
         0.00000E+00
         0.00000E+00
         0.00000E+00
         0.00000E+00
         0.00000E+00
         0.00000E+00
         0.00000E+00
         0.00000E+00
         0.00000E+00
         0.00000E+00
         0.00000E+00
         0.00000E+00
         0.00000E+00
         0.00000E+00
         0.00000E+00
         0.00000E+00
         0.00000E+00
         0.00000E+00
         0.00000E+00
         0.00000E+00
         0.00000E+00
         0.00000E+00
         0.00000E+00
         0.00000E+00
         0.00000E+00
         0.00000E+00
         0.00000E+00
         0.00000E+00
         0.00000E+00
         0.00000E+00
         0.00000E+00
         0.00000E+00
         0.00000E+00
         0.00000E+00
         0.00000E+00
         0.00000E+00
         0.00000E+00
         0.00000E+00
         0.00000E+00
         0.00000E+00
         0.00000E+00
         0.00000E+00
         0.00000E+00
         0.00000E+00
         0.00000E+00
         0.00000E+00
         0.00000E+00
         0.00000E+00
         0.00000E+00
         0.00000E+00
         0.00000E+00
         0.00000E+00
         0.00000E+00
         0.00000E+00
         0.00000E+00
         0.00000E+00
         0.00000E+00
         0.00000E+00
         0.00000E+00
         0.00000E+00
         0.00000E+00
         0.00000E+00
         0.00000E+00
         0.00000E+00
         0.00000E+00
         0.00000E+00
         0.00000E+00
         0.00000E+00
         0.00000E+00
         0.00000E+00
         0.00000E+00
         0.00000E+00
         0.00000E+00
         0.00000E+00
         0.00000E+00
         0.00000E+00
         0.00000E+00
         0.00000E+00
         0.00000E+00
         0.00000E+00
         0.00000E+00
         0.00000E+00
         0.00000E+00
         0.00000E+00
         0.00000E+00
         0.00000E+00
         0.00000E+00
         0.00000E+00
         0.00000E+00
         0.00000E+00
         0.00000E+00
         0.00000E+00
         0.00000E+00
         0.00000E+00
         0.00000E+00
         0.00000E+00
         0.00000E+00
         0.00000E+00
         0.00000E+00
         0.00000E+00
         0.00000E+00
         0.00000E+00
         0.00000E+00
         0.00000E+00
         0.00000E+00
         0.00000E+00
         0.00000E+00
         0.00000E+00
         0.00000E+00
         0.00000E+00
         0.00000E+00
         0.00000E+00
         0.00000E+00
         0.00000E+00
         0.00000E+00
         0.00000E+00
         0.00000E+00
         0.00000E+00
         0.00000E+00
         0.00000E+00
         0.00000E+00
         0.00000E+00
         0.00000E+00
         0.00000E+00
         0.00000E+00
         0.00000E+00
         0.00000E+00
         0.00000E+00
         0.00000E+00
         0.00000E+00
         0.00000E+00
         0.00000E+00
         0.00000E+00
         0.00000E+00
         0.00000E+00
         0.00000E+00
         0.00000E+00
         0.00000E+00
         0.00000E+00
         0.00000E+00
         0.00000E+00
         0.00000E+00
         0.00000E+00
         0.00000E+00
         0.00000E+00
         0.00000E+00
         0.00000E+00
         0.00000E+00
         0.00000E+00
         0.00000E+00
         0.00000E+00
         0.00000E+00
         0.00000E+00
         0.00000E+00
         0.00000E+00
         0.00000E+00
         0.00000E+00
         0.00000E+00
         0.00000E+00
         0.00000E+00
         0.00000E+00
         0.00000E+00
         0.00000E+00
         0.00000E+00
         0.00000E+00
         0.00000E+00
         0.00000E+00
         0.00000E+00
         0.00000E+00
         0.00000E+00
         0.00000E+00
         0.00000E+00
         0.00000E+00
         0.00000E+00
         0.00000E+00
         0.00000E+00
         0.00000E+00
         0.00000E+00
         0.00000E+00
         0.00000E+00
         0.00000E+00
         0.00000E+00
         0.00000E+00
         0.00000E+00
         0.00000E+00
         0.00000E+00
         0.00000E+00
         0.00000E+00
         0.00000E+00
         0.00000E+00
         0.00000E+00
         0.00000E+00
         0.00000E+00
         0.00000E+00
         0.00000E+00
         0.00000E+00
         0.00000E+00
         0.00000E+00
         0.00000E+00
         0.00000E+00
         0.00000E+00
         0.00000E+00
         0.00000E+00
         0.00000E+00
         0.00000E+00
         0.00000E+00
         0.00000E+00
         0.00000E+00
         0.00000E+00
         0.00000E+00
         0.00000E+00
         0.00000E+00
         0.00000E+00
         0.00000E+00
         0.00000E+00
         0.00000E+00
         0.00000E+00
         0.00000E+00
         0.00000E+00
         0.00000E+00
         0.00000E+00
         0.00000E+00
         0.00000E+00
         0.00000E+00
         0.00000E+00
         0.00000E+00
         0.00000E+00
         0.00000E+00
         0.00000E+00
         0.00000E+00
         0.00000E+00
         0.00000E+00
         0.00000E+00
         0.00000E+00
         0.00000E+00
         0.00000E+00
         0.00000E+00
         0.00000E+00
         0.00000E+00
         0.00000E+00
         0.00000E+00
         0.00000E+00
         0.00000E+00
         0.00000E+00
         0.00000E+00
         0.00000E+00
         0.00000E+00
         0.00000E+00
         0.00000E+00
         0.00000E+00
         0.00000E+00
         0.00000E+00
         0.00000E+00
         0.00000E+00
         0.00000E+00
         0.00000E+00
         0.00000E+00
         0.00000E+00
         0.00000E+00
         0.00000E+00
         0.00000E+00
         0.00000E+00
         0.00000E+00
         0.00000E+00
         0.00000E+00
         0.00000E+00
         0.00000E+00
         0.00000E+00
         0.00000E+00
         0.00000E+00
         0.00000E+00
         0.00000E+00
         0.00000E+00
         0.00000E+00
         0.00000E+00
         0.00000E+00
         0.00000E+00
         0.00000E+00
         0.00000E+00
         0.00000E+00
         0.00000E+00
         0.00000E+00
         0.00000E+00
         0.00000E+00
         0.00000E+00
         0.00000E+00
         0.00000E+00
         0.00000E+00
         0.00000E+00
         0.00000E+00
         0.00000E+00
         0.00000E+00
         0.00000E+00
         0.00000E+00
         0.00000E+00
         0.00000E+00
         0.00000E+00
         0.00000E+00
         0.00000E+00
         0.00000E+00
         0.00000E+00
         0.00000E+00
         0.00000E+00
         0.00000E+00
         0.00000E+00
         0.00000E+00
         0.00000E+00
         0.00000E+00
         0.00000E+00
         0.00000E+00
         0.00000E+00
         0.00000E+00
         0.00000E+00
         0.00000E+00
         0.00000E+00
         0.00000E+00
         0.00000E+00
         0.00000E+00
         0.00000E+00
         0.00000E+00
         0.00000E+00
         0.00000E+00
         0.00000E+00
         0.00000E+00
         0.00000E+00
         0.00000E+00
         0.00000E+00
         0.00000E+00
         0.00000E+00
         0.00000E+00
         0.00000E+00
         0.00000E+00
         0.00000E+00
         0.00000E+00
         0.00000E+00
         0.00000E+00
         0.00000E+00
         0.00000E+00
         0.00000E+00
         0.00000E+00
         0.00000E+00
         0.00000E+00
         0.00000E+00
         0.00000E+00
         0.00000E+00
         0.00000E+00
         0.00000E+00
         0.00000E+00
         0.00000E+00
         0.00000E+00
         0.00000E+00
         0.00000E+00
         0.00000E+00
         0.00000E+00
         0.00000E+00
         0.00000E+00
         0.00000E+00
         0.00000E+00
         0.00000E+00
         0.00000E+00
         0.00000E+00
         0.00000E+00
         0.00000E+00
         0.00000E+00
         0.00000E+00
         0.00000E+00
         0.00000E+00
         0.00000E+00
         0.00000E+00
         0.00000E+00
         0.00000E+00
         0.00000E+00
         0.00000E+00
         0.00000E+00
         0.00000E+00
         0.00000E+00
         0.00000E+00
         0.00000E+00
         0.00000E+00
         0.00000E+00
         0.00000E+00
         0.00000E+00
         0.00000E+00
         0.00000E+00
         0.00000E+00
         0.00000E+00
         0.00000E+00
         0.00000E+00
         0.00000E+00
         0.00000E+00
         0.00000E+00
         0.00000E+00
         0.00000E+00
         0.00000E+00
         0.00000E+00
         0.00000E+00
         0.00000E+00
         0.00000E+00
         0.00000E+00
         0.00000E+00
         0.00000E+00
         0.00000E+00
         0.00000E+00
         0.00000E+00
         0.00000E+00
         0.00000E+00
         0.00000E+00
         0.00000E+00
         0.00000E+00
         0.00000E+00
         0.00000E+00
         0.00000E+00
         0.00000E+00
         0.00000E+00
         0.00000E+00
         0.00000E+00
         0.00000E+00
         0.00000E+00
         0.00000E+00
         0.00000E+00
         0.00000E+00
         0.00000E+00
         0.00000E+00
         0.00000E+00
         0.00000E+00
         0.00000E+00
         0.00000E+00
         0.00000E+00
         0.00000E+00
         0.00000E+00
         0.00000E+00
         0.00000E+00
         0.00000E+00
         0.00000E+00
         0.00000E+00
         0.00000E+00
         0.00000E+00
         0.00000E+00
         0.00000E+00
         0.00000E+00
         0.00000E+00
         0.00000E+00
         0.00000E+00
         0.00000E+00
         0.00000E+00
         0.00000E+00
         0.00000E+00
         0.00000E+00
         0.00000E+00
         0.00000E+00
         0.00000E+00
         0.00000E+00
         0.00000E+00
         0.00000E+00
         0.00000E+00
         0.00000E+00
         0.00000E+00
         0.00000E+00
         0.00000E+00
         0.00000E+00
         0.00000E+00
         0.00000E+00
         0.00000E+00
         0.00000E+00
         0.00000E+00
         0.00000E+00
         0.00000E+00
         0.00000E+00
         0.00000E+00
         0.00000E+00
         0.00000E+00
         0.00000E+00
         0.00000E+00
         0.00000E+00
         0.00000E+00
         0.00000E+00
         0.00000E+00
         0.00000E+00
         0.00000E+00
         0.00000E+00
         0.00000E+00
         0.00000E+00
         0.00000E+00
         0.00000E+00
         0.00000E+00
         0.00000E+00
         0.00000E+00
         0.00000E+00
         0.00000E+00
         0.00000E+00
         0.00000E+00
         0.00000E+00
         0.00000E+00
         0.00000E+00
         0.00000E+00
         0.00000E+00
         0.00000E+00
         0.00000E+00
         0.00000E+00
         0.00000E+00
         0.00000E+00
         0.00000E+00
         0.00000E+00
         0.00000E+00
         0.00000E+00
         0.00000E+00
         0.00000E+00
         0.00000E+00
         0.00000E+00
         0.00000E+00
         0.00000E+00
         0.00000E+00
         0.00000E+00
         0.00000E+00
         0.00000E+00
         0.00000E+00
         0.00000E+00
         0.00000E+00
         0.00000E+00
         0.00000E+00
         0.00000E+00
         0.00000E+00
         0.00000E+00
         0.00000E+00
         0.00000E+00
         0.00000E+00
         0.00000E+00
         0.00000E+00
         0.00000E+00
         0.00000E+00
         0.00000E+00
         0.00000E+00
         0.00000E+00
         0.00000E+00
         0.00000E+00
         0.00000E+00
         0.00000E+00
         0.00000E+00
         0.00000E+00
         0.00000E+00
         0.00000E+00
         0.00000E+00
         0.00000E+00
         0.00000E+00
         0.00000E+00
         0.00000E+00
         0.00000E+00
         0.00000E+00
         0.00000E+00
         0.00000E+00
         0.00000E+00
         0.00000E+00
         0.00000E+00
         0.00000E+00
         0.00000E+00
         0.00000E+00
         0.00000E+00
         0.00000E+00
         0.00000E+00
         0.00000E+00
         0.00000E+00
         0.00000E+00
         0.00000E+00
         0.00000E+00
         0.00000E+00
         0.00000E+00
         0.00000E+00
         0.00000E+00
         0.00000E+00
         0.00000E+00
         0.00000E+00
         0.00000E+00
         0.00000E+00
         0.00000E+00
         0.00000E+00
         0.00000E+00
         0.00000E+00
         0.00000E+00
         0.00000E+00
         0.00000E+00
         0.00000E+00
         0.00000E+00
         0.00000E+00
         0.00000E+00
         0.00000E+00
         0.00000E+00
         0.00000E+00
         0.00000E+00
         0.00000E+00
         0.00000E+00
         0.00000E+00
         0.00000E+00
         0.00000E+00
         0.00000E+00
         0.00000E+00
         0.00000E+00
         0.00000E+00
         0.00000E+00
         0.00000E+00
         0.00000E+00
         0.00000E+00
         0.00000E+00
         0.00000E+00
         0.00000E+00
         0.00000E+00
         0.00000E+00
         0.00000E+00
         0.00000E+00
         0.00000E+00
         0.00000E+00
         0.00000E+00
         0.00000E+00
         0.00000E+00
         0.00000E+00
         0.00000E+00
         0.00000E+00
         0.00000E+00
         0.00000E+00
         0.00000E+00
         0.00000E+00
         0.00000E+00
         0.00000E+00
         0.00000E+00
         0.00000E+00
         0.00000E+00
         0.00000E+00
         0.00000E+00
         0.00000E+00
         0.00000E+00
         0.00000E+00
         0.00000E+00
         0.00000E+00
         0.00000E+00
         0.00000E+00
         0.00000E+00
         0.00000E+00
         0.00000E+00
         0.00000E+00
         0.00000E+00
         0.00000E+00
         0.00000E+00
         0.00000E+00
         0.00000E+00
         0.00000E+00
         0.00000E+00
         0.00000E+00
         0.00000E+00
         0.00000E+00
         0.00000E+00
         0.00000E+00
         0.00000E+00
         0.00000E+00
         0.00000E+00
         0.00000E+00
         0.00000E+00
         0.00000E+00
         0.00000E+00
         0.00000E+00
         0.00000E+00
         0.00000E+00
         0.00000E+00
         0.00000E+00
         0.00000E+00
         0.00000E+00
         0.00000E+00
         0.00000E+00
         0.00000E+00
         0.00000E+00
         0.00000E+00
         0.00000E+00
         0.00000E+00
         0.00000E+00
         0.00000E+00
         0.00000E+00
         0.00000E+00
         0.00000E+00
         0.00000E+00
         0.00000E+00
         0.00000E+00
         0.00000E+00
         0.00000E+00
         0.00000E+00
         0.00000E+00
         0.00000E+00
         0.00000E+00
         0.00000E+00
         0.00000E+00
         0.00000E+00
         0.00000E+00
         0.00000E+00
         0.00000E+00
         0.00000E+00
         0.00000E+00
         0.00000E+00
         0.00000E+00
         0.00000E+00
         0.00000E+00
         0.00000E+00
         0.00000E+00
         0.00000E+00
         0.00000E+00
         0.00000E+00
         0.00000E+00
         0.00000E+00
         0.00000E+00
         0.00000E+00
         0.00000E+00
         0.00000E+00
         0.00000E+00
         0.00000E+00
         0.00000E+00
         0.00000E+00
         0.00000E+00
         0.00000E+00
         0.00000E+00
         0.00000E+00
         0.00000E+00
         0.00000E+00
         0.00000E+00
         0.00000E+00
         0.00000E+00
         0.00000E+00
         0.00000E+00
         0.00000E+00
         0.00000E+00
         0.00000E+00
         0.00000E+00
         0.00000E+00
         0.00000E+00
         0.00000E+00
         0.00000E+00
         0.00000E+00
         0.00000E+00
         0.00000E+00
         0.00000E+00
         0.00000E+00
         0.00000E+00
         0.00000E+00
         0.00000E+00
         0.00000E+00
         0.00000E+00
         0.00000E+00
         0.00000E+00
         0.00000E+00
         0.00000E+00
         0.00000E+00
         0.00000E+00
         0.00000E+00
         0.00000E+00
         0.00000E+00
         0.00000E+00
         0.00000E+00
         0.00000E+00
         0.00000E+00
         0.00000E+00
         0.00000E+00
         0.00000E+00
         0.00000E+00
         0.00000E+00
         0.00000E+00
         0.00000E+00
         0.00000E+00
         0.00000E+00
         0.00000E+00
         0.00000E+00
         0.00000E+00
         0.00000E+00
         0.00000E+00
         0.00000E+00
         0.00000E+00
         0.00000E+00
         0.00000E+00
         0.00000E+00
         0.00000E+00
         0.00000E+00
         0.00000E+00
         0.00000E+00
         0.00000E+00
         0.00000E+00
         0.00000E+00
         0.00000E+00
         0.00000E+00
         0.00000E+00
         0.00000E+00
         0.00000E+00
         0.00000E+00
         0.00000E+00
         0.00000E+00
         0.00000E+00
         0.00000E+00
         0.00000E+00
         0.00000E+00
         0.00000E+00
         0.00000E+00
         0.00000E+00
         0.00000E+00
  
SCALARS                      eps_shear  double 1
LOOKUP_TABLE default
         0.00000E+00
         0.00000E+00
         0.00000E+00
         0.00000E+00
         0.00000E+00
         0.00000E+00
         0.00000E+00
         0.00000E+00
         0.00000E+00
         0.00000E+00
         0.00000E+00
         0.00000E+00
         0.00000E+00
         0.00000E+00
         0.00000E+00
         0.00000E+00
         0.00000E+00
         0.00000E+00
         0.00000E+00
         0.00000E+00
         0.00000E+00
         0.00000E+00
         0.00000E+00
         0.00000E+00
         0.00000E+00
         0.00000E+00
         0.00000E+00
         0.00000E+00
         0.00000E+00
         0.00000E+00
         0.00000E+00
         0.00000E+00
         0.00000E+00
         0.00000E+00
         0.00000E+00
         0.00000E+00
         0.00000E+00
         0.00000E+00
         0.00000E+00
         0.00000E+00
         0.00000E+00
         0.00000E+00
         0.00000E+00
         0.00000E+00
         0.00000E+00
         0.00000E+00
         0.00000E+00
         0.00000E+00
         0.00000E+00
         0.00000E+00
         0.00000E+00
         0.00000E+00
         0.00000E+00
         0.00000E+00
         0.00000E+00
         0.00000E+00
         0.00000E+00
         0.00000E+00
         0.00000E+00
         0.00000E+00
         0.00000E+00
         0.00000E+00
         0.00000E+00
         0.00000E+00
         0.00000E+00
         0.00000E+00
         0.00000E+00
         0.00000E+00
         0.00000E+00
         0.00000E+00
         0.00000E+00
         0.00000E+00
         0.00000E+00
         0.00000E+00
         0.00000E+00
         0.00000E+00
         0.00000E+00
         0.00000E+00
         0.00000E+00
         0.00000E+00
         0.00000E+00
         0.00000E+00
         0.00000E+00
         0.00000E+00
         0.00000E+00
         0.00000E+00
         0.00000E+00
         0.00000E+00
         0.00000E+00
         0.00000E+00
         0.00000E+00
         0.00000E+00
         0.00000E+00
         0.00000E+00
         0.00000E+00
         0.00000E+00
         0.00000E+00
         0.00000E+00
         0.00000E+00
         0.00000E+00
         0.00000E+00
         0.00000E+00
         0.00000E+00
         0.00000E+00
         0.00000E+00
         0.00000E+00
         0.00000E+00
         0.00000E+00
         0.00000E+00
         0.00000E+00
         0.00000E+00
         0.00000E+00
         0.00000E+00
         0.00000E+00
         0.00000E+00
         0.00000E+00
         0.00000E+00
         0.00000E+00
         0.00000E+00
         0.00000E+00
         0.00000E+00
         0.00000E+00
         0.00000E+00
         0.00000E+00
         0.00000E+00
         0.00000E+00
         0.00000E+00
         0.00000E+00
         0.00000E+00
         0.00000E+00
         0.00000E+00
         0.00000E+00
         0.00000E+00
         0.00000E+00
         0.00000E+00
         0.00000E+00
         0.00000E+00
         0.00000E+00
         0.00000E+00
         0.00000E+00
         0.00000E+00
         0.00000E+00
         0.00000E+00
         0.00000E+00
         0.00000E+00
         0.00000E+00
         0.00000E+00
         0.00000E+00
         0.00000E+00
         0.00000E+00
         0.00000E+00
         0.00000E+00
         0.00000E+00
         0.00000E+00
         0.00000E+00
         0.00000E+00
         0.00000E+00
         0.00000E+00
         0.00000E+00
         0.00000E+00
         0.00000E+00
         0.00000E+00
         0.00000E+00
         0.00000E+00
         0.00000E+00
         0.00000E+00
         0.00000E+00
         0.00000E+00
         0.00000E+00
         0.00000E+00
         0.00000E+00
         0.00000E+00
         0.00000E+00
         0.00000E+00
         0.00000E+00
         0.00000E+00
         0.00000E+00
         0.00000E+00
         0.00000E+00
         0.00000E+00
         0.00000E+00
         0.00000E+00
         0.00000E+00
         0.00000E+00
         0.00000E+00
         0.00000E+00
         0.00000E+00
         0.00000E+00
         0.00000E+00
         0.00000E+00
         0.00000E+00
         0.00000E+00
         0.00000E+00
         0.00000E+00
         0.00000E+00
         0.00000E+00
         0.00000E+00
         0.00000E+00
         0.00000E+00
         0.00000E+00
         0.00000E+00
         0.00000E+00
         0.00000E+00
         0.00000E+00
         0.00000E+00
         0.00000E+00
         0.00000E+00
         0.00000E+00
         0.00000E+00
         0.00000E+00
         0.00000E+00
         0.00000E+00
         0.00000E+00
         0.00000E+00
         0.00000E+00
         0.00000E+00
         0.00000E+00
         0.00000E+00
         0.00000E+00
         0.00000E+00
         0.00000E+00
         0.00000E+00
         0.00000E+00
         0.00000E+00
         0.00000E+00
         0.00000E+00
         0.00000E+00
         0.00000E+00
         0.00000E+00
         0.00000E+00
         0.00000E+00
         0.00000E+00
         0.00000E+00
         0.00000E+00
         0.00000E+00
         0.00000E+00
         0.00000E+00
         0.00000E+00
         0.00000E+00
         0.00000E+00
         0.00000E+00
         0.00000E+00
         0.00000E+00
         0.00000E+00
         0.00000E+00
         0.00000E+00
         0.00000E+00
         0.00000E+00
         0.00000E+00
         0.00000E+00
         0.00000E+00
         0.00000E+00
         0.00000E+00
         0.00000E+00
         0.00000E+00
         0.00000E+00
         0.00000E+00
         0.00000E+00
         0.00000E+00
         0.00000E+00
         0.00000E+00
         0.00000E+00
         0.00000E+00
         0.00000E+00
         0.00000E+00
         0.00000E+00
         0.00000E+00
         0.00000E+00
         0.00000E+00
         0.00000E+00
         0.00000E+00
         0.00000E+00
         0.00000E+00
         0.00000E+00
         0.00000E+00
         0.00000E+00
         0.00000E+00
         0.00000E+00
         0.00000E+00
         0.00000E+00
         0.00000E+00
         0.00000E+00
         0.00000E+00
         0.00000E+00
         0.00000E+00
         0.00000E+00
         0.00000E+00
         0.00000E+00
         0.00000E+00
         0.00000E+00
         0.00000E+00
         0.00000E+00
         0.00000E+00
         0.00000E+00
         0.00000E+00
         0.00000E+00
         0.00000E+00
         0.00000E+00
         0.00000E+00
         0.00000E+00
         0.00000E+00
         0.00000E+00
         0.00000E+00
         0.00000E+00
         0.00000E+00
         0.00000E+00
         0.00000E+00
         0.00000E+00
         0.00000E+00
         0.00000E+00
         0.00000E+00
         0.00000E+00
         0.00000E+00
         0.00000E+00
         0.00000E+00
         0.00000E+00
         0.00000E+00
         0.00000E+00
         0.00000E+00
         0.00000E+00
         0.00000E+00
         0.00000E+00
         0.00000E+00
         0.00000E+00
         0.00000E+00
         0.00000E+00
         0.00000E+00
         0.00000E+00
         0.00000E+00
         0.00000E+00
         0.00000E+00
         0.00000E+00
         0.00000E+00
         0.00000E+00
         0.00000E+00
         0.00000E+00
         0.00000E+00
         0.00000E+00
         0.00000E+00
         0.00000E+00
         0.00000E+00
         0.00000E+00
         0.00000E+00
         0.00000E+00
         0.00000E+00
         0.00000E+00
         0.00000E+00
         0.00000E+00
         0.00000E+00
         0.00000E+00
         0.00000E+00
         0.00000E+00
         0.00000E+00
         0.00000E+00
         0.00000E+00
         0.00000E+00
         0.00000E+00
         0.00000E+00
         0.00000E+00
         0.00000E+00
         0.00000E+00
         0.00000E+00
         0.00000E+00
         0.00000E+00
         0.00000E+00
         0.00000E+00
         0.00000E+00
         0.00000E+00
         0.00000E+00
         0.00000E+00
         0.00000E+00
         0.00000E+00
         0.00000E+00
         0.00000E+00
         0.00000E+00
         0.00000E+00
         0.00000E+00
         0.00000E+00
         0.00000E+00
         0.00000E+00
         0.00000E+00
         0.00000E+00
         0.00000E+00
         0.00000E+00
         0.00000E+00
         0.00000E+00
         0.00000E+00
         0.00000E+00
         0.00000E+00
         0.00000E+00
         0.00000E+00
         0.00000E+00
         0.00000E+00
         0.00000E+00
         0.00000E+00
         0.00000E+00
         0.00000E+00
         0.00000E+00
         0.00000E+00
         0.00000E+00
         0.00000E+00
         0.00000E+00
         0.00000E+00
         0.00000E+00
         0.00000E+00
         0.00000E+00
         0.00000E+00
         0.00000E+00
         0.00000E+00
         0.00000E+00
         0.00000E+00
         0.00000E+00
         0.00000E+00
         0.00000E+00
         0.00000E+00
         0.00000E+00
         0.00000E+00
         0.00000E+00
         0.00000E+00
         0.00000E+00
         0.00000E+00
         0.00000E+00
         0.00000E+00
         0.00000E+00
         0.00000E+00
         0.00000E+00
         0.00000E+00
         0.00000E+00
         0.00000E+00
         0.00000E+00
         0.00000E+00
         0.00000E+00
         0.00000E+00
         0.00000E+00
         0.00000E+00
         0.00000E+00
         0.00000E+00
         0.00000E+00
         0.00000E+00
         0.00000E+00
         0.00000E+00
         0.00000E+00
         0.00000E+00
         0.00000E+00
         0.00000E+00
         0.00000E+00
         0.00000E+00
         0.00000E+00
         0.00000E+00
         0.00000E+00
         0.00000E+00
         0.00000E+00
         0.00000E+00
         0.00000E+00
         0.00000E+00
         0.00000E+00
         0.00000E+00
         0.00000E+00
         0.00000E+00
         0.00000E+00
         0.00000E+00
         0.00000E+00
         0.00000E+00
         0.00000E+00
         0.00000E+00
         0.00000E+00
         0.00000E+00
         0.00000E+00
         0.00000E+00
         0.00000E+00
         0.00000E+00
         0.00000E+00
         0.00000E+00
         0.00000E+00
         0.00000E+00
         0.00000E+00
         0.00000E+00
         0.00000E+00
         0.00000E+00
         0.00000E+00
         0.00000E+00
         0.00000E+00
         0.00000E+00
         0.00000E+00
         0.00000E+00
         0.00000E+00
         0.00000E+00
         0.00000E+00
         0.00000E+00
         0.00000E+00
         0.00000E+00
         0.00000E+00
         0.00000E+00
         0.00000E+00
         0.00000E+00
         0.00000E+00
         0.00000E+00
         0.00000E+00
         0.00000E+00
         0.00000E+00
         0.00000E+00
         0.00000E+00
         0.00000E+00
         0.00000E+00
         0.00000E+00
         0.00000E+00
         0.00000E+00
         0.00000E+00
         0.00000E+00
         0.00000E+00
         0.00000E+00
         0.00000E+00
         0.00000E+00
         0.00000E+00
         0.00000E+00
         0.00000E+00
         0.00000E+00
         0.00000E+00
         0.00000E+00
         0.00000E+00
         0.00000E+00
         0.00000E+00
         0.00000E+00
         0.00000E+00
         0.00000E+00
         0.00000E+00
         0.00000E+00
         0.00000E+00
         0.00000E+00
         0.00000E+00
         0.00000E+00
         0.00000E+00
         0.00000E+00
         0.00000E+00
         0.00000E+00
         0.00000E+00
         0.00000E+00
         0.00000E+00
         0.00000E+00
         0.00000E+00
         0.00000E+00
         0.00000E+00
         0.00000E+00
         0.00000E+00
         0.00000E+00
         0.00000E+00
         0.00000E+00
         0.00000E+00
         0.00000E+00
         0.00000E+00
         0.00000E+00
         0.00000E+00
         0.00000E+00
         0.00000E+00
         0.00000E+00
         0.00000E+00
         0.00000E+00
         0.00000E+00
         0.00000E+00
         0.00000E+00
         0.00000E+00
         0.00000E+00
         0.00000E+00
         0.00000E+00
         0.00000E+00
         0.00000E+00
         0.00000E+00
         0.00000E+00
         0.00000E+00
         0.00000E+00
         0.00000E+00
         0.00000E+00
         0.00000E+00
         0.00000E+00
         0.00000E+00
         0.00000E+00
         0.00000E+00
         0.00000E+00
         0.00000E+00
         0.00000E+00
         0.00000E+00
         0.00000E+00
         0.00000E+00
         0.00000E+00
         0.00000E+00
         0.00000E+00
         0.00000E+00
         0.00000E+00
         0.00000E+00
         0.00000E+00
         0.00000E+00
         0.00000E+00
         0.00000E+00
         0.00000E+00
         0.00000E+00
         0.00000E+00
         0.00000E+00
         0.00000E+00
         0.00000E+00
         0.00000E+00
         0.00000E+00
         0.00000E+00
         0.00000E+00
         0.00000E+00
         0.00000E+00
         0.00000E+00
         0.00000E+00
         0.00000E+00
         0.00000E+00
         0.00000E+00
         0.00000E+00
         0.00000E+00
         0.00000E+00
         0.00000E+00
         0.00000E+00
         0.00000E+00
         0.00000E+00
         0.00000E+00
         0.00000E+00
         0.00000E+00
         0.00000E+00
         0.00000E+00
         0.00000E+00
         0.00000E+00
         0.00000E+00
         0.00000E+00
         0.00000E+00
         0.00000E+00
         0.00000E+00
         0.00000E+00
         0.00000E+00
         0.00000E+00
         0.00000E+00
         0.00000E+00
         0.00000E+00
         0.00000E+00
         0.00000E+00
         0.00000E+00
         0.00000E+00
         0.00000E+00
         0.00000E+00
         0.00000E+00
         0.00000E+00
         0.00000E+00
         0.00000E+00
         0.00000E+00
         0.00000E+00
         0.00000E+00
         0.00000E+00
         0.00000E+00
         0.00000E+00
         0.00000E+00
         0.00000E+00
         0.00000E+00
         0.00000E+00
         0.00000E+00
         0.00000E+00
         0.00000E+00
         0.00000E+00
         0.00000E+00
         0.00000E+00
         0.00000E+00
         0.00000E+00
         0.00000E+00
         0.00000E+00
         0.00000E+00
         0.00000E+00
         0.00000E+00
         0.00000E+00
         0.00000E+00
         0.00000E+00
         0.00000E+00
         0.00000E+00
         0.00000E+00
         0.00000E+00
         0.00000E+00
         0.00000E+00
         0.00000E+00
         0.00000E+00
         0.00000E+00
         0.00000E+00
         0.00000E+00
         0.00000E+00
         0.00000E+00
         0.00000E+00
         0.00000E+00
         0.00000E+00
         0.00000E+00
         0.00000E+00
         0.00000E+00
         0.00000E+00
         0.00000E+00
         0.00000E+00
         0.00000E+00
         0.00000E+00
         0.00000E+00
         0.00000E+00
         0.00000E+00
         0.00000E+00
         0.00000E+00
         0.00000E+00
         0.00000E+00
         0.00000E+00
         0.00000E+00
         0.00000E+00
         0.00000E+00
         0.00000E+00
         0.00000E+00
         0.00000E+00
         0.00000E+00
         0.00000E+00
         0.00000E+00
         0.00000E+00
         0.00000E+00
         0.00000E+00
         0.00000E+00
         0.00000E+00
         0.00000E+00
         0.00000E+00
         0.00000E+00
         0.00000E+00
         0.00000E+00
         0.00000E+00
         0.00000E+00
         0.00000E+00
         0.00000E+00
         0.00000E+00
         0.00000E+00
         0.00000E+00
         0.00000E+00
         0.00000E+00
         0.00000E+00
         0.00000E+00
         0.00000E+00
         0.00000E+00
         0.00000E+00
         0.00000E+00
         0.00000E+00
         0.00000E+00
         0.00000E+00
         0.00000E+00
         0.00000E+00
         0.00000E+00
         0.00000E+00
         0.00000E+00
         0.00000E+00
         0.00000E+00
         0.00000E+00
         0.00000E+00
         0.00000E+00
         0.00000E+00
         0.00000E+00
         0.00000E+00
         0.00000E+00
         0.00000E+00
         0.00000E+00
         0.00000E+00
         0.00000E+00
         0.00000E+00
         0.00000E+00
         0.00000E+00
         0.00000E+00
         0.00000E+00
         0.00000E+00
         0.00000E+00
         0.00000E+00
         0.00000E+00
         0.00000E+00
         0.00000E+00
         0.00000E+00
         0.00000E+00
         0.00000E+00
         0.00000E+00
         0.00000E+00
         0.00000E+00
         0.00000E+00
         0.00000E+00
         0.00000E+00
         0.00000E+00
         0.00000E+00
         0.00000E+00
         0.00000E+00
         0.00000E+00
         0.00000E+00
         0.00000E+00
         0.00000E+00
         0.00000E+00
         0.00000E+00
         0.00000E+00
         0.00000E+00
         0.00000E+00
         0.00000E+00
         0.00000E+00
         0.00000E+00
         0.00000E+00
         0.00000E+00
         0.00000E+00
         0.00000E+00
         0.00000E+00
         0.00000E+00
         0.00000E+00
         0.00000E+00
         0.00000E+00
         0.00000E+00
         0.00000E+00
         0.00000E+00
         0.00000E+00
         0.00000E+00
         0.00000E+00
         0.00000E+00
         0.00000E+00
         0.00000E+00
         0.00000E+00
         0.00000E+00
         0.00000E+00
         0.00000E+00
         0.00000E+00
         0.00000E+00
         0.00000E+00
         0.00000E+00
         0.00000E+00
         0.00000E+00
         0.00000E+00
         0.00000E+00
         0.00000E+00
         0.00000E+00
         0.00000E+00
         0.00000E+00
         0.00000E+00
         0.00000E+00
         0.00000E+00
         0.00000E+00
         0.00000E+00
         0.00000E+00
         0.00000E+00
         0.00000E+00
         0.00000E+00
         0.00000E+00
         0.00000E+00
         0.00000E+00
         0.00000E+00
         0.00000E+00
         0.00000E+00
         0.00000E+00
         0.00000E+00
         0.00000E+00
         0.00000E+00
         0.00000E+00
         0.00000E+00
         0.00000E+00
         0.00000E+00
         0.00000E+00
         0.00000E+00
         0.00000E+00
         0.00000E+00
         0.00000E+00
         0.00000E+00
         0.00000E+00
         0.00000E+00
         0.00000E+00
         0.00000E+00
         0.00000E+00
         0.00000E+00
         0.00000E+00
         0.00000E+00
         0.00000E+00
         0.00000E+00
         0.00000E+00
         0.00000E+00
         0.00000E+00
         0.00000E+00
         0.00000E+00
         0.00000E+00
         0.00000E+00
         0.00000E+00
         0.00000E+00
         0.00000E+00
         0.00000E+00
         0.00000E+00
         0.00000E+00
         0.00000E+00
         0.00000E+00
         0.00000E+00
         0.00000E+00
         0.00000E+00
         0.00000E+00
         0.00000E+00
         0.00000E+00
         0.00000E+00
         0.00000E+00
         0.00000E+00
         0.00000E+00
         0.00000E+00
         0.00000E+00
         0.00000E+00
         0.00000E+00
         0.00000E+00
         0.00000E+00
         0.00000E+00
         0.00000E+00
         0.00000E+00
         0.00000E+00
         0.00000E+00
         0.00000E+00
         0.00000E+00
         0.00000E+00
         0.00000E+00
         0.00000E+00
         0.00000E+00
         0.00000E+00
         0.00000E+00
         0.00000E+00
         0.00000E+00
         0.00000E+00
         0.00000E+00
         0.00000E+00
         0.00000E+00
         0.00000E+00
         0.00000E+00
         0.00000E+00
         0.00000E+00
         0.00000E+00
         0.00000E+00
         0.00000E+00
         0.00000E+00
         0.00000E+00
         0.00000E+00
         0.00000E+00
         0.00000E+00
         0.00000E+00
         0.00000E+00
         0.00000E+00
         0.00000E+00
         0.00000E+00
         0.00000E+00
         0.00000E+00
         0.00000E+00
         0.00000E+00
         0.00000E+00
         0.00000E+00
         0.00000E+00
         0.00000E+00
         0.00000E+00
         0.00000E+00
         0.00000E+00
         0.00000E+00
         0.00000E+00
         0.00000E+00
         0.00000E+00
         0.00000E+00
         0.00000E+00
         0.00000E+00
         0.00000E+00
         0.00000E+00
         0.00000E+00
         0.00000E+00
         0.00000E+00
         0.00000E+00
         0.00000E+00
         0.00000E+00
         0.00000E+00
         0.00000E+00
         0.00000E+00
         0.00000E+00
         0.00000E+00
         0.00000E+00
         0.00000E+00
         0.00000E+00
         0.00000E+00
         0.00000E+00
         0.00000E+00
         0.00000E+00
         0.00000E+00
         0.00000E+00
         0.00000E+00
         0.00000E+00
         0.00000E+00
         0.00000E+00
         0.00000E+00
         0.00000E+00
         0.00000E+00
         0.00000E+00
         0.00000E+00
         0.00000E+00
         0.00000E+00
         0.00000E+00
         0.00000E+00
         0.00000E+00
         0.00000E+00
         0.00000E+00
         0.00000E+00
         0.00000E+00
         0.00000E+00
         0.00000E+00
         0.00000E+00
         0.00000E+00
         0.00000E+00
         0.00000E+00
         0.00000E+00
         0.00000E+00
         0.00000E+00
         0.00000E+00
         0.00000E+00
         0.00000E+00
         0.00000E+00
         0.00000E+00
         0.00000E+00
         0.00000E+00
         0.00000E+00
         0.00000E+00
         0.00000E+00
         0.00000E+00
         0.00000E+00
         0.00000E+00
         0.00000E+00
         0.00000E+00
         0.00000E+00
         0.00000E+00
         0.00000E+00
         0.00000E+00
         0.00000E+00
         0.00000E+00
         0.00000E+00
         0.00000E+00
         0.00000E+00
         0.00000E+00
         0.00000E+00
         0.00000E+00
         0.00000E+00
         0.00000E+00
         0.00000E+00
         0.00000E+00
         0.00000E+00
         0.00000E+00
         0.00000E+00
         0.00000E+00
         0.00000E+00
         0.00000E+00
         0.00000E+00
         0.00000E+00
         0.00000E+00
         0.00000E+00
         0.00000E+00
         0.00000E+00
         0.00000E+00
         0.00000E+00
         0.00000E+00
         0.00000E+00
         0.00000E+00
         0.00000E+00
         0.00000E+00
         0.00000E+00
         0.00000E+00
         0.00000E+00
         0.00000E+00
         0.00000E+00
         0.00000E+00
         0.00000E+00
         0.00000E+00
         0.00000E+00
         0.00000E+00
         0.00000E+00
         0.00000E+00
         0.00000E+00
         0.00000E+00
         0.00000E+00
         0.00000E+00
         0.00000E+00
         0.00000E+00
         0.00000E+00
         0.00000E+00
         0.00000E+00
         0.00000E+00
         0.00000E+00
         0.00000E+00
         0.00000E+00
         0.00000E+00
         0.00000E+00
         0.00000E+00
         0.00000E+00
         0.00000E+00
         0.00000E+00
         0.00000E+00
         0.00000E+00
         0.00000E+00
         0.00000E+00
         0.00000E+00
         0.00000E+00
         0.00000E+00
         0.00000E+00
         0.00000E+00
         0.00000E+00
         0.00000E+00
         0.00000E+00
         0.00000E+00
         0.00000E+00
         0.00000E+00
         0.00000E+00
         0.00000E+00
         0.00000E+00
         0.00000E+00
         0.00000E+00
         0.00000E+00
         0.00000E+00
         0.00000E+00
         0.00000E+00
         0.00000E+00
         0.00000E+00
         0.00000E+00
         0.00000E+00
         0.00000E+00
         0.00000E+00
         0.00000E+00
         0.00000E+00
         0.00000E+00
         0.00000E+00
         0.00000E+00
         0.00000E+00
         0.00000E+00
         0.00000E+00
         0.00000E+00
         0.00000E+00
         0.00000E+00
         0.00000E+00
         0.00000E+00
         0.00000E+00
         0.00000E+00
         0.00000E+00
         0.00000E+00
         0.00000E+00
         0.00000E+00
         0.00000E+00
         0.00000E+00
         0.00000E+00
         0.00000E+00
         0.00000E+00
         0.00000E+00
         0.00000E+00
         0.00000E+00
         0.00000E+00
         0.00000E+00
         0.00000E+00
         0.00000E+00
         0.00000E+00
         0.00000E+00
         0.00000E+00
         0.00000E+00
         0.00000E+00
         0.00000E+00
         0.00000E+00
         0.00000E+00
         0.00000E+00
         0.00000E+00
         0.00000E+00
         0.00000E+00
         0.00000E+00
         0.00000E+00
         0.00000E+00
         0.00000E+00
         0.00000E+00
         0.00000E+00
         0.00000E+00
         0.00000E+00
         0.00000E+00
         0.00000E+00
         0.00000E+00
         0.00000E+00
         0.00000E+00
         0.00000E+00
         0.00000E+00
         0.00000E+00
         0.00000E+00
         0.00000E+00
         0.00000E+00
         0.00000E+00
         0.00000E+00
         0.00000E+00
         0.00000E+00
         0.00000E+00
         0.00000E+00
         0.00000E+00
         0.00000E+00
         0.00000E+00
         0.00000E+00
         0.00000E+00
         0.00000E+00
         0.00000E+00
         0.00000E+00
         0.00000E+00
         0.00000E+00
         0.00000E+00
         0.00000E+00
         0.00000E+00
         0.00000E+00
         0.00000E+00
         0.00000E+00
         0.00000E+00
         0.00000E+00
         0.00000E+00
         0.00000E+00
         0.00000E+00
         0.00000E+00
         0.00000E+00
         0.00000E+00
         0.00000E+00
         0.00000E+00
         0.00000E+00
         0.00000E+00
         0.00000E+00
         0.00000E+00
         0.00000E+00
         0.00000E+00
         0.00000E+00
         0.00000E+00
         0.00000E+00
         0.00000E+00
         0.00000E+00
         0.00000E+00
         0.00000E+00
         0.00000E+00
         0.00000E+00
         0.00000E+00
         0.00000E+00
         0.00000E+00
         0.00000E+00
         0.00000E+00
         0.00000E+00
         0.00000E+00
         0.00000E+00
         0.00000E+00
         0.00000E+00
         0.00000E+00
         0.00000E+00
         0.00000E+00
         0.00000E+00
         0.00000E+00
         0.00000E+00
         0.00000E+00
         0.00000E+00
         0.00000E+00
         0.00000E+00
         0.00000E+00
         0.00000E+00
         0.00000E+00
         0.00000E+00
         0.00000E+00
         0.00000E+00
         0.00000E+00
         0.00000E+00
         0.00000E+00
         0.00000E+00
         0.00000E+00
         0.00000E+00
         0.00000E+00
         0.00000E+00
         0.00000E+00
         0.00000E+00
         0.00000E+00
         0.00000E+00
         0.00000E+00
         0.00000E+00
         0.00000E+00
         0.00000E+00
         0.00000E+00
         0.00000E+00
         0.00000E+00
         0.00000E+00
         0.00000E+00
         0.00000E+00
         0.00000E+00
         0.00000E+00
         0.00000E+00
         0.00000E+00
         0.00000E+00
         0.00000E+00
         0.00000E+00
         0.00000E+00
         0.00000E+00
         0.00000E+00
         0.00000E+00
         0.00000E+00
         0.00000E+00
         0.00000E+00
         0.00000E+00
         0.00000E+00
         0.00000E+00
         0.00000E+00
         0.00000E+00
         0.00000E+00
         0.00000E+00
         0.00000E+00
         0.00000E+00
         0.00000E+00
         0.00000E+00
         0.00000E+00
         0.00000E+00
         0.00000E+00
         0.00000E+00
         0.00000E+00
         0.00000E+00
         0.00000E+00
         0.00000E+00
         0.00000E+00
         0.00000E+00
         0.00000E+00
         0.00000E+00
         0.00000E+00
         0.00000E+00
         0.00000E+00
         0.00000E+00
         0.00000E+00
         0.00000E+00
         0.00000E+00
         0.00000E+00
         0.00000E+00
         0.00000E+00
         0.00000E+00
         0.00000E+00
         0.00000E+00
         0.00000E+00
         0.00000E+00
         0.00000E+00
         0.00000E+00
         0.00000E+00
         0.00000E+00
         0.00000E+00
         0.00000E+00
         0.00000E+00
         0.00000E+00
         0.00000E+00
         0.00000E+00
         0.00000E+00
         0.00000E+00
         0.00000E+00
         0.00000E+00
         0.00000E+00
         0.00000E+00
         0.00000E+00
         0.00000E+00
         0.00000E+00
         0.00000E+00
         0.00000E+00
         0.00000E+00
         0.00000E+00
         0.00000E+00
         0.00000E+00
         0.00000E+00
         0.00000E+00
         0.00000E+00
         0.00000E+00
         0.00000E+00
         0.00000E+00
         0.00000E+00
         0.00000E+00
         0.00000E+00
         0.00000E+00
         0.00000E+00
         0.00000E+00
         0.00000E+00
         0.00000E+00
         0.00000E+00
         0.00000E+00
         0.00000E+00
         0.00000E+00
         0.00000E+00
         0.00000E+00
         0.00000E+00
         0.00000E+00
         0.00000E+00
         0.00000E+00
         0.00000E+00
         0.00000E+00
         0.00000E+00
         0.00000E+00
         0.00000E+00
         0.00000E+00
         0.00000E+00
         0.00000E+00
         0.00000E+00
         0.00000E+00
         0.00000E+00
         0.00000E+00
         0.00000E+00
         0.00000E+00
         0.00000E+00
         0.00000E+00
         0.00000E+00
         0.00000E+00
         0.00000E+00
         0.00000E+00
         0.00000E+00
         0.00000E+00
         0.00000E+00
         0.00000E+00
         0.00000E+00
         0.00000E+00
         0.00000E+00
         0.00000E+00
         0.00000E+00
         0.00000E+00
         0.00000E+00
         0.00000E+00
         0.00000E+00
         0.00000E+00
         0.00000E+00
         0.00000E+00
         0.00000E+00
         0.00000E+00
         0.00000E+00
         0.00000E+00
         0.00000E+00
         0.00000E+00
         0.00000E+00
         0.00000E+00
         0.00000E+00
         0.00000E+00
         0.00000E+00
         0.00000E+00
         0.00000E+00
         0.00000E+00
         0.00000E+00
         0.00000E+00
         0.00000E+00
         0.00000E+00
         0.00000E+00
         0.00000E+00
         0.00000E+00
         0.00000E+00
         0.00000E+00
         0.00000E+00
         0.00000E+00
         0.00000E+00
         0.00000E+00
         0.00000E+00
         0.00000E+00
         0.00000E+00
         0.00000E+00
         0.00000E+00
         0.00000E+00
         0.00000E+00
         0.00000E+00
         0.00000E+00
         0.00000E+00
         0.00000E+00
         0.00000E+00
         0.00000E+00
         0.00000E+00
         0.00000E+00
         0.00000E+00
         0.00000E+00
         0.00000E+00
         0.00000E+00
         0.00000E+00
         0.00000E+00
         0.00000E+00
         0.00000E+00
         0.00000E+00
         0.00000E+00
         0.00000E+00
         0.00000E+00
         0.00000E+00
         0.00000E+00
         0.00000E+00
         0.00000E+00
         0.00000E+00
         0.00000E+00
         0.00000E+00
         0.00000E+00
         0.00000E+00
         0.00000E+00
         0.00000E+00
         0.00000E+00
         0.00000E+00
         0.00000E+00
         0.00000E+00
         0.00000E+00
         0.00000E+00
         0.00000E+00
         0.00000E+00
         0.00000E+00
         0.00000E+00
         0.00000E+00
         0.00000E+00
         0.00000E+00
         0.00000E+00
         0.00000E+00
         0.00000E+00
         0.00000E+00
         0.00000E+00
         0.00000E+00
         0.00000E+00
         0.00000E+00
         0.00000E+00
         0.00000E+00
         0.00000E+00
         0.00000E+00
         0.00000E+00
         0.00000E+00
         0.00000E+00
         0.00000E+00
         0.00000E+00
         0.00000E+00
         0.00000E+00
         0.00000E+00
         0.00000E+00
         0.00000E+00
         0.00000E+00
         0.00000E+00
         0.00000E+00
         0.00000E+00
         0.00000E+00
         0.00000E+00
         0.00000E+00
         0.00000E+00
         0.00000E+00
         0.00000E+00
         0.00000E+00
         0.00000E+00
         0.00000E+00
         0.00000E+00
         0.00000E+00
         0.00000E+00
         0.00000E+00
         0.00000E+00
         0.00000E+00
         0.00000E+00
         0.00000E+00
         0.00000E+00
         0.00000E+00
         0.00000E+00
         0.00000E+00
         0.00000E+00
         0.00000E+00
         0.00000E+00
         0.00000E+00
         0.00000E+00
         0.00000E+00
         0.00000E+00
         0.00000E+00
         0.00000E+00
         0.00000E+00
         0.00000E+00
         0.00000E+00
         0.00000E+00
         0.00000E+00
         0.00000E+00
         0.00000E+00
         0.00000E+00
         0.00000E+00
         0.00000E+00
         0.00000E+00
         0.00000E+00
         0.00000E+00
         0.00000E+00
         0.00000E+00
         0.00000E+00
         0.00000E+00
         0.00000E+00
         0.00000E+00
         0.00000E+00
         0.00000E+00
         0.00000E+00
         0.00000E+00
         0.00000E+00
         0.00000E+00
         0.00000E+00
         0.00000E+00
         0.00000E+00
         0.00000E+00
         0.00000E+00
         0.00000E+00
         0.00000E+00
         0.00000E+00
         0.00000E+00
         0.00000E+00
         0.00000E+00
         0.00000E+00
         0.00000E+00
         0.00000E+00
         0.00000E+00
         0.00000E+00
         0.00000E+00
         0.00000E+00
         0.00000E+00
         0.00000E+00
         0.00000E+00
         0.00000E+00
         0.00000E+00
         0.00000E+00
         0.00000E+00
         0.00000E+00
         0.00000E+00
         0.00000E+00
         0.00000E+00
         0.00000E+00
         0.00000E+00
         0.00000E+00
         0.00000E+00
         0.00000E+00
         0.00000E+00
         0.00000E+00
         0.00000E+00
         0.00000E+00
         0.00000E+00
         0.00000E+00
         0.00000E+00
         0.00000E+00
         0.00000E+00
         0.00000E+00
         0.00000E+00
         0.00000E+00
         0.00000E+00
         0.00000E+00
         0.00000E+00
         0.00000E+00
         0.00000E+00
         0.00000E+00
         0.00000E+00
         0.00000E+00
         0.00000E+00
         0.00000E+00
         0.00000E+00
         0.00000E+00
         0.00000E+00
         0.00000E+00
         0.00000E+00
         0.00000E+00
         0.00000E+00
         0.00000E+00
         0.00000E+00
         0.00000E+00
         0.00000E+00
         0.00000E+00
         0.00000E+00
         0.00000E+00
         0.00000E+00
         0.00000E+00
         0.00000E+00
         0.00000E+00
         0.00000E+00
         0.00000E+00
         0.00000E+00
         0.00000E+00
         0.00000E+00
         0.00000E+00
         0.00000E+00
         0.00000E+00
         0.00000E+00
         0.00000E+00
         0.00000E+00
         0.00000E+00
         0.00000E+00
         0.00000E+00
         0.00000E+00
         0.00000E+00
         0.00000E+00
         0.00000E+00
         0.00000E+00
         0.00000E+00
         0.00000E+00
         0.00000E+00
         0.00000E+00
         0.00000E+00
         0.00000E+00
         0.00000E+00
         0.00000E+00
         0.00000E+00
         0.00000E+00
         0.00000E+00
         0.00000E+00
         0.00000E+00
         0.00000E+00
         0.00000E+00
         0.00000E+00
         0.00000E+00
         0.00000E+00
         0.00000E+00
         0.00000E+00
         0.00000E+00
         0.00000E+00
         0.00000E+00
         0.00000E+00
         0.00000E+00
         0.00000E+00
         0.00000E+00
         0.00000E+00
         0.00000E+00
         0.00000E+00
         0.00000E+00
         0.00000E+00
         0.00000E+00
         0.00000E+00
         0.00000E+00
         0.00000E+00
         0.00000E+00
         0.00000E+00
         0.00000E+00
         0.00000E+00
         0.00000E+00
         0.00000E+00
         0.00000E+00
         0.00000E+00
         0.00000E+00
         0.00000E+00
         0.00000E+00
         0.00000E+00
         0.00000E+00
         0.00000E+00
         0.00000E+00
         0.00000E+00
         0.00000E+00
         0.00000E+00
         0.00000E+00
         0.00000E+00
         0.00000E+00
         0.00000E+00
         0.00000E+00
         0.00000E+00
         0.00000E+00
         0.00000E+00
         0.00000E+00
         0.00000E+00
         0.00000E+00
         0.00000E+00
         0.00000E+00
         0.00000E+00
         0.00000E+00
         0.00000E+00
         0.00000E+00
         0.00000E+00
         0.00000E+00
         0.00000E+00
         0.00000E+00
         0.00000E+00
         0.00000E+00
         0.00000E+00
         0.00000E+00
         0.00000E+00
         0.00000E+00
         0.00000E+00
         0.00000E+00
         0.00000E+00
         0.00000E+00
         0.00000E+00
         0.00000E+00
         0.00000E+00
         0.00000E+00
         0.00000E+00
         0.00000E+00
         0.00000E+00
         0.00000E+00
         0.00000E+00
         0.00000E+00
         0.00000E+00
         0.00000E+00
         0.00000E+00
         0.00000E+00
         0.00000E+00
         0.00000E+00
         0.00000E+00
         0.00000E+00
         0.00000E+00
         0.00000E+00
         0.00000E+00
         0.00000E+00
         0.00000E+00
         0.00000E+00
         0.00000E+00
         0.00000E+00
         0.00000E+00
         0.00000E+00
         0.00000E+00
         0.00000E+00
         0.00000E+00
         0.00000E+00
         0.00000E+00
         0.00000E+00
         0.00000E+00
         0.00000E+00
         0.00000E+00
         0.00000E+00
         0.00000E+00
         0.00000E+00
         0.00000E+00
         0.00000E+00
         0.00000E+00
         0.00000E+00
         0.00000E+00
         0.00000E+00
         0.00000E+00
         0.00000E+00
         0.00000E+00
         0.00000E+00
         0.00000E+00
         0.00000E+00
         0.00000E+00
         0.00000E+00
         0.00000E+00
         0.00000E+00
         0.00000E+00
         0.00000E+00
         0.00000E+00
         0.00000E+00
         0.00000E+00
         0.00000E+00
         0.00000E+00
         0.00000E+00
         0.00000E+00
         0.00000E+00
         0.00000E+00
         0.00000E+00
         0.00000E+00
         0.00000E+00
         0.00000E+00
         0.00000E+00
         0.00000E+00
         0.00000E+00
         0.00000E+00
         0.00000E+00
         0.00000E+00
         0.00000E+00
         0.00000E+00
         0.00000E+00
         0.00000E+00
         0.00000E+00
         0.00000E+00
         0.00000E+00
         0.00000E+00
         0.00000E+00
         0.00000E+00
         0.00000E+00
         0.00000E+00
         0.00000E+00
         0.00000E+00
         0.00000E+00
         0.00000E+00
         0.00000E+00
         0.00000E+00
         0.00000E+00
         0.00000E+00
         0.00000E+00
         0.00000E+00
         0.00000E+00
         0.00000E+00
         0.00000E+00
         0.00000E+00
         0.00000E+00
         0.00000E+00
         0.00000E+00
         0.00000E+00
         0.00000E+00
         0.00000E+00
         0.00000E+00
         0.00000E+00
         0.00000E+00
         0.00000E+00
         0.00000E+00
         0.00000E+00
         0.00000E+00
         0.00000E+00
         0.00000E+00
         0.00000E+00
         0.00000E+00
         0.00000E+00
         0.00000E+00
         0.00000E+00
         0.00000E+00
         0.00000E+00
         0.00000E+00
         0.00000E+00
         0.00000E+00
         0.00000E+00
         0.00000E+00
         0.00000E+00
         0.00000E+00
         0.00000E+00
         0.00000E+00
         0.00000E+00
         0.00000E+00
         0.00000E+00
         0.00000E+00
         0.00000E+00
         0.00000E+00
         0.00000E+00
         0.00000E+00
         0.00000E+00
         0.00000E+00
         0.00000E+00
         0.00000E+00
         0.00000E+00
         0.00000E+00
         0.00000E+00
         0.00000E+00
         0.00000E+00
         0.00000E+00
         0.00000E+00
         0.00000E+00
         0.00000E+00
         0.00000E+00
         0.00000E+00
         0.00000E+00
         0.00000E+00
         0.00000E+00
         0.00000E+00
         0.00000E+00
         0.00000E+00
         0.00000E+00
         0.00000E+00
         0.00000E+00
         0.00000E+00
         0.00000E+00
         0.00000E+00
         0.00000E+00
         0.00000E+00
         0.00000E+00
         0.00000E+00
         0.00000E+00
         0.00000E+00
         0.00000E+00
         0.00000E+00
         0.00000E+00
         0.00000E+00
         0.00000E+00
         0.00000E+00
         0.00000E+00
         0.00000E+00
         0.00000E+00
         0.00000E+00
         0.00000E+00
         0.00000E+00
         0.00000E+00
         0.00000E+00
         0.00000E+00
         0.00000E+00
         0.00000E+00
         0.00000E+00
         0.00000E+00
         0.00000E+00
         0.00000E+00
         0.00000E+00
         0.00000E+00
         0.00000E+00
         0.00000E+00
         0.00000E+00
         0.00000E+00
         0.00000E+00
         0.00000E+00
         0.00000E+00
         0.00000E+00
         0.00000E+00
  
SCALARS                        eps_vol  double 1
LOOKUP_TABLE default
         0.00000E+00
         0.00000E+00
         0.00000E+00
         0.00000E+00
         0.00000E+00
         0.00000E+00
         0.00000E+00
         0.00000E+00
         0.00000E+00
         0.00000E+00
         0.00000E+00
         0.00000E+00
         0.00000E+00
         0.00000E+00
         0.00000E+00
         0.00000E+00
         0.00000E+00
         0.00000E+00
         0.00000E+00
         0.00000E+00
         0.00000E+00
         0.00000E+00
         0.00000E+00
         0.00000E+00
         0.00000E+00
         0.00000E+00
         0.00000E+00
         0.00000E+00
         0.00000E+00
         0.00000E+00
         0.00000E+00
         0.00000E+00
         0.00000E+00
         0.00000E+00
         0.00000E+00
         0.00000E+00
         0.00000E+00
         0.00000E+00
         0.00000E+00
         0.00000E+00
         0.00000E+00
         0.00000E+00
         0.00000E+00
         0.00000E+00
         0.00000E+00
         0.00000E+00
         0.00000E+00
         0.00000E+00
         0.00000E+00
         0.00000E+00
         0.00000E+00
         0.00000E+00
         0.00000E+00
         0.00000E+00
         0.00000E+00
         0.00000E+00
         0.00000E+00
         0.00000E+00
         0.00000E+00
         0.00000E+00
         0.00000E+00
         0.00000E+00
         0.00000E+00
         0.00000E+00
         0.00000E+00
         0.00000E+00
         0.00000E+00
         0.00000E+00
         0.00000E+00
         0.00000E+00
         0.00000E+00
         0.00000E+00
         0.00000E+00
         0.00000E+00
         0.00000E+00
         0.00000E+00
         0.00000E+00
         0.00000E+00
         0.00000E+00
         0.00000E+00
         0.00000E+00
         0.00000E+00
         0.00000E+00
         0.00000E+00
         0.00000E+00
         0.00000E+00
         0.00000E+00
         0.00000E+00
         0.00000E+00
         0.00000E+00
         0.00000E+00
         0.00000E+00
         0.00000E+00
         0.00000E+00
         0.00000E+00
         0.00000E+00
         0.00000E+00
         0.00000E+00
         0.00000E+00
         0.00000E+00
         0.00000E+00
         0.00000E+00
         0.00000E+00
         0.00000E+00
         0.00000E+00
         0.00000E+00
         0.00000E+00
         0.00000E+00
         0.00000E+00
         0.00000E+00
         0.00000E+00
         0.00000E+00
         0.00000E+00
         0.00000E+00
         0.00000E+00
         0.00000E+00
         0.00000E+00
         0.00000E+00
         0.00000E+00
         0.00000E+00
         0.00000E+00
         0.00000E+00
         0.00000E+00
         0.00000E+00
         0.00000E+00
         0.00000E+00
         0.00000E+00
         0.00000E+00
         0.00000E+00
         0.00000E+00
         0.00000E+00
         0.00000E+00
         0.00000E+00
         0.00000E+00
         0.00000E+00
         0.00000E+00
         0.00000E+00
         0.00000E+00
         0.00000E+00
         0.00000E+00
         0.00000E+00
         0.00000E+00
         0.00000E+00
         0.00000E+00
         0.00000E+00
         0.00000E+00
         0.00000E+00
         0.00000E+00
         0.00000E+00
         0.00000E+00
         0.00000E+00
         0.00000E+00
         0.00000E+00
         0.00000E+00
         0.00000E+00
         0.00000E+00
         0.00000E+00
         0.00000E+00
         0.00000E+00
         0.00000E+00
         0.00000E+00
         0.00000E+00
         0.00000E+00
         0.00000E+00
         0.00000E+00
         0.00000E+00
         0.00000E+00
         0.00000E+00
         0.00000E+00
         0.00000E+00
         0.00000E+00
         0.00000E+00
         0.00000E+00
         0.00000E+00
         0.00000E+00
         0.00000E+00
         0.00000E+00
         0.00000E+00
         0.00000E+00
         0.00000E+00
         0.00000E+00
         0.00000E+00
         0.00000E+00
         0.00000E+00
         0.00000E+00
         0.00000E+00
         0.00000E+00
         0.00000E+00
         0.00000E+00
         0.00000E+00
         0.00000E+00
         0.00000E+00
         0.00000E+00
         0.00000E+00
         0.00000E+00
         0.00000E+00
         0.00000E+00
         0.00000E+00
         0.00000E+00
         0.00000E+00
         0.00000E+00
         0.00000E+00
         0.00000E+00
         0.00000E+00
         0.00000E+00
         0.00000E+00
         0.00000E+00
         0.00000E+00
         0.00000E+00
         0.00000E+00
         0.00000E+00
         0.00000E+00
         0.00000E+00
         0.00000E+00
         0.00000E+00
         0.00000E+00
         0.00000E+00
         0.00000E+00
         0.00000E+00
         0.00000E+00
         0.00000E+00
         0.00000E+00
         0.00000E+00
         0.00000E+00
         0.00000E+00
         0.00000E+00
         0.00000E+00
         0.00000E+00
         0.00000E+00
         0.00000E+00
         0.00000E+00
         0.00000E+00
         0.00000E+00
         0.00000E+00
         0.00000E+00
         0.00000E+00
         0.00000E+00
         0.00000E+00
         0.00000E+00
         0.00000E+00
         0.00000E+00
         0.00000E+00
         0.00000E+00
         0.00000E+00
         0.00000E+00
         0.00000E+00
         0.00000E+00
         0.00000E+00
         0.00000E+00
         0.00000E+00
         0.00000E+00
         0.00000E+00
         0.00000E+00
         0.00000E+00
         0.00000E+00
         0.00000E+00
         0.00000E+00
         0.00000E+00
         0.00000E+00
         0.00000E+00
         0.00000E+00
         0.00000E+00
         0.00000E+00
         0.00000E+00
         0.00000E+00
         0.00000E+00
         0.00000E+00
         0.00000E+00
         0.00000E+00
         0.00000E+00
         0.00000E+00
         0.00000E+00
         0.00000E+00
         0.00000E+00
         0.00000E+00
         0.00000E+00
         0.00000E+00
         0.00000E+00
         0.00000E+00
         0.00000E+00
         0.00000E+00
         0.00000E+00
         0.00000E+00
         0.00000E+00
         0.00000E+00
         0.00000E+00
         0.00000E+00
         0.00000E+00
         0.00000E+00
         0.00000E+00
         0.00000E+00
         0.00000E+00
         0.00000E+00
         0.00000E+00
         0.00000E+00
         0.00000E+00
         0.00000E+00
         0.00000E+00
         0.00000E+00
         0.00000E+00
         0.00000E+00
         0.00000E+00
         0.00000E+00
         0.00000E+00
         0.00000E+00
         0.00000E+00
         0.00000E+00
         0.00000E+00
         0.00000E+00
         0.00000E+00
         0.00000E+00
         0.00000E+00
         0.00000E+00
         0.00000E+00
         0.00000E+00
         0.00000E+00
         0.00000E+00
         0.00000E+00
         0.00000E+00
         0.00000E+00
         0.00000E+00
         0.00000E+00
         0.00000E+00
         0.00000E+00
         0.00000E+00
         0.00000E+00
         0.00000E+00
         0.00000E+00
         0.00000E+00
         0.00000E+00
         0.00000E+00
         0.00000E+00
         0.00000E+00
         0.00000E+00
         0.00000E+00
         0.00000E+00
         0.00000E+00
         0.00000E+00
         0.00000E+00
         0.00000E+00
         0.00000E+00
         0.00000E+00
         0.00000E+00
         0.00000E+00
         0.00000E+00
         0.00000E+00
         0.00000E+00
         0.00000E+00
         0.00000E+00
         0.00000E+00
         0.00000E+00
         0.00000E+00
         0.00000E+00
         0.00000E+00
         0.00000E+00
         0.00000E+00
         0.00000E+00
         0.00000E+00
         0.00000E+00
         0.00000E+00
         0.00000E+00
         0.00000E+00
         0.00000E+00
         0.00000E+00
         0.00000E+00
         0.00000E+00
         0.00000E+00
         0.00000E+00
         0.00000E+00
         0.00000E+00
         0.00000E+00
         0.00000E+00
         0.00000E+00
         0.00000E+00
         0.00000E+00
         0.00000E+00
         0.00000E+00
         0.00000E+00
         0.00000E+00
         0.00000E+00
         0.00000E+00
         0.00000E+00
         0.00000E+00
         0.00000E+00
         0.00000E+00
         0.00000E+00
         0.00000E+00
         0.00000E+00
         0.00000E+00
         0.00000E+00
         0.00000E+00
         0.00000E+00
         0.00000E+00
         0.00000E+00
         0.00000E+00
         0.00000E+00
         0.00000E+00
         0.00000E+00
         0.00000E+00
         0.00000E+00
         0.00000E+00
         0.00000E+00
         0.00000E+00
         0.00000E+00
         0.00000E+00
         0.00000E+00
         0.00000E+00
         0.00000E+00
         0.00000E+00
         0.00000E+00
         0.00000E+00
         0.00000E+00
         0.00000E+00
         0.00000E+00
         0.00000E+00
         0.00000E+00
         0.00000E+00
         0.00000E+00
         0.00000E+00
         0.00000E+00
         0.00000E+00
         0.00000E+00
         0.00000E+00
         0.00000E+00
         0.00000E+00
         0.00000E+00
         0.00000E+00
         0.00000E+00
         0.00000E+00
         0.00000E+00
         0.00000E+00
         0.00000E+00
         0.00000E+00
         0.00000E+00
         0.00000E+00
         0.00000E+00
         0.00000E+00
         0.00000E+00
         0.00000E+00
         0.00000E+00
         0.00000E+00
         0.00000E+00
         0.00000E+00
         0.00000E+00
         0.00000E+00
         0.00000E+00
         0.00000E+00
         0.00000E+00
         0.00000E+00
         0.00000E+00
         0.00000E+00
         0.00000E+00
         0.00000E+00
         0.00000E+00
         0.00000E+00
         0.00000E+00
         0.00000E+00
         0.00000E+00
         0.00000E+00
         0.00000E+00
         0.00000E+00
         0.00000E+00
         0.00000E+00
         0.00000E+00
         0.00000E+00
         0.00000E+00
         0.00000E+00
         0.00000E+00
         0.00000E+00
         0.00000E+00
         0.00000E+00
         0.00000E+00
         0.00000E+00
         0.00000E+00
         0.00000E+00
         0.00000E+00
         0.00000E+00
         0.00000E+00
         0.00000E+00
         0.00000E+00
         0.00000E+00
         0.00000E+00
         0.00000E+00
         0.00000E+00
         0.00000E+00
         0.00000E+00
         0.00000E+00
         0.00000E+00
         0.00000E+00
         0.00000E+00
         0.00000E+00
         0.00000E+00
         0.00000E+00
         0.00000E+00
         0.00000E+00
         0.00000E+00
         0.00000E+00
         0.00000E+00
         0.00000E+00
         0.00000E+00
         0.00000E+00
         0.00000E+00
         0.00000E+00
         0.00000E+00
         0.00000E+00
         0.00000E+00
         0.00000E+00
         0.00000E+00
         0.00000E+00
         0.00000E+00
         0.00000E+00
         0.00000E+00
         0.00000E+00
         0.00000E+00
         0.00000E+00
         0.00000E+00
         0.00000E+00
         0.00000E+00
         0.00000E+00
         0.00000E+00
         0.00000E+00
         0.00000E+00
         0.00000E+00
         0.00000E+00
         0.00000E+00
         0.00000E+00
         0.00000E+00
         0.00000E+00
         0.00000E+00
         0.00000E+00
         0.00000E+00
         0.00000E+00
         0.00000E+00
         0.00000E+00
         0.00000E+00
         0.00000E+00
         0.00000E+00
         0.00000E+00
         0.00000E+00
         0.00000E+00
         0.00000E+00
         0.00000E+00
         0.00000E+00
         0.00000E+00
         0.00000E+00
         0.00000E+00
         0.00000E+00
         0.00000E+00
         0.00000E+00
         0.00000E+00
         0.00000E+00
         0.00000E+00
         0.00000E+00
         0.00000E+00
         0.00000E+00
         0.00000E+00
         0.00000E+00
         0.00000E+00
         0.00000E+00
         0.00000E+00
         0.00000E+00
         0.00000E+00
         0.00000E+00
         0.00000E+00
         0.00000E+00
         0.00000E+00
         0.00000E+00
         0.00000E+00
         0.00000E+00
         0.00000E+00
         0.00000E+00
         0.00000E+00
         0.00000E+00
         0.00000E+00
         0.00000E+00
         0.00000E+00
         0.00000E+00
         0.00000E+00
         0.00000E+00
         0.00000E+00
         0.00000E+00
         0.00000E+00
         0.00000E+00
         0.00000E+00
         0.00000E+00
         0.00000E+00
         0.00000E+00
         0.00000E+00
         0.00000E+00
         0.00000E+00
         0.00000E+00
         0.00000E+00
         0.00000E+00
         0.00000E+00
         0.00000E+00
         0.00000E+00
         0.00000E+00
         0.00000E+00
         0.00000E+00
         0.00000E+00
         0.00000E+00
         0.00000E+00
         0.00000E+00
         0.00000E+00
         0.00000E+00
         0.00000E+00
         0.00000E+00
         0.00000E+00
         0.00000E+00
         0.00000E+00
         0.00000E+00
         0.00000E+00
         0.00000E+00
         0.00000E+00
         0.00000E+00
         0.00000E+00
         0.00000E+00
         0.00000E+00
         0.00000E+00
         0.00000E+00
         0.00000E+00
         0.00000E+00
         0.00000E+00
         0.00000E+00
         0.00000E+00
         0.00000E+00
         0.00000E+00
         0.00000E+00
         0.00000E+00
         0.00000E+00
         0.00000E+00
         0.00000E+00
         0.00000E+00
         0.00000E+00
         0.00000E+00
         0.00000E+00
         0.00000E+00
         0.00000E+00
         0.00000E+00
         0.00000E+00
         0.00000E+00
         0.00000E+00
         0.00000E+00
         0.00000E+00
         0.00000E+00
         0.00000E+00
         0.00000E+00
         0.00000E+00
         0.00000E+00
         0.00000E+00
         0.00000E+00
         0.00000E+00
         0.00000E+00
         0.00000E+00
         0.00000E+00
         0.00000E+00
         0.00000E+00
         0.00000E+00
         0.00000E+00
         0.00000E+00
         0.00000E+00
         0.00000E+00
         0.00000E+00
         0.00000E+00
         0.00000E+00
         0.00000E+00
         0.00000E+00
         0.00000E+00
         0.00000E+00
         0.00000E+00
         0.00000E+00
         0.00000E+00
         0.00000E+00
         0.00000E+00
         0.00000E+00
         0.00000E+00
         0.00000E+00
         0.00000E+00
         0.00000E+00
         0.00000E+00
         0.00000E+00
         0.00000E+00
         0.00000E+00
         0.00000E+00
         0.00000E+00
         0.00000E+00
         0.00000E+00
         0.00000E+00
         0.00000E+00
         0.00000E+00
         0.00000E+00
         0.00000E+00
         0.00000E+00
         0.00000E+00
         0.00000E+00
         0.00000E+00
         0.00000E+00
         0.00000E+00
         0.00000E+00
         0.00000E+00
         0.00000E+00
         0.00000E+00
         0.00000E+00
         0.00000E+00
         0.00000E+00
         0.00000E+00
         0.00000E+00
         0.00000E+00
         0.00000E+00
         0.00000E+00
         0.00000E+00
         0.00000E+00
         0.00000E+00
         0.00000E+00
         0.00000E+00
         0.00000E+00
         0.00000E+00
         0.00000E+00
         0.00000E+00
         0.00000E+00
         0.00000E+00
         0.00000E+00
         0.00000E+00
         0.00000E+00
         0.00000E+00
         0.00000E+00
         0.00000E+00
         0.00000E+00
         0.00000E+00
         0.00000E+00
         0.00000E+00
         0.00000E+00
         0.00000E+00
         0.00000E+00
         0.00000E+00
         0.00000E+00
         0.00000E+00
         0.00000E+00
         0.00000E+00
         0.00000E+00
         0.00000E+00
         0.00000E+00
         0.00000E+00
         0.00000E+00
         0.00000E+00
         0.00000E+00
         0.00000E+00
         0.00000E+00
         0.00000E+00
         0.00000E+00
         0.00000E+00
         0.00000E+00
         0.00000E+00
         0.00000E+00
         0.00000E+00
         0.00000E+00
         0.00000E+00
         0.00000E+00
         0.00000E+00
         0.00000E+00
         0.00000E+00
         0.00000E+00
         0.00000E+00
         0.00000E+00
         0.00000E+00
         0.00000E+00
         0.00000E+00
         0.00000E+00
         0.00000E+00
         0.00000E+00
         0.00000E+00
         0.00000E+00
         0.00000E+00
         0.00000E+00
         0.00000E+00
         0.00000E+00
         0.00000E+00
         0.00000E+00
         0.00000E+00
         0.00000E+00
         0.00000E+00
         0.00000E+00
         0.00000E+00
         0.00000E+00
         0.00000E+00
         0.00000E+00
         0.00000E+00
         0.00000E+00
         0.00000E+00
         0.00000E+00
         0.00000E+00
         0.00000E+00
         0.00000E+00
         0.00000E+00
         0.00000E+00
         0.00000E+00
         0.00000E+00
         0.00000E+00
         0.00000E+00
         0.00000E+00
         0.00000E+00
         0.00000E+00
         0.00000E+00
         0.00000E+00
         0.00000E+00
         0.00000E+00
         0.00000E+00
         0.00000E+00
         0.00000E+00
         0.00000E+00
         0.00000E+00
         0.00000E+00
         0.00000E+00
         0.00000E+00
         0.00000E+00
         0.00000E+00
         0.00000E+00
         0.00000E+00
         0.00000E+00
         0.00000E+00
         0.00000E+00
         0.00000E+00
         0.00000E+00
         0.00000E+00
         0.00000E+00
         0.00000E+00
         0.00000E+00
         0.00000E+00
         0.00000E+00
         0.00000E+00
         0.00000E+00
         0.00000E+00
         0.00000E+00
         0.00000E+00
         0.00000E+00
         0.00000E+00
         0.00000E+00
         0.00000E+00
         0.00000E+00
         0.00000E+00
         0.00000E+00
         0.00000E+00
         0.00000E+00
         0.00000E+00
         0.00000E+00
         0.00000E+00
         0.00000E+00
         0.00000E+00
         0.00000E+00
         0.00000E+00
         0.00000E+00
         0.00000E+00
         0.00000E+00
         0.00000E+00
         0.00000E+00
         0.00000E+00
         0.00000E+00
         0.00000E+00
         0.00000E+00
         0.00000E+00
         0.00000E+00
         0.00000E+00
         0.00000E+00
         0.00000E+00
         0.00000E+00
         0.00000E+00
         0.00000E+00
         0.00000E+00
         0.00000E+00
         0.00000E+00
         0.00000E+00
         0.00000E+00
         0.00000E+00
         0.00000E+00
         0.00000E+00
         0.00000E+00
         0.00000E+00
         0.00000E+00
         0.00000E+00
         0.00000E+00
         0.00000E+00
         0.00000E+00
         0.00000E+00
         0.00000E+00
         0.00000E+00
         0.00000E+00
         0.00000E+00
         0.00000E+00
         0.00000E+00
         0.00000E+00
         0.00000E+00
         0.00000E+00
         0.00000E+00
         0.00000E+00
         0.00000E+00
         0.00000E+00
         0.00000E+00
         0.00000E+00
         0.00000E+00
         0.00000E+00
         0.00000E+00
         0.00000E+00
         0.00000E+00
         0.00000E+00
         0.00000E+00
         0.00000E+00
         0.00000E+00
         0.00000E+00
         0.00000E+00
         0.00000E+00
         0.00000E+00
         0.00000E+00
         0.00000E+00
         0.00000E+00
         0.00000E+00
         0.00000E+00
         0.00000E+00
         0.00000E+00
         0.00000E+00
         0.00000E+00
         0.00000E+00
         0.00000E+00
         0.00000E+00
         0.00000E+00
         0.00000E+00
         0.00000E+00
         0.00000E+00
         0.00000E+00
         0.00000E+00
         0.00000E+00
         0.00000E+00
         0.00000E+00
         0.00000E+00
         0.00000E+00
         0.00000E+00
         0.00000E+00
         0.00000E+00
         0.00000E+00
         0.00000E+00
         0.00000E+00
         0.00000E+00
         0.00000E+00
         0.00000E+00
         0.00000E+00
         0.00000E+00
         0.00000E+00
         0.00000E+00
         0.00000E+00
         0.00000E+00
         0.00000E+00
         0.00000E+00
         0.00000E+00
         0.00000E+00
         0.00000E+00
         0.00000E+00
         0.00000E+00
         0.00000E+00
         0.00000E+00
         0.00000E+00
         0.00000E+00
         0.00000E+00
         0.00000E+00
         0.00000E+00
         0.00000E+00
         0.00000E+00
         0.00000E+00
         0.00000E+00
         0.00000E+00
         0.00000E+00
         0.00000E+00
         0.00000E+00
         0.00000E+00
         0.00000E+00
         0.00000E+00
         0.00000E+00
         0.00000E+00
         0.00000E+00
         0.00000E+00
         0.00000E+00
         0.00000E+00
         0.00000E+00
         0.00000E+00
         0.00000E+00
         0.00000E+00
         0.00000E+00
         0.00000E+00
         0.00000E+00
         0.00000E+00
         0.00000E+00
         0.00000E+00
         0.00000E+00
         0.00000E+00
         0.00000E+00
         0.00000E+00
         0.00000E+00
         0.00000E+00
         0.00000E+00
         0.00000E+00
         0.00000E+00
         0.00000E+00
         0.00000E+00
         0.00000E+00
         0.00000E+00
         0.00000E+00
         0.00000E+00
         0.00000E+00
         0.00000E+00
         0.00000E+00
         0.00000E+00
         0.00000E+00
         0.00000E+00
         0.00000E+00
         0.00000E+00
         0.00000E+00
         0.00000E+00
         0.00000E+00
         0.00000E+00
         0.00000E+00
         0.00000E+00
         0.00000E+00
         0.00000E+00
         0.00000E+00
         0.00000E+00
         0.00000E+00
         0.00000E+00
         0.00000E+00
         0.00000E+00
         0.00000E+00
         0.00000E+00
         0.00000E+00
         0.00000E+00
         0.00000E+00
         0.00000E+00
         0.00000E+00
         0.00000E+00
         0.00000E+00
         0.00000E+00
         0.00000E+00
         0.00000E+00
         0.00000E+00
         0.00000E+00
         0.00000E+00
         0.00000E+00
         0.00000E+00
         0.00000E+00
         0.00000E+00
         0.00000E+00
         0.00000E+00
         0.00000E+00
         0.00000E+00
         0.00000E+00
         0.00000E+00
         0.00000E+00
         0.00000E+00
         0.00000E+00
         0.00000E+00
         0.00000E+00
         0.00000E+00
         0.00000E+00
         0.00000E+00
         0.00000E+00
         0.00000E+00
         0.00000E+00
         0.00000E+00
         0.00000E+00
         0.00000E+00
         0.00000E+00
         0.00000E+00
         0.00000E+00
         0.00000E+00
         0.00000E+00
         0.00000E+00
         0.00000E+00
         0.00000E+00
         0.00000E+00
         0.00000E+00
         0.00000E+00
         0.00000E+00
         0.00000E+00
         0.00000E+00
         0.00000E+00
         0.00000E+00
         0.00000E+00
         0.00000E+00
         0.00000E+00
         0.00000E+00
         0.00000E+00
         0.00000E+00
         0.00000E+00
         0.00000E+00
         0.00000E+00
         0.00000E+00
         0.00000E+00
         0.00000E+00
         0.00000E+00
         0.00000E+00
         0.00000E+00
         0.00000E+00
         0.00000E+00
         0.00000E+00
         0.00000E+00
         0.00000E+00
         0.00000E+00
         0.00000E+00
         0.00000E+00
         0.00000E+00
         0.00000E+00
         0.00000E+00
         0.00000E+00
         0.00000E+00
         0.00000E+00
         0.00000E+00
         0.00000E+00
         0.00000E+00
         0.00000E+00
         0.00000E+00
         0.00000E+00
         0.00000E+00
         0.00000E+00
         0.00000E+00
         0.00000E+00
         0.00000E+00
         0.00000E+00
         0.00000E+00
         0.00000E+00
         0.00000E+00
         0.00000E+00
         0.00000E+00
         0.00000E+00
         0.00000E+00
         0.00000E+00
         0.00000E+00
         0.00000E+00
         0.00000E+00
         0.00000E+00
         0.00000E+00
         0.00000E+00
         0.00000E+00
         0.00000E+00
         0.00000E+00
         0.00000E+00
         0.00000E+00
         0.00000E+00
         0.00000E+00
         0.00000E+00
         0.00000E+00
         0.00000E+00
         0.00000E+00
         0.00000E+00
         0.00000E+00
         0.00000E+00
         0.00000E+00
         0.00000E+00
         0.00000E+00
         0.00000E+00
         0.00000E+00
         0.00000E+00
         0.00000E+00
         0.00000E+00
         0.00000E+00
         0.00000E+00
         0.00000E+00
         0.00000E+00
         0.00000E+00
         0.00000E+00
         0.00000E+00
         0.00000E+00
         0.00000E+00
         0.00000E+00
         0.00000E+00
         0.00000E+00
         0.00000E+00
         0.00000E+00
         0.00000E+00
         0.00000E+00
         0.00000E+00
         0.00000E+00
         0.00000E+00
         0.00000E+00
         0.00000E+00
         0.00000E+00
         0.00000E+00
         0.00000E+00
         0.00000E+00
         0.00000E+00
         0.00000E+00
         0.00000E+00
         0.00000E+00
         0.00000E+00
         0.00000E+00
         0.00000E+00
         0.00000E+00
         0.00000E+00
         0.00000E+00
         0.00000E+00
         0.00000E+00
         0.00000E+00
         0.00000E+00
         0.00000E+00
         0.00000E+00
         0.00000E+00
         0.00000E+00
         0.00000E+00
         0.00000E+00
         0.00000E+00
         0.00000E+00
         0.00000E+00
         0.00000E+00
         0.00000E+00
         0.00000E+00
         0.00000E+00
         0.00000E+00
         0.00000E+00
         0.00000E+00
         0.00000E+00
         0.00000E+00
         0.00000E+00
         0.00000E+00
         0.00000E+00
         0.00000E+00
         0.00000E+00
         0.00000E+00
         0.00000E+00
         0.00000E+00
         0.00000E+00
         0.00000E+00
         0.00000E+00
         0.00000E+00
         0.00000E+00
         0.00000E+00
         0.00000E+00
         0.00000E+00
         0.00000E+00
         0.00000E+00
         0.00000E+00
         0.00000E+00
         0.00000E+00
         0.00000E+00
         0.00000E+00
         0.00000E+00
         0.00000E+00
         0.00000E+00
         0.00000E+00
         0.00000E+00
         0.00000E+00
         0.00000E+00
         0.00000E+00
         0.00000E+00
         0.00000E+00
         0.00000E+00
         0.00000E+00
         0.00000E+00
         0.00000E+00
         0.00000E+00
         0.00000E+00
         0.00000E+00
         0.00000E+00
         0.00000E+00
         0.00000E+00
         0.00000E+00
         0.00000E+00
         0.00000E+00
         0.00000E+00
         0.00000E+00
         0.00000E+00
         0.00000E+00
         0.00000E+00
         0.00000E+00
         0.00000E+00
         0.00000E+00
         0.00000E+00
         0.00000E+00
         0.00000E+00
         0.00000E+00
         0.00000E+00
         0.00000E+00
         0.00000E+00
         0.00000E+00
         0.00000E+00
         0.00000E+00
         0.00000E+00
         0.00000E+00
         0.00000E+00
         0.00000E+00
         0.00000E+00
         0.00000E+00
         0.00000E+00
         0.00000E+00
         0.00000E+00
         0.00000E+00
         0.00000E+00
         0.00000E+00
         0.00000E+00
         0.00000E+00
         0.00000E+00
         0.00000E+00
         0.00000E+00
         0.00000E+00
         0.00000E+00
         0.00000E+00
         0.00000E+00
         0.00000E+00
         0.00000E+00
         0.00000E+00
         0.00000E+00
         0.00000E+00
         0.00000E+00
         0.00000E+00
         0.00000E+00
         0.00000E+00
         0.00000E+00
         0.00000E+00
         0.00000E+00
         0.00000E+00
         0.00000E+00
         0.00000E+00
         0.00000E+00
         0.00000E+00
         0.00000E+00
         0.00000E+00
         0.00000E+00
         0.00000E+00
         0.00000E+00
         0.00000E+00
         0.00000E+00
         0.00000E+00
         0.00000E+00
         0.00000E+00
         0.00000E+00
         0.00000E+00
         0.00000E+00
         0.00000E+00
         0.00000E+00
         0.00000E+00
         0.00000E+00
         0.00000E+00
         0.00000E+00
         0.00000E+00
         0.00000E+00
         0.00000E+00
         0.00000E+00
         0.00000E+00
         0.00000E+00
         0.00000E+00
         0.00000E+00
         0.00000E+00
         0.00000E+00
         0.00000E+00
         0.00000E+00
         0.00000E+00
         0.00000E+00
         0.00000E+00
         0.00000E+00
         0.00000E+00
         0.00000E+00
         0.00000E+00
         0.00000E+00
         0.00000E+00
         0.00000E+00
         0.00000E+00
         0.00000E+00
         0.00000E+00
         0.00000E+00
         0.00000E+00
         0.00000E+00
         0.00000E+00
         0.00000E+00
         0.00000E+00
         0.00000E+00
         0.00000E+00
         0.00000E+00
         0.00000E+00
         0.00000E+00
         0.00000E+00
         0.00000E+00
         0.00000E+00
         0.00000E+00
         0.00000E+00
         0.00000E+00
         0.00000E+00
         0.00000E+00
         0.00000E+00
         0.00000E+00
         0.00000E+00
         0.00000E+00
         0.00000E+00
         0.00000E+00
         0.00000E+00
         0.00000E+00
         0.00000E+00
         0.00000E+00
         0.00000E+00
         0.00000E+00
         0.00000E+00
         0.00000E+00
         0.00000E+00
         0.00000E+00
         0.00000E+00
         0.00000E+00
         0.00000E+00
         0.00000E+00
         0.00000E+00
         0.00000E+00
         0.00000E+00
         0.00000E+00
         0.00000E+00
         0.00000E+00
         0.00000E+00
         0.00000E+00
         0.00000E+00
         0.00000E+00
         0.00000E+00
         0.00000E+00
         0.00000E+00
         0.00000E+00
         0.00000E+00
         0.00000E+00
         0.00000E+00
         0.00000E+00
         0.00000E+00
         0.00000E+00
         0.00000E+00
         0.00000E+00
         0.00000E+00
         0.00000E+00
         0.00000E+00
         0.00000E+00
         0.00000E+00
         0.00000E+00
         0.00000E+00
         0.00000E+00
         0.00000E+00
         0.00000E+00
         0.00000E+00
         0.00000E+00
         0.00000E+00
         0.00000E+00
         0.00000E+00
         0.00000E+00
         0.00000E+00
         0.00000E+00
         0.00000E+00
         0.00000E+00
         0.00000E+00
         0.00000E+00
         0.00000E+00
         0.00000E+00
         0.00000E+00
         0.00000E+00
         0.00000E+00
         0.00000E+00
         0.00000E+00
         0.00000E+00
         0.00000E+00
         0.00000E+00
         0.00000E+00
         0.00000E+00
         0.00000E+00
         0.00000E+00
         0.00000E+00
         0.00000E+00
         0.00000E+00
         0.00000E+00
         0.00000E+00
         0.00000E+00
         0.00000E+00
         0.00000E+00
         0.00000E+00
         0.00000E+00
         0.00000E+00
         0.00000E+00
         0.00000E+00
         0.00000E+00
         0.00000E+00
         0.00000E+00
         0.00000E+00
         0.00000E+00
         0.00000E+00
         0.00000E+00
         0.00000E+00
         0.00000E+00
         0.00000E+00
         0.00000E+00
         0.00000E+00
         0.00000E+00
         0.00000E+00
         0.00000E+00
         0.00000E+00
         0.00000E+00
         0.00000E+00
         0.00000E+00
         0.00000E+00
         0.00000E+00
         0.00000E+00
         0.00000E+00
         0.00000E+00
         0.00000E+00
         0.00000E+00
         0.00000E+00
         0.00000E+00
         0.00000E+00
         0.00000E+00
         0.00000E+00
         0.00000E+00
         0.00000E+00
         0.00000E+00
         0.00000E+00
         0.00000E+00
         0.00000E+00
         0.00000E+00
         0.00000E+00
         0.00000E+00
         0.00000E+00
         0.00000E+00
         0.00000E+00
         0.00000E+00
         0.00000E+00
         0.00000E+00
         0.00000E+00
         0.00000E+00
         0.00000E+00
         0.00000E+00
         0.00000E+00
         0.00000E+00
         0.00000E+00
         0.00000E+00
         0.00000E+00
         0.00000E+00
         0.00000E+00
         0.00000E+00
         0.00000E+00
         0.00000E+00
         0.00000E+00
         0.00000E+00
         0.00000E+00
         0.00000E+00
         0.00000E+00
         0.00000E+00
         0.00000E+00
         0.00000E+00
         0.00000E+00
         0.00000E+00
         0.00000E+00
         0.00000E+00
         0.00000E+00
         0.00000E+00
         0.00000E+00
         0.00000E+00
         0.00000E+00
         0.00000E+00
         0.00000E+00
         0.00000E+00
         0.00000E+00
         0.00000E+00
         0.00000E+00
         0.00000E+00
         0.00000E+00
         0.00000E+00
         0.00000E+00
         0.00000E+00
         0.00000E+00
         0.00000E+00
         0.00000E+00
         0.00000E+00
         0.00000E+00
         0.00000E+00
         0.00000E+00
         0.00000E+00
         0.00000E+00
         0.00000E+00
         0.00000E+00
         0.00000E+00
         0.00000E+00
         0.00000E+00
         0.00000E+00
         0.00000E+00
         0.00000E+00
         0.00000E+00
         0.00000E+00
         0.00000E+00
         0.00000E+00
         0.00000E+00
         0.00000E+00
         0.00000E+00
         0.00000E+00
         0.00000E+00
         0.00000E+00
         0.00000E+00
         0.00000E+00
         0.00000E+00
         0.00000E+00
         0.00000E+00
         0.00000E+00
         0.00000E+00
         0.00000E+00
         0.00000E+00
         0.00000E+00
         0.00000E+00
         0.00000E+00
         0.00000E+00
         0.00000E+00
         0.00000E+00
         0.00000E+00
         0.00000E+00
         0.00000E+00
         0.00000E+00
         0.00000E+00
         0.00000E+00
         0.00000E+00
         0.00000E+00
         0.00000E+00
         0.00000E+00
         0.00000E+00
         0.00000E+00
         0.00000E+00
         0.00000E+00
         0.00000E+00
         0.00000E+00
         0.00000E+00
         0.00000E+00
         0.00000E+00
         0.00000E+00
         0.00000E+00
         0.00000E+00
         0.00000E+00
         0.00000E+00
         0.00000E+00
         0.00000E+00
         0.00000E+00
         0.00000E+00
         0.00000E+00
         0.00000E+00
         0.00000E+00
         0.00000E+00
         0.00000E+00
         0.00000E+00
         0.00000E+00
         0.00000E+00
         0.00000E+00
         0.00000E+00
         0.00000E+00
         0.00000E+00
         0.00000E+00
         0.00000E+00
         0.00000E+00
         0.00000E+00
         0.00000E+00
         0.00000E+00
         0.00000E+00
         0.00000E+00
         0.00000E+00
         0.00000E+00
         0.00000E+00
         0.00000E+00
         0.00000E+00
         0.00000E+00
         0.00000E+00
         0.00000E+00
         0.00000E+00
         0.00000E+00
         0.00000E+00
         0.00000E+00
         0.00000E+00
         0.00000E+00
         0.00000E+00
         0.00000E+00
         0.00000E+00
         0.00000E+00
         0.00000E+00
         0.00000E+00
         0.00000E+00
         0.00000E+00
         0.00000E+00
         0.00000E+00
         0.00000E+00
         0.00000E+00
         0.00000E+00
         0.00000E+00
         0.00000E+00
         0.00000E+00
         0.00000E+00
         0.00000E+00
         0.00000E+00
         0.00000E+00
         0.00000E+00
         0.00000E+00
         0.00000E+00
         0.00000E+00
         0.00000E+00
         0.00000E+00
         0.00000E+00
         0.00000E+00
         0.00000E+00
         0.00000E+00
         0.00000E+00
         0.00000E+00
         0.00000E+00
         0.00000E+00
         0.00000E+00
         0.00000E+00
         0.00000E+00
         0.00000E+00
         0.00000E+00
         0.00000E+00
         0.00000E+00
         0.00000E+00
         0.00000E+00
         0.00000E+00
         0.00000E+00
         0.00000E+00
         0.00000E+00
         0.00000E+00
         0.00000E+00
         0.00000E+00
         0.00000E+00
         0.00000E+00
         0.00000E+00
         0.00000E+00
         0.00000E+00
         0.00000E+00
         0.00000E+00
         0.00000E+00
         0.00000E+00
         0.00000E+00
         0.00000E+00
         0.00000E+00
         0.00000E+00
         0.00000E+00
         0.00000E+00
         0.00000E+00
         0.00000E+00
         0.00000E+00
         0.00000E+00
         0.00000E+00
         0.00000E+00
         0.00000E+00
         0.00000E+00
         0.00000E+00
         0.00000E+00
         0.00000E+00
         0.00000E+00
         0.00000E+00
         0.00000E+00
         0.00000E+00
         0.00000E+00
         0.00000E+00
         0.00000E+00
         0.00000E+00
         0.00000E+00
         0.00000E+00
         0.00000E+00
         0.00000E+00
         0.00000E+00
         0.00000E+00
         0.00000E+00
         0.00000E+00
         0.00000E+00
         0.00000E+00
         0.00000E+00
         0.00000E+00
         0.00000E+00
         0.00000E+00
         0.00000E+00
         0.00000E+00
         0.00000E+00
         0.00000E+00
         0.00000E+00
         0.00000E+00
         0.00000E+00
         0.00000E+00
         0.00000E+00
         0.00000E+00
         0.00000E+00
         0.00000E+00
         0.00000E+00
         0.00000E+00
         0.00000E+00
         0.00000E+00
         0.00000E+00
         0.00000E+00
         0.00000E+00
         0.00000E+00
         0.00000E+00
         0.00000E+00
         0.00000E+00
         0.00000E+00
         0.00000E+00
         0.00000E+00
         0.00000E+00
         0.00000E+00
         0.00000E+00
         0.00000E+00
         0.00000E+00
         0.00000E+00
         0.00000E+00
         0.00000E+00
         0.00000E+00
         0.00000E+00
         0.00000E+00
         0.00000E+00
         0.00000E+00
         0.00000E+00
         0.00000E+00
         0.00000E+00
         0.00000E+00
         0.00000E+00
         0.00000E+00
         0.00000E+00
         0.00000E+00
         0.00000E+00
         0.00000E+00
         0.00000E+00
         0.00000E+00
         0.00000E+00
         0.00000E+00
         0.00000E+00
         0.00000E+00
         0.00000E+00
         0.00000E+00
         0.00000E+00
         0.00000E+00
         0.00000E+00
         0.00000E+00
         0.00000E+00
         0.00000E+00
         0.00000E+00
         0.00000E+00
         0.00000E+00
         0.00000E+00
         0.00000E+00
         0.00000E+00
         0.00000E+00
         0.00000E+00
         0.00000E+00
         0.00000E+00
         0.00000E+00
         0.00000E+00
         0.00000E+00
         0.00000E+00
         0.00000E+00
         0.00000E+00
         0.00000E+00
         0.00000E+00
         0.00000E+00
         0.00000E+00
         0.00000E+00
         0.00000E+00
         0.00000E+00
         0.00000E+00
         0.00000E+00
         0.00000E+00
         0.00000E+00
         0.00000E+00
         0.00000E+00
         0.00000E+00
         0.00000E+00
         0.00000E+00
         0.00000E+00
         0.00000E+00
         0.00000E+00
         0.00000E+00
         0.00000E+00
         0.00000E+00
         0.00000E+00
         0.00000E+00
         0.00000E+00
         0.00000E+00
         0.00000E+00
         0.00000E+00
         0.00000E+00
         0.00000E+00
         0.00000E+00
         0.00000E+00
         0.00000E+00
         0.00000E+00
         0.00000E+00
         0.00000E+00
         0.00000E+00
         0.00000E+00
         0.00000E+00
         0.00000E+00
         0.00000E+00
         0.00000E+00
         0.00000E+00
         0.00000E+00
         0.00000E+00
         0.00000E+00
         0.00000E+00
         0.00000E+00
         0.00000E+00
         0.00000E+00
         0.00000E+00
         0.00000E+00
         0.00000E+00
         0.00000E+00
         0.00000E+00
         0.00000E+00
         0.00000E+00
         0.00000E+00
         0.00000E+00
         0.00000E+00
         0.00000E+00
         0.00000E+00
         0.00000E+00
         0.00000E+00
         0.00000E+00
         0.00000E+00
         0.00000E+00
         0.00000E+00
         0.00000E+00
         0.00000E+00
         0.00000E+00
         0.00000E+00
         0.00000E+00
         0.00000E+00
         0.00000E+00
         0.00000E+00
         0.00000E+00
         0.00000E+00
         0.00000E+00
         0.00000E+00
         0.00000E+00
         0.00000E+00
         0.00000E+00
         0.00000E+00
         0.00000E+00
         0.00000E+00
         0.00000E+00
         0.00000E+00
         0.00000E+00
         0.00000E+00
         0.00000E+00
         0.00000E+00
         0.00000E+00
         0.00000E+00
         0.00000E+00
         0.00000E+00
         0.00000E+00
         0.00000E+00
         0.00000E+00
         0.00000E+00
         0.00000E+00
         0.00000E+00
         0.00000E+00
         0.00000E+00
         0.00000E+00
         0.00000E+00
         0.00000E+00
         0.00000E+00
         0.00000E+00
  
SCALARS                            eps  double 1
LOOKUP_TABLE default
         0.14607E+01
         0.14422E+01
         0.14539E+01
         0.14750E+01
         0.00000E+00
         0.00000E+00
         0.00000E+00
         0.00000E+00
         0.14416E+01
         0.14479E+01
         0.00000E+00
         0.00000E+00
         0.14153E+01
         0.14143E+01
         0.00000E+00
         0.00000E+00
         0.14720E+01
         0.14158E+01
         0.00000E+00
         0.00000E+00
         0.13952E+01
         0.13793E+01
         0.14047E+01
         0.00000E+00
         0.00000E+00
         0.00000E+00
         0.13799E+01
         0.13566E+01
         0.00000E+00
         0.00000E+00
         0.14709E+01
         0.14465E+01
         0.14947E+01
         0.00000E+00
         0.00000E+00
         0.00000E+00
         0.14568E+01
         0.14257E+01
         0.00000E+00
         0.00000E+00
         0.14445E+01
         0.14205E+01
         0.00000E+00
         0.00000E+00
         0.14648E+01
         0.14738E+01
         0.00000E+00
         0.00000E+00
         0.14012E+01
         0.00000E+00
         0.14721E+01
         0.00000E+00
         0.13731E+01
         0.00000E+00
         0.13658E+01
         0.00000E+00
         0.13659E+01
         0.13920E+01
         0.00000E+00
         0.00000E+00
         0.14704E+01
         0.14610E+01
         0.00000E+00
         0.00000E+00
         0.14763E+01
         0.00000E+00
         0.14651E+01
         0.00000E+00
         0.14360E+01
         0.14329E+01
         0.00000E+00
         0.00000E+00
         0.14262E+01
         0.00000E+00
         0.13483E+01
         0.00000E+00
         0.13443E+01
         0.00000E+00
         0.13464E+01
         0.00000E+00
         0.13577E+01
         0.13693E+01
         0.00000E+00
         0.00000E+00
         0.13929E+01
         0.00000E+00
         0.14644E+01
         0.00000E+00
         0.14533E+01
         0.00000E+00
         0.14442E+01
         0.14391E+01
         0.00000E+00
         0.00000E+00
         0.14452E+01
         0.00000E+00
         0.14496E+01
         0.00000E+00
         0.14457E+01
         0.00000E+00
         0.14444E+01
         0.14483E+01
         0.00000E+00
         0.00000E+00
         0.14228E+01
         0.14335E+01
         0.00000E+00
         0.00000E+00
         0.14209E+01
         0.00000E+00
         0.14333E+01
         0.00000E+00
         0.14212E+01
         0.00000E+00
         0.13946E+01
         0.00000E+00
         0.13690E+01
         0.00000E+00
         0.13536E+01
         0.00000E+00
         0.13520E+01
         0.00000E+00
         0.13525E+01
         0.00000E+00
         0.13691E+01
         0.00000E+00
         0.14006E+01
         0.00000E+00
         0.14351E+01
         0.00000E+00
         0.14552E+01
         0.00000E+00
         0.14751E+01
         0.00000E+00
         0.14882E+01
         0.00000E+00
         0.14878E+01
         0.00000E+00
         0.14555E+01
         0.00000E+00
         0.14331E+01
         0.00000E+00
         0.14256E+01
         0.00000E+00
         0.14377E+01
         0.00000E+00
         0.14439E+01
         0.00000E+00
         0.14332E+01
         0.00000E+00
         0.14332E+01
         0.00000E+00
         0.14413E+01
         0.00000E+00
         0.14517E+01
         0.00000E+00
         0.25606E+00
         0.25925E+00
         0.25882E+00
         0.25464E+00
         0.26229E+00
         0.25849E+00
         0.26313E+00
         0.26073E+00
         0.25531E+00
         0.25873E+00
         0.26564E+00
         0.26649E+00
         0.26444E+00
         0.26423E+00
         0.26564E+00
         0.25484E+00
         0.25563E+00
         0.25340E+00
         0.25959E+00
         0.25849E+00
         0.26011E+00
         0.25909E+00
         0.26098E+00
         0.26044E+00
         0.25859E+00
         0.25871E+00
         0.26186E+00
         0.26157E+00
         0.26385E+00
         0.26040E+00
         0.25523E+00
         0.25929E+00
         0.25526E+00
         0.25794E+00
         0.26700E+00
         0.26417E+00
         0.26282E+00
         0.26445E+00
         0.26463E+00
         0.26717E+00
         0.26903E+00
         0.26453E+00
         0.26007E+00
         0.26066E+00
         0.26296E+00
         0.26691E+00
         0.26353E+00
         0.25982E+00
         0.26008E+00
         0.26295E+00
         0.26584E+00
         0.26195E+00
         0.27389E+00
         0.27084E+00
         0.27143E+00
         0.27075E+00
         0.27105E+00
         0.27290E+00
         0.27457E+00
         0.27494E+00
         0.27465E+00
         0.27489E+00
         0.27554E+00
         0.27112E+00
         0.26917E+00
         0.26842E+00
         0.26734E+00
         0.26652E+00
         0.26662E+00
         0.26820E+00
         0.27294E+00
         0.27191E+00
         0.27017E+00
         0.27011E+00
         0.27041E+00
         0.27194E+00
         0.26966E+00
         0.26882E+00
         0.15191E-02
         0.00000E+00
         0.00000E+00
         0.00000E+00
         0.16974E-02
         0.21634E-03
         0.00000E+00
         0.14428E-02
         0.00000E+00
         0.11802E-02
         0.00000E+00
         0.59285E-02
         0.37418E-02
         0.31536E-03
         0.63597E-02
         0.25599E-03
         0.00000E+00
         0.00000E+00
         0.00000E+00
         0.00000E+00
         0.39870E-02
         0.35462E-02
         0.33714E-02
         0.00000E+00
         0.00000E+00
         0.00000E+00
         0.12273E-03
         0.00000E+00
         0.00000E+00
         0.00000E+00
         0.00000E+00
         0.00000E+00
         0.00000E+00
         0.00000E+00
         0.31084E-02
         0.60985E-03
         0.17037E-02
         0.46020E-02
         0.28147E-02
         0.24033E-02
         0.47327E-02
         0.39955E-02
         0.40431E-02
         0.24218E-02
         0.18290E-02
         0.36529E-02
         0.13190E-02
         0.65702E-03
         0.00000E+00
         0.55858E-03
         0.28894E-02
         0.10071E-02
         0.23559E-01
         0.24204E-01
         0.25454E-01
         0.25244E-01
         0.27136E-01
         0.29389E-01
         0.28062E-01
         0.24574E-01
         0.23861E-01
         0.25775E-01
         0.25194E-01
         0.24804E-01
         0.19920E-01
         0.18771E-01
         0.20952E-01
         0.22681E-01
         0.23665E-01
         0.26157E-01
         0.25031E-01
         0.25800E-01
         0.22894E-01
         0.21567E-01
         0.23224E-01
         0.22628E-01
         0.23383E-01
         0.23158E-01
         0.15226E-02
         0.00000E+00
         0.00000E+00
         0.00000E+00
         0.16953E-02
         0.21442E-03
         0.00000E+00
         0.14472E-02
         0.00000E+00
         0.11928E-02
         0.00000E+00
         0.59282E-02
         0.37445E-02
         0.30738E-03
         0.63695E-02
         0.25866E-03
         0.00000E+00
         0.00000E+00
         0.00000E+00
         0.00000E+00
         0.39876E-02
         0.35457E-02
         0.33709E-02
         0.00000E+00
         0.00000E+00
         0.00000E+00
         0.12380E-03
         0.00000E+00
         0.00000E+00
         0.00000E+00
         0.00000E+00
         0.00000E+00
         0.00000E+00
         0.00000E+00
         0.31111E-02
         0.60879E-03
         0.17026E-02
         0.46140E-02
         0.28281E-02
         0.24109E-02
         0.47379E-02
         0.39993E-02
         0.40439E-02
         0.24216E-02
         0.18280E-02
         0.36526E-02
         0.13190E-02
         0.65679E-03
         0.00000E+00
         0.55357E-03
         0.28860E-02
         0.10008E-02
         0.23549E-01
         0.24197E-01
         0.25454E-01
         0.25245E-01
         0.27131E-01
         0.29378E-01
         0.28049E-01
         0.24567E-01
         0.23854E-01
         0.25767E-01
         0.25189E-01
         0.24805E-01
         0.19918E-01
         0.18770E-01
         0.20954E-01
         0.22688E-01
         0.23672E-01
         0.26163E-01
         0.25029E-01
         0.25799E-01
         0.22891E-01
         0.21565E-01
         0.23215E-01
         0.22611E-01
         0.23368E-01
         0.23144E-01
         0.15262E-02
         0.00000E+00
         0.00000E+00
         0.00000E+00
         0.16930E-02
         0.21260E-03
         0.00000E+00
         0.14516E-02
         0.00000E+00
         0.12053E-02
         0.00000E+00
         0.59279E-02
         0.37472E-02
         0.29939E-03
         0.63793E-02
         0.26142E-03
         0.00000E+00
         0.00000E+00
         0.00000E+00
         0.00000E+00
         0.39883E-02
         0.35452E-02
         0.33706E-02
         0.00000E+00
         0.00000E+00
         0.00000E+00
         0.12483E-03
         0.00000E+00
         0.00000E+00
         0.00000E+00
         0.00000E+00
         0.00000E+00
         0.00000E+00
         0.00000E+00
         0.31139E-02
         0.60784E-03
         0.17015E-02
         0.46261E-02
         0.28415E-02
         0.24186E-02
         0.47433E-02
         0.40030E-02
         0.40449E-02
         0.24218E-02
         0.18272E-02
         0.36524E-02
         0.13191E-02
         0.65651E-03
         0.00000E+00
         0.54853E-03
         0.28828E-02
         0.99449E-03
         0.23539E-01
         0.24190E-01
         0.25454E-01
         0.25245E-01
         0.27126E-01
         0.29367E-01
         0.28036E-01
         0.24559E-01
         0.23847E-01
         0.25758E-01
         0.25184E-01
         0.24806E-01
         0.19916E-01
         0.18769E-01
         0.20957E-01
         0.22694E-01
         0.23679E-01
         0.26170E-01
         0.25027E-01
         0.25797E-01
         0.22888E-01
         0.21563E-01
         0.23206E-01
         0.22594E-01
         0.23353E-01
         0.23130E-01
         0.15297E-02
         0.00000E+00
         0.00000E+00
         0.00000E+00
         0.16908E-02
         0.21070E-03
         0.00000E+00
         0.14560E-02
         0.00000E+00
         0.12176E-02
         0.00000E+00
         0.59277E-02
         0.37500E-02
         0.29142E-03
         0.63892E-02
         0.26442E-03
         0.00000E+00
         0.00000E+00
         0.00000E+00
         0.00000E+00
         0.39892E-02
         0.35450E-02
         0.33707E-02
         0.00000E+00
         0.00000E+00
         0.00000E+00
         0.12571E-03
         0.00000E+00
         0.00000E+00
         0.00000E+00
         0.00000E+00
         0.00000E+00
         0.00000E+00
         0.00000E+00
         0.31166E-02
         0.60681E-03
         0.17003E-02
         0.46383E-02
         0.28551E-02
         0.24268E-02
         0.47490E-02
         0.40070E-02
         0.40462E-02
         0.24224E-02
         0.18266E-02
         0.36523E-02
         0.13194E-02
         0.65630E-03
         0.00000E+00
         0.54350E-03
         0.28793E-02
         0.98814E-03
         0.23530E-01
         0.24184E-01
         0.25454E-01
         0.25245E-01
         0.27121E-01
         0.29355E-01
         0.28023E-01
         0.24552E-01
         0.23840E-01
         0.25749E-01
         0.25179E-01
         0.24808E-01
         0.19914E-01
         0.18768E-01
         0.20961E-01
         0.22701E-01
         0.23687E-01
         0.26176E-01
         0.25026E-01
         0.25795E-01
         0.22885E-01
         0.21562E-01
         0.23197E-01
         0.22577E-01
         0.23338E-01
         0.23115E-01
         0.15331E-02
         0.00000E+00
         0.00000E+00
         0.00000E+00
         0.16887E-02
         0.20881E-03
         0.00000E+00
         0.14603E-02
         0.00000E+00
         0.12296E-02
         0.00000E+00
         0.59274E-02
         0.37528E-02
         0.28345E-03
         0.63992E-02
         0.26764E-03
         0.00000E+00
         0.00000E+00
         0.00000E+00
         0.00000E+00
         0.39903E-02
         0.35448E-02
         0.33711E-02
         0.00000E+00
         0.00000E+00
         0.00000E+00
         0.12649E-03
         0.00000E+00
         0.00000E+00
         0.00000E+00
         0.00000E+00
         0.00000E+00
         0.00000E+00
         0.00000E+00
         0.31194E-02
         0.60577E-03
         0.16993E-02
         0.46504E-02
         0.28690E-02
         0.24353E-02
         0.47550E-02
         0.40111E-02
         0.40479E-02
         0.24236E-02
         0.18264E-02
         0.36526E-02
         0.13200E-02
         0.65625E-03
         0.00000E+00
         0.53841E-03
         0.28761E-02
         0.98181E-03
         0.23520E-01
         0.24177E-01
         0.25453E-01
         0.25245E-01
         0.27116E-01
         0.29344E-01
         0.28009E-01
         0.24544E-01
         0.23833E-01
         0.25740E-01
         0.25174E-01
         0.24809E-01
         0.19913E-01
         0.18768E-01
         0.20964E-01
         0.22710E-01
         0.23696E-01
         0.26184E-01
         0.25024E-01
         0.25794E-01
         0.22882E-01
         0.21560E-01
         0.23188E-01
         0.22560E-01
         0.23323E-01
         0.23101E-01
         0.15364E-02
         0.00000E+00
         0.00000E+00
         0.00000E+00
         0.16865E-02
         0.20692E-03
         0.00000E+00
         0.14643E-02
         0.00000E+00
         0.12412E-02
         0.00000E+00
         0.59272E-02
         0.37555E-02
         0.27548E-03
         0.64090E-02
         0.27095E-03
         0.00000E+00
         0.00000E+00
         0.00000E+00
         0.00000E+00
         0.39916E-02
         0.35448E-02
         0.33717E-02
         0.00000E+00
         0.00000E+00
         0.00000E+00
         0.12723E-03
         0.00000E+00
         0.00000E+00
         0.00000E+00
         0.00000E+00
         0.00000E+00
         0.00000E+00
         0.00000E+00
         0.31223E-02
         0.60493E-03
         0.16983E-02
         0.46627E-02
         0.28830E-02
         0.24440E-02
         0.47612E-02
         0.40154E-02
         0.40497E-02
         0.24249E-02
         0.18265E-02
         0.36532E-02
         0.13206E-02
         0.65633E-03
         0.00000E+00
         0.53349E-03
         0.28728E-02
         0.97564E-03
         0.23510E-01
         0.24171E-01
         0.25453E-01
         0.25245E-01
         0.27111E-01
         0.29333E-01
         0.27996E-01
         0.24537E-01
         0.23826E-01
         0.25731E-01
         0.25170E-01
         0.24811E-01
         0.19912E-01
         0.18768E-01
         0.20968E-01
         0.22718E-01
         0.23706E-01
         0.26191E-01
         0.25023E-01
         0.25792E-01
         0.22879E-01
         0.21559E-01
         0.23179E-01
         0.22543E-01
         0.23308E-01
         0.23087E-01
         0.15395E-02
         0.00000E+00
         0.00000E+00
         0.00000E+00
         0.16844E-02
         0.20511E-03
         0.00000E+00
         0.14677E-02
         0.00000E+00
         0.12524E-02
         0.00000E+00
         0.59272E-02
         0.37586E-02
         0.26761E-03
         0.64190E-02
         0.27430E-03
         0.00000E+00
         0.00000E+00
         0.00000E+00
         0.00000E+00
         0.39928E-02
         0.35448E-02
         0.33725E-02
         0.00000E+00
         0.00000E+00
         0.00000E+00
         0.12808E-03
         0.00000E+00
         0.00000E+00
         0.00000E+00
         0.00000E+00
         0.00000E+00
         0.00000E+00
         0.00000E+00
         0.31252E-02
         0.60422E-03
         0.16975E-02
         0.46751E-02
         0.28971E-02
         0.24528E-02
         0.47675E-02
         0.40196E-02
         0.40515E-02
         0.24264E-02
         0.18269E-02
         0.36541E-02
         0.13216E-02
         0.65679E-03
         0.00000E+00
         0.52879E-03
         0.28699E-02
         0.96947E-03
         0.23500E-01
         0.24164E-01
         0.25453E-01
         0.25246E-01
         0.27106E-01
         0.29322E-01
         0.27983E-01
         0.24529E-01
         0.23820E-01
         0.25723E-01
         0.25165E-01
         0.24813E-01
         0.19911E-01
         0.18767E-01
         0.20971E-01
         0.22727E-01
         0.23715E-01
         0.26198E-01
         0.25021E-01
         0.25790E-01
         0.22877E-01
         0.21558E-01
         0.23170E-01
         0.22526E-01
         0.23293E-01
         0.23073E-01
         0.15424E-02
         0.00000E+00
         0.00000E+00
         0.00000E+00
         0.16825E-02
         0.20321E-03
         0.00000E+00
         0.14708E-02
         0.00000E+00
         0.12633E-02
         0.00000E+00
         0.59272E-02
         0.37617E-02
         0.25976E-03
         0.64290E-02
         0.27765E-03
         0.00000E+00
         0.00000E+00
         0.00000E+00
         0.00000E+00
         0.39940E-02
         0.35448E-02
         0.33731E-02
         0.00000E+00
         0.00000E+00
         0.00000E+00
         0.12895E-03
         0.00000E+00
         0.00000E+00
         0.00000E+00
         0.00000E+00
         0.00000E+00
         0.00000E+00
         0.00000E+00
         0.31283E-02
         0.60368E-03
         0.16969E-02
         0.46875E-02
         0.29113E-02
         0.24616E-02
         0.47738E-02
         0.40241E-02
         0.40534E-02
         0.24279E-02
         0.18273E-02
         0.36552E-02
         0.13227E-02
         0.65735E-03
         0.00000E+00
         0.52418E-03
         0.28670E-02
         0.96344E-03
         0.23491E-01
         0.24158E-01
         0.25453E-01
         0.25246E-01
         0.27101E-01
         0.29311E-01
         0.27970E-01
         0.24522E-01
         0.23813E-01
         0.25714E-01
         0.25161E-01
         0.24815E-01
         0.19910E-01
         0.18767E-01
         0.20975E-01
         0.22736E-01
         0.23724E-01
         0.26205E-01
         0.25019E-01
         0.25788E-01
         0.22875E-01
         0.21557E-01
         0.23160E-01
         0.22509E-01
         0.23278E-01
         0.23059E-01
         0.15453E-02
         0.00000E+00
         0.00000E+00
         0.00000E+00
         0.16804E-02
         0.20132E-03
         0.00000E+00
         0.14740E-02
         0.00000E+00
         0.12742E-02
         0.00000E+00
         0.59273E-02
         0.37648E-02
         0.25197E-03
         0.64391E-02
         0.28100E-03
         0.00000E+00
         0.00000E+00
         0.00000E+00
         0.00000E+00
         0.39952E-02
         0.35449E-02
         0.33739E-02
         0.00000E+00
         0.00000E+00
         0.00000E+00
         0.12987E-03
         0.00000E+00
         0.00000E+00
         0.00000E+00
         0.00000E+00
         0.00000E+00
         0.00000E+00
         0.00000E+00
         0.31314E-02
         0.60301E-03
         0.16962E-02
         0.47000E-02
         0.29256E-02
         0.24704E-02
         0.47801E-02
         0.40284E-02
         0.40553E-02
         0.24295E-02
         0.18279E-02
         0.36563E-02
         0.13237E-02
         0.65793E-03
         0.00000E+00
         0.51964E-03
         0.28642E-02
         0.95732E-03
         0.23481E-01
         0.24151E-01
         0.25452E-01
         0.25246E-01
         0.27096E-01
         0.29300E-01
         0.27956E-01
         0.24514E-01
         0.23806E-01
         0.25705E-01
         0.25156E-01
         0.24817E-01
         0.19910E-01
         0.18766E-01
         0.20979E-01
         0.22745E-01
         0.23734E-01
         0.26212E-01
         0.25017E-01
         0.25787E-01
         0.22872E-01
         0.21555E-01
         0.23151E-01
         0.22492E-01
         0.23263E-01
         0.23045E-01
         0.15481E-02
         0.00000E+00
         0.00000E+00
         0.00000E+00
         0.16783E-02
         0.19943E-03
         0.00000E+00
         0.14771E-02
         0.00000E+00
         0.12851E-02
         0.00000E+00
         0.59273E-02
         0.37681E-02
         0.24418E-03
         0.64491E-02
         0.28433E-03
         0.00000E+00
         0.00000E+00
         0.00000E+00
         0.00000E+00
         0.39965E-02
         0.35448E-02
         0.33745E-02
         0.00000E+00
         0.00000E+00
         0.00000E+00
         0.13079E-03
         0.00000E+00
         0.00000E+00
         0.00000E+00
         0.00000E+00
         0.00000E+00
         0.00000E+00
         0.00000E+00
         0.31344E-02
         0.60250E-03
         0.16956E-02
         0.47125E-02
         0.29399E-02
         0.24792E-02
         0.47864E-02
         0.40328E-02
         0.40571E-02
         0.24311E-02
         0.18283E-02
         0.36574E-02
         0.13248E-02
         0.65859E-03
         0.00000E+00
         0.51500E-03
         0.28613E-02
         0.95122E-03
         0.23471E-01
         0.24145E-01
         0.25452E-01
         0.25246E-01
         0.27091E-01
         0.29289E-01
         0.27943E-01
         0.24507E-01
         0.23799E-01
         0.25696E-01
         0.25151E-01
         0.24819E-01
         0.19909E-01
         0.18766E-01
         0.20982E-01
         0.22753E-01
         0.23743E-01
         0.26218E-01
         0.25015E-01
         0.25785E-01
         0.22870E-01
         0.21554E-01
         0.23142E-01
         0.22475E-01
         0.23249E-01
         0.23031E-01
         0.15510E-02
         0.00000E+00
         0.00000E+00
         0.00000E+00
         0.16764E-02
         0.19762E-03
         0.00000E+00
         0.14802E-02
         0.00000E+00
         0.12960E-02
         0.00000E+00
         0.59274E-02
         0.37712E-02
         0.23641E-03
         0.64592E-02
         0.28767E-03
         0.00000E+00
         0.00000E+00
         0.00000E+00
         0.00000E+00
         0.39976E-02
         0.35448E-02
         0.33752E-02
         0.00000E+00
         0.00000E+00
         0.00000E+00
         0.13176E-03
         0.00000E+00
         0.00000E+00
         0.00000E+00
         0.00000E+00
         0.00000E+00
         0.00000E+00
         0.00000E+00
         0.31375E-02
         0.60188E-03
         0.16949E-02
         0.47250E-02
         0.29541E-02
         0.24879E-02
         0.47927E-02
         0.40371E-02
         0.40590E-02
         0.24326E-02
         0.18288E-02
         0.36585E-02
         0.13259E-02
         0.65917E-03
         0.00000E+00
         0.51042E-03
         0.28586E-02
         0.94517E-03
         0.23461E-01
         0.24138E-01
         0.25452E-01
         0.25246E-01
         0.27086E-01
         0.29277E-01
         0.27929E-01
         0.24499E-01
         0.23792E-01
         0.25687E-01
         0.25147E-01
         0.24821E-01
         0.19908E-01
         0.18765E-01
         0.20986E-01
         0.22762E-01
         0.23752E-01
         0.26225E-01
         0.25013E-01
         0.25783E-01
         0.22868E-01
         0.21553E-01
         0.23133E-01
         0.22458E-01
         0.23234E-01
         0.23017E-01
         0.15539E-02
         0.00000E+00
         0.00000E+00
         0.00000E+00
         0.16743E-02
         0.19574E-03
         0.00000E+00
         0.14833E-02
         0.00000E+00
         0.13069E-02
         0.00000E+00
         0.59274E-02
         0.37742E-02
         0.22867E-03
         0.64692E-02
         0.29100E-03
         0.00000E+00
         0.00000E+00
         0.00000E+00
         0.00000E+00
         0.39989E-02
         0.35448E-02
         0.33760E-02
         0.00000E+00
         0.00000E+00
         0.00000E+00
         0.13268E-03
         0.00000E+00
         0.00000E+00
         0.00000E+00
         0.00000E+00
         0.00000E+00
         0.00000E+00
         0.00000E+00
         0.31406E-02
         0.60129E-03
         0.16942E-02
         0.47375E-02
         0.29684E-02
         0.24967E-02
         0.47989E-02
         0.40414E-02
         0.40609E-02
         0.24342E-02
         0.18293E-02
         0.36596E-02
         0.13269E-02
         0.65984E-03
         0.00000E+00
         0.50587E-03
         0.28557E-02
         0.93907E-03
         0.23451E-01
         0.24132E-01
         0.25451E-01
         0.25246E-01
         0.27081E-01
         0.29266E-01
         0.27916E-01
         0.24492E-01
         0.23786E-01
         0.25677E-01
         0.25142E-01
         0.24822E-01
         0.19907E-01
         0.18765E-01
         0.20990E-01
         0.22771E-01
         0.23762E-01
         0.26232E-01
         0.25011E-01
         0.25781E-01
         0.22865E-01
         0.21552E-01
         0.23124E-01
         0.22441E-01
         0.23219E-01
         0.23003E-01
         0.15567E-02
         0.00000E+00
         0.00000E+00
         0.00000E+00
         0.16723E-02
         0.19387E-03
         0.00000E+00
         0.14865E-02
         0.00000E+00
         0.13178E-02
         0.00000E+00
         0.59275E-02
         0.37775E-02
         0.22089E-03
         0.64793E-02
         0.29433E-03
         0.00000E+00
         0.00000E+00
         0.00000E+00
         0.00000E+00
         0.40001E-02
         0.35448E-02
         0.33766E-02
         0.00000E+00
         0.00000E+00
         0.00000E+00
         0.13361E-03
         0.00000E+00
         0.00000E+00
         0.00000E+00
         0.00000E+00
         0.00000E+00
         0.00000E+00
         0.00000E+00
         0.31436E-02
         0.60080E-03
         0.16936E-02
         0.47499E-02
         0.29827E-02
         0.25055E-02
         0.48053E-02
         0.40457E-02
         0.40627E-02
         0.24358E-02
         0.18299E-02
         0.36605E-02
         0.13280E-02
         0.66044E-03
         0.00000E+00
         0.50129E-03
         0.28527E-02
         0.93297E-03
         0.23442E-01
         0.24125E-01
         0.25451E-01
         0.25246E-01
         0.27076E-01
         0.29255E-01
         0.27903E-01
         0.24484E-01
         0.23779E-01
         0.25668E-01
         0.25137E-01
         0.24824E-01
         0.19906E-01
         0.18765E-01
         0.20994E-01
         0.22779E-01
         0.23771E-01
         0.26239E-01
         0.25010E-01
         0.25779E-01
         0.22863E-01
         0.21551E-01
         0.23114E-01
         0.22425E-01
         0.23204E-01
         0.22989E-01
         0.15596E-02
         0.00000E+00
         0.00000E+00
         0.00000E+00
         0.16703E-02
         0.19198E-03
         0.00000E+00
         0.14895E-02
         0.00000E+00
         0.13286E-02
         0.00000E+00
         0.59275E-02
         0.37806E-02
         0.21315E-03
         0.64893E-02
         0.29764E-03
         0.00000E+00
         0.00000E+00
         0.00000E+00
         0.00000E+00
         0.40013E-02
         0.35448E-02
         0.33774E-02
         0.00000E+00
         0.00000E+00
         0.00000E+00
         0.13448E-03
         0.00000E+00
         0.00000E+00
         0.00000E+00
         0.00000E+00
         0.00000E+00
         0.00000E+00
         0.00000E+00
         0.31468E-02
         0.60021E-03
         0.16929E-02
         0.47625E-02
         0.29971E-02
         0.25142E-02
         0.48116E-02
         0.40500E-02
         0.40646E-02
         0.24373E-02
         0.18304E-02
         0.36617E-02
         0.13292E-02
         0.66103E-03
         0.00000E+00
         0.49672E-03
         0.28500E-02
         0.92695E-03
         0.23432E-01
         0.24119E-01
         0.25450E-01
         0.25247E-01
         0.27071E-01
         0.29244E-01
         0.27889E-01
         0.24476E-01
         0.23772E-01
         0.25659E-01
         0.25133E-01
         0.24826E-01
         0.19905E-01
         0.18764E-01
         0.20997E-01
         0.22788E-01
         0.23780E-01
         0.26246E-01
         0.25008E-01
         0.25777E-01
         0.22861E-01
         0.21550E-01
         0.23105E-01
         0.22408E-01
         0.23189E-01
         0.22975E-01
         0.15624E-02
         0.00000E+00
         0.00000E+00
         0.00000E+00
         0.16683E-02
         0.19009E-03
         0.00000E+00
         0.14927E-02
         0.00000E+00
         0.13395E-02
         0.00000E+00
         0.59276E-02
         0.37837E-02
         0.20539E-03
         0.64994E-02
         0.30097E-03
         0.00000E+00
         0.00000E+00
         0.00000E+00
         0.00000E+00
         0.40025E-02
         0.35448E-02
         0.33780E-02
         0.00000E+00
         0.00000E+00
         0.00000E+00
         0.13539E-03
         0.00000E+00
         0.00000E+00
         0.00000E+00
         0.00000E+00
         0.00000E+00
         0.00000E+00
         0.00000E+00
         0.31498E-02
         0.59972E-03
         0.16923E-02
         0.47750E-02
         0.30114E-02
         0.25229E-02
         0.48179E-02
         0.40544E-02
         0.40664E-02
         0.24389E-02
         0.18309E-02
         0.36628E-02
         0.13302E-02
         0.66170E-03
         0.00000E+00
         0.49209E-03
         0.28471E-02
         0.92084E-03
         0.23422E-01
         0.24112E-01
         0.25450E-01
         0.25247E-01
         0.27066E-01
         0.29233E-01
         0.27876E-01
         0.24469E-01
         0.23765E-01
         0.25650E-01
         0.25128E-01
         0.24828E-01
         0.19904E-01
         0.18764E-01
         0.21001E-01
         0.22797E-01
         0.23790E-01
         0.26253E-01
         0.25006E-01
         0.25776E-01
         0.22858E-01
         0.21548E-01
         0.23096E-01
         0.22391E-01
         0.23175E-01
         0.22961E-01
         0.15652E-02
         0.00000E+00
         0.00000E+00
         0.00000E+00
         0.16662E-02
         0.18830E-03
         0.00000E+00
         0.14958E-02
         0.00000E+00
         0.13503E-02
         0.00000E+00
         0.59277E-02
         0.37869E-02
         0.19767E-03
         0.65094E-02
         0.30430E-03
         0.00000E+00
         0.00000E+00
         0.00000E+00
         0.00000E+00
         0.40038E-02
         0.35448E-02
         0.33787E-02
         0.00000E+00
         0.00000E+00
         0.00000E+00
         0.13630E-03
         0.00000E+00
         0.00000E+00
         0.00000E+00
         0.00000E+00
         0.00000E+00
         0.00000E+00
         0.00000E+00
         0.31530E-02
         0.59914E-03
         0.16917E-02
         0.47876E-02
         0.30257E-02
         0.25315E-02
         0.48242E-02
         0.40587E-02
         0.40683E-02
         0.24403E-02
         0.18315E-02
         0.36639E-02
         0.13313E-02
         0.66229E-03
         0.00000E+00
         0.48752E-03
         0.28443E-02
         0.91474E-03
         0.23412E-01
         0.24106E-01
         0.25449E-01
         0.25247E-01
         0.27061E-01
         0.29221E-01
         0.27862E-01
         0.24461E-01
         0.23758E-01
         0.25641E-01
         0.25123E-01
         0.24830E-01
         0.19903E-01
         0.18763E-01
         0.21005E-01
         0.22805E-01
         0.23799E-01
         0.26260E-01
         0.25004E-01
         0.25774E-01
         0.22856E-01
         0.21547E-01
         0.23087E-01
         0.22374E-01
         0.23160E-01
         0.22947E-01
         0.15681E-02
         0.00000E+00
         0.00000E+00
         0.00000E+00
         0.16643E-02
         0.18642E-03
         0.00000E+00
         0.14989E-02
         0.00000E+00
         0.13612E-02
         0.00000E+00
         0.59277E-02
         0.37900E-02
         0.18991E-03
         0.65195E-02
         0.30765E-03
         0.00000E+00
         0.00000E+00
         0.00000E+00
         0.00000E+00
         0.40050E-02
         0.35447E-02
         0.33794E-02
         0.00000E+00
         0.00000E+00
         0.00000E+00
         0.13714E-03
         0.00000E+00
         0.00000E+00
         0.00000E+00
         0.00000E+00
         0.00000E+00
         0.00000E+00
         0.00000E+00
         0.31561E-02
         0.59856E-03
         0.16910E-02
         0.48001E-02
         0.30400E-02
         0.25401E-02
         0.48303E-02
         0.40629E-02
         0.40701E-02
         0.24420E-02
         0.18320E-02
         0.36650E-02
         0.13324E-02
         0.66297E-03
         0.00000E+00
         0.48294E-03
         0.28414E-02
         0.90874E-03
         0.23402E-01
         0.24099E-01
         0.25449E-01
         0.25247E-01
         0.27055E-01
         0.29210E-01
         0.27848E-01
         0.24453E-01
         0.23752E-01
         0.25631E-01
         0.25119E-01
         0.24832E-01
         0.19902E-01
         0.18763E-01
         0.21008E-01
         0.22814E-01
         0.23808E-01
         0.26266E-01
         0.25002E-01
         0.25772E-01
         0.22854E-01
         0.21546E-01
         0.23077E-01
         0.22357E-01
         0.23145E-01
         0.22933E-01
         0.15709E-02
         0.00000E+00
         0.00000E+00
         0.00000E+00
         0.16623E-02
         0.18455E-03
         0.00000E+00
         0.15019E-02
         0.00000E+00
         0.13719E-02
         0.00000E+00
         0.59278E-02
         0.37931E-02
         0.18214E-03
         0.65294E-02
         0.31097E-03
         0.00000E+00
         0.00000E+00
         0.00000E+00
         0.00000E+00
         0.40062E-02
         0.35446E-02
         0.33802E-02
         0.00000E+00
         0.00000E+00
         0.00000E+00
         0.13770E-03
         0.00000E+00
         0.00000E+00
         0.00000E+00
         0.00000E+00
         0.00000E+00
         0.00000E+00
         0.00000E+00
         0.31592E-02
         0.59809E-03
         0.16904E-02
         0.48128E-02
         0.30544E-02
         0.25484E-02
         0.48361E-02
         0.40668E-02
         0.40717E-02
         0.24436E-02
         0.18325E-02
         0.36661E-02
         0.13335E-02
         0.66360E-03
         0.00000E+00
         0.47835E-03
         0.28387E-02
         0.90264E-03
         0.23393E-01
         0.24093E-01
         0.25448E-01
         0.25247E-01
         0.27050E-01
         0.29199E-01
         0.27835E-01
         0.24446E-01
         0.23745E-01
         0.25621E-01
         0.25114E-01
         0.24835E-01
         0.19902E-01
         0.18763E-01
         0.21012E-01
         0.22823E-01
         0.23818E-01
         0.26273E-01
         0.25000E-01
         0.25770E-01
         0.22851E-01
         0.21545E-01
         0.23068E-01
         0.22340E-01
         0.23130E-01
         0.22919E-01
         0.15737E-02
         0.00000E+00
         0.00000E+00
         0.00000E+00
         0.16603E-02
         0.18266E-03
         0.00000E+00
         0.15050E-02
         0.00000E+00
         0.13825E-02
         0.00000E+00
         0.59279E-02
         0.37963E-02
         0.17430E-03
         0.65395E-02
         0.31427E-03
         0.00000E+00
         0.00000E+00
         0.00000E+00
         0.00000E+00
         0.40075E-02
         0.35445E-02
         0.33809E-02
         0.00000E+00
         0.00000E+00
         0.00000E+00
         0.13805E-03
         0.00000E+00
         0.00000E+00
         0.00000E+00
         0.00000E+00
         0.00000E+00
         0.00000E+00
         0.00000E+00
         0.31623E-02
         0.59752E-03
         0.16897E-02
         0.48254E-02
         0.30686E-02
         0.25565E-02
         0.48416E-02
         0.40703E-02
         0.40732E-02
         0.24451E-02
         0.18331E-02
         0.36673E-02
         0.13346E-02
         0.66422E-03
         0.00000E+00
         0.47373E-03
         0.28357E-02
         0.89651E-03
         0.23383E-01
         0.24086E-01
         0.25448E-01
         0.25247E-01
         0.27045E-01
         0.29188E-01
         0.27821E-01
         0.24438E-01
         0.23738E-01
         0.25611E-01
         0.25110E-01
         0.24838E-01
         0.19902E-01
         0.18762E-01
         0.21016E-01
         0.22831E-01
         0.23827E-01
         0.26280E-01
         0.24998E-01
         0.25768E-01
         0.22849E-01
         0.21544E-01
         0.23059E-01
         0.22323E-01
         0.23116E-01
         0.22905E-01
         0.15765E-02
         0.00000E+00
         0.00000E+00
         0.00000E+00
         0.16584E-02
         0.18088E-03
         0.00000E+00
         0.15080E-02
         0.00000E+00
         0.13932E-02
         0.00000E+00
         0.59280E-02
         0.37993E-02
         0.16646E-03
         0.65495E-02
         0.31760E-03
         0.00000E+00
         0.00000E+00
         0.00000E+00
         0.00000E+00
         0.40087E-02
         0.35443E-02
         0.33815E-02
         0.00000E+00
         0.00000E+00
         0.00000E+00
         0.13834E-03
         0.00000E+00
         0.00000E+00
         0.00000E+00
         0.00000E+00
         0.00000E+00
         0.00000E+00
         0.00000E+00
         0.31656E-02
         0.59704E-03
         0.16890E-02
         0.48381E-02
         0.30828E-02
         0.25643E-02
         0.48469E-02
         0.40736E-02
         0.40746E-02
         0.24467E-02
         0.18336E-02
         0.36684E-02
         0.13357E-02
         0.66491E-03
         0.00000E+00
         0.46916E-03
         0.28330E-02
         0.89054E-03
         0.23373E-01
         0.24080E-01
         0.25448E-01
         0.25247E-01
         0.27040E-01
         0.29176E-01
         0.27807E-01
         0.24431E-01
         0.23731E-01
         0.25601E-01
         0.25105E-01
         0.24842E-01
         0.19902E-01
         0.18762E-01
         0.21019E-01
         0.22840E-01
         0.23836E-01
         0.26287E-01
         0.24997E-01
         0.25767E-01
         0.22847E-01
         0.21543E-01
         0.23049E-01
         0.22307E-01
         0.23101E-01
         0.22891E-01
         0.17888E-02
         0.23785E-04
         0.00000E+00
         0.00000E+00
         0.19414E-02
         0.52117E-03
         0.00000E+00
         0.17771E-02
         0.14329E-03
         0.16753E-02
         0.00000E+00
         0.61740E-02
         0.40492E-02
         0.60153E-03
         0.68060E-02
         0.56933E-03
         0.00000E+00
         0.00000E+00
         0.00000E+00
         0.00000E+00
         0.42173E-02
         0.37665E-02
         0.35875E-02
         0.00000E+00
         0.26061E-03
         0.00000E+00
         0.57284E-03
         0.00000E+00
         0.00000E+00
         0.37635E-03
         0.11083E-03
         0.00000E+00
         0.00000E+00
         0.00000E+00
         0.34443E-02
         0.94274E-03
         0.19693E-02
         0.51078E-02
         0.33870E-02
         0.28757E-02
         0.51002E-02
         0.43186E-02
         0.42961E-02
         0.26669E-02
         0.20938E-02
         0.39303E-02
         0.16427E-02
         0.97349E-03
         0.28280E-03
         0.79757E-03
         0.30959E-02
         0.11940E-02
         0.23655E-01
         0.24355E-01
         0.25732E-01
         0.25520E-01
         0.27317E-01
         0.29463E-01
         0.28098E-01
         0.24732E-01
         0.24039E-01
         0.25911E-01
         0.25409E-01
         0.25128E-01
         0.20154E-01
         0.18997E-01
         0.21254E-01
         0.23080E-01
         0.24079E-01
         0.26552E-01
         0.25285E-01
         0.26055E-01
         0.23109E-01
         0.21796E-01
         0.23304E-01
         0.22553E-01
         0.23344E-01
         0.23135E-01
         0.13093E-01
         0.12730E-01
         0.12466E-01
         0.10954E-01
         0.15101E-01
         0.13462E-01
         0.13542E-01
         0.14876E-01
         0.11847E-01
         0.14802E-01
         0.15210E-01
         0.20801E-01
         0.17756E-01
         0.16064E-01
         0.21910E-01
         0.11814E-01
         0.12160E-01
         0.10157E-01
         0.12762E-01
         0.13271E-01
         0.16596E-01
         0.16628E-01
         0.15581E-01
         0.12030E-01
         0.14270E-01
         0.11374E-01
         0.16004E-01
         0.15097E-01
         0.15268E-01
         0.14864E-01
         0.11713E-01
         0.11930E-01
         0.11043E-01
         0.11605E-01
         0.17343E-01
         0.14664E-01
         0.15262E-01
         0.20211E-01
         0.18639E-01
         0.18122E-01
         0.19888E-01
         0.18515E-01
         0.17646E-01
         0.14636E-01
         0.14818E-01
         0.17624E-01
         0.15116E-01
         0.13879E-01
         0.13268E-01
         0.14027E-01
         0.16499E-01
         0.14257E-01
         0.40989E-01
         0.41156E-01
         0.42876E-01
         0.42210E-01
         0.44476E-01
         0.47580E-01
         0.46838E-01
         0.43690E-01
         0.43101E-01
         0.45201E-01
         0.44178E-01
         0.42729E-01
         0.36248E-01
         0.34288E-01
         0.36273E-01
         0.38005E-01
         0.39073E-01
         0.42631E-01
         0.42503E-01
         0.43359E-01
         0.39429E-01
         0.37740E-01
         0.39659E-01
         0.38889E-01
         0.39405E-01
         0.39058E-01
  
SCALARS                            dam  double 1
LOOKUP_TABLE default
         0.00000E+00
         0.00000E+00
         0.00000E+00
         0.00000E+00
         0.00000E+00
         0.00000E+00
         0.00000E+00
         0.00000E+00
         0.00000E+00
         0.00000E+00
         0.00000E+00
         0.00000E+00
         0.00000E+00
         0.00000E+00
         0.00000E+00
         0.00000E+00
         0.00000E+00
         0.00000E+00
         0.00000E+00
         0.00000E+00
         0.00000E+00
         0.00000E+00
         0.00000E+00
         0.00000E+00
         0.00000E+00
         0.00000E+00
         0.00000E+00
         0.00000E+00
         0.00000E+00
         0.00000E+00
         0.00000E+00
         0.00000E+00
         0.00000E+00
         0.00000E+00
         0.00000E+00
         0.00000E+00
         0.00000E+00
         0.00000E+00
         0.00000E+00
         0.00000E+00
         0.00000E+00
         0.00000E+00
         0.00000E+00
         0.00000E+00
         0.00000E+00
         0.00000E+00
         0.00000E+00
         0.00000E+00
         0.00000E+00
         0.00000E+00
         0.00000E+00
         0.00000E+00
         0.00000E+00
         0.00000E+00
         0.00000E+00
         0.00000E+00
         0.00000E+00
         0.00000E+00
         0.00000E+00
         0.00000E+00
         0.00000E+00
         0.00000E+00
         0.00000E+00
         0.00000E+00
         0.00000E+00
         0.00000E+00
         0.00000E+00
         0.00000E+00
         0.00000E+00
         0.00000E+00
         0.00000E+00
         0.00000E+00
         0.00000E+00
         0.00000E+00
         0.00000E+00
         0.00000E+00
         0.00000E+00
         0.00000E+00
         0.00000E+00
         0.00000E+00
         0.00000E+00
         0.00000E+00
         0.00000E+00
         0.00000E+00
         0.00000E+00
         0.00000E+00
         0.00000E+00
         0.00000E+00
         0.00000E+00
         0.00000E+00
         0.00000E+00
         0.00000E+00
         0.00000E+00
         0.00000E+00
         0.00000E+00
         0.00000E+00
         0.00000E+00
         0.00000E+00
         0.00000E+00
         0.00000E+00
         0.00000E+00
         0.00000E+00
         0.00000E+00
         0.00000E+00
         0.00000E+00
         0.00000E+00
         0.00000E+00
         0.00000E+00
         0.00000E+00
         0.00000E+00
         0.00000E+00
         0.00000E+00
         0.00000E+00
         0.00000E+00
         0.00000E+00
         0.00000E+00
         0.00000E+00
         0.00000E+00
         0.00000E+00
         0.00000E+00
         0.00000E+00
         0.00000E+00
         0.00000E+00
         0.00000E+00
         0.00000E+00
         0.00000E+00
         0.00000E+00
         0.00000E+00
         0.00000E+00
         0.00000E+00
         0.00000E+00
         0.00000E+00
         0.00000E+00
         0.00000E+00
         0.00000E+00
         0.00000E+00
         0.00000E+00
         0.00000E+00
         0.00000E+00
         0.00000E+00
         0.00000E+00
         0.00000E+00
         0.00000E+00
         0.00000E+00
         0.00000E+00
         0.00000E+00
         0.00000E+00
         0.00000E+00
         0.00000E+00
         0.00000E+00
         0.00000E+00
         0.00000E+00
         0.00000E+00
         0.00000E+00
         0.00000E+00
         0.00000E+00
         0.00000E+00
         0.00000E+00
         0.00000E+00
         0.00000E+00
         0.00000E+00
         0.00000E+00
         0.00000E+00
         0.00000E+00
         0.00000E+00
         0.00000E+00
         0.00000E+00
         0.00000E+00
         0.00000E+00
         0.00000E+00
         0.00000E+00
         0.00000E+00
         0.00000E+00
         0.00000E+00
         0.00000E+00
         0.00000E+00
         0.00000E+00
         0.00000E+00
         0.00000E+00
         0.00000E+00
         0.00000E+00
         0.00000E+00
         0.00000E+00
         0.00000E+00
         0.00000E+00
         0.00000E+00
         0.00000E+00
         0.00000E+00
         0.00000E+00
         0.00000E+00
         0.00000E+00
         0.00000E+00
         0.00000E+00
         0.00000E+00
         0.00000E+00
         0.00000E+00
         0.00000E+00
         0.00000E+00
         0.00000E+00
         0.00000E+00
         0.00000E+00
         0.00000E+00
         0.00000E+00
         0.00000E+00
         0.00000E+00
         0.00000E+00
         0.00000E+00
         0.00000E+00
         0.00000E+00
         0.00000E+00
         0.00000E+00
         0.00000E+00
         0.00000E+00
         0.00000E+00
         0.00000E+00
         0.00000E+00
         0.00000E+00
         0.00000E+00
         0.00000E+00
         0.00000E+00
         0.00000E+00
         0.00000E+00
         0.00000E+00
         0.00000E+00
         0.00000E+00
         0.00000E+00
         0.00000E+00
         0.00000E+00
         0.00000E+00
         0.00000E+00
         0.00000E+00
         0.00000E+00
         0.00000E+00
         0.00000E+00
         0.00000E+00
         0.00000E+00
         0.00000E+00
         0.00000E+00
         0.00000E+00
         0.00000E+00
         0.00000E+00
         0.00000E+00
         0.00000E+00
         0.00000E+00
         0.00000E+00
         0.00000E+00
         0.00000E+00
         0.00000E+00
         0.00000E+00
         0.00000E+00
         0.00000E+00
         0.00000E+00
         0.00000E+00
         0.00000E+00
         0.00000E+00
         0.00000E+00
         0.00000E+00
         0.00000E+00
         0.00000E+00
         0.00000E+00
         0.00000E+00
         0.00000E+00
         0.00000E+00
         0.00000E+00
         0.00000E+00
         0.00000E+00
         0.00000E+00
         0.00000E+00
         0.00000E+00
         0.00000E+00
         0.00000E+00
         0.00000E+00
         0.00000E+00
         0.00000E+00
         0.00000E+00
         0.00000E+00
         0.00000E+00
         0.00000E+00
         0.00000E+00
         0.00000E+00
         0.00000E+00
         0.00000E+00
         0.00000E+00
         0.00000E+00
         0.00000E+00
         0.00000E+00
         0.00000E+00
         0.00000E+00
         0.00000E+00
         0.00000E+00
         0.00000E+00
         0.00000E+00
         0.00000E+00
         0.00000E+00
         0.00000E+00
         0.00000E+00
         0.00000E+00
         0.00000E+00
         0.00000E+00
         0.00000E+00
         0.00000E+00
         0.00000E+00
         0.00000E+00
         0.00000E+00
         0.00000E+00
         0.00000E+00
         0.00000E+00
         0.00000E+00
         0.00000E+00
         0.00000E+00
         0.00000E+00
         0.00000E+00
         0.00000E+00
         0.00000E+00
         0.00000E+00
         0.00000E+00
         0.00000E+00
         0.00000E+00
         0.00000E+00
         0.00000E+00
         0.00000E+00
         0.00000E+00
         0.00000E+00
         0.00000E+00
         0.00000E+00
         0.00000E+00
         0.00000E+00
         0.00000E+00
         0.00000E+00
         0.00000E+00
         0.00000E+00
         0.00000E+00
         0.00000E+00
         0.00000E+00
         0.00000E+00
         0.00000E+00
         0.00000E+00
         0.00000E+00
         0.00000E+00
         0.00000E+00
         0.00000E+00
         0.00000E+00
         0.00000E+00
         0.00000E+00
         0.00000E+00
         0.00000E+00
         0.00000E+00
         0.00000E+00
         0.00000E+00
         0.00000E+00
         0.00000E+00
         0.00000E+00
         0.00000E+00
         0.00000E+00
         0.00000E+00
         0.00000E+00
         0.00000E+00
         0.00000E+00
         0.00000E+00
         0.00000E+00
         0.00000E+00
         0.00000E+00
         0.00000E+00
         0.00000E+00
         0.00000E+00
         0.00000E+00
         0.00000E+00
         0.00000E+00
         0.00000E+00
         0.00000E+00
         0.00000E+00
         0.00000E+00
         0.00000E+00
         0.00000E+00
         0.00000E+00
         0.00000E+00
         0.00000E+00
         0.00000E+00
         0.00000E+00
         0.00000E+00
         0.00000E+00
         0.00000E+00
         0.00000E+00
         0.00000E+00
         0.00000E+00
         0.00000E+00
         0.00000E+00
         0.00000E+00
         0.00000E+00
         0.00000E+00
         0.00000E+00
         0.00000E+00
         0.00000E+00
         0.00000E+00
         0.00000E+00
         0.00000E+00
         0.00000E+00
         0.00000E+00
         0.00000E+00
         0.00000E+00
         0.00000E+00
         0.00000E+00
         0.00000E+00
         0.00000E+00
         0.00000E+00
         0.00000E+00
         0.00000E+00
         0.00000E+00
         0.00000E+00
         0.00000E+00
         0.00000E+00
         0.00000E+00
         0.00000E+00
         0.00000E+00
         0.00000E+00
         0.00000E+00
         0.00000E+00
         0.00000E+00
         0.00000E+00
         0.00000E+00
         0.00000E+00
         0.00000E+00
         0.00000E+00
         0.00000E+00
         0.00000E+00
         0.00000E+00
         0.00000E+00
         0.00000E+00
         0.00000E+00
         0.00000E+00
         0.00000E+00
         0.00000E+00
         0.00000E+00
         0.00000E+00
         0.00000E+00
         0.00000E+00
         0.00000E+00
         0.00000E+00
         0.00000E+00
         0.00000E+00
         0.00000E+00
         0.00000E+00
         0.00000E+00
         0.00000E+00
         0.00000E+00
         0.00000E+00
         0.00000E+00
         0.00000E+00
         0.00000E+00
         0.00000E+00
         0.00000E+00
         0.00000E+00
         0.00000E+00
         0.00000E+00
         0.00000E+00
         0.00000E+00
         0.00000E+00
         0.00000E+00
         0.00000E+00
         0.00000E+00
         0.00000E+00
         0.00000E+00
         0.00000E+00
         0.00000E+00
         0.00000E+00
         0.00000E+00
         0.00000E+00
         0.00000E+00
         0.00000E+00
         0.00000E+00
         0.00000E+00
         0.00000E+00
         0.00000E+00
         0.00000E+00
         0.00000E+00
         0.00000E+00
         0.00000E+00
         0.00000E+00
         0.00000E+00
         0.00000E+00
         0.00000E+00
         0.00000E+00
         0.00000E+00
         0.00000E+00
         0.00000E+00
         0.00000E+00
         0.00000E+00
         0.00000E+00
         0.00000E+00
         0.00000E+00
         0.00000E+00
         0.00000E+00
         0.00000E+00
         0.00000E+00
         0.00000E+00
         0.00000E+00
         0.00000E+00
         0.00000E+00
         0.00000E+00
         0.00000E+00
         0.00000E+00
         0.00000E+00
         0.00000E+00
         0.00000E+00
         0.00000E+00
         0.00000E+00
         0.00000E+00
         0.00000E+00
         0.00000E+00
         0.00000E+00
         0.00000E+00
         0.00000E+00
         0.00000E+00
         0.00000E+00
         0.00000E+00
         0.00000E+00
         0.00000E+00
         0.00000E+00
         0.00000E+00
         0.00000E+00
         0.00000E+00
         0.00000E+00
         0.00000E+00
         0.00000E+00
         0.00000E+00
         0.00000E+00
         0.00000E+00
         0.00000E+00
         0.00000E+00
         0.00000E+00
         0.00000E+00
         0.00000E+00
         0.00000E+00
         0.00000E+00
         0.00000E+00
         0.00000E+00
         0.00000E+00
         0.00000E+00
         0.00000E+00
         0.00000E+00
         0.00000E+00
         0.00000E+00
         0.00000E+00
         0.00000E+00
         0.00000E+00
         0.00000E+00
         0.00000E+00
         0.00000E+00
         0.00000E+00
         0.00000E+00
         0.00000E+00
         0.00000E+00
         0.00000E+00
         0.00000E+00
         0.00000E+00
         0.00000E+00
         0.00000E+00
         0.00000E+00
         0.00000E+00
         0.00000E+00
         0.00000E+00
         0.00000E+00
         0.00000E+00
         0.00000E+00
         0.00000E+00
         0.00000E+00
         0.00000E+00
         0.00000E+00
         0.00000E+00
         0.00000E+00
         0.00000E+00
         0.00000E+00
         0.00000E+00
         0.00000E+00
         0.00000E+00
         0.00000E+00
         0.00000E+00
         0.00000E+00
         0.00000E+00
         0.00000E+00
         0.00000E+00
         0.00000E+00
         0.00000E+00
         0.00000E+00
         0.00000E+00
         0.00000E+00
         0.00000E+00
         0.00000E+00
         0.00000E+00
         0.00000E+00
         0.00000E+00
         0.00000E+00
         0.00000E+00
         0.00000E+00
         0.00000E+00
         0.00000E+00
         0.00000E+00
         0.00000E+00
         0.00000E+00
         0.00000E+00
         0.00000E+00
         0.00000E+00
         0.00000E+00
         0.00000E+00
         0.00000E+00
         0.00000E+00
         0.00000E+00
         0.00000E+00
         0.00000E+00
         0.00000E+00
         0.00000E+00
         0.00000E+00
         0.00000E+00
         0.00000E+00
         0.00000E+00
         0.00000E+00
         0.00000E+00
         0.00000E+00
         0.00000E+00
         0.00000E+00
         0.00000E+00
         0.00000E+00
         0.00000E+00
         0.00000E+00
         0.00000E+00
         0.00000E+00
         0.00000E+00
         0.00000E+00
         0.00000E+00
         0.00000E+00
         0.00000E+00
         0.00000E+00
         0.00000E+00
         0.00000E+00
         0.00000E+00
         0.00000E+00
         0.00000E+00
         0.00000E+00
         0.00000E+00
         0.00000E+00
         0.00000E+00
         0.00000E+00
         0.00000E+00
         0.00000E+00
         0.00000E+00
         0.00000E+00
         0.00000E+00
         0.00000E+00
         0.00000E+00
         0.00000E+00
         0.00000E+00
         0.00000E+00
         0.00000E+00
         0.00000E+00
         0.00000E+00
         0.00000E+00
         0.00000E+00
         0.00000E+00
         0.00000E+00
         0.00000E+00
         0.00000E+00
         0.00000E+00
         0.00000E+00
         0.00000E+00
         0.00000E+00
         0.00000E+00
         0.00000E+00
         0.00000E+00
         0.00000E+00
         0.00000E+00
         0.00000E+00
         0.00000E+00
         0.00000E+00
         0.00000E+00
         0.00000E+00
         0.00000E+00
         0.00000E+00
         0.00000E+00
         0.00000E+00
         0.00000E+00
         0.00000E+00
         0.00000E+00
         0.00000E+00
         0.00000E+00
         0.00000E+00
         0.00000E+00
         0.00000E+00
         0.00000E+00
         0.00000E+00
         0.00000E+00
         0.00000E+00
         0.00000E+00
         0.00000E+00
         0.00000E+00
         0.00000E+00
         0.00000E+00
         0.00000E+00
         0.00000E+00
         0.00000E+00
         0.00000E+00
         0.00000E+00
         0.00000E+00
         0.00000E+00
         0.00000E+00
         0.00000E+00
         0.00000E+00
         0.00000E+00
         0.00000E+00
         0.00000E+00
         0.00000E+00
         0.00000E+00
         0.00000E+00
         0.00000E+00
         0.00000E+00
         0.00000E+00
         0.00000E+00
         0.00000E+00
         0.00000E+00
         0.00000E+00
         0.00000E+00
         0.00000E+00
         0.00000E+00
         0.00000E+00
         0.00000E+00
         0.00000E+00
         0.00000E+00
         0.00000E+00
         0.00000E+00
         0.00000E+00
         0.00000E+00
         0.00000E+00
         0.00000E+00
         0.00000E+00
         0.00000E+00
         0.00000E+00
         0.00000E+00
         0.00000E+00
         0.00000E+00
         0.00000E+00
         0.00000E+00
         0.00000E+00
         0.00000E+00
         0.00000E+00
         0.00000E+00
         0.00000E+00
         0.00000E+00
         0.00000E+00
         0.00000E+00
         0.00000E+00
         0.00000E+00
         0.00000E+00
         0.00000E+00
         0.00000E+00
         0.00000E+00
         0.00000E+00
         0.00000E+00
         0.00000E+00
         0.00000E+00
         0.00000E+00
         0.00000E+00
         0.00000E+00
         0.00000E+00
         0.00000E+00
         0.00000E+00
         0.00000E+00
         0.00000E+00
         0.00000E+00
         0.00000E+00
         0.00000E+00
         0.00000E+00
         0.00000E+00
         0.00000E+00
         0.00000E+00
         0.00000E+00
         0.00000E+00
         0.00000E+00
         0.00000E+00
         0.00000E+00
         0.00000E+00
         0.00000E+00
         0.00000E+00
         0.00000E+00
         0.00000E+00
         0.00000E+00
         0.00000E+00
         0.00000E+00
         0.00000E+00
         0.00000E+00
         0.00000E+00
         0.00000E+00
         0.00000E+00
         0.00000E+00
         0.00000E+00
         0.00000E+00
         0.00000E+00
         0.00000E+00
         0.00000E+00
         0.00000E+00
         0.00000E+00
         0.00000E+00
         0.00000E+00
         0.00000E+00
         0.00000E+00
         0.00000E+00
         0.00000E+00
         0.00000E+00
         0.00000E+00
         0.00000E+00
         0.00000E+00
         0.00000E+00
         0.00000E+00
         0.00000E+00
         0.00000E+00
         0.00000E+00
         0.00000E+00
         0.00000E+00
         0.00000E+00
         0.00000E+00
         0.00000E+00
         0.00000E+00
         0.00000E+00
         0.00000E+00
         0.00000E+00
         0.00000E+00
         0.00000E+00
         0.00000E+00
         0.00000E+00
         0.00000E+00
         0.00000E+00
         0.00000E+00
         0.00000E+00
         0.00000E+00
         0.00000E+00
         0.00000E+00
         0.00000E+00
         0.00000E+00
         0.00000E+00
         0.00000E+00
         0.00000E+00
         0.00000E+00
         0.00000E+00
         0.00000E+00
         0.00000E+00
         0.00000E+00
         0.00000E+00
         0.00000E+00
         0.00000E+00
         0.00000E+00
         0.00000E+00
         0.00000E+00
         0.00000E+00
         0.00000E+00
         0.00000E+00
         0.00000E+00
         0.00000E+00
         0.00000E+00
         0.00000E+00
         0.00000E+00
         0.00000E+00
         0.00000E+00
         0.00000E+00
         0.00000E+00
         0.00000E+00
         0.00000E+00
         0.00000E+00
         0.00000E+00
         0.00000E+00
         0.00000E+00
         0.00000E+00
         0.00000E+00
         0.00000E+00
         0.00000E+00
         0.00000E+00
         0.00000E+00
         0.00000E+00
         0.00000E+00
         0.00000E+00
         0.00000E+00
         0.00000E+00
         0.00000E+00
         0.00000E+00
         0.00000E+00
         0.00000E+00
         0.00000E+00
         0.00000E+00
         0.00000E+00
         0.00000E+00
         0.00000E+00
         0.00000E+00
         0.00000E+00
         0.00000E+00
         0.00000E+00
         0.00000E+00
         0.00000E+00
         0.00000E+00
         0.00000E+00
         0.00000E+00
         0.00000E+00
         0.00000E+00
         0.00000E+00
         0.00000E+00
         0.00000E+00
         0.00000E+00
         0.00000E+00
         0.00000E+00
         0.00000E+00
         0.00000E+00
         0.00000E+00
         0.00000E+00
         0.00000E+00
         0.00000E+00
         0.00000E+00
         0.00000E+00
         0.00000E+00
         0.00000E+00
         0.00000E+00
         0.00000E+00
         0.00000E+00
         0.00000E+00
         0.00000E+00
         0.00000E+00
         0.00000E+00
         0.00000E+00
         0.00000E+00
         0.00000E+00
         0.00000E+00
         0.00000E+00
         0.00000E+00
         0.00000E+00
         0.00000E+00
         0.00000E+00
         0.00000E+00
         0.00000E+00
         0.00000E+00
         0.00000E+00
         0.00000E+00
         0.00000E+00
         0.00000E+00
         0.00000E+00
         0.00000E+00
         0.00000E+00
         0.00000E+00
         0.00000E+00
         0.00000E+00
         0.00000E+00
         0.00000E+00
         0.00000E+00
         0.00000E+00
         0.00000E+00
         0.00000E+00
         0.00000E+00
         0.00000E+00
         0.00000E+00
         0.00000E+00
         0.00000E+00
         0.00000E+00
         0.00000E+00
         0.00000E+00
         0.00000E+00
         0.00000E+00
         0.00000E+00
         0.00000E+00
         0.00000E+00
         0.00000E+00
         0.00000E+00
         0.00000E+00
         0.00000E+00
         0.00000E+00
         0.00000E+00
         0.00000E+00
         0.00000E+00
         0.00000E+00
         0.00000E+00
         0.00000E+00
         0.00000E+00
         0.00000E+00
         0.00000E+00
         0.00000E+00
         0.00000E+00
         0.00000E+00
         0.00000E+00
         0.00000E+00
         0.00000E+00
         0.00000E+00
         0.00000E+00
         0.00000E+00
         0.00000E+00
         0.00000E+00
         0.00000E+00
         0.00000E+00
         0.00000E+00
         0.00000E+00
         0.00000E+00
         0.00000E+00
         0.00000E+00
         0.00000E+00
         0.00000E+00
         0.00000E+00
         0.00000E+00
         0.00000E+00
         0.00000E+00
         0.00000E+00
         0.00000E+00
         0.00000E+00
         0.00000E+00
         0.00000E+00
         0.00000E+00
         0.00000E+00
         0.00000E+00
         0.00000E+00
         0.00000E+00
         0.00000E+00
         0.00000E+00
         0.00000E+00
         0.00000E+00
         0.00000E+00
         0.00000E+00
         0.00000E+00
         0.00000E+00
         0.00000E+00
         0.00000E+00
         0.00000E+00
         0.00000E+00
         0.00000E+00
         0.00000E+00
         0.00000E+00
         0.00000E+00
         0.00000E+00
         0.00000E+00
         0.00000E+00
         0.00000E+00
         0.00000E+00
         0.00000E+00
         0.00000E+00
         0.00000E+00
         0.00000E+00
         0.00000E+00
         0.00000E+00
         0.00000E+00
         0.00000E+00
         0.00000E+00
         0.00000E+00
         0.00000E+00
         0.00000E+00
         0.00000E+00
         0.00000E+00
         0.00000E+00
         0.00000E+00
         0.00000E+00
         0.00000E+00
         0.00000E+00
         0.00000E+00
         0.00000E+00
         0.00000E+00
         0.00000E+00
         0.00000E+00
         0.00000E+00
         0.00000E+00
         0.00000E+00
         0.00000E+00
         0.00000E+00
         0.00000E+00
         0.00000E+00
         0.00000E+00
         0.00000E+00
         0.00000E+00
         0.00000E+00
         0.00000E+00
         0.00000E+00
         0.00000E+00
         0.00000E+00
         0.00000E+00
         0.00000E+00
         0.00000E+00
         0.00000E+00
         0.00000E+00
         0.00000E+00
         0.00000E+00
         0.00000E+00
         0.00000E+00
         0.00000E+00
         0.00000E+00
         0.00000E+00
         0.00000E+00
         0.00000E+00
         0.00000E+00
         0.00000E+00
         0.00000E+00
         0.00000E+00
         0.00000E+00
         0.00000E+00
         0.00000E+00
         0.00000E+00
         0.00000E+00
         0.00000E+00
         0.00000E+00
         0.00000E+00
         0.00000E+00
         0.00000E+00
         0.00000E+00
         0.00000E+00
         0.00000E+00
         0.00000E+00
         0.00000E+00
         0.00000E+00
         0.00000E+00
         0.00000E+00
         0.00000E+00
         0.00000E+00
         0.00000E+00
         0.00000E+00
         0.00000E+00
         0.00000E+00
         0.00000E+00
         0.00000E+00
         0.00000E+00
         0.00000E+00
         0.00000E+00
         0.00000E+00
         0.00000E+00
         0.00000E+00
         0.00000E+00
         0.00000E+00
         0.00000E+00
         0.00000E+00
         0.00000E+00
         0.00000E+00
         0.00000E+00
         0.00000E+00
         0.00000E+00
         0.00000E+00
         0.00000E+00
         0.00000E+00
         0.00000E+00
         0.00000E+00
         0.00000E+00
         0.00000E+00
         0.00000E+00
         0.00000E+00
         0.00000E+00
         0.00000E+00
         0.00000E+00
         0.00000E+00
         0.00000E+00
         0.00000E+00
         0.00000E+00
         0.00000E+00
         0.00000E+00
         0.00000E+00
         0.00000E+00
         0.00000E+00
         0.00000E+00
         0.00000E+00
         0.00000E+00
         0.00000E+00
         0.00000E+00
         0.00000E+00
         0.00000E+00
         0.00000E+00
         0.00000E+00
         0.00000E+00
         0.00000E+00
         0.00000E+00
         0.00000E+00
         0.00000E+00
         0.00000E+00
         0.00000E+00
         0.00000E+00
         0.00000E+00
         0.00000E+00
         0.00000E+00
         0.00000E+00
         0.00000E+00
         0.00000E+00
         0.00000E+00
         0.00000E+00
         0.00000E+00
         0.00000E+00
         0.00000E+00
         0.00000E+00
         0.00000E+00
         0.00000E+00
         0.00000E+00
         0.00000E+00
         0.00000E+00
         0.00000E+00
         0.00000E+00
         0.00000E+00
         0.00000E+00
         0.00000E+00
         0.00000E+00
         0.00000E+00
         0.00000E+00
         0.00000E+00
         0.00000E+00
         0.00000E+00
         0.00000E+00
         0.00000E+00
         0.00000E+00
         0.00000E+00
         0.00000E+00
         0.00000E+00
         0.00000E+00
         0.00000E+00
         0.00000E+00
         0.00000E+00
         0.00000E+00
         0.00000E+00
         0.00000E+00
         0.00000E+00
         0.00000E+00
         0.00000E+00
         0.00000E+00
         0.00000E+00
         0.00000E+00
         0.00000E+00
         0.00000E+00
         0.00000E+00
         0.00000E+00
         0.00000E+00
         0.00000E+00
         0.00000E+00
         0.00000E+00
         0.00000E+00
         0.00000E+00
         0.00000E+00
         0.00000E+00
         0.00000E+00
         0.00000E+00
         0.00000E+00
         0.00000E+00
         0.00000E+00
         0.00000E+00
         0.00000E+00
         0.00000E+00
         0.00000E+00
         0.00000E+00
         0.00000E+00
         0.00000E+00
         0.00000E+00
         0.00000E+00
         0.00000E+00
         0.00000E+00
         0.00000E+00
         0.00000E+00
         0.00000E+00
         0.00000E+00
         0.00000E+00
         0.00000E+00
         0.00000E+00
         0.00000E+00
         0.00000E+00
         0.00000E+00
         0.00000E+00
         0.00000E+00
         0.00000E+00
         0.00000E+00
         0.00000E+00
         0.00000E+00
         0.00000E+00
         0.00000E+00
         0.00000E+00
         0.00000E+00
         0.00000E+00
         0.00000E+00
         0.00000E+00
         0.00000E+00
         0.00000E+00
         0.00000E+00
         0.00000E+00
         0.00000E+00
         0.00000E+00
         0.00000E+00
         0.00000E+00
         0.00000E+00
         0.00000E+00
         0.00000E+00
         0.00000E+00
         0.00000E+00
         0.00000E+00
         0.00000E+00
         0.00000E+00
         0.00000E+00
         0.00000E+00
         0.00000E+00
         0.00000E+00
         0.00000E+00
         0.00000E+00
         0.00000E+00
         0.00000E+00
         0.00000E+00
         0.00000E+00
         0.00000E+00
         0.00000E+00
         0.00000E+00
         0.00000E+00
         0.00000E+00
         0.00000E+00
         0.00000E+00
         0.00000E+00
         0.00000E+00
         0.00000E+00
         0.00000E+00
         0.00000E+00
         0.00000E+00
         0.00000E+00
         0.00000E+00
         0.00000E+00
         0.00000E+00
         0.00000E+00
         0.00000E+00
         0.00000E+00
         0.00000E+00
         0.00000E+00
         0.00000E+00
         0.00000E+00
         0.00000E+00
         0.00000E+00
         0.00000E+00
         0.00000E+00
         0.00000E+00
         0.00000E+00
         0.00000E+00
         0.00000E+00
         0.00000E+00
         0.00000E+00
         0.00000E+00
         0.00000E+00
         0.00000E+00
         0.00000E+00
         0.00000E+00
         0.00000E+00
         0.00000E+00
         0.00000E+00
         0.00000E+00
         0.00000E+00
         0.00000E+00
         0.00000E+00
         0.00000E+00
         0.00000E+00
         0.00000E+00
         0.00000E+00
         0.00000E+00
         0.00000E+00
         0.00000E+00
         0.00000E+00
         0.00000E+00
         0.00000E+00
         0.00000E+00
         0.00000E+00
         0.00000E+00
         0.00000E+00
         0.00000E+00
         0.00000E+00
         0.00000E+00
         0.00000E+00
         0.00000E+00
         0.00000E+00
         0.00000E+00
         0.00000E+00
         0.00000E+00
         0.00000E+00
         0.00000E+00
         0.00000E+00
         0.00000E+00
         0.00000E+00
         0.00000E+00
         0.00000E+00
         0.00000E+00
         0.00000E+00
         0.00000E+00
         0.00000E+00
         0.00000E+00
         0.00000E+00
         0.00000E+00
         0.00000E+00
         0.00000E+00
         0.00000E+00
         0.00000E+00
         0.00000E+00
         0.00000E+00
         0.00000E+00
         0.00000E+00
         0.00000E+00
         0.00000E+00
         0.00000E+00
         0.00000E+00
         0.00000E+00
         0.00000E+00
         0.00000E+00
         0.00000E+00
         0.00000E+00
         0.00000E+00
         0.00000E+00
         0.00000E+00
         0.00000E+00
         0.00000E+00
         0.00000E+00
         0.00000E+00
         0.00000E+00
         0.00000E+00
         0.00000E+00
         0.00000E+00
         0.00000E+00
         0.00000E+00
         0.00000E+00
         0.00000E+00
         0.00000E+00
         0.00000E+00
         0.00000E+00
         0.00000E+00
         0.00000E+00
         0.00000E+00
         0.00000E+00
         0.00000E+00
         0.00000E+00
         0.00000E+00
         0.00000E+00
         0.00000E+00
         0.00000E+00
         0.00000E+00
         0.00000E+00
         0.00000E+00
         0.00000E+00
         0.00000E+00
         0.00000E+00
         0.00000E+00
         0.00000E+00
         0.00000E+00
         0.00000E+00
         0.00000E+00
         0.00000E+00
         0.00000E+00
         0.00000E+00
         0.00000E+00
         0.00000E+00
         0.00000E+00
         0.00000E+00
         0.00000E+00
         0.00000E+00
         0.00000E+00
         0.00000E+00
         0.00000E+00
         0.00000E+00
         0.00000E+00
         0.00000E+00
         0.00000E+00
         0.00000E+00
         0.00000E+00
         0.00000E+00
         0.00000E+00
         0.00000E+00
         0.00000E+00
         0.00000E+00
         0.00000E+00
         0.00000E+00
         0.00000E+00
         0.00000E+00
         0.00000E+00
         0.00000E+00
         0.00000E+00
         0.00000E+00
         0.00000E+00
         0.00000E+00
         0.00000E+00
         0.00000E+00
         0.00000E+00
         0.00000E+00
         0.00000E+00
         0.00000E+00
         0.00000E+00
         0.00000E+00
         0.00000E+00
         0.00000E+00
         0.00000E+00
         0.00000E+00
         0.00000E+00
         0.00000E+00
         0.00000E+00
         0.00000E+00
         0.00000E+00
         0.00000E+00
         0.00000E+00
         0.00000E+00
         0.00000E+00
         0.00000E+00
         0.00000E+00
         0.00000E+00
         0.00000E+00
         0.00000E+00
         0.00000E+00
         0.00000E+00
         0.00000E+00
         0.00000E+00
         0.00000E+00
         0.00000E+00
         0.00000E+00
         0.00000E+00
         0.00000E+00
         0.00000E+00
         0.00000E+00
         0.00000E+00
         0.00000E+00
         0.00000E+00
         0.00000E+00
         0.00000E+00
         0.00000E+00
         0.00000E+00
         0.00000E+00
         0.00000E+00
         0.00000E+00
         0.00000E+00
         0.00000E+00
         0.00000E+00
         0.00000E+00
         0.00000E+00
         0.00000E+00
         0.00000E+00
         0.00000E+00
         0.00000E+00
         0.00000E+00
         0.00000E+00
         0.00000E+00
         0.00000E+00
         0.00000E+00
         0.00000E+00
         0.00000E+00
         0.00000E+00
         0.00000E+00
         0.00000E+00
         0.00000E+00
         0.00000E+00
         0.00000E+00
         0.00000E+00
         0.00000E+00
         0.00000E+00
         0.00000E+00
         0.00000E+00
         0.00000E+00
         0.00000E+00
         0.00000E+00
         0.00000E+00
         0.00000E+00
         0.00000E+00
         0.00000E+00
         0.00000E+00
         0.00000E+00
         0.00000E+00
         0.00000E+00
         0.00000E+00
         0.00000E+00
         0.00000E+00
         0.00000E+00
         0.00000E+00
         0.00000E+00
         0.00000E+00
         0.00000E+00
         0.00000E+00
         0.00000E+00
         0.00000E+00
         0.00000E+00
         0.00000E+00
         0.00000E+00
         0.00000E+00
         0.00000E+00
         0.00000E+00
         0.00000E+00
         0.00000E+00
         0.00000E+00
         0.00000E+00
         0.00000E+00
         0.00000E+00
         0.00000E+00
         0.00000E+00
         0.00000E+00
         0.00000E+00
         0.00000E+00
         0.00000E+00
         0.00000E+00
         0.00000E+00
         0.00000E+00
         0.00000E+00
         0.00000E+00
         0.00000E+00
         0.00000E+00
         0.00000E+00
         0.00000E+00
         0.00000E+00
         0.00000E+00
         0.00000E+00
         0.00000E+00
         0.00000E+00
         0.00000E+00
         0.00000E+00
         0.00000E+00
         0.00000E+00
         0.00000E+00
         0.00000E+00
         0.00000E+00
         0.00000E+00
         0.00000E+00
         0.00000E+00
         0.00000E+00
         0.00000E+00
         0.00000E+00
         0.00000E+00
         0.00000E+00
         0.00000E+00
         0.00000E+00
         0.00000E+00
         0.00000E+00
         0.00000E+00
         0.00000E+00
         0.00000E+00
         0.00000E+00
         0.00000E+00
         0.00000E+00
         0.00000E+00
         0.00000E+00
         0.00000E+00
         0.00000E+00
         0.00000E+00
         0.00000E+00
         0.00000E+00
         0.00000E+00
         0.00000E+00
         0.00000E+00
         0.00000E+00
         0.00000E+00
         0.00000E+00
         0.00000E+00
         0.00000E+00
         0.00000E+00
         0.00000E+00
         0.00000E+00
         0.00000E+00
         0.00000E+00
         0.00000E+00
         0.00000E+00
         0.00000E+00
         0.00000E+00
         0.00000E+00
         0.00000E+00
         0.00000E+00
         0.00000E+00
         0.00000E+00
         0.00000E+00
         0.00000E+00
         0.00000E+00
         0.00000E+00
         0.00000E+00
         0.00000E+00
         0.00000E+00
         0.00000E+00
         0.00000E+00
         0.00000E+00
         0.00000E+00
         0.00000E+00
         0.00000E+00
         0.00000E+00
         0.00000E+00
         0.00000E+00
         0.00000E+00
         0.00000E+00
         0.00000E+00
         0.00000E+00
         0.00000E+00
         0.00000E+00
         0.00000E+00
         0.00000E+00
         0.00000E+00
         0.00000E+00
         0.00000E+00
         0.00000E+00
         0.00000E+00
         0.00000E+00
         0.00000E+00
         0.00000E+00
         0.00000E+00
         0.00000E+00
         0.00000E+00
         0.00000E+00
         0.00000E+00
         0.00000E+00
         0.00000E+00
         0.00000E+00
         0.00000E+00
         0.00000E+00
         0.00000E+00
         0.00000E+00
         0.00000E+00
         0.00000E+00
         0.00000E+00
         0.00000E+00
         0.00000E+00
         0.00000E+00
         0.00000E+00
         0.00000E+00
         0.00000E+00
         0.00000E+00
         0.00000E+00
         0.00000E+00
         0.00000E+00
         0.00000E+00
         0.00000E+00
         0.00000E+00
         0.00000E+00
         0.00000E+00
         0.00000E+00
         0.00000E+00
         0.00000E+00
         0.00000E+00
         0.00000E+00
         0.00000E+00
         0.00000E+00
         0.00000E+00
         0.00000E+00
         0.00000E+00
         0.00000E+00
         0.00000E+00
         0.00000E+00
         0.00000E+00
         0.00000E+00
         0.00000E+00
         0.00000E+00
         0.00000E+00
         0.00000E+00
         0.00000E+00
         0.00000E+00
         0.00000E+00
         0.00000E+00
         0.00000E+00
         0.00000E+00
         0.00000E+00
         0.00000E+00
         0.00000E+00
         0.00000E+00
         0.00000E+00
         0.00000E+00
         0.00000E+00
         0.00000E+00
         0.00000E+00
         0.00000E+00
         0.00000E+00
         0.00000E+00
         0.00000E+00
         0.00000E+00
         0.00000E+00
         0.00000E+00
         0.00000E+00
         0.00000E+00
         0.00000E+00
         0.00000E+00
         0.00000E+00
         0.00000E+00
         0.00000E+00
         0.00000E+00
         0.00000E+00
         0.00000E+00
         0.00000E+00
         0.00000E+00
         0.00000E+00
         0.00000E+00
         0.00000E+00
         0.00000E+00
         0.00000E+00
         0.00000E+00
         0.00000E+00
         0.00000E+00
         0.00000E+00
         0.00000E+00
         0.00000E+00
         0.00000E+00
         0.00000E+00
         0.00000E+00
         0.00000E+00
         0.00000E+00
         0.00000E+00
         0.00000E+00
         0.00000E+00
         0.00000E+00
         0.00000E+00
         0.00000E+00
         0.00000E+00
         0.00000E+00
         0.00000E+00
         0.00000E+00
         0.00000E+00
         0.00000E+00
         0.00000E+00
         0.00000E+00
         0.00000E+00
         0.00000E+00
         0.00000E+00
         0.00000E+00
         0.00000E+00
         0.00000E+00
         0.00000E+00
         0.00000E+00
         0.00000E+00
         0.00000E+00
         0.00000E+00
         0.00000E+00
         0.00000E+00
         0.00000E+00
         0.00000E+00
         0.00000E+00
         0.00000E+00
         0.00000E+00
         0.00000E+00
         0.00000E+00
         0.00000E+00
         0.00000E+00
         0.00000E+00
         0.00000E+00
         0.00000E+00
         0.00000E+00
         0.00000E+00
         0.00000E+00
         0.00000E+00
         0.00000E+00
         0.00000E+00
         0.00000E+00
         0.00000E+00
         0.00000E+00
         0.00000E+00
         0.00000E+00
         0.00000E+00
         0.00000E+00
         0.00000E+00
         0.00000E+00
         0.00000E+00
         0.00000E+00
         0.00000E+00
         0.00000E+00
         0.00000E+00
         0.00000E+00
         0.00000E+00
         0.00000E+00
         0.00000E+00
         0.00000E+00
         0.00000E+00
         0.00000E+00
         0.00000E+00
         0.00000E+00
         0.00000E+00
         0.00000E+00
         0.00000E+00
         0.00000E+00
         0.00000E+00
         0.00000E+00
         0.00000E+00
         0.00000E+00
         0.00000E+00
         0.00000E+00
         0.00000E+00
         0.00000E+00
         0.00000E+00
         0.00000E+00
         0.00000E+00
         0.00000E+00
         0.00000E+00
         0.00000E+00
         0.00000E+00
         0.00000E+00
         0.00000E+00
         0.00000E+00
         0.00000E+00
         0.00000E+00
         0.00000E+00
         0.00000E+00
         0.00000E+00
         0.00000E+00
         0.00000E+00
         0.00000E+00
         0.00000E+00
         0.00000E+00
         0.00000E+00
         0.00000E+00
         0.00000E+00
         0.00000E+00
         0.00000E+00
         0.00000E+00
         0.00000E+00
         0.00000E+00
         0.00000E+00
         0.00000E+00
         0.00000E+00
         0.00000E+00
         0.00000E+00
         0.00000E+00
         0.00000E+00
         0.00000E+00
         0.00000E+00
         0.00000E+00
         0.00000E+00
         0.00000E+00
         0.00000E+00
         0.00000E+00
         0.00000E+00
         0.00000E+00
         0.00000E+00
         0.00000E+00
         0.00000E+00
         0.00000E+00
         0.00000E+00
         0.00000E+00
         0.00000E+00
         0.00000E+00
         0.00000E+00
         0.00000E+00
         0.00000E+00
         0.00000E+00
         0.00000E+00
         0.00000E+00
         0.00000E+00
         0.00000E+00
         0.00000E+00
         0.00000E+00
         0.00000E+00
         0.00000E+00
         0.00000E+00
         0.00000E+00
         0.00000E+00
         0.00000E+00
         0.00000E+00
         0.00000E+00
         0.00000E+00
         0.00000E+00
         0.00000E+00
         0.00000E+00
         0.00000E+00
         0.00000E+00
         0.00000E+00
         0.00000E+00
         0.00000E+00
         0.00000E+00
         0.00000E+00
         0.00000E+00
         0.00000E+00
         0.00000E+00
         0.00000E+00
         0.00000E+00
         0.00000E+00
         0.00000E+00
         0.00000E+00
         0.00000E+00
         0.00000E+00
         0.00000E+00
         0.00000E+00
  
SCALARS           initial_coordinate_x  double 1
LOOKUP_TABLE default
         0.10378E-02
         0.17452E-02
         0.23177E-02
         0.16698E-02
         0.10379E-02
         0.17453E-02
         0.23178E-02
         0.16700E-02
         0.30377E-02
         0.27791E-02
         0.30377E-02
         0.27788E-02
         0.12850E-02
         0.65139E-03
         0.12851E-02
         0.65164E-03
         0.12757E-03
        -0.12822E-03
         0.12783E-03
        -0.12804E-03
         0.94500E-03
         0.11327E-02
         0.17490E-02
         0.94533E-03
         0.11330E-02
         0.17494E-02
         0.40588E-03
         0.39779E-03
         0.40594E-03
         0.39781E-03
        -0.76303E-03
        -0.86604E-03
         0.46119E-03
        -0.76268E-03
        -0.86593E-03
         0.46164E-03
        -0.18300E-02
        -0.18440E-02
        -0.18297E-02
        -0.18441E-02
        -0.27238E-02
        -0.28028E-02
        -0.27238E-02
        -0.28031E-02
        -0.25365E-02
        -0.19287E-02
        -0.25363E-02
        -0.19283E-02
        -0.99363E-03
        -0.99377E-03
        -0.14380E-02
        -0.14377E-02
        -0.31574E-03
        -0.31594E-03
        -0.11068E-02
        -0.11071E-02
        -0.18845E-02
        -0.18713E-02
        -0.18846E-02
        -0.18714E-02
        -0.15871E-03
        -0.94089E-03
        -0.15844E-03
        -0.94029E-03
         0.78856E-03
         0.78922E-03
         0.17211E-02
         0.17211E-02
         0.32050E-02
         0.28046E-02
         0.32047E-02
         0.28047E-02
         0.23059E-02
         0.23060E-02
        -0.40614E-03
        -0.40627E-03
        -0.12092E-02
        -0.12092E-02
        -0.19448E-02
        -0.19448E-02
        -0.25029E-02
        -0.26371E-02
        -0.25029E-02
        -0.26372E-02
        -0.27671E-02
        -0.27674E-02
        -0.21123E-02
        -0.21122E-02
        -0.16087E-02
        -0.16087E-02
        -0.11939E-02
        -0.58641E-03
        -0.11937E-02
        -0.58606E-03
         0.20912E-03
         0.20952E-03
         0.10586E-02
         0.10589E-02
         0.18413E-02
         0.18413E-02
         0.24544E-02
         0.26022E-02
         0.24543E-02
         0.26021E-02
         0.37964E-02
         0.39100E-02
         0.37964E-02
         0.39100E-02
         0.34621E-02
         0.34621E-02
         0.29267E-02
         0.29267E-02
         0.22211E-02
         0.22211E-02
         0.13865E-02
         0.13865E-02
         0.47130E-03
         0.47130E-03
        -0.47130E-03
        -0.47130E-03
        -0.13865E-02
        -0.13865E-02
        -0.22211E-02
        -0.22211E-02
        -0.29267E-02
        -0.29267E-02
        -0.34621E-02
        -0.34621E-02
        -0.37964E-02
        -0.37964E-02
        -0.39100E-02
        -0.39100E-02
        -0.37964E-02
        -0.37964E-02
        -0.34621E-02
        -0.34621E-02
        -0.29267E-02
        -0.29267E-02
        -0.22211E-02
        -0.22211E-02
        -0.13865E-02
        -0.13865E-02
        -0.47130E-03
        -0.47130E-03
         0.47130E-03
         0.47130E-03
         0.13865E-02
         0.13865E-02
         0.22211E-02
         0.22211E-02
         0.29267E-02
         0.29267E-02
         0.34621E-02
         0.34621E-02
         0.37964E-02
         0.37964E-02
         0.10376E-02
         0.17450E-02
         0.23175E-02
         0.16696E-02
         0.30377E-02
         0.27795E-02
         0.12849E-02
         0.65115E-03
         0.12731E-03
        -0.12841E-03
         0.94467E-03
         0.11323E-02
         0.17487E-02
         0.40583E-03
         0.39777E-03
        -0.76338E-03
        -0.86615E-03
         0.46074E-03
        -0.18303E-02
        -0.18439E-02
        -0.27238E-02
        -0.28025E-02
        -0.25366E-02
        -0.19292E-02
        -0.99349E-03
        -0.14384E-02
        -0.31554E-03
        -0.11064E-02
        -0.18845E-02
        -0.18712E-02
        -0.15899E-03
        -0.94149E-03
         0.78790E-03
         0.17210E-02
         0.32053E-02
         0.28046E-02
         0.23058E-02
        -0.40600E-03
        -0.12092E-02
        -0.19447E-02
        -0.25028E-02
        -0.26370E-02
        -0.27668E-02
        -0.21125E-02
        -0.16088E-02
        -0.11940E-02
        -0.58676E-03
         0.20871E-03
         0.10583E-02
         0.18413E-02
         0.24545E-02
         0.26022E-02
         0.37964E-02
         0.39100E-02
         0.34621E-02
         0.29267E-02
         0.22211E-02
         0.13865E-02
         0.47130E-03
        -0.47130E-03
        -0.13865E-02
        -0.22211E-02
        -0.29267E-02
        -0.34621E-02
        -0.37964E-02
        -0.39100E-02
        -0.37964E-02
        -0.34621E-02
        -0.29267E-02
        -0.22211E-02
        -0.13865E-02
        -0.47130E-03
         0.47130E-03
         0.13865E-02
         0.22211E-02
         0.29267E-02
         0.34621E-02
         0.37964E-02
         0.10375E-02
         0.17448E-02
         0.23174E-02
         0.16694E-02
         0.30377E-02
         0.27798E-02
         0.12848E-02
         0.65090E-03
         0.12705E-03
        -0.12859E-03
         0.94434E-03
         0.11320E-02
         0.17483E-02
         0.40577E-03
         0.39776E-03
        -0.76374E-03
        -0.86626E-03
         0.46029E-03
        -0.18306E-02
        -0.18438E-02
        -0.27238E-02
        -0.28022E-02
        -0.25368E-02
        -0.19296E-02
        -0.99334E-03
        -0.14387E-02
        -0.31534E-03
        -0.11061E-02
        -0.18844E-02
        -0.18710E-02
        -0.15926E-03
        -0.94209E-03
         0.78724E-03
         0.17210E-02
         0.32056E-02
         0.28046E-02
         0.23057E-02
        -0.40586E-03
        -0.12092E-02
        -0.19447E-02
        -0.25028E-02
        -0.26369E-02
        -0.27665E-02
        -0.21126E-02
        -0.16088E-02
        -0.11941E-02
        -0.58711E-03
         0.20830E-03
         0.10580E-02
         0.18414E-02
         0.24546E-02
         0.26023E-02
         0.37964E-02
         0.39100E-02
         0.34621E-02
         0.29267E-02
         0.22211E-02
         0.13865E-02
         0.47130E-03
        -0.47130E-03
        -0.13865E-02
        -0.22211E-02
        -0.29267E-02
        -0.34621E-02
        -0.37964E-02
        -0.39100E-02
        -0.37964E-02
        -0.34621E-02
        -0.29267E-02
        -0.22211E-02
        -0.13865E-02
        -0.47130E-03
         0.47130E-03
         0.13865E-02
         0.22211E-02
         0.29267E-02
         0.34621E-02
         0.37964E-02
         0.10374E-02
         0.17446E-02
         0.23173E-02
         0.16692E-02
         0.30376E-02
         0.27801E-02
         0.12847E-02
         0.65065E-03
         0.12678E-03
        -0.12878E-03
         0.94401E-03
         0.11316E-02
         0.17479E-02
         0.40572E-03
         0.39774E-03
        -0.76409E-03
        -0.86637E-03
         0.45985E-03
        -0.18309E-02
        -0.18437E-02
        -0.27237E-02
        -0.28020E-02
        -0.25369E-02
        -0.19300E-02
        -0.99320E-03
        -0.14391E-02
        -0.31514E-03
        -0.11057E-02
        -0.18844E-02
        -0.18709E-02
        -0.15954E-03
        -0.94269E-03
         0.78658E-03
         0.17209E-02
         0.32060E-02
         0.28046E-02
         0.23056E-02
        -0.40572E-03
        -0.12092E-02
        -0.19446E-02
        -0.25028E-02
        -0.26368E-02
        -0.27662E-02
        -0.21128E-02
        -0.16088E-02
        -0.11942E-02
        -0.58746E-03
         0.20790E-03
         0.10577E-02
         0.18414E-02
         0.24548E-02
         0.26024E-02
         0.37964E-02
         0.39100E-02
         0.34621E-02
         0.29267E-02
         0.22211E-02
         0.13865E-02
         0.47130E-03
        -0.47130E-03
        -0.13865E-02
        -0.22211E-02
        -0.29267E-02
        -0.34621E-02
        -0.37964E-02
        -0.39100E-02
        -0.37964E-02
        -0.34621E-02
        -0.29267E-02
        -0.22211E-02
        -0.13865E-02
        -0.47130E-03
         0.47130E-03
         0.13865E-02
         0.22211E-02
         0.29267E-02
         0.34621E-02
         0.37964E-02
         0.10373E-02
         0.17445E-02
         0.23172E-02
         0.16689E-02
         0.30376E-02
         0.27805E-02
         0.12846E-02
         0.65041E-03
         0.12652E-03
        -0.12896E-03
         0.94367E-03
         0.11313E-02
         0.17475E-02
         0.40566E-03
         0.39772E-03
        -0.76444E-03
        -0.86648E-03
         0.45940E-03
        -0.18312E-02
        -0.18436E-02
        -0.27237E-02
        -0.28017E-02
        -0.25371E-02
        -0.19305E-02
        -0.99305E-03
        -0.14394E-02
        -0.31494E-03
        -0.11054E-02
        -0.18843E-02
        -0.18708E-02
        -0.15981E-03
        -0.94328E-03
         0.78592E-03
         0.17209E-02
         0.32063E-02
         0.28045E-02
         0.23055E-02
        -0.40558E-03
        -0.12092E-02
        -0.19446E-02
        -0.25027E-02
        -0.26367E-02
        -0.27658E-02
        -0.21129E-02
        -0.16089E-02
        -0.11943E-02
        -0.58781E-03
         0.20749E-03
         0.10574E-02
         0.18415E-02
         0.24549E-02
         0.26025E-02
         0.37964E-02
         0.39100E-02
         0.34621E-02
         0.29267E-02
         0.22211E-02
         0.13865E-02
         0.47130E-03
        -0.47130E-03
        -0.13865E-02
        -0.22211E-02
        -0.29267E-02
        -0.34621E-02
        -0.37964E-02
        -0.39100E-02
        -0.37964E-02
        -0.34621E-02
        -0.29267E-02
        -0.22211E-02
        -0.13865E-02
        -0.47130E-03
         0.47130E-03
         0.13865E-02
         0.22211E-02
         0.29267E-02
         0.34621E-02
         0.37964E-02
         0.10372E-02
         0.17443E-02
         0.23171E-02
         0.16687E-02
         0.30376E-02
         0.27808E-02
         0.12845E-02
         0.65016E-03
         0.12626E-03
        -0.12915E-03
         0.94334E-03
         0.11310E-02
         0.17471E-02
         0.40561E-03
         0.39770E-03
        -0.76480E-03
        -0.86659E-03
         0.45895E-03
        -0.18315E-02
        -0.18435E-02
        -0.27237E-02
        -0.28014E-02
        -0.25372E-02
        -0.19309E-02
        -0.99291E-03
        -0.14398E-02
        -0.31474E-03
        -0.11051E-02
        -0.18843E-02
        -0.18706E-02
        -0.16009E-03
        -0.94388E-03
         0.78526E-03
         0.17208E-02
         0.32066E-02
         0.28045E-02
         0.23053E-02
        -0.40545E-03
        -0.12092E-02
        -0.19446E-02
        -0.25027E-02
        -0.26366E-02
        -0.27655E-02
        -0.21130E-02
        -0.16089E-02
        -0.11944E-02
        -0.58816E-03
         0.20709E-03
         0.10571E-02
         0.18415E-02
         0.24550E-02
         0.26025E-02
         0.37964E-02
         0.39100E-02
         0.34621E-02
         0.29267E-02
         0.22211E-02
         0.13865E-02
         0.47130E-03
        -0.47130E-03
        -0.13865E-02
        -0.22211E-02
        -0.29267E-02
        -0.34621E-02
        -0.37964E-02
        -0.39100E-02
        -0.37964E-02
        -0.34621E-02
        -0.29267E-02
        -0.22211E-02
        -0.13865E-02
        -0.47130E-03
         0.47130E-03
         0.13865E-02
         0.22211E-02
         0.29267E-02
         0.34621E-02
         0.37964E-02
         0.10371E-02
         0.17441E-02
         0.23169E-02
         0.16685E-02
         0.30376E-02
         0.27812E-02
         0.12844E-02
         0.64992E-03
         0.12600E-03
        -0.12933E-03
         0.94301E-03
         0.11306E-02
         0.17467E-02
         0.40556E-03
         0.39769E-03
        -0.76515E-03
        -0.86670E-03
         0.45850E-03
        -0.18318E-02
        -0.18434E-02
        -0.27236E-02
        -0.28011E-02
        -0.25374E-02
        -0.19313E-02
        -0.99277E-03
        -0.14401E-02
        -0.31454E-03
        -0.11047E-02
        -0.18842E-02
        -0.18705E-02
        -0.16036E-03
        -0.94448E-03
         0.78460E-03
         0.17208E-02
         0.32070E-02
         0.28045E-02
         0.23052E-02
        -0.40531E-03
        -0.12092E-02
        -0.19445E-02
        -0.25027E-02
        -0.26366E-02
        -0.27652E-02
        -0.21132E-02
        -0.16090E-02
        -0.11946E-02
        -0.58851E-03
         0.20668E-03
         0.10567E-02
         0.18416E-02
         0.24551E-02
         0.26026E-02
         0.37964E-02
         0.39100E-02
         0.34621E-02
         0.29267E-02
         0.22211E-02
         0.13865E-02
         0.47130E-03
        -0.47130E-03
        -0.13865E-02
        -0.22211E-02
        -0.29267E-02
        -0.34621E-02
        -0.37964E-02
        -0.39100E-02
        -0.37964E-02
        -0.34621E-02
        -0.29267E-02
        -0.22211E-02
        -0.13865E-02
        -0.47130E-03
         0.47130E-03
         0.13865E-02
         0.22211E-02
         0.29267E-02
         0.34621E-02
         0.37964E-02
         0.10370E-02
         0.17439E-02
         0.23168E-02
         0.16683E-02
         0.30375E-02
         0.27815E-02
         0.12843E-02
         0.64967E-03
         0.12573E-03
        -0.12952E-03
         0.94268E-03
         0.11303E-02
         0.17463E-02
         0.40550E-03
         0.39767E-03
        -0.76551E-03
        -0.86680E-03
         0.45806E-03
        -0.18321E-02
        -0.18433E-02
        -0.27236E-02
        -0.28009E-02
        -0.25375E-02
        -0.19317E-02
        -0.99262E-03
        -0.14405E-02
        -0.31434E-03
        -0.11044E-02
        -0.18842E-02
        -0.18704E-02
        -0.16064E-03
        -0.94508E-03
         0.78394E-03
         0.17208E-02
         0.32073E-02
         0.28045E-02
         0.23051E-02
        -0.40517E-03
        -0.12092E-02
        -0.19445E-02
        -0.25026E-02
        -0.26365E-02
        -0.27649E-02
        -0.21133E-02
        -0.16090E-02
        -0.11947E-02
        -0.58886E-03
         0.20627E-03
         0.10564E-02
         0.18416E-02
         0.24553E-02
         0.26027E-02
         0.37964E-02
         0.39100E-02
         0.34621E-02
         0.29267E-02
         0.22211E-02
         0.13865E-02
         0.47130E-03
        -0.47130E-03
        -0.13865E-02
        -0.22211E-02
        -0.29267E-02
        -0.34621E-02
        -0.37964E-02
        -0.39100E-02
        -0.37964E-02
        -0.34621E-02
        -0.29267E-02
        -0.22211E-02
        -0.13865E-02
        -0.47130E-03
         0.47130E-03
         0.13865E-02
         0.22211E-02
         0.29267E-02
         0.34621E-02
         0.37964E-02
         0.10368E-02
         0.17438E-02
         0.23167E-02
         0.16681E-02
         0.30375E-02
         0.27819E-02
         0.12842E-02
         0.64943E-03
         0.12547E-03
        -0.12970E-03
         0.94235E-03
         0.11300E-02
         0.17459E-02
         0.40545E-03
         0.39766E-03
        -0.76586E-03
        -0.86691E-03
         0.45761E-03
        -0.18324E-02
        -0.18432E-02
        -0.27236E-02
        -0.28006E-02
        -0.25377E-02
        -0.19322E-02
        -0.99248E-03
        -0.14408E-02
        -0.31414E-03
        -0.11040E-02
        -0.18841E-02
        -0.18703E-02
        -0.16091E-03
        -0.94568E-03
         0.78328E-03
         0.17207E-02
         0.32076E-02
         0.28044E-02
         0.23050E-02
        -0.40503E-03
        -0.12092E-02
        -0.19445E-02
        -0.25026E-02
        -0.26364E-02
        -0.27646E-02
        -0.21134E-02
        -0.16091E-02
        -0.11948E-02
        -0.58921E-03
         0.20587E-03
         0.10561E-02
         0.18416E-02
         0.24554E-02
         0.26027E-02
         0.37964E-02
         0.39100E-02
         0.34621E-02
         0.29267E-02
         0.22211E-02
         0.13865E-02
         0.47130E-03
        -0.47130E-03
        -0.13865E-02
        -0.22211E-02
        -0.29267E-02
        -0.34621E-02
        -0.37964E-02
        -0.39100E-02
        -0.37964E-02
        -0.34621E-02
        -0.29267E-02
        -0.22211E-02
        -0.13865E-02
        -0.47130E-03
         0.47130E-03
         0.13865E-02
         0.22211E-02
         0.29267E-02
         0.34621E-02
         0.37964E-02
         0.10367E-02
         0.17436E-02
         0.23166E-02
         0.16679E-02
         0.30375E-02
         0.27822E-02
         0.12841E-02
         0.64918E-03
         0.12521E-03
        -0.12989E-03
         0.94202E-03
         0.11296E-02
         0.17455E-02
         0.40539E-03
         0.39764E-03
        -0.76621E-03
        -0.86702E-03
         0.45716E-03
        -0.18326E-02
        -0.18431E-02
        -0.27235E-02
        -0.28003E-02
        -0.25379E-02
        -0.19326E-02
        -0.99233E-03
        -0.14412E-02
        -0.31394E-03
        -0.11037E-02
        -0.18841E-02
        -0.18701E-02
        -0.16119E-03
        -0.94628E-03
         0.78262E-03
         0.17207E-02
         0.32079E-02
         0.28044E-02
         0.23049E-02
        -0.40490E-03
        -0.12093E-02
        -0.19444E-02
        -0.25026E-02
        -0.26363E-02
        -0.27643E-02
        -0.21136E-02
        -0.16091E-02
        -0.11949E-02
        -0.58956E-03
         0.20546E-03
         0.10558E-02
         0.18417E-02
         0.24555E-02
         0.26028E-02
         0.37964E-02
         0.39100E-02
         0.34621E-02
         0.29267E-02
         0.22211E-02
         0.13865E-02
         0.47130E-03
        -0.47130E-03
        -0.13865E-02
        -0.22211E-02
        -0.29267E-02
        -0.34621E-02
        -0.37964E-02
        -0.39100E-02
        -0.37964E-02
        -0.34621E-02
        -0.29267E-02
        -0.22211E-02
        -0.13865E-02
        -0.47130E-03
         0.47130E-03
         0.13865E-02
         0.22211E-02
         0.29267E-02
         0.34621E-02
         0.37964E-02
         0.10366E-02
         0.17434E-02
         0.23164E-02
         0.16677E-02
         0.30375E-02
         0.27825E-02
         0.12840E-02
         0.64894E-03
         0.12495E-03
        -0.13007E-03
         0.94169E-03
         0.11293E-02
         0.17451E-02
         0.40534E-03
         0.39762E-03
        -0.76657E-03
        -0.86713E-03
         0.45671E-03
        -0.18329E-02
        -0.18430E-02
        -0.27235E-02
        -0.28001E-02
        -0.25380E-02
        -0.19330E-02
        -0.99219E-03
        -0.14415E-02
        -0.31374E-03
        -0.11033E-02
        -0.18840E-02
        -0.18700E-02
        -0.16146E-03
        -0.94687E-03
         0.78195E-03
         0.17207E-02
         0.32083E-02
         0.28044E-02
         0.23048E-02
        -0.40476E-03
        -0.12093E-02
        -0.19444E-02
        -0.25026E-02
        -0.26362E-02
        -0.27640E-02
        -0.21137E-02
        -0.16091E-02
        -0.11950E-02
        -0.58991E-03
         0.20505E-03
         0.10555E-02
         0.18417E-02
         0.24556E-02
         0.26029E-02
         0.37964E-02
         0.39100E-02
         0.34621E-02
         0.29267E-02
         0.22211E-02
         0.13865E-02
         0.47130E-03
        -0.47130E-03
        -0.13865E-02
        -0.22211E-02
        -0.29267E-02
        -0.34621E-02
        -0.37964E-02
        -0.39100E-02
        -0.37964E-02
        -0.34621E-02
        -0.29267E-02
        -0.22211E-02
        -0.13865E-02
        -0.47130E-03
         0.47130E-03
         0.13865E-02
         0.22211E-02
         0.29267E-02
         0.34621E-02
         0.37964E-02
         0.10365E-02
         0.17432E-02
         0.23163E-02
         0.16675E-02
         0.30374E-02
         0.27829E-02
         0.12839E-02
         0.64869E-03
         0.12468E-03
        -0.13026E-03
         0.94135E-03
         0.11289E-02
         0.17447E-02
         0.40528E-03
         0.39760E-03
        -0.76692E-03
        -0.86724E-03
         0.45626E-03
        -0.18332E-02
        -0.18430E-02
        -0.27235E-02
        -0.27998E-02
        -0.25382E-02
        -0.19334E-02
        -0.99205E-03
        -0.14419E-02
        -0.31354E-03
        -0.11030E-02
        -0.18840E-02
        -0.18699E-02
        -0.16174E-03
        -0.94747E-03
         0.78129E-03
         0.17206E-02
         0.32086E-02
         0.28044E-02
         0.23047E-02
        -0.40462E-03
        -0.12093E-02
        -0.19444E-02
        -0.25025E-02
        -0.26361E-02
        -0.27637E-02
        -0.21139E-02
        -0.16092E-02
        -0.11951E-02
        -0.59025E-03
         0.20465E-03
         0.10552E-02
         0.18418E-02
         0.24558E-02
         0.26030E-02
         0.37964E-02
         0.39100E-02
         0.34621E-02
         0.29267E-02
         0.22211E-02
         0.13865E-02
         0.47130E-03
        -0.47130E-03
        -0.13865E-02
        -0.22211E-02
        -0.29267E-02
        -0.34621E-02
        -0.37964E-02
        -0.39100E-02
        -0.37964E-02
        -0.34621E-02
        -0.29267E-02
        -0.22211E-02
        -0.13865E-02
        -0.47130E-03
         0.47130E-03
         0.13865E-02
         0.22211E-02
         0.29267E-02
         0.34621E-02
         0.37964E-02
         0.10364E-02
         0.17430E-02
         0.23162E-02
         0.16672E-02
         0.30374E-02
         0.27832E-02
         0.12838E-02
         0.64845E-03
         0.12442E-03
        -0.13044E-03
         0.94102E-03
         0.11286E-02
         0.17443E-02
         0.40523E-03
         0.39759E-03
        -0.76727E-03
        -0.86735E-03
         0.45582E-03
        -0.18335E-02
        -0.18429E-02
        -0.27235E-02
        -0.27995E-02
        -0.25383E-02
        -0.19339E-02
        -0.99190E-03
        -0.14422E-02
        -0.31334E-03
        -0.11026E-02
        -0.18839E-02
        -0.18697E-02
        -0.16201E-03
        -0.94807E-03
         0.78063E-03
         0.17206E-02
         0.32089E-02
         0.28043E-02
         0.23046E-02
        -0.40448E-03
        -0.12093E-02
        -0.19443E-02
        -0.25025E-02
        -0.26360E-02
        -0.27633E-02
        -0.21140E-02
        -0.16092E-02
        -0.11953E-02
        -0.59060E-03
         0.20424E-03
         0.10549E-02
         0.18418E-02
         0.24559E-02
         0.26030E-02
         0.37964E-02
         0.39100E-02
         0.34621E-02
         0.29267E-02
         0.22211E-02
         0.13865E-02
         0.47130E-03
        -0.47130E-03
        -0.13865E-02
        -0.22211E-02
        -0.29267E-02
        -0.34621E-02
        -0.37964E-02
        -0.39100E-02
        -0.37964E-02
        -0.34621E-02
        -0.29267E-02
        -0.22211E-02
        -0.13865E-02
        -0.47130E-03
         0.47130E-03
         0.13865E-02
         0.22211E-02
         0.29267E-02
         0.34621E-02
         0.37964E-02
         0.10363E-02
         0.17429E-02
         0.23161E-02
         0.16670E-02
         0.30374E-02
         0.27836E-02
         0.12837E-02
         0.64820E-03
         0.12416E-03
        -0.13063E-03
         0.94069E-03
         0.11282E-02
         0.17439E-02
         0.40518E-03
         0.39757E-03
        -0.76763E-03
        -0.86746E-03
         0.45537E-03
        -0.18338E-02
        -0.18428E-02
        -0.27234E-02
        -0.27992E-02
        -0.25385E-02
        -0.19343E-02
        -0.99176E-03
        -0.14425E-02
        -0.31314E-03
        -0.11023E-02
        -0.18839E-02
        -0.18696E-02
        -0.16229E-03
        -0.94867E-03
         0.77997E-03
         0.17205E-02
         0.32092E-02
         0.28043E-02
         0.23044E-02
        -0.40434E-03
        -0.12093E-02
        -0.19443E-02
        -0.25025E-02
        -0.26359E-02
        -0.27630E-02
        -0.21141E-02
        -0.16093E-02
        -0.11954E-02
        -0.59095E-03
         0.20384E-03
         0.10546E-02
         0.18419E-02
         0.24560E-02
         0.26031E-02
         0.37964E-02
         0.39100E-02
         0.34621E-02
         0.29267E-02
         0.22211E-02
         0.13865E-02
         0.47130E-03
        -0.47130E-03
        -0.13865E-02
        -0.22211E-02
        -0.29267E-02
        -0.34621E-02
        -0.37964E-02
        -0.39100E-02
        -0.37964E-02
        -0.34621E-02
        -0.29267E-02
        -0.22211E-02
        -0.13865E-02
        -0.47130E-03
         0.47130E-03
         0.13865E-02
         0.22211E-02
         0.29267E-02
         0.34621E-02
         0.37964E-02
         0.10362E-02
         0.17427E-02
         0.23160E-02
         0.16668E-02
         0.30373E-02
         0.27839E-02
         0.12836E-02
         0.64796E-03
         0.12390E-03
        -0.13082E-03
         0.94036E-03
         0.11279E-02
         0.17435E-02
         0.40512E-03
         0.39755E-03
        -0.76798E-03
        -0.86756E-03
         0.45492E-03
        -0.18341E-02
        -0.18427E-02
        -0.27234E-02
        -0.27990E-02
        -0.25386E-02
        -0.19347E-02
        -0.99161E-03
        -0.14429E-02
        -0.31294E-03
        -0.11019E-02
        -0.18838E-02
        -0.18695E-02
        -0.16256E-03
        -0.94927E-03
         0.77931E-03
         0.17205E-02
         0.32096E-02
         0.28043E-02
         0.23043E-02
        -0.40420E-03
        -0.12093E-02
        -0.19443E-02
        -0.25024E-02
        -0.26358E-02
        -0.27627E-02
        -0.21143E-02
        -0.16093E-02
        -0.11955E-02
        -0.59130E-03
         0.20343E-03
         0.10543E-02
         0.18419E-02
         0.24561E-02
         0.26032E-02
         0.37964E-02
         0.39100E-02
         0.34621E-02
         0.29267E-02
         0.22211E-02
         0.13865E-02
         0.47130E-03
        -0.47130E-03
        -0.13865E-02
        -0.22211E-02
        -0.29267E-02
        -0.34621E-02
        -0.37964E-02
        -0.39100E-02
        -0.37964E-02
        -0.34621E-02
        -0.29267E-02
        -0.22211E-02
        -0.13865E-02
        -0.47130E-03
         0.47130E-03
         0.13865E-02
         0.22211E-02
         0.29267E-02
         0.34621E-02
         0.37964E-02
         0.10360E-02
         0.17425E-02
         0.23158E-02
         0.16666E-02
         0.30373E-02
         0.27842E-02
         0.12835E-02
         0.64771E-03
         0.12363E-03
        -0.13100E-03
         0.94003E-03
         0.11276E-02
         0.17432E-02
         0.40507E-03
         0.39754E-03
        -0.76834E-03
        -0.86767E-03
         0.45447E-03
        -0.18344E-02
        -0.18426E-02
        -0.27234E-02
        -0.27987E-02
        -0.25388E-02
        -0.19352E-02
        -0.99147E-03
        -0.14433E-02
        -0.31274E-03
        -0.11016E-02
        -0.18838E-02
        -0.18694E-02
        -0.16284E-03
        -0.94986E-03
         0.77865E-03
         0.17205E-02
         0.32099E-02
         0.28042E-02
         0.23042E-02
        -0.40407E-03
        -0.12093E-02
        -0.19442E-02
        -0.25024E-02
        -0.26358E-02
        -0.27624E-02
        -0.21144E-02
        -0.16094E-02
        -0.11956E-02
        -0.59165E-03
         0.20302E-03
         0.10540E-02
         0.18419E-02
         0.24563E-02
         0.26033E-02
         0.37964E-02
         0.39100E-02
         0.34621E-02
         0.29267E-02
         0.22211E-02
         0.13865E-02
         0.47130E-03
        -0.47130E-03
        -0.13865E-02
        -0.22211E-02
        -0.29267E-02
        -0.34621E-02
        -0.37964E-02
        -0.39100E-02
        -0.37964E-02
        -0.34621E-02
        -0.29267E-02
        -0.22211E-02
        -0.13865E-02
        -0.47130E-03
         0.47130E-03
         0.13865E-02
         0.22211E-02
         0.29267E-02
         0.34621E-02
         0.37964E-02
         0.10359E-02
         0.17423E-02
         0.23157E-02
         0.16664E-02
         0.30373E-02
         0.27846E-02
         0.12834E-02
         0.64747E-03
         0.12337E-03
        -0.13118E-03
         0.93970E-03
         0.11272E-02
         0.17428E-02
         0.40501E-03
         0.39752E-03
        -0.76869E-03
        -0.86778E-03
         0.45402E-03
        -0.18347E-02
        -0.18425E-02
        -0.27234E-02
        -0.27984E-02
        -0.25389E-02
        -0.19356E-02
        -0.99133E-03
        -0.14436E-02
        -0.31254E-03
        -0.11013E-02
        -0.18837E-02
        -0.18692E-02
        -0.16311E-03
        -0.95046E-03
         0.77799E-03
         0.17204E-02
         0.32102E-02
         0.28042E-02
         0.23041E-02
        -0.40393E-03
        -0.12093E-02
        -0.19442E-02
        -0.25024E-02
        -0.26357E-02
        -0.27621E-02
        -0.21146E-02
        -0.16094E-02
        -0.11957E-02
        -0.59200E-03
         0.20262E-03
         0.10536E-02
         0.18420E-02
         0.24564E-02
         0.26033E-02
         0.37964E-02
         0.39100E-02
         0.34621E-02
         0.29267E-02
         0.22211E-02
         0.13865E-02
         0.47130E-03
        -0.47130E-03
        -0.13865E-02
        -0.22211E-02
        -0.29267E-02
        -0.34621E-02
        -0.37964E-02
        -0.39100E-02
        -0.37964E-02
        -0.34621E-02
        -0.29267E-02
        -0.22211E-02
        -0.13865E-02
        -0.47130E-03
         0.47130E-03
         0.13865E-02
         0.22211E-02
         0.29267E-02
         0.34621E-02
         0.37964E-02
         0.10358E-02
         0.17422E-02
         0.23156E-02
         0.16662E-02
         0.30373E-02
         0.27849E-02
         0.12833E-02
         0.64722E-03
         0.12311E-03
        -0.13137E-03
         0.93937E-03
         0.11269E-02
         0.17424E-02
         0.40496E-03
         0.39750E-03
        -0.76904E-03
        -0.86789E-03
         0.45358E-03
        -0.18350E-02
        -0.18424E-02
        -0.27233E-02
        -0.27981E-02
        -0.25391E-02
        -0.19360E-02
        -0.99118E-03
        -0.14440E-02
        -0.31234E-03
        -0.11009E-02
        -0.18836E-02
        -0.18691E-02
        -0.16339E-03
        -0.95106E-03
         0.77733E-03
         0.17204E-02
         0.32105E-02
         0.28042E-02
         0.23040E-02
        -0.40379E-03
        -0.12093E-02
        -0.19441E-02
        -0.25023E-02
        -0.26356E-02
        -0.27618E-02
        -0.21147E-02
        -0.16094E-02
        -0.11958E-02
        -0.59235E-03
         0.20221E-03
         0.10533E-02
         0.18420E-02
         0.24565E-02
         0.26034E-02
         0.37964E-02
         0.39100E-02
         0.34621E-02
         0.29267E-02
         0.22211E-02
         0.13865E-02
         0.47130E-03
        -0.47130E-03
        -0.13865E-02
        -0.22211E-02
        -0.29267E-02
        -0.34621E-02
        -0.37964E-02
        -0.39100E-02
        -0.37964E-02
        -0.34621E-02
        -0.29267E-02
        -0.22211E-02
        -0.13865E-02
        -0.47130E-03
         0.47130E-03
         0.13865E-02
         0.22211E-02
         0.29267E-02
         0.34621E-02
         0.37964E-02
         0.10357E-02
         0.17420E-02
         0.23155E-02
         0.16660E-02
         0.30372E-02
         0.27853E-02
         0.12832E-02
         0.64698E-03
         0.12285E-03
        -0.13155E-03
         0.93903E-03
         0.11266E-02
         0.17420E-02
         0.40490E-03
         0.39749E-03
        -0.76940E-03
        -0.86800E-03
         0.45313E-03
        -0.18353E-02
        -0.18423E-02
        -0.27233E-02
        -0.27979E-02
        -0.25393E-02
        -0.19365E-02
        -0.99104E-03
        -0.14443E-02
        -0.31214E-03
        -0.11006E-02
        -0.18836E-02
        -0.18690E-02
        -0.16366E-03
        -0.95166E-03
         0.77667E-03
         0.17203E-02
         0.32109E-02
         0.28042E-02
         0.23039E-02
        -0.40365E-03
        -0.12093E-02
        -0.19441E-02
        -0.25023E-02
        -0.26355E-02
        -0.27615E-02
        -0.21148E-02
        -0.16095E-02
        -0.11960E-02
        -0.59270E-03
         0.20180E-03
         0.10530E-02
         0.18421E-02
         0.24566E-02
         0.26035E-02
         0.37964E-02
         0.39100E-02
         0.34621E-02
         0.29267E-02
         0.22211E-02
         0.13865E-02
         0.47130E-03
        -0.47130E-03
        -0.13865E-02
        -0.22211E-02
        -0.29267E-02
        -0.34621E-02
        -0.37964E-02
        -0.39100E-02
        -0.37964E-02
        -0.34621E-02
        -0.29267E-02
        -0.22211E-02
        -0.13865E-02
        -0.47130E-03
         0.47130E-03
         0.13865E-02
         0.22211E-02
         0.29267E-02
         0.34621E-02
         0.37964E-02
         0.10356E-02
         0.17418E-02
         0.23153E-02
         0.16657E-02
         0.30372E-02
         0.27856E-02
         0.12830E-02
         0.64673E-03
         0.12259E-03
        -0.13174E-03
         0.93870E-03
         0.11262E-02
         0.17416E-02
         0.40485E-03
         0.39747E-03
        -0.76975E-03
        -0.86811E-03
         0.45268E-03
        -0.18356E-02
        -0.18422E-02
        -0.27233E-02
        -0.27976E-02
        -0.25394E-02
        -0.19369E-02
        -0.99090E-03
        -0.14446E-02
        -0.31194E-03
        -0.11002E-02
        -0.18835E-02
        -0.18689E-02
        -0.16394E-03
        -0.95226E-03
         0.77601E-03
         0.17203E-02
         0.32112E-02
         0.28042E-02
         0.23038E-02
        -0.40352E-03
        -0.12093E-02
        -0.19441E-02
        -0.25023E-02
        -0.26354E-02
        -0.27612E-02
        -0.21150E-02
        -0.16095E-02
        -0.11961E-02
        -0.59305E-03
         0.20140E-03
         0.10527E-02
         0.18421E-02
         0.24568E-02
         0.26036E-02
         0.37964E-02
         0.39100E-02
         0.34621E-02
         0.29267E-02
         0.22211E-02
         0.13865E-02
         0.47130E-03
        -0.47130E-03
        -0.13865E-02
        -0.22211E-02
        -0.29267E-02
        -0.34621E-02
        -0.37964E-02
        -0.39100E-02
        -0.37964E-02
        -0.34621E-02
        -0.29267E-02
        -0.22211E-02
        -0.13865E-02
        -0.47130E-03
         0.47130E-03
         0.13865E-02
         0.22211E-02
         0.29267E-02
         0.34621E-02
         0.37964E-02
         0.10355E-02
         0.17416E-02
         0.23152E-02
         0.16655E-02
         0.30372E-02
         0.27860E-02
         0.12829E-02
         0.64649E-03
         0.12232E-03
        -0.13193E-03
         0.93837E-03
         0.11259E-02
         0.17412E-02
         0.40480E-03
         0.39745E-03
        -0.77011E-03
        -0.86822E-03
         0.45223E-03
        -0.18359E-02
        -0.18421E-02
        -0.27232E-02
        -0.27973E-02
        -0.25396E-02
        -0.19373E-02
        -0.99075E-03
        -0.14450E-02
        -0.31173E-03
        -0.10999E-02
        -0.18835E-02
        -0.18687E-02
        -0.16421E-03
        -0.95285E-03
         0.77535E-03
         0.17202E-02
         0.32115E-02
         0.28041E-02
         0.23037E-02
        -0.40338E-03
        -0.12093E-02
        -0.19440E-02
        -0.25023E-02
        -0.26353E-02
        -0.27609E-02
        -0.21151E-02
        -0.16096E-02
        -0.11962E-02
        -0.59340E-03
         0.20099E-03
         0.10524E-02
         0.18422E-02
         0.24569E-02
         0.26036E-02
         0.37964E-02
         0.39100E-02
         0.34621E-02
         0.29267E-02
         0.22211E-02
         0.13865E-02
         0.47130E-03
        -0.47130E-03
        -0.13865E-02
        -0.22211E-02
        -0.29267E-02
        -0.34621E-02
        -0.37964E-02
        -0.39100E-02
        -0.37964E-02
        -0.34621E-02
        -0.29267E-02
        -0.22211E-02
        -0.13865E-02
        -0.47130E-03
         0.47130E-03
         0.13865E-02
         0.22211E-02
         0.29267E-02
         0.34621E-02
         0.37964E-02
         0.10354E-02
         0.17414E-02
         0.23151E-02
         0.16653E-02
         0.30372E-02
         0.27863E-02
         0.12829E-02
         0.64624E-03
         0.12206E-03
        -0.13211E-03
         0.93804E-03
         0.11255E-02
         0.17408E-02
         0.40474E-03
         0.39744E-03
        -0.77046E-03
        -0.86832E-03
         0.45179E-03
        -0.18362E-02
        -0.18420E-02
        -0.27232E-02
        -0.27970E-02
        -0.25397E-02
        -0.19377E-02
        -0.99061E-03
        -0.14453E-02
        -0.31153E-03
        -0.10995E-02
        -0.18834E-02
        -0.18686E-02
        -0.16449E-03
        -0.95345E-03
         0.77469E-03
         0.17202E-02
         0.32119E-02
         0.28041E-02
         0.23036E-02
        -0.40324E-03
        -0.12093E-02
        -0.19440E-02
        -0.25022E-02
        -0.26352E-02
        -0.27606E-02
        -0.21152E-02
        -0.16096E-02
        -0.11963E-02
        -0.59375E-03
         0.20059E-03
         0.10521E-02
         0.18422E-02
         0.24570E-02
         0.26037E-02
         0.37964E-02
         0.39100E-02
         0.34621E-02
         0.29267E-02
         0.22211E-02
         0.13865E-02
         0.47130E-03
        -0.47130E-03
        -0.13865E-02
        -0.22211E-02
        -0.29267E-02
        -0.34621E-02
        -0.37964E-02
        -0.39100E-02
        -0.37964E-02
        -0.34621E-02
        -0.29267E-02
        -0.22211E-02
        -0.13865E-02
        -0.47130E-03
         0.47130E-03
         0.13865E-02
         0.22211E-02
         0.29267E-02
         0.34621E-02
         0.37964E-02
         0.10352E-02
         0.17413E-02
         0.23150E-02
         0.16651E-02
         0.30371E-02
         0.27866E-02
         0.12827E-02
         0.64600E-03
         0.12180E-03
        -0.13230E-03
         0.93771E-03
         0.11252E-02
         0.17404E-02
         0.40469E-03
         0.39742E-03
        -0.77081E-03
        -0.86843E-03
         0.45134E-03
        -0.18365E-02
        -0.18419E-02
        -0.27232E-02
        -0.27968E-02
        -0.25399E-02
        -0.19382E-02
        -0.99046E-03
        -0.14457E-02
        -0.31133E-03
        -0.10992E-02
        -0.18834E-02
        -0.18685E-02
        -0.16476E-03
        -0.95405E-03
         0.77402E-03
         0.17202E-02
         0.32122E-02
         0.28041E-02
         0.23034E-02
        -0.40310E-03
        -0.12093E-02
        -0.19440E-02
        -0.25022E-02
        -0.26351E-02
        -0.27602E-02
        -0.21154E-02
        -0.16097E-02
        -0.11964E-02
        -0.59409E-03
         0.20018E-03
         0.10518E-02
         0.18422E-02
         0.24571E-02
         0.26038E-02
         0.37964E-02
         0.39100E-02
         0.34621E-02
         0.29267E-02
         0.22211E-02
         0.13865E-02
         0.47130E-03
        -0.47130E-03
        -0.13865E-02
        -0.22211E-02
        -0.29267E-02
        -0.34621E-02
        -0.37964E-02
        -0.39100E-02
        -0.37964E-02
        -0.34621E-02
        -0.29267E-02
        -0.22211E-02
        -0.13865E-02
        -0.47130E-03
         0.47130E-03
         0.13865E-02
         0.22211E-02
         0.29267E-02
         0.34621E-02
         0.37964E-02
         0.10351E-02
         0.17411E-02
         0.23149E-02
         0.16649E-02
         0.30371E-02
         0.27870E-02
         0.12826E-02
         0.64575E-03
         0.12154E-03
        -0.13248E-03
         0.93738E-03
         0.11249E-02
         0.17400E-02
         0.40463E-03
         0.39740E-03
        -0.77117E-03
        -0.86854E-03
         0.45089E-03
        -0.18368E-02
        -0.18418E-02
        -0.27232E-02
        -0.27965E-02
        -0.25400E-02
        -0.19386E-02
        -0.99032E-03
        -0.14460E-02
        -0.31113E-03
        -0.10988E-02
        -0.18833E-02
        -0.18683E-02
        -0.16504E-03
        -0.95465E-03
         0.77336E-03
         0.17201E-02
         0.32125E-02
         0.28041E-02
         0.23033E-02
        -0.40296E-03
        -0.12093E-02
        -0.19439E-02
        -0.25022E-02
        -0.26350E-02
        -0.27599E-02
        -0.21155E-02
        -0.16097E-02
        -0.11965E-02
        -0.59444E-03
         0.19977E-03
         0.10515E-02
         0.18423E-02
         0.24573E-02
         0.26039E-02
         0.37964E-02
         0.39100E-02
         0.34621E-02
         0.29267E-02
         0.22211E-02
         0.13865E-02
         0.47130E-03
        -0.47130E-03
        -0.13865E-02
        -0.22211E-02
        -0.29267E-02
        -0.34621E-02
        -0.37964E-02
        -0.39100E-02
        -0.37964E-02
        -0.34621E-02
        -0.29267E-02
        -0.22211E-02
        -0.13865E-02
        -0.47130E-03
         0.47130E-03
         0.13865E-02
         0.22211E-02
         0.29267E-02
         0.34621E-02
         0.37964E-02
  
SCALARS           initial_coordinate_y  double 1
LOOKUP_TABLE default
         0.67292E-03
         0.12308E-02
         0.59151E-03
        -0.33775E-03
         0.67237E-03
         0.12301E-02
         0.59098E-03
        -0.33851E-03
         0.14882E-03
        -0.67643E-03
         0.14846E-03
        -0.67692E-03
         0.18412E-02
         0.14576E-02
         0.18410E-02
         0.14566E-02
         0.29933E-03
         0.11672E-02
         0.29819E-03
         0.11655E-02
         0.22748E-02
         0.28286E-02
         0.24238E-02
         0.22746E-02
         0.28291E-02
         0.24236E-02
         0.21685E-02
         0.29366E-02
         0.21684E-02
         0.29369E-02
        -0.10033E-02
         0.78969E-04
        -0.70318E-03
        -0.10032E-02
         0.78160E-04
        -0.70391E-03
        -0.71196E-03
         0.82749E-04
        -0.71210E-03
         0.82626E-04
        -0.77865E-03
         0.40713E-04
        -0.77882E-03
         0.40439E-04
        -0.15195E-02
        -0.13230E-02
        -0.15195E-02
        -0.13231E-02
         0.98847E-03
         0.98712E-03
        -0.17325E-02
        -0.17325E-02
         0.20220E-02
         0.20217E-02
         0.18615E-02
         0.18616E-02
         0.17175E-02
         0.90940E-03
         0.17175E-02
         0.90916E-03
        -0.19800E-02
        -0.23489E-02
        -0.19800E-02
        -0.23489E-02
        -0.17074E-02
        -0.17074E-02
        -0.14894E-02
        -0.14892E-02
         0.76036E-03
         0.12477E-02
         0.75936E-03
         0.12473E-02
         0.18665E-02
         0.18664E-02
         0.29038E-02
         0.29049E-02
         0.27207E-02
         0.27212E-02
         0.24642E-02
         0.24645E-02
         0.22359E-02
         0.16503E-02
         0.22359E-02
         0.16503E-02
         0.87493E-03
         0.87466E-03
        -0.21373E-02
        -0.21373E-02
        -0.26931E-02
        -0.26931E-02
        -0.31291E-02
        -0.30382E-02
        -0.31291E-02
        -0.30382E-02
        -0.28748E-02
        -0.28748E-02
        -0.26423E-02
        -0.26420E-02
        -0.23707E-02
        -0.23705E-02
        -0.21445E-02
        -0.15105E-02
        -0.21439E-02
        -0.15106E-02
         0.93572E-03
         0.00000E+00
         0.93572E-03
         0.00000E+00
         0.18171E-02
         0.18171E-02
         0.25928E-02
         0.25928E-02
         0.32179E-02
         0.32179E-02
         0.36559E-02
         0.36559E-02
         0.38815E-02
         0.38815E-02
         0.38815E-02
         0.38815E-02
         0.36559E-02
         0.36559E-02
         0.32179E-02
         0.32179E-02
         0.25928E-02
         0.25928E-02
         0.18171E-02
         0.18171E-02
         0.93572E-03
         0.93572E-03
         0.22152E-17
        -0.47884E-18
        -0.93572E-03
        -0.93572E-03
        -0.18171E-02
        -0.18171E-02
        -0.25928E-02
        -0.25928E-02
        -0.32179E-02
        -0.32179E-02
        -0.36559E-02
        -0.36559E-02
        -0.38815E-02
        -0.38815E-02
        -0.38815E-02
        -0.38815E-02
        -0.36559E-02
        -0.36559E-02
        -0.32179E-02
        -0.32179E-02
        -0.25928E-02
        -0.25928E-02
        -0.18171E-02
        -0.18171E-02
        -0.93572E-03
        -0.93572E-03
         0.67348E-03
         0.12314E-02
         0.59203E-03
        -0.33700E-03
         0.14918E-03
        -0.67594E-03
         0.18414E-02
         0.14586E-02
         0.30048E-03
         0.11690E-02
         0.22749E-02
         0.28282E-02
         0.24239E-02
         0.21685E-02
         0.29364E-02
        -0.10035E-02
         0.79778E-04
        -0.70245E-03
        -0.71182E-03
         0.82873E-04
        -0.77848E-03
         0.40986E-04
        -0.15194E-02
        -0.13228E-02
         0.98983E-03
        -0.17324E-02
         0.20223E-02
         0.18614E-02
         0.17175E-02
         0.90964E-03
        -0.19800E-02
        -0.23489E-02
        -0.17074E-02
        -0.14896E-02
         0.76137E-03
         0.12481E-02
         0.18665E-02
         0.29027E-02
         0.27202E-02
         0.24640E-02
         0.22359E-02
         0.16503E-02
         0.87519E-03
        -0.21373E-02
        -0.26932E-02
        -0.31291E-02
        -0.30382E-02
        -0.28748E-02
        -0.26426E-02
        -0.23709E-02
        -0.21450E-02
        -0.15104E-02
         0.93572E-03
         0.00000E+00
         0.18171E-02
         0.25928E-02
         0.32179E-02
         0.36559E-02
         0.38815E-02
         0.38815E-02
         0.36559E-02
         0.32179E-02
         0.25928E-02
         0.18171E-02
         0.93572E-03
        -0.47884E-18
        -0.93572E-03
        -0.18171E-02
        -0.25928E-02
        -0.32179E-02
        -0.36559E-02
        -0.38815E-02
        -0.38815E-02
        -0.36559E-02
        -0.32179E-02
        -0.25928E-02
        -0.18171E-02
        -0.93572E-03
         0.67403E-03
         0.12321E-02
         0.59255E-03
        -0.33624E-03
         0.14955E-03
        -0.67544E-03
         0.18415E-02
         0.14596E-02
         0.30163E-03
         0.11707E-02
         0.22750E-02
         0.28277E-02
         0.24241E-02
         0.21685E-02
         0.29361E-02
        -0.10036E-02
         0.80588E-04
        -0.70173E-03
        -0.71168E-03
         0.82996E-04
        -0.77831E-03
         0.41259E-04
        -0.15194E-02
        -0.13227E-02
         0.99119E-03
        -0.17324E-02
         0.20226E-02
         0.18613E-02
         0.17175E-02
         0.90988E-03
        -0.19801E-02
        -0.23490E-02
        -0.17074E-02
        -0.14899E-02
         0.76237E-03
         0.12485E-02
         0.18666E-02
         0.29017E-02
         0.27198E-02
         0.24638E-02
         0.22359E-02
         0.16503E-02
         0.87545E-03
        -0.21374E-02
        -0.26932E-02
        -0.31291E-02
        -0.30382E-02
        -0.28748E-02
        -0.26428E-02
        -0.23711E-02
        -0.21456E-02
        -0.15103E-02
         0.93572E-03
         0.00000E+00
         0.18171E-02
         0.25928E-02
         0.32179E-02
         0.36559E-02
         0.38815E-02
         0.38815E-02
         0.36559E-02
         0.32179E-02
         0.25928E-02
         0.18171E-02
         0.93572E-03
         0.39516E-17
        -0.93572E-03
        -0.18171E-02
        -0.25928E-02
        -0.32179E-02
        -0.36559E-02
        -0.38815E-02
        -0.38815E-02
        -0.36559E-02
        -0.32179E-02
        -0.25928E-02
        -0.18171E-02
        -0.93572E-03
         0.67459E-03
         0.12328E-02
         0.59308E-03
        -0.33549E-03
         0.14991E-03
        -0.67495E-03
         0.18417E-02
         0.14606E-02
         0.30278E-03
         0.11725E-02
         0.22752E-02
         0.28273E-02
         0.24242E-02
         0.21686E-02
         0.29359E-02
        -0.10038E-02
         0.81397E-04
        -0.70100E-03
        -0.71154E-03
         0.83120E-04
        -0.77814E-03
         0.41533E-04
        -0.15193E-02
        -0.13227E-02
         0.99254E-03
        -0.17324E-02
         0.20228E-02
         0.18611E-02
         0.17175E-02
         0.91012E-03
        -0.19801E-02
        -0.23490E-02
        -0.17074E-02
        -0.14901E-02
         0.76338E-03
         0.12490E-02
         0.18666E-02
         0.29006E-02
         0.27193E-02
         0.24636E-02
         0.22359E-02
         0.16503E-02
         0.87571E-03
        -0.21374E-02
        -0.26932E-02
        -0.31291E-02
        -0.30382E-02
        -0.28748E-02
        -0.26431E-02
        -0.23713E-02
        -0.21461E-02
        -0.15102E-02
         0.93572E-03
         0.00000E+00
         0.18171E-02
         0.25928E-02
         0.32179E-02
         0.36559E-02
         0.38815E-02
         0.38815E-02
         0.36559E-02
         0.32179E-02
         0.25928E-02
         0.18171E-02
         0.93572E-03
        -0.47884E-18
        -0.93572E-03
        -0.18171E-02
        -0.25928E-02
        -0.32179E-02
        -0.36559E-02
        -0.38815E-02
        -0.38815E-02
        -0.36559E-02
        -0.32179E-02
        -0.25928E-02
        -0.18171E-02
        -0.93572E-03
         0.67514E-03
         0.12334E-02
         0.59360E-03
        -0.33474E-03
         0.15027E-03
        -0.67446E-03
         0.18419E-02
         0.14616E-02
         0.30393E-03
         0.11742E-02
         0.22753E-02
         0.28269E-02
         0.24244E-02
         0.21686E-02
         0.29356E-02
        -0.10039E-02
         0.82206E-04
        -0.70028E-03
        -0.71140E-03
         0.83243E-04
        -0.77797E-03
         0.41806E-04
        -0.15193E-02
        -0.13226E-02
         0.99390E-03
        -0.17323E-02
         0.20231E-02
         0.18610E-02
         0.17175E-02
         0.91036E-03
        -0.19801E-02
        -0.23490E-02
        -0.17074E-02
        -0.14904E-02
         0.76439E-03
         0.12494E-02
         0.18666E-02
         0.28995E-02
         0.27188E-02
         0.24633E-02
         0.22359E-02
         0.16503E-02
         0.87597E-03
        -0.21374E-02
        -0.26932E-02
        -0.31291E-02
        -0.30382E-02
        -0.28748E-02
        -0.26434E-02
        -0.23715E-02
        -0.21467E-02
        -0.15101E-02
         0.93572E-03
         0.00000E+00
         0.18171E-02
         0.25928E-02
         0.32179E-02
         0.36559E-02
         0.38815E-02
         0.38815E-02
         0.36559E-02
         0.32179E-02
         0.25928E-02
         0.18171E-02
         0.93572E-03
        -0.47884E-18
        -0.93572E-03
        -0.18171E-02
        -0.25928E-02
        -0.32179E-02
        -0.36559E-02
        -0.38815E-02
        -0.38815E-02
        -0.36559E-02
        -0.32179E-02
        -0.25928E-02
        -0.18171E-02
        -0.93572E-03
         0.67570E-03
         0.12341E-02
         0.59412E-03
        -0.33398E-03
         0.15064E-03
        -0.67396E-03
         0.18421E-02
         0.14626E-02
         0.30507E-03
         0.11760E-02
         0.22754E-02
         0.28264E-02
         0.24245E-02
         0.21686E-02
         0.29353E-02
        -0.10040E-02
         0.83015E-04
        -0.69955E-03
        -0.71126E-03
         0.83367E-04
        -0.77780E-03
         0.42080E-04
        -0.15192E-02
        -0.13224E-02
         0.99526E-03
        -0.17323E-02
         0.20234E-02
         0.18609E-02
         0.17175E-02
         0.91060E-03
        -0.19801E-02
        -0.23490E-02
        -0.17074E-02
        -0.14906E-02
         0.76539E-03
         0.12498E-02
         0.18667E-02
         0.28984E-02
         0.27184E-02
         0.24631E-02
         0.22359E-02
         0.16503E-02
         0.87623E-03
        -0.21374E-02
        -0.26932E-02
        -0.31291E-02
        -0.30382E-02
        -0.28748E-02
        -0.26436E-02
        -0.23717E-02
        -0.21472E-02
        -0.15100E-02
         0.93572E-03
         0.00000E+00
         0.18171E-02
         0.25928E-02
         0.32179E-02
         0.36559E-02
         0.38815E-02
         0.38815E-02
         0.36559E-02
         0.32179E-02
         0.25928E-02
         0.18171E-02
         0.93572E-03
        -0.47884E-18
        -0.93572E-03
        -0.18171E-02
        -0.25928E-02
        -0.32179E-02
        -0.36559E-02
        -0.38815E-02
        -0.38815E-02
        -0.36559E-02
        -0.32179E-02
        -0.25928E-02
        -0.18171E-02
        -0.93572E-03
         0.67625E-03
         0.12348E-02
         0.59465E-03
        -0.33323E-03
         0.15100E-03
        -0.67347E-03
         0.18423E-02
         0.14636E-02
         0.30622E-03
         0.11777E-02
         0.22755E-02
         0.28260E-02
         0.24247E-02
         0.21687E-02
         0.29351E-02
        -0.10042E-02
         0.83825E-04
        -0.69882E-03
        -0.71112E-03
         0.83490E-04
        -0.77763E-03
         0.42353E-04
        -0.15192E-02
        -0.13223E-02
         0.99661E-03
        -0.17322E-02
         0.20237E-02
         0.18607E-02
         0.17175E-02
         0.91084E-03
        -0.19801E-02
        -0.23491E-02
        -0.17074E-02
        -0.14909E-02
         0.76640E-03
         0.12503E-02
         0.18667E-02
         0.28974E-02
         0.27179E-02
         0.24629E-02
         0.22359E-02
         0.16503E-02
         0.87650E-03
        -0.21374E-02
        -0.26933E-02
        -0.31291E-02
        -0.30382E-02
        -0.28749E-02
        -0.26439E-02
        -0.23719E-02
        -0.21478E-02
        -0.15099E-02
         0.93572E-03
         0.00000E+00
         0.18171E-02
         0.25928E-02
         0.32179E-02
         0.36559E-02
         0.38815E-02
         0.38815E-02
         0.36559E-02
         0.32179E-02
         0.25928E-02
         0.18171E-02
         0.93572E-03
        -0.47884E-18
        -0.93572E-03
        -0.18171E-02
        -0.25928E-02
        -0.32179E-02
        -0.36559E-02
        -0.38815E-02
        -0.38815E-02
        -0.36559E-02
        -0.32179E-02
        -0.25928E-02
        -0.18171E-02
        -0.93572E-03
         0.67680E-03
         0.12354E-02
         0.59517E-03
        -0.33247E-03
         0.15136E-03
        -0.67298E-03
         0.18425E-02
         0.14646E-02
         0.30737E-03
         0.11795E-02
         0.22757E-02
         0.28255E-02
         0.24248E-02
         0.21687E-02
         0.29348E-02
        -0.10043E-02
         0.84634E-04
        -0.69810E-03
        -0.71098E-03
         0.83614E-04
        -0.77746E-03
         0.42626E-04
        -0.15191E-02
        -0.13223E-02
         0.99797E-03
        -0.17322E-02
         0.20240E-02
         0.18606E-02
         0.17175E-02
         0.91108E-03
        -0.19802E-02
        -0.23491E-02
        -0.17074E-02
        -0.14911E-02
         0.76740E-03
         0.12507E-02
         0.18668E-02
         0.28963E-02
         0.27174E-02
         0.24627E-02
         0.22358E-02
         0.16503E-02
         0.87676E-03
        -0.21374E-02
        -0.26933E-02
        -0.31291E-02
        -0.30382E-02
        -0.28749E-02
        -0.26442E-02
        -0.23721E-02
        -0.21483E-02
        -0.15097E-02
         0.93572E-03
         0.00000E+00
         0.18171E-02
         0.25928E-02
         0.32179E-02
         0.36559E-02
         0.38815E-02
         0.38815E-02
         0.36559E-02
         0.32179E-02
         0.25928E-02
         0.18171E-02
         0.93572E-03
        -0.47884E-18
        -0.93572E-03
        -0.18171E-02
        -0.25928E-02
        -0.32179E-02
        -0.36559E-02
        -0.38815E-02
        -0.38815E-02
        -0.36559E-02
        -0.32179E-02
        -0.25928E-02
        -0.18171E-02
        -0.93572E-03
         0.67736E-03
         0.12361E-02
         0.59570E-03
        -0.33172E-03
         0.15173E-03
        -0.67248E-03
         0.18427E-02
         0.14656E-02
         0.30852E-03
         0.11812E-02
         0.22758E-02
         0.28251E-02
         0.24249E-02
         0.21688E-02
         0.29345E-02
        -0.10044E-02
         0.85443E-04
        -0.69737E-03
        -0.71084E-03
         0.83737E-04
        -0.77729E-03
         0.42899E-04
        -0.15191E-02
        -0.13222E-02
         0.99932E-03
        -0.17322E-02
         0.20243E-02
         0.18605E-02
         0.17175E-02
         0.91132E-03
        -0.19802E-02
        -0.23491E-02
        -0.17074E-02
        -0.14914E-02
         0.76841E-03
         0.12511E-02
         0.18668E-02
         0.28952E-02
         0.27170E-02
         0.24624E-02
         0.22358E-02
         0.16503E-02
         0.87702E-03
        -0.21374E-02
        -0.26933E-02
        -0.31291E-02
        -0.30382E-02
        -0.28749E-02
        -0.26444E-02
        -0.23723E-02
        -0.21489E-02
        -0.15096E-02
         0.93572E-03
         0.00000E+00
         0.18171E-02
         0.25928E-02
         0.32179E-02
         0.36559E-02
         0.38815E-02
         0.38815E-02
         0.36559E-02
         0.32179E-02
         0.25928E-02
         0.18171E-02
         0.93572E-03
        -0.47884E-18
        -0.93572E-03
        -0.18171E-02
        -0.25928E-02
        -0.32179E-02
        -0.36559E-02
        -0.38815E-02
        -0.38815E-02
        -0.36559E-02
        -0.32179E-02
        -0.25928E-02
        -0.18171E-02
        -0.93572E-03
         0.67791E-03
         0.12368E-02
         0.59622E-03
        -0.33096E-03
         0.15209E-03
        -0.67199E-03
         0.18429E-02
         0.14666E-02
         0.30967E-03
         0.11830E-02
         0.22759E-02
         0.28247E-02
         0.24251E-02
         0.21688E-02
         0.29343E-02
        -0.10046E-02
         0.86253E-04
        -0.69665E-03
        -0.71070E-03
         0.83861E-04
        -0.77712E-03
         0.43173E-04
        -0.15190E-02
        -0.13220E-02
         0.10007E-02
        -0.17321E-02
         0.20245E-02
         0.18603E-02
         0.17175E-02
         0.91156E-03
        -0.19802E-02
        -0.23491E-02
        -0.17074E-02
        -0.14916E-02
         0.76941E-03
         0.12515E-02
         0.18668E-02
         0.28942E-02
         0.27165E-02
         0.24622E-02
         0.22358E-02
         0.16503E-02
         0.87728E-03
        -0.21374E-02
        -0.26933E-02
        -0.31291E-02
        -0.30382E-02
        -0.28749E-02
        -0.26447E-02
        -0.23725E-02
        -0.21494E-02
        -0.15095E-02
         0.93572E-03
         0.00000E+00
         0.18171E-02
         0.25928E-02
         0.32179E-02
         0.36559E-02
         0.38815E-02
         0.38815E-02
         0.36559E-02
         0.32179E-02
         0.25928E-02
         0.18171E-02
         0.93572E-03
        -0.47884E-18
        -0.93572E-03
        -0.18171E-02
        -0.25928E-02
        -0.32179E-02
        -0.36559E-02
        -0.38815E-02
        -0.38815E-02
        -0.36559E-02
        -0.32179E-02
        -0.25928E-02
        -0.18171E-02
        -0.93572E-03
         0.67847E-03
         0.12374E-02
         0.59674E-03
        -0.33021E-03
         0.15245E-03
        -0.67150E-03
         0.18430E-02
         0.14676E-02
         0.31081E-03
         0.11847E-02
         0.22761E-02
         0.28242E-02
         0.24252E-02
         0.21688E-02
         0.29340E-02
        -0.10047E-02
         0.87062E-04
        -0.69592E-03
        -0.71056E-03
         0.83985E-04
        -0.77695E-03
         0.43446E-04
        -0.15190E-02
        -0.13219E-02
         0.10020E-02
        -0.17321E-02
         0.20248E-02
         0.18602E-02
         0.17175E-02
         0.91180E-03
        -0.19803E-02
        -0.23491E-02
        -0.17073E-02
        -0.14919E-02
         0.77042E-03
         0.12520E-02
         0.18669E-02
         0.28931E-02
         0.27160E-02
         0.24620E-02
         0.22358E-02
         0.16503E-02
         0.87754E-03
        -0.21374E-02
        -0.26933E-02
        -0.31291E-02
        -0.30382E-02
        -0.28749E-02
        -0.26450E-02
        -0.23727E-02
        -0.21500E-02
        -0.15094E-02
         0.93572E-03
         0.00000E+00
         0.18171E-02
         0.25928E-02
         0.32179E-02
         0.36559E-02
         0.38815E-02
         0.38815E-02
         0.36559E-02
         0.32179E-02
         0.25928E-02
         0.18171E-02
         0.93572E-03
         0.39516E-17
        -0.93572E-03
        -0.18171E-02
        -0.25928E-02
        -0.32179E-02
        -0.36559E-02
        -0.38815E-02
        -0.38815E-02
        -0.36559E-02
        -0.32179E-02
        -0.25928E-02
        -0.18171E-02
        -0.93572E-03
         0.67902E-03
         0.12381E-02
         0.59727E-03
        -0.32945E-03
         0.15282E-03
        -0.67100E-03
         0.18432E-02
         0.14686E-02
         0.31196E-03
         0.11865E-02
         0.22762E-02
         0.28238E-02
         0.24254E-02
         0.21688E-02
         0.29337E-02
        -0.10049E-02
         0.87871E-04
        -0.69519E-03
        -0.71042E-03
         0.84108E-04
        -0.77678E-03
         0.43720E-04
        -0.15189E-02
        -0.13219E-02
         0.10034E-02
        -0.17320E-02
         0.20251E-02
         0.18601E-02
         0.17175E-02
         0.91204E-03
        -0.19803E-02
        -0.23492E-02
        -0.17073E-02
        -0.14921E-02
         0.77142E-03
         0.12524E-02
         0.18669E-02
         0.28920E-02
         0.27155E-02
         0.24618E-02
         0.22358E-02
         0.16503E-02
         0.87781E-03
        -0.21374E-02
        -0.26934E-02
        -0.31291E-02
        -0.30382E-02
        -0.28749E-02
        -0.26452E-02
        -0.23729E-02
        -0.21505E-02
        -0.15093E-02
         0.93572E-03
         0.00000E+00
         0.18171E-02
         0.25928E-02
         0.32179E-02
         0.36559E-02
         0.38815E-02
         0.38815E-02
         0.36559E-02
         0.32179E-02
         0.25928E-02
         0.18171E-02
         0.93572E-03
        -0.47884E-18
        -0.93572E-03
        -0.18171E-02
        -0.25928E-02
        -0.32179E-02
        -0.36559E-02
        -0.38815E-02
        -0.38815E-02
        -0.36559E-02
        -0.32179E-02
        -0.25928E-02
        -0.18171E-02
        -0.93572E-03
         0.67958E-03
         0.12387E-02
         0.59779E-03
        -0.32870E-03
         0.15318E-03
        -0.67051E-03
         0.18434E-02
         0.14696E-02
         0.31311E-03
         0.11882E-02
         0.22763E-02
         0.28233E-02
         0.24255E-02
         0.21689E-02
         0.29335E-02
        -0.10050E-02
         0.88681E-04
        -0.69447E-03
        -0.71028E-03
         0.84232E-04
        -0.77661E-03
         0.43993E-04
        -0.15189E-02
        -0.13218E-02
         0.10048E-02
        -0.17320E-02
         0.20254E-02
         0.18599E-02
         0.17175E-02
         0.91228E-03
        -0.19803E-02
        -0.23492E-02
        -0.17073E-02
        -0.14923E-02
         0.77243E-03
         0.12528E-02
         0.18670E-02
         0.28910E-02
         0.27151E-02
         0.24615E-02
         0.22358E-02
         0.16503E-02
         0.87807E-03
        -0.21374E-02
        -0.26934E-02
        -0.31291E-02
        -0.30382E-02
        -0.28749E-02
        -0.26455E-02
        -0.23732E-02
        -0.21511E-02
        -0.15092E-02
         0.93572E-03
         0.00000E+00
         0.18171E-02
         0.25928E-02
         0.32179E-02
         0.36559E-02
         0.38815E-02
         0.38815E-02
         0.36559E-02
         0.32179E-02
         0.25928E-02
         0.18171E-02
         0.93572E-03
         0.22152E-17
        -0.93572E-03
        -0.18171E-02
        -0.25928E-02
        -0.32179E-02
        -0.36559E-02
        -0.38815E-02
        -0.38815E-02
        -0.36559E-02
        -0.32179E-02
        -0.25928E-02
        -0.18171E-02
        -0.93572E-03
         0.68013E-03
         0.12394E-02
         0.59831E-03
        -0.32794E-03
         0.15354E-03
        -0.67002E-03
         0.18436E-02
         0.14706E-02
         0.31426E-03
         0.11900E-02
         0.22765E-02
         0.28229E-02
         0.24257E-02
         0.21689E-02
         0.29332E-02
        -0.10051E-02
         0.89490E-04
        -0.69374E-03
        -0.71013E-03
         0.84355E-04
        -0.77644E-03
         0.44266E-04
        -0.15188E-02
        -0.13216E-02
         0.10061E-02
        -0.17320E-02
         0.20257E-02
         0.18598E-02
         0.17175E-02
         0.91252E-03
        -0.19803E-02
        -0.23492E-02
        -0.17073E-02
        -0.14926E-02
         0.77343E-03
         0.12533E-02
         0.18670E-02
         0.28899E-02
         0.27146E-02
         0.24613E-02
         0.22358E-02
         0.16503E-02
         0.87833E-03
        -0.21374E-02
        -0.26934E-02
        -0.31291E-02
        -0.30382E-02
        -0.28750E-02
        -0.26458E-02
        -0.23734E-02
        -0.21516E-02
        -0.15091E-02
         0.93572E-03
         0.00000E+00
         0.18171E-02
         0.25928E-02
         0.32179E-02
         0.36559E-02
         0.38815E-02
         0.38815E-02
         0.36559E-02
         0.32179E-02
         0.25928E-02
         0.18171E-02
         0.93572E-03
        -0.47884E-18
        -0.93572E-03
        -0.18171E-02
        -0.25928E-02
        -0.32179E-02
        -0.36559E-02
        -0.38815E-02
        -0.38815E-02
        -0.36559E-02
        -0.32179E-02
        -0.25928E-02
        -0.18171E-02
        -0.93572E-03
         0.68068E-03
         0.12401E-02
         0.59884E-03
        -0.32719E-03
         0.15391E-03
        -0.66953E-03
         0.18438E-02
         0.14716E-02
         0.31541E-03
         0.11917E-02
         0.22766E-02
         0.28225E-02
         0.24258E-02
         0.21690E-02
         0.29330E-02
        -0.10053E-02
         0.90299E-04
        -0.69302E-03
        -0.70999E-03
         0.84479E-04
        -0.77627E-03
         0.44540E-04
        -0.15188E-02
        -0.13215E-02
         0.10075E-02
        -0.17319E-02
         0.20260E-02
         0.18597E-02
         0.17175E-02
         0.91276E-03
        -0.19804E-02
        -0.23493E-02
        -0.17073E-02
        -0.14928E-02
         0.77444E-03
         0.12537E-02
         0.18670E-02
         0.28888E-02
         0.27141E-02
         0.24611E-02
         0.22358E-02
         0.16503E-02
         0.87859E-03
        -0.21374E-02
        -0.26934E-02
        -0.31291E-02
        -0.30382E-02
        -0.28750E-02
        -0.26460E-02
        -0.23736E-02
        -0.21521E-02
        -0.15090E-02
         0.93572E-03
         0.00000E+00
         0.18171E-02
         0.25928E-02
         0.32179E-02
         0.36559E-02
         0.38815E-02
         0.38815E-02
         0.36559E-02
         0.32179E-02
         0.25928E-02
         0.18171E-02
         0.93572E-03
         0.22152E-17
        -0.93572E-03
        -0.18171E-02
        -0.25928E-02
        -0.32179E-02
        -0.36559E-02
        -0.38815E-02
        -0.38815E-02
        -0.36559E-02
        -0.32179E-02
        -0.25928E-02
        -0.18171E-02
        -0.93572E-03
         0.68124E-03
         0.12407E-02
         0.59936E-03
        -0.32643E-03
         0.15427E-03
        -0.66903E-03
         0.18440E-02
         0.14727E-02
         0.31656E-03
         0.11935E-02
         0.22767E-02
         0.28220E-02
         0.24260E-02
         0.21690E-02
         0.29327E-02
        -0.10054E-02
         0.91108E-04
        -0.69229E-03
        -0.70985E-03
         0.84602E-04
        -0.77610E-03
         0.44813E-04
        -0.15187E-02
        -0.13215E-02
         0.10088E-02
        -0.17319E-02
         0.20262E-02
         0.18595E-02
         0.17175E-02
         0.91300E-03
        -0.19804E-02
        -0.23493E-02
        -0.17073E-02
        -0.14931E-02
         0.77544E-03
         0.12541E-02
         0.18671E-02
         0.28877E-02
         0.27137E-02
         0.24609E-02
         0.22358E-02
         0.16503E-02
         0.87885E-03
        -0.21374E-02
        -0.26934E-02
        -0.31291E-02
        -0.30382E-02
        -0.28750E-02
        -0.26463E-02
        -0.23738E-02
        -0.21527E-02
        -0.15088E-02
         0.93572E-03
         0.00000E+00
         0.18171E-02
         0.25928E-02
         0.32179E-02
         0.36559E-02
         0.38815E-02
         0.38815E-02
         0.36559E-02
         0.32179E-02
         0.25928E-02
         0.18171E-02
         0.93572E-03
        -0.47884E-18
        -0.93572E-03
        -0.18171E-02
        -0.25928E-02
        -0.32179E-02
        -0.36559E-02
        -0.38815E-02
        -0.38815E-02
        -0.36559E-02
        -0.32179E-02
        -0.25928E-02
        -0.18171E-02
        -0.93572E-03
         0.68179E-03
         0.12414E-02
         0.59988E-03
        -0.32568E-03
         0.15463E-03
        -0.66854E-03
         0.18442E-02
         0.14736E-02
         0.31770E-03
         0.11952E-02
         0.22768E-02
         0.28216E-02
         0.24261E-02
         0.21690E-02
         0.29324E-02
        -0.10056E-02
         0.91918E-04
        -0.69156E-03
        -0.70971E-03
         0.84726E-04
        -0.77593E-03
         0.45086E-04
        -0.15187E-02
        -0.13213E-02
         0.10102E-02
        -0.17318E-02
         0.20265E-02
         0.18594E-02
         0.17175E-02
         0.91324E-03
        -0.19804E-02
        -0.23493E-02
        -0.17073E-02
        -0.14933E-02
         0.77645E-03
         0.12545E-02
         0.18671E-02
         0.28867E-02
         0.27132E-02
         0.24606E-02
         0.22358E-02
         0.16503E-02
         0.87912E-03
        -0.21374E-02
        -0.26935E-02
        -0.31291E-02
        -0.30381E-02
        -0.28750E-02
        -0.26466E-02
        -0.23740E-02
        -0.21533E-02
        -0.15087E-02
         0.93572E-03
         0.00000E+00
         0.18171E-02
         0.25928E-02
         0.32179E-02
         0.36559E-02
         0.38815E-02
         0.38815E-02
         0.36559E-02
         0.32179E-02
         0.25928E-02
         0.18171E-02
         0.93572E-03
        -0.47884E-18
        -0.93572E-03
        -0.18171E-02
        -0.25928E-02
        -0.32179E-02
        -0.36559E-02
        -0.38815E-02
        -0.38815E-02
        -0.36559E-02
        -0.32179E-02
        -0.25928E-02
        -0.18171E-02
        -0.93572E-03
         0.68235E-03
         0.12421E-02
         0.60041E-03
        -0.32493E-03
         0.15500E-03
        -0.66805E-03
         0.18444E-02
         0.14747E-02
         0.31885E-03
         0.11970E-02
         0.22770E-02
         0.28211E-02
         0.24262E-02
         0.21691E-02
         0.29322E-02
        -0.10057E-02
         0.92727E-04
        -0.69084E-03
        -0.70957E-03
         0.84849E-04
        -0.77576E-03
         0.45359E-04
        -0.15186E-02
        -0.13212E-02
         0.10115E-02
        -0.17318E-02
         0.20268E-02
         0.18593E-02
         0.17175E-02
         0.91347E-03
        -0.19804E-02
        -0.23493E-02
        -0.17073E-02
        -0.14936E-02
         0.77745E-03
         0.12550E-02
         0.18671E-02
         0.28856E-02
         0.27127E-02
         0.24604E-02
         0.22358E-02
         0.16503E-02
         0.87938E-03
        -0.21374E-02
        -0.26935E-02
        -0.31291E-02
        -0.30381E-02
        -0.28750E-02
        -0.26468E-02
        -0.23742E-02
        -0.21538E-02
        -0.15086E-02
         0.93572E-03
         0.00000E+00
         0.18171E-02
         0.25928E-02
         0.32179E-02
         0.36559E-02
         0.38815E-02
         0.38815E-02
         0.36559E-02
         0.32179E-02
         0.25928E-02
         0.18171E-02
         0.93572E-03
        -0.47884E-18
        -0.93572E-03
        -0.18171E-02
        -0.25928E-02
        -0.32179E-02
        -0.36559E-02
        -0.38815E-02
        -0.38815E-02
        -0.36559E-02
        -0.32179E-02
        -0.25928E-02
        -0.18171E-02
        -0.93572E-03
         0.68290E-03
         0.12427E-02
         0.60093E-03
        -0.32417E-03
         0.15536E-03
        -0.66755E-03
         0.18445E-02
         0.14757E-02
         0.32000E-03
         0.11987E-02
         0.22771E-02
         0.28207E-02
         0.24264E-02
         0.21691E-02
         0.29319E-02
        -0.10058E-02
         0.93536E-04
        -0.69011E-03
        -0.70943E-03
         0.84973E-04
        -0.77559E-03
         0.45633E-04
        -0.15186E-02
        -0.13212E-02
         0.10129E-02
        -0.17318E-02
         0.20271E-02
         0.18592E-02
         0.17175E-02
         0.91371E-03
        -0.19805E-02
        -0.23493E-02
        -0.17073E-02
        -0.14938E-02
         0.77846E-03
         0.12554E-02
         0.18672E-02
         0.28845E-02
         0.27122E-02
         0.24602E-02
         0.22358E-02
         0.16502E-02
         0.87964E-03
        -0.21374E-02
        -0.26935E-02
        -0.31291E-02
        -0.30381E-02
        -0.28750E-02
        -0.26471E-02
        -0.23744E-02
        -0.21543E-02
        -0.15085E-02
         0.93572E-03
         0.00000E+00
         0.18171E-02
         0.25928E-02
         0.32179E-02
         0.36559E-02
         0.38815E-02
         0.38815E-02
         0.36559E-02
         0.32179E-02
         0.25928E-02
         0.18171E-02
         0.93572E-03
        -0.47884E-18
        -0.93572E-03
        -0.18171E-02
        -0.25928E-02
        -0.32179E-02
        -0.36559E-02
        -0.38815E-02
        -0.38815E-02
        -0.36559E-02
        -0.32179E-02
        -0.25928E-02
        -0.18171E-02
        -0.93572E-03
         0.68346E-03
         0.12434E-02
         0.60145E-03
        -0.32342E-03
         0.15572E-03
        -0.66706E-03
         0.18447E-02
         0.14767E-02
         0.32115E-03
         0.12005E-02
         0.22772E-02
         0.28203E-02
         0.24265E-02
         0.21691E-02
         0.29316E-02
        -0.10060E-02
         0.94345E-04
        -0.68939E-03
        -0.70929E-03
         0.85096E-04
        -0.77542E-03
         0.45906E-04
        -0.15185E-02
        -0.13211E-02
         0.10142E-02
        -0.17317E-02
         0.20274E-02
         0.18590E-02
         0.17175E-02
         0.91395E-03
        -0.19805E-02
        -0.23494E-02
        -0.17073E-02
        -0.14941E-02
         0.77946E-03
         0.12558E-02
         0.18672E-02
         0.28835E-02
         0.27118E-02
         0.24600E-02
         0.22358E-02
         0.16502E-02
         0.87990E-03
        -0.21374E-02
        -0.26935E-02
        -0.31291E-02
        -0.30381E-02
        -0.28750E-02
        -0.26474E-02
        -0.23746E-02
        -0.21549E-02
        -0.15084E-02
         0.93572E-03
         0.00000E+00
         0.18171E-02
         0.25928E-02
         0.32179E-02
         0.36559E-02
         0.38815E-02
         0.38815E-02
         0.36559E-02
         0.32179E-02
         0.25928E-02
         0.18171E-02
         0.93572E-03
         0.22152E-17
        -0.93572E-03
        -0.18171E-02
        -0.25928E-02
        -0.32179E-02
        -0.36559E-02
        -0.38815E-02
        -0.38815E-02
        -0.36559E-02
        -0.32179E-02
        -0.25928E-02
        -0.18171E-02
        -0.93572E-03
         0.68401E-03
         0.12440E-02
         0.60198E-03
        -0.32266E-03
         0.15609E-03
        -0.66657E-03
         0.18449E-02
         0.14777E-02
         0.32230E-03
         0.12022E-02
         0.22774E-02
         0.28198E-02
         0.24267E-02
         0.21692E-02
         0.29314E-02
        -0.10061E-02
         0.95155E-04
        -0.68866E-03
        -0.70915E-03
         0.85220E-04
        -0.77525E-03
         0.46180E-04
        -0.15185E-02
        -0.13210E-02
         0.10156E-02
        -0.17317E-02
         0.20277E-02
         0.18589E-02
         0.17175E-02
         0.91419E-03
        -0.19805E-02
        -0.23494E-02
        -0.17073E-02
        -0.14943E-02
         0.78047E-03
         0.12563E-02
         0.18672E-02
         0.28824E-02
         0.27113E-02
         0.24597E-02
         0.22358E-02
         0.16502E-02
         0.88016E-03
        -0.21374E-02
        -0.26935E-02
        -0.31291E-02
        -0.30381E-02
        -0.28751E-02
        -0.26476E-02
        -0.23748E-02
        -0.21554E-02
        -0.15083E-02
         0.93572E-03
         0.00000E+00
         0.18171E-02
         0.25928E-02
         0.32179E-02
         0.36559E-02
         0.38815E-02
         0.38815E-02
         0.36559E-02
         0.32179E-02
         0.25928E-02
         0.18171E-02
         0.93572E-03
        -0.47884E-18
        -0.93572E-03
        -0.18171E-02
        -0.25928E-02
        -0.32179E-02
        -0.36559E-02
        -0.38815E-02
        -0.38815E-02
        -0.36559E-02
        -0.32179E-02
        -0.25928E-02
        -0.18171E-02
        -0.93572E-03
         0.68457E-03
         0.12447E-02
         0.60250E-03
        -0.32191E-03
         0.15645E-03
        -0.66607E-03
         0.18451E-02
         0.14787E-02
         0.32345E-03
         0.12040E-02
         0.22775E-02
         0.28194E-02
         0.24268E-02
         0.21692E-02
         0.29311E-02
        -0.10062E-02
         0.95964E-04
        -0.68793E-03
        -0.70901E-03
         0.85343E-04
        -0.77507E-03
         0.46453E-04
        -0.15184E-02
        -0.13209E-02
         0.10169E-02
        -0.17316E-02
         0.20280E-02
         0.18588E-02
         0.17175E-02
         0.91443E-03
        -0.19806E-02
        -0.23494E-02
        -0.17073E-02
        -0.14945E-02
         0.78148E-03
         0.12567E-02
         0.18673E-02
         0.28813E-02
         0.27108E-02
         0.24595E-02
         0.22358E-02
         0.16502E-02
         0.88043E-03
        -0.21374E-02
        -0.26936E-02
        -0.31291E-02
        -0.30381E-02
        -0.28751E-02
        -0.26479E-02
        -0.23750E-02
        -0.21560E-02
        -0.15082E-02
         0.93572E-03
         0.00000E+00
         0.18171E-02
         0.25928E-02
         0.32179E-02
         0.36559E-02
         0.38815E-02
         0.38815E-02
         0.36559E-02
         0.32179E-02
         0.25928E-02
         0.18171E-02
         0.93572E-03
        -0.47884E-18
        -0.93572E-03
        -0.18171E-02
        -0.25928E-02
        -0.32179E-02
        -0.36559E-02
        -0.38815E-02
        -0.38815E-02
        -0.36559E-02
        -0.32179E-02
        -0.25928E-02
        -0.18171E-02
        -0.93572E-03
         0.68512E-03
         0.12454E-02
         0.60302E-03
        -0.32115E-03
         0.15681E-03
        -0.66558E-03
         0.18453E-02
         0.14797E-02
         0.32459E-03
         0.12058E-02
         0.22776E-02
         0.28189E-02
         0.24270E-02
         0.21693E-02
         0.29308E-02
        -0.10064E-02
         0.96773E-04
        -0.68721E-03
        -0.70887E-03
         0.85467E-04
        -0.77490E-03
         0.46726E-04
        -0.15184E-02
        -0.13208E-02
         0.10183E-02
        -0.17316E-02
         0.20283E-02
         0.18586E-02
         0.17175E-02
         0.91467E-03
        -0.19806E-02
        -0.23494E-02
        -0.17073E-02
        -0.14948E-02
         0.78248E-03
         0.12571E-02
         0.18673E-02
         0.28802E-02
         0.27103E-02
         0.24593E-02
         0.22358E-02
         0.16502E-02
         0.88069E-03
        -0.21374E-02
        -0.26936E-02
        -0.31291E-02
        -0.30381E-02
        -0.28751E-02
        -0.26482E-02
        -0.23752E-02
        -0.21565E-02
        -0.15081E-02
         0.93572E-03
         0.00000E+00
         0.18171E-02
         0.25928E-02
         0.32179E-02
         0.36559E-02
         0.38815E-02
         0.38815E-02
         0.36559E-02
         0.32179E-02
         0.25928E-02
         0.18171E-02
         0.93572E-03
        -0.47884E-18
        -0.93572E-03
        -0.18171E-02
        -0.25928E-02
        -0.32179E-02
        -0.36559E-02
        -0.38815E-02
        -0.38815E-02
        -0.36559E-02
        -0.32179E-02
        -0.25928E-02
        -0.18171E-02
        -0.93572E-03
         0.68567E-03
         0.12460E-02
         0.60355E-03
        -0.32040E-03
         0.15718E-03
        -0.66509E-03
         0.18455E-02
         0.14807E-02
         0.32574E-03
         0.12075E-02
         0.22777E-02
         0.28185E-02
         0.24271E-02
         0.21693E-02
         0.29306E-02
        -0.10065E-02
         0.97583E-04
        -0.68648E-03
        -0.70873E-03
         0.85591E-04
        -0.77474E-03
         0.47000E-04
        -0.15183E-02
        -0.13207E-02
         0.10197E-02
        -0.17316E-02
         0.20285E-02
         0.18585E-02
         0.17175E-02
         0.91491E-03
        -0.19806E-02
        -0.23495E-02
        -0.17073E-02
        -0.14950E-02
         0.78348E-03
         0.12576E-02
         0.18674E-02
         0.28792E-02
         0.27099E-02
         0.24591E-02
         0.22358E-02
         0.16502E-02
         0.88095E-03
        -0.21374E-02
        -0.26936E-02
        -0.31290E-02
        -0.30381E-02
        -0.28751E-02
        -0.26484E-02
        -0.23754E-02
        -0.21571E-02
        -0.15080E-02
         0.93572E-03
         0.00000E+00
         0.18171E-02
         0.25928E-02
         0.32179E-02
         0.36559E-02
         0.38815E-02
         0.38815E-02
         0.36559E-02
         0.32179E-02
         0.25928E-02
         0.18171E-02
         0.93572E-03
         0.47884E-18
        -0.93572E-03
        -0.18171E-02
        -0.25928E-02
        -0.32179E-02
        -0.36559E-02
        -0.38815E-02
        -0.38815E-02
        -0.36559E-02
        -0.32179E-02
        -0.25928E-02
        -0.18171E-02
        -0.93572E-03
  
SCALARS           initial_coordinate_z  double 1
LOOKUP_TABLE default
        -0.10771E-01
        -0.10771E-01
        -0.10771E-01
        -0.10771E-01
        -0.11750E-01
        -0.11750E-01
        -0.11750E-01
        -0.11750E-01
        -0.10771E-01
        -0.10771E-01
        -0.11750E-01
        -0.11750E-01
        -0.10771E-01
        -0.10771E-01
        -0.11750E-01
        -0.11750E-01
        -0.10771E-01
        -0.10771E-01
        -0.11750E-01
        -0.11750E-01
        -0.10771E-01
        -0.10771E-01
        -0.10771E-01
        -0.11750E-01
        -0.11750E-01
        -0.11750E-01
        -0.10771E-01
        -0.10771E-01
        -0.11750E-01
        -0.11750E-01
        -0.10771E-01
        -0.10771E-01
        -0.10771E-01
        -0.11750E-01
        -0.11750E-01
        -0.11750E-01
        -0.10771E-01
        -0.10771E-01
        -0.11750E-01
        -0.11750E-01
        -0.10771E-01
        -0.10771E-01
        -0.11750E-01
        -0.11750E-01
        -0.10771E-01
        -0.10771E-01
        -0.11750E-01
        -0.11750E-01
        -0.10771E-01
        -0.11750E-01
        -0.10771E-01
        -0.11750E-01
        -0.10771E-01
        -0.11750E-01
        -0.10771E-01
        -0.11750E-01
        -0.10771E-01
        -0.10771E-01
        -0.11750E-01
        -0.11750E-01
        -0.10771E-01
        -0.10771E-01
        -0.11750E-01
        -0.11750E-01
        -0.10771E-01
        -0.11750E-01
        -0.10771E-01
        -0.11750E-01
        -0.10771E-01
        -0.10771E-01
        -0.11750E-01
        -0.11750E-01
        -0.10771E-01
        -0.11750E-01
        -0.10771E-01
        -0.11750E-01
        -0.10771E-01
        -0.11750E-01
        -0.10771E-01
        -0.11750E-01
        -0.10771E-01
        -0.10771E-01
        -0.11750E-01
        -0.11750E-01
        -0.10771E-01
        -0.11750E-01
        -0.10771E-01
        -0.11750E-01
        -0.10771E-01
        -0.11750E-01
        -0.10771E-01
        -0.10771E-01
        -0.11750E-01
        -0.11750E-01
        -0.10771E-01
        -0.11750E-01
        -0.10771E-01
        -0.11750E-01
        -0.10771E-01
        -0.11750E-01
        -0.10771E-01
        -0.10771E-01
        -0.11750E-01
        -0.11750E-01
        -0.10771E-01
        -0.10771E-01
        -0.11750E-01
        -0.11750E-01
        -0.10771E-01
        -0.11750E-01
        -0.10771E-01
        -0.11750E-01
        -0.10771E-01
        -0.11750E-01
        -0.10771E-01
        -0.11750E-01
        -0.10771E-01
        -0.11750E-01
        -0.10771E-01
        -0.11750E-01
        -0.10771E-01
        -0.11750E-01
        -0.10771E-01
        -0.11750E-01
        -0.10771E-01
        -0.11750E-01
        -0.10771E-01
        -0.11750E-01
        -0.10771E-01
        -0.11750E-01
        -0.10771E-01
        -0.11750E-01
        -0.10771E-01
        -0.11750E-01
        -0.10771E-01
        -0.11750E-01
        -0.10771E-01
        -0.11750E-01
        -0.10771E-01
        -0.11750E-01
        -0.10771E-01
        -0.11750E-01
        -0.10771E-01
        -0.11750E-01
        -0.10771E-01
        -0.11750E-01
        -0.10771E-01
        -0.11750E-01
        -0.10771E-01
        -0.11750E-01
        -0.10771E-01
        -0.11750E-01
        -0.10771E-01
        -0.11750E-01
        -0.10771E-01
        -0.11750E-01
        -0.97917E-02
        -0.97917E-02
        -0.97917E-02
        -0.97917E-02
        -0.97917E-02
        -0.97917E-02
        -0.97917E-02
        -0.97917E-02
        -0.97917E-02
        -0.97917E-02
        -0.97917E-02
        -0.97917E-02
        -0.97917E-02
        -0.97917E-02
        -0.97917E-02
        -0.97917E-02
        -0.97917E-02
        -0.97917E-02
        -0.97917E-02
        -0.97917E-02
        -0.97917E-02
        -0.97917E-02
        -0.97917E-02
        -0.97917E-02
        -0.97917E-02
        -0.97917E-02
        -0.97917E-02
        -0.97917E-02
        -0.97917E-02
        -0.97917E-02
        -0.97917E-02
        -0.97917E-02
        -0.97917E-02
        -0.97917E-02
        -0.97917E-02
        -0.97917E-02
        -0.97917E-02
        -0.97917E-02
        -0.97917E-02
        -0.97917E-02
        -0.97917E-02
        -0.97917E-02
        -0.97917E-02
        -0.97917E-02
        -0.97917E-02
        -0.97917E-02
        -0.97917E-02
        -0.97917E-02
        -0.97917E-02
        -0.97917E-02
        -0.97917E-02
        -0.97917E-02
        -0.97917E-02
        -0.97917E-02
        -0.97917E-02
        -0.97917E-02
        -0.97917E-02
        -0.97917E-02
        -0.97917E-02
        -0.97917E-02
        -0.97917E-02
        -0.97917E-02
        -0.97917E-02
        -0.97917E-02
        -0.97917E-02
        -0.97917E-02
        -0.97917E-02
        -0.97917E-02
        -0.97917E-02
        -0.97917E-02
        -0.97917E-02
        -0.97917E-02
        -0.97917E-02
        -0.97917E-02
        -0.97917E-02
        -0.97917E-02
        -0.97917E-02
        -0.97917E-02
        -0.88125E-02
        -0.88125E-02
        -0.88125E-02
        -0.88125E-02
        -0.88125E-02
        -0.88125E-02
        -0.88125E-02
        -0.88125E-02
        -0.88125E-02
        -0.88125E-02
        -0.88125E-02
        -0.88125E-02
        -0.88125E-02
        -0.88125E-02
        -0.88125E-02
        -0.88125E-02
        -0.88125E-02
        -0.88125E-02
        -0.88125E-02
        -0.88125E-02
        -0.88125E-02
        -0.88125E-02
        -0.88125E-02
        -0.88125E-02
        -0.88125E-02
        -0.88125E-02
        -0.88125E-02
        -0.88125E-02
        -0.88125E-02
        -0.88125E-02
        -0.88125E-02
        -0.88125E-02
        -0.88125E-02
        -0.88125E-02
        -0.88125E-02
        -0.88125E-02
        -0.88125E-02
        -0.88125E-02
        -0.88125E-02
        -0.88125E-02
        -0.88125E-02
        -0.88125E-02
        -0.88125E-02
        -0.88125E-02
        -0.88125E-02
        -0.88125E-02
        -0.88125E-02
        -0.88125E-02
        -0.88125E-02
        -0.88125E-02
        -0.88125E-02
        -0.88125E-02
        -0.88125E-02
        -0.88125E-02
        -0.88125E-02
        -0.88125E-02
        -0.88125E-02
        -0.88125E-02
        -0.88125E-02
        -0.88125E-02
        -0.88125E-02
        -0.88125E-02
        -0.88125E-02
        -0.88125E-02
        -0.88125E-02
        -0.88125E-02
        -0.88125E-02
        -0.88125E-02
        -0.88125E-02
        -0.88125E-02
        -0.88125E-02
        -0.88125E-02
        -0.88125E-02
        -0.88125E-02
        -0.88125E-02
        -0.88125E-02
        -0.88125E-02
        -0.88125E-02
        -0.78333E-02
        -0.78333E-02
        -0.78333E-02
        -0.78333E-02
        -0.78333E-02
        -0.78333E-02
        -0.78333E-02
        -0.78333E-02
        -0.78333E-02
        -0.78333E-02
        -0.78333E-02
        -0.78333E-02
        -0.78333E-02
        -0.78333E-02
        -0.78333E-02
        -0.78333E-02
        -0.78333E-02
        -0.78333E-02
        -0.78333E-02
        -0.78333E-02
        -0.78333E-02
        -0.78333E-02
        -0.78333E-02
        -0.78333E-02
        -0.78333E-02
        -0.78333E-02
        -0.78333E-02
        -0.78333E-02
        -0.78333E-02
        -0.78333E-02
        -0.78333E-02
        -0.78333E-02
        -0.78333E-02
        -0.78333E-02
        -0.78333E-02
        -0.78333E-02
        -0.78333E-02
        -0.78333E-02
        -0.78333E-02
        -0.78333E-02
        -0.78333E-02
        -0.78333E-02
        -0.78333E-02
        -0.78333E-02
        -0.78333E-02
        -0.78333E-02
        -0.78333E-02
        -0.78333E-02
        -0.78333E-02
        -0.78333E-02
        -0.78333E-02
        -0.78333E-02
        -0.78333E-02
        -0.78333E-02
        -0.78333E-02
        -0.78333E-02
        -0.78333E-02
        -0.78333E-02
        -0.78333E-02
        -0.78333E-02
        -0.78333E-02
        -0.78333E-02
        -0.78333E-02
        -0.78333E-02
        -0.78333E-02
        -0.78333E-02
        -0.78333E-02
        -0.78333E-02
        -0.78333E-02
        -0.78333E-02
        -0.78333E-02
        -0.78333E-02
        -0.78333E-02
        -0.78333E-02
        -0.78333E-02
        -0.78333E-02
        -0.78333E-02
        -0.78333E-02
        -0.68542E-02
        -0.68542E-02
        -0.68542E-02
        -0.68542E-02
        -0.68542E-02
        -0.68542E-02
        -0.68542E-02
        -0.68542E-02
        -0.68542E-02
        -0.68542E-02
        -0.68542E-02
        -0.68542E-02
        -0.68542E-02
        -0.68542E-02
        -0.68542E-02
        -0.68542E-02
        -0.68542E-02
        -0.68542E-02
        -0.68542E-02
        -0.68542E-02
        -0.68542E-02
        -0.68542E-02
        -0.68542E-02
        -0.68542E-02
        -0.68542E-02
        -0.68542E-02
        -0.68542E-02
        -0.68542E-02
        -0.68542E-02
        -0.68542E-02
        -0.68542E-02
        -0.68542E-02
        -0.68542E-02
        -0.68542E-02
        -0.68542E-02
        -0.68542E-02
        -0.68542E-02
        -0.68542E-02
        -0.68542E-02
        -0.68542E-02
        -0.68542E-02
        -0.68542E-02
        -0.68542E-02
        -0.68542E-02
        -0.68542E-02
        -0.68542E-02
        -0.68542E-02
        -0.68542E-02
        -0.68542E-02
        -0.68542E-02
        -0.68542E-02
        -0.68542E-02
        -0.68542E-02
        -0.68542E-02
        -0.68542E-02
        -0.68542E-02
        -0.68542E-02
        -0.68542E-02
        -0.68542E-02
        -0.68542E-02
        -0.68542E-02
        -0.68542E-02
        -0.68542E-02
        -0.68542E-02
        -0.68542E-02
        -0.68542E-02
        -0.68542E-02
        -0.68542E-02
        -0.68542E-02
        -0.68542E-02
        -0.68542E-02
        -0.68542E-02
        -0.68542E-02
        -0.68542E-02
        -0.68542E-02
        -0.68542E-02
        -0.68542E-02
        -0.68542E-02
        -0.58750E-02
        -0.58750E-02
        -0.58750E-02
        -0.58750E-02
        -0.58750E-02
        -0.58750E-02
        -0.58750E-02
        -0.58750E-02
        -0.58750E-02
        -0.58750E-02
        -0.58750E-02
        -0.58750E-02
        -0.58750E-02
        -0.58750E-02
        -0.58750E-02
        -0.58750E-02
        -0.58750E-02
        -0.58750E-02
        -0.58750E-02
        -0.58750E-02
        -0.58750E-02
        -0.58750E-02
        -0.58750E-02
        -0.58750E-02
        -0.58750E-02
        -0.58750E-02
        -0.58750E-02
        -0.58750E-02
        -0.58750E-02
        -0.58750E-02
        -0.58750E-02
        -0.58750E-02
        -0.58750E-02
        -0.58750E-02
        -0.58750E-02
        -0.58750E-02
        -0.58750E-02
        -0.58750E-02
        -0.58750E-02
        -0.58750E-02
        -0.58750E-02
        -0.58750E-02
        -0.58750E-02
        -0.58750E-02
        -0.58750E-02
        -0.58750E-02
        -0.58750E-02
        -0.58750E-02
        -0.58750E-02
        -0.58750E-02
        -0.58750E-02
        -0.58750E-02
        -0.58750E-02
        -0.58750E-02
        -0.58750E-02
        -0.58750E-02
        -0.58750E-02
        -0.58750E-02
        -0.58750E-02
        -0.58750E-02
        -0.58750E-02
        -0.58750E-02
        -0.58750E-02
        -0.58750E-02
        -0.58750E-02
        -0.58750E-02
        -0.58750E-02
        -0.58750E-02
        -0.58750E-02
        -0.58750E-02
        -0.58750E-02
        -0.58750E-02
        -0.58750E-02
        -0.58750E-02
        -0.58750E-02
        -0.58750E-02
        -0.58750E-02
        -0.58750E-02
        -0.48958E-02
        -0.48958E-02
        -0.48958E-02
        -0.48958E-02
        -0.48958E-02
        -0.48958E-02
        -0.48958E-02
        -0.48958E-02
        -0.48958E-02
        -0.48958E-02
        -0.48958E-02
        -0.48958E-02
        -0.48958E-02
        -0.48958E-02
        -0.48958E-02
        -0.48958E-02
        -0.48958E-02
        -0.48958E-02
        -0.48958E-02
        -0.48958E-02
        -0.48958E-02
        -0.48958E-02
        -0.48958E-02
        -0.48958E-02
        -0.48958E-02
        -0.48958E-02
        -0.48958E-02
        -0.48958E-02
        -0.48958E-02
        -0.48958E-02
        -0.48958E-02
        -0.48958E-02
        -0.48958E-02
        -0.48958E-02
        -0.48958E-02
        -0.48958E-02
        -0.48958E-02
        -0.48958E-02
        -0.48958E-02
        -0.48958E-02
        -0.48958E-02
        -0.48958E-02
        -0.48958E-02
        -0.48958E-02
        -0.48958E-02
        -0.48958E-02
        -0.48958E-02
        -0.48958E-02
        -0.48958E-02
        -0.48958E-02
        -0.48958E-02
        -0.48958E-02
        -0.48958E-02
        -0.48958E-02
        -0.48958E-02
        -0.48958E-02
        -0.48958E-02
        -0.48958E-02
        -0.48958E-02
        -0.48958E-02
        -0.48958E-02
        -0.48958E-02
        -0.48958E-02
        -0.48958E-02
        -0.48958E-02
        -0.48958E-02
        -0.48958E-02
        -0.48958E-02
        -0.48958E-02
        -0.48958E-02
        -0.48958E-02
        -0.48958E-02
        -0.48958E-02
        -0.48958E-02
        -0.48958E-02
        -0.48958E-02
        -0.48958E-02
        -0.48958E-02
        -0.39167E-02
        -0.39167E-02
        -0.39167E-02
        -0.39167E-02
        -0.39167E-02
        -0.39167E-02
        -0.39167E-02
        -0.39167E-02
        -0.39167E-02
        -0.39167E-02
        -0.39167E-02
        -0.39167E-02
        -0.39167E-02
        -0.39167E-02
        -0.39167E-02
        -0.39167E-02
        -0.39167E-02
        -0.39167E-02
        -0.39167E-02
        -0.39167E-02
        -0.39167E-02
        -0.39167E-02
        -0.39167E-02
        -0.39167E-02
        -0.39167E-02
        -0.39167E-02
        -0.39167E-02
        -0.39167E-02
        -0.39167E-02
        -0.39167E-02
        -0.39167E-02
        -0.39167E-02
        -0.39167E-02
        -0.39167E-02
        -0.39167E-02
        -0.39167E-02
        -0.39167E-02
        -0.39167E-02
        -0.39167E-02
        -0.39167E-02
        -0.39167E-02
        -0.39167E-02
        -0.39167E-02
        -0.39167E-02
        -0.39167E-02
        -0.39167E-02
        -0.39167E-02
        -0.39167E-02
        -0.39167E-02
        -0.39167E-02
        -0.39167E-02
        -0.39167E-02
        -0.39167E-02
        -0.39167E-02
        -0.39167E-02
        -0.39167E-02
        -0.39167E-02
        -0.39167E-02
        -0.39167E-02
        -0.39167E-02
        -0.39167E-02
        -0.39167E-02
        -0.39167E-02
        -0.39167E-02
        -0.39167E-02
        -0.39167E-02
        -0.39167E-02
        -0.39167E-02
        -0.39167E-02
        -0.39167E-02
        -0.39167E-02
        -0.39167E-02
        -0.39167E-02
        -0.39167E-02
        -0.39167E-02
        -0.39167E-02
        -0.39167E-02
        -0.39167E-02
        -0.29375E-02
        -0.29375E-02
        -0.29375E-02
        -0.29375E-02
        -0.29375E-02
        -0.29375E-02
        -0.29375E-02
        -0.29375E-02
        -0.29375E-02
        -0.29375E-02
        -0.29375E-02
        -0.29375E-02
        -0.29375E-02
        -0.29375E-02
        -0.29375E-02
        -0.29375E-02
        -0.29375E-02
        -0.29375E-02
        -0.29375E-02
        -0.29375E-02
        -0.29375E-02
        -0.29375E-02
        -0.29375E-02
        -0.29375E-02
        -0.29375E-02
        -0.29375E-02
        -0.29375E-02
        -0.29375E-02
        -0.29375E-02
        -0.29375E-02
        -0.29375E-02
        -0.29375E-02
        -0.29375E-02
        -0.29375E-02
        -0.29375E-02
        -0.29375E-02
        -0.29375E-02
        -0.29375E-02
        -0.29375E-02
        -0.29375E-02
        -0.29375E-02
        -0.29375E-02
        -0.29375E-02
        -0.29375E-02
        -0.29375E-02
        -0.29375E-02
        -0.29375E-02
        -0.29375E-02
        -0.29375E-02
        -0.29375E-02
        -0.29375E-02
        -0.29375E-02
        -0.29375E-02
        -0.29375E-02
        -0.29375E-02
        -0.29375E-02
        -0.29375E-02
        -0.29375E-02
        -0.29375E-02
        -0.29375E-02
        -0.29375E-02
        -0.29375E-02
        -0.29375E-02
        -0.29375E-02
        -0.29375E-02
        -0.29375E-02
        -0.29375E-02
        -0.29375E-02
        -0.29375E-02
        -0.29375E-02
        -0.29375E-02
        -0.29375E-02
        -0.29375E-02
        -0.29375E-02
        -0.29375E-02
        -0.29375E-02
        -0.29375E-02
        -0.29375E-02
        -0.19583E-02
        -0.19583E-02
        -0.19583E-02
        -0.19583E-02
        -0.19583E-02
        -0.19583E-02
        -0.19583E-02
        -0.19583E-02
        -0.19583E-02
        -0.19583E-02
        -0.19583E-02
        -0.19583E-02
        -0.19583E-02
        -0.19583E-02
        -0.19583E-02
        -0.19583E-02
        -0.19583E-02
        -0.19583E-02
        -0.19583E-02
        -0.19583E-02
        -0.19583E-02
        -0.19583E-02
        -0.19583E-02
        -0.19583E-02
        -0.19583E-02
        -0.19583E-02
        -0.19583E-02
        -0.19583E-02
        -0.19583E-02
        -0.19583E-02
        -0.19583E-02
        -0.19583E-02
        -0.19583E-02
        -0.19583E-02
        -0.19583E-02
        -0.19583E-02
        -0.19583E-02
        -0.19583E-02
        -0.19583E-02
        -0.19583E-02
        -0.19583E-02
        -0.19583E-02
        -0.19583E-02
        -0.19583E-02
        -0.19583E-02
        -0.19583E-02
        -0.19583E-02
        -0.19583E-02
        -0.19583E-02
        -0.19583E-02
        -0.19583E-02
        -0.19583E-02
        -0.19583E-02
        -0.19583E-02
        -0.19583E-02
        -0.19583E-02
        -0.19583E-02
        -0.19583E-02
        -0.19583E-02
        -0.19583E-02
        -0.19583E-02
        -0.19583E-02
        -0.19583E-02
        -0.19583E-02
        -0.19583E-02
        -0.19583E-02
        -0.19583E-02
        -0.19583E-02
        -0.19583E-02
        -0.19583E-02
        -0.19583E-02
        -0.19583E-02
        -0.19583E-02
        -0.19583E-02
        -0.19583E-02
        -0.19583E-02
        -0.19583E-02
        -0.19583E-02
        -0.97917E-03
        -0.97917E-03
        -0.97917E-03
        -0.97917E-03
        -0.97917E-03
        -0.97917E-03
        -0.97917E-03
        -0.97917E-03
        -0.97917E-03
        -0.97917E-03
        -0.97917E-03
        -0.97917E-03
        -0.97917E-03
        -0.97917E-03
        -0.97917E-03
        -0.97917E-03
        -0.97917E-03
        -0.97917E-03
        -0.97917E-03
        -0.97917E-03
        -0.97917E-03
        -0.97917E-03
        -0.97917E-03
        -0.97917E-03
        -0.97917E-03
        -0.97917E-03
        -0.97917E-03
        -0.97917E-03
        -0.97917E-03
        -0.97917E-03
        -0.97917E-03
        -0.97917E-03
        -0.97917E-03
        -0.97917E-03
        -0.97917E-03
        -0.97917E-03
        -0.97917E-03
        -0.97917E-03
        -0.97917E-03
        -0.97917E-03
        -0.97917E-03
        -0.97917E-03
        -0.97917E-03
        -0.97917E-03
        -0.97917E-03
        -0.97917E-03
        -0.97917E-03
        -0.97917E-03
        -0.97917E-03
        -0.97917E-03
        -0.97917E-03
        -0.97917E-03
        -0.97917E-03
        -0.97917E-03
        -0.97917E-03
        -0.97917E-03
        -0.97917E-03
        -0.97917E-03
        -0.97917E-03
        -0.97917E-03
        -0.97917E-03
        -0.97917E-03
        -0.97917E-03
        -0.97917E-03
        -0.97917E-03
        -0.97917E-03
        -0.97917E-03
        -0.97917E-03
        -0.97917E-03
        -0.97917E-03
        -0.97917E-03
        -0.97917E-03
        -0.97917E-03
        -0.97917E-03
        -0.97917E-03
        -0.97917E-03
        -0.97917E-03
        -0.97917E-03
         0.38917E-18
         0.44621E-18
         0.34485E-18
         0.23671E-18
         0.26613E-18
         0.16162E-18
         0.53980E-18
         0.50579E-18
         0.36337E-18
         0.48798E-18
         0.60712E-18
         0.67611E-18
         0.60634E-18
         0.60658E-18
         0.70997E-18
         0.20892E-18
         0.35894E-18
         0.21887E-18
         0.27638E-18
         0.38382E-18
         0.29058E-18
         0.40326E-18
         0.18564E-18
         0.19650E-18
         0.48570E-18
         0.12837E-18
         0.60589E-18
         0.60416E-18
         0.60524E-18
         0.49621E-18
         0.61582E-19
         0.32255E-19
         0.73874E-19
         0.78478E-19
         0.34514E-18
         0.42054E-18
         0.51644E-18
         0.72521E-18
         0.72233E-18
         0.70722E-18
         0.69126E-18
         0.61573E-18
         0.51484E-18
         0.91170E-19
         0.30347E-20
        -0.66516E-19
        -0.69988E-19
        -0.68643E-19
        -0.59779E-19
        -0.43507E-19
        -0.29471E-19
         0.53205E-19
         0.86819E-18
         0.00000E+00
         0.86819E-18
         0.86819E-18
         0.00000E+00
         0.00000E+00
         0.00000E+00
         0.17364E-17
         0.17364E-17
         0.17364E-17
         0.43410E-18
         0.43410E-18
         0.43410E-18
         0.00000E+00
         0.00000E+00
         0.00000E+00
         0.00000E+00
         0.00000E+00
         0.21705E-18
        -0.21705E-18
         0.00000E+00
         0.00000E+00
         0.00000E+00
        -0.32557E-18
         0.54262E-19
        -0.40697E-18
         0.97917E-03
         0.97917E-03
         0.97917E-03
         0.97917E-03
         0.97917E-03
         0.97917E-03
         0.97917E-03
         0.97917E-03
         0.97917E-03
         0.97917E-03
         0.97917E-03
         0.97917E-03
         0.97917E-03
         0.97917E-03
         0.97917E-03
         0.97917E-03
         0.97917E-03
         0.97917E-03
         0.97917E-03
         0.97917E-03
         0.97917E-03
         0.97917E-03
         0.97917E-03
         0.97917E-03
         0.97917E-03
         0.97917E-03
         0.97917E-03
         0.97917E-03
         0.97917E-03
         0.97917E-03
         0.97917E-03
         0.97917E-03
         0.97917E-03
         0.97917E-03
         0.97917E-03
         0.97917E-03
         0.97917E-03
         0.97917E-03
         0.97917E-03
         0.97917E-03
         0.97917E-03
         0.97917E-03
         0.97917E-03
         0.97917E-03
         0.97917E-03
         0.97917E-03
         0.97917E-03
         0.97917E-03
         0.97917E-03
         0.97917E-03
         0.97917E-03
         0.97917E-03
         0.97917E-03
         0.97917E-03
         0.97917E-03
         0.97917E-03
         0.97917E-03
         0.97917E-03
         0.97917E-03
         0.97917E-03
         0.97917E-03
         0.97917E-03
         0.97917E-03
         0.97917E-03
         0.97917E-03
         0.97917E-03
         0.97917E-03
         0.97917E-03
         0.97917E-03
         0.97917E-03
         0.97917E-03
         0.97917E-03
         0.97917E-03
         0.97917E-03
         0.97917E-03
         0.97917E-03
         0.97917E-03
         0.97917E-03
         0.19583E-02
         0.19583E-02
         0.19583E-02
         0.19583E-02
         0.19583E-02
         0.19583E-02
         0.19583E-02
         0.19583E-02
         0.19583E-02
         0.19583E-02
         0.19583E-02
         0.19583E-02
         0.19583E-02
         0.19583E-02
         0.19583E-02
         0.19583E-02
         0.19583E-02
         0.19583E-02
         0.19583E-02
         0.19583E-02
         0.19583E-02
         0.19583E-02
         0.19583E-02
         0.19583E-02
         0.19583E-02
         0.19583E-02
         0.19583E-02
         0.19583E-02
         0.19583E-02
         0.19583E-02
         0.19583E-02
         0.19583E-02
         0.19583E-02
         0.19583E-02
         0.19583E-02
         0.19583E-02
         0.19583E-02
         0.19583E-02
         0.19583E-02
         0.19583E-02
         0.19583E-02
         0.19583E-02
         0.19583E-02
         0.19583E-02
         0.19583E-02
         0.19583E-02
         0.19583E-02
         0.19583E-02
         0.19583E-02
         0.19583E-02
         0.19583E-02
         0.19583E-02
         0.19583E-02
         0.19583E-02
         0.19583E-02
         0.19583E-02
         0.19583E-02
         0.19583E-02
         0.19583E-02
         0.19583E-02
         0.19583E-02
         0.19583E-02
         0.19583E-02
         0.19583E-02
         0.19583E-02
         0.19583E-02
         0.19583E-02
         0.19583E-02
         0.19583E-02
         0.19583E-02
         0.19583E-02
         0.19583E-02
         0.19583E-02
         0.19583E-02
         0.19583E-02
         0.19583E-02
         0.19583E-02
         0.19583E-02
         0.29375E-02
         0.29375E-02
         0.29375E-02
         0.29375E-02
         0.29375E-02
         0.29375E-02
         0.29375E-02
         0.29375E-02
         0.29375E-02
         0.29375E-02
         0.29375E-02
         0.29375E-02
         0.29375E-02
         0.29375E-02
         0.29375E-02
         0.29375E-02
         0.29375E-02
         0.29375E-02
         0.29375E-02
         0.29375E-02
         0.29375E-02
         0.29375E-02
         0.29375E-02
         0.29375E-02
         0.29375E-02
         0.29375E-02
         0.29375E-02
         0.29375E-02
         0.29375E-02
         0.29375E-02
         0.29375E-02
         0.29375E-02
         0.29375E-02
         0.29375E-02
         0.29375E-02
         0.29375E-02
         0.29375E-02
         0.29375E-02
         0.29375E-02
         0.29375E-02
         0.29375E-02
         0.29375E-02
         0.29375E-02
         0.29375E-02
         0.29375E-02
         0.29375E-02
         0.29375E-02
         0.29375E-02
         0.29375E-02
         0.29375E-02
         0.29375E-02
         0.29375E-02
         0.29375E-02
         0.29375E-02
         0.29375E-02
         0.29375E-02
         0.29375E-02
         0.29375E-02
         0.29375E-02
         0.29375E-02
         0.29375E-02
         0.29375E-02
         0.29375E-02
         0.29375E-02
         0.29375E-02
         0.29375E-02
         0.29375E-02
         0.29375E-02
         0.29375E-02
         0.29375E-02
         0.29375E-02
         0.29375E-02
         0.29375E-02
         0.29375E-02
         0.29375E-02
         0.29375E-02
         0.29375E-02
         0.29375E-02
         0.39167E-02
         0.39167E-02
         0.39167E-02
         0.39167E-02
         0.39167E-02
         0.39167E-02
         0.39167E-02
         0.39167E-02
         0.39167E-02
         0.39167E-02
         0.39167E-02
         0.39167E-02
         0.39167E-02
         0.39167E-02
         0.39167E-02
         0.39167E-02
         0.39167E-02
         0.39167E-02
         0.39167E-02
         0.39167E-02
         0.39167E-02
         0.39167E-02
         0.39167E-02
         0.39167E-02
         0.39167E-02
         0.39167E-02
         0.39167E-02
         0.39167E-02
         0.39167E-02
         0.39167E-02
         0.39167E-02
         0.39167E-02
         0.39167E-02
         0.39167E-02
         0.39167E-02
         0.39167E-02
         0.39167E-02
         0.39167E-02
         0.39167E-02
         0.39167E-02
         0.39167E-02
         0.39167E-02
         0.39167E-02
         0.39167E-02
         0.39167E-02
         0.39167E-02
         0.39167E-02
         0.39167E-02
         0.39167E-02
         0.39167E-02
         0.39167E-02
         0.39167E-02
         0.39167E-02
         0.39167E-02
         0.39167E-02
         0.39167E-02
         0.39167E-02
         0.39167E-02
         0.39167E-02
         0.39167E-02
         0.39167E-02
         0.39167E-02
         0.39167E-02
         0.39167E-02
         0.39167E-02
         0.39167E-02
         0.39167E-02
         0.39167E-02
         0.39167E-02
         0.39167E-02
         0.39167E-02
         0.39167E-02
         0.39167E-02
         0.39167E-02
         0.39167E-02
         0.39167E-02
         0.39167E-02
         0.39167E-02
         0.48958E-02
         0.48958E-02
         0.48958E-02
         0.48958E-02
         0.48958E-02
         0.48958E-02
         0.48958E-02
         0.48958E-02
         0.48958E-02
         0.48958E-02
         0.48958E-02
         0.48958E-02
         0.48958E-02
         0.48958E-02
         0.48958E-02
         0.48958E-02
         0.48958E-02
         0.48958E-02
         0.48958E-02
         0.48958E-02
         0.48958E-02
         0.48958E-02
         0.48958E-02
         0.48958E-02
         0.48958E-02
         0.48958E-02
         0.48958E-02
         0.48958E-02
         0.48958E-02
         0.48958E-02
         0.48958E-02
         0.48958E-02
         0.48958E-02
         0.48958E-02
         0.48958E-02
         0.48958E-02
         0.48958E-02
         0.48958E-02
         0.48958E-02
         0.48958E-02
         0.48958E-02
         0.48958E-02
         0.48958E-02
         0.48958E-02
         0.48958E-02
         0.48958E-02
         0.48958E-02
         0.48958E-02
         0.48958E-02
         0.48958E-02
         0.48958E-02
         0.48958E-02
         0.48958E-02
         0.48958E-02
         0.48958E-02
         0.48958E-02
         0.48958E-02
         0.48958E-02
         0.48958E-02
         0.48958E-02
         0.48958E-02
         0.48958E-02
         0.48958E-02
         0.48958E-02
         0.48958E-02
         0.48958E-02
         0.48958E-02
         0.48958E-02
         0.48958E-02
         0.48958E-02
         0.48958E-02
         0.48958E-02
         0.48958E-02
         0.48958E-02
         0.48958E-02
         0.48958E-02
         0.48958E-02
         0.48958E-02
         0.58750E-02
         0.58750E-02
         0.58750E-02
         0.58750E-02
         0.58750E-02
         0.58750E-02
         0.58750E-02
         0.58750E-02
         0.58750E-02
         0.58750E-02
         0.58750E-02
         0.58750E-02
         0.58750E-02
         0.58750E-02
         0.58750E-02
         0.58750E-02
         0.58750E-02
         0.58750E-02
         0.58750E-02
         0.58750E-02
         0.58750E-02
         0.58750E-02
         0.58750E-02
         0.58750E-02
         0.58750E-02
         0.58750E-02
         0.58750E-02
         0.58750E-02
         0.58750E-02
         0.58750E-02
         0.58750E-02
         0.58750E-02
         0.58750E-02
         0.58750E-02
         0.58750E-02
         0.58750E-02
         0.58750E-02
         0.58750E-02
         0.58750E-02
         0.58750E-02
         0.58750E-02
         0.58750E-02
         0.58750E-02
         0.58750E-02
         0.58750E-02
         0.58750E-02
         0.58750E-02
         0.58750E-02
         0.58750E-02
         0.58750E-02
         0.58750E-02
         0.58750E-02
         0.58750E-02
         0.58750E-02
         0.58750E-02
         0.58750E-02
         0.58750E-02
         0.58750E-02
         0.58750E-02
         0.58750E-02
         0.58750E-02
         0.58750E-02
         0.58750E-02
         0.58750E-02
         0.58750E-02
         0.58750E-02
         0.58750E-02
         0.58750E-02
         0.58750E-02
         0.58750E-02
         0.58750E-02
         0.58750E-02
         0.58750E-02
         0.58750E-02
         0.58750E-02
         0.58750E-02
         0.58750E-02
         0.58750E-02
         0.68542E-02
         0.68542E-02
         0.68542E-02
         0.68542E-02
         0.68542E-02
         0.68542E-02
         0.68542E-02
         0.68542E-02
         0.68542E-02
         0.68542E-02
         0.68542E-02
         0.68542E-02
         0.68542E-02
         0.68542E-02
         0.68542E-02
         0.68542E-02
         0.68542E-02
         0.68542E-02
         0.68542E-02
         0.68542E-02
         0.68542E-02
         0.68542E-02
         0.68542E-02
         0.68542E-02
         0.68542E-02
         0.68542E-02
         0.68542E-02
         0.68542E-02
         0.68542E-02
         0.68542E-02
         0.68542E-02
         0.68542E-02
         0.68542E-02
         0.68542E-02
         0.68542E-02
         0.68542E-02
         0.68542E-02
         0.68542E-02
         0.68542E-02
         0.68542E-02
         0.68542E-02
         0.68542E-02
         0.68542E-02
         0.68542E-02
         0.68542E-02
         0.68542E-02
         0.68542E-02
         0.68542E-02
         0.68542E-02
         0.68542E-02
         0.68542E-02
         0.68542E-02
         0.68542E-02
         0.68542E-02
         0.68542E-02
         0.68542E-02
         0.68542E-02
         0.68542E-02
         0.68542E-02
         0.68542E-02
         0.68542E-02
         0.68542E-02
         0.68542E-02
         0.68542E-02
         0.68542E-02
         0.68542E-02
         0.68542E-02
         0.68542E-02
         0.68542E-02
         0.68542E-02
         0.68542E-02
         0.68542E-02
         0.68542E-02
         0.68542E-02
         0.68542E-02
         0.68542E-02
         0.68542E-02
         0.68542E-02
         0.78333E-02
         0.78333E-02
         0.78333E-02
         0.78333E-02
         0.78333E-02
         0.78333E-02
         0.78333E-02
         0.78333E-02
         0.78333E-02
         0.78333E-02
         0.78333E-02
         0.78333E-02
         0.78333E-02
         0.78333E-02
         0.78333E-02
         0.78333E-02
         0.78333E-02
         0.78333E-02
         0.78333E-02
         0.78333E-02
         0.78333E-02
         0.78333E-02
         0.78333E-02
         0.78333E-02
         0.78333E-02
         0.78333E-02
         0.78333E-02
         0.78333E-02
         0.78333E-02
         0.78333E-02
         0.78333E-02
         0.78333E-02
         0.78333E-02
         0.78333E-02
         0.78333E-02
         0.78333E-02
         0.78333E-02
         0.78333E-02
         0.78333E-02
         0.78333E-02
         0.78333E-02
         0.78333E-02
         0.78333E-02
         0.78333E-02
         0.78333E-02
         0.78333E-02
         0.78333E-02
         0.78333E-02
         0.78333E-02
         0.78333E-02
         0.78333E-02
         0.78333E-02
         0.78333E-02
         0.78333E-02
         0.78333E-02
         0.78333E-02
         0.78333E-02
         0.78333E-02
         0.78333E-02
         0.78333E-02
         0.78333E-02
         0.78333E-02
         0.78333E-02
         0.78333E-02
         0.78333E-02
         0.78333E-02
         0.78333E-02
         0.78333E-02
         0.78333E-02
         0.78333E-02
         0.78333E-02
         0.78333E-02
         0.78333E-02
         0.78333E-02
         0.78333E-02
         0.78333E-02
         0.78333E-02
         0.78333E-02
         0.88125E-02
         0.88125E-02
         0.88125E-02
         0.88125E-02
         0.88125E-02
         0.88125E-02
         0.88125E-02
         0.88125E-02
         0.88125E-02
         0.88125E-02
         0.88125E-02
         0.88125E-02
         0.88125E-02
         0.88125E-02
         0.88125E-02
         0.88125E-02
         0.88125E-02
         0.88125E-02
         0.88125E-02
         0.88125E-02
         0.88125E-02
         0.88125E-02
         0.88125E-02
         0.88125E-02
         0.88125E-02
         0.88125E-02
         0.88125E-02
         0.88125E-02
         0.88125E-02
         0.88125E-02
         0.88125E-02
         0.88125E-02
         0.88125E-02
         0.88125E-02
         0.88125E-02
         0.88125E-02
         0.88125E-02
         0.88125E-02
         0.88125E-02
         0.88125E-02
         0.88125E-02
         0.88125E-02
         0.88125E-02
         0.88125E-02
         0.88125E-02
         0.88125E-02
         0.88125E-02
         0.88125E-02
         0.88125E-02
         0.88125E-02
         0.88125E-02
         0.88125E-02
         0.88125E-02
         0.88125E-02
         0.88125E-02
         0.88125E-02
         0.88125E-02
         0.88125E-02
         0.88125E-02
         0.88125E-02
         0.88125E-02
         0.88125E-02
         0.88125E-02
         0.88125E-02
         0.88125E-02
         0.88125E-02
         0.88125E-02
         0.88125E-02
         0.88125E-02
         0.88125E-02
         0.88125E-02
         0.88125E-02
         0.88125E-02
         0.88125E-02
         0.88125E-02
         0.88125E-02
         0.88125E-02
         0.88125E-02
         0.97917E-02
         0.97917E-02
         0.97917E-02
         0.97917E-02
         0.97917E-02
         0.97917E-02
         0.97917E-02
         0.97917E-02
         0.97917E-02
         0.97917E-02
         0.97917E-02
         0.97917E-02
         0.97917E-02
         0.97917E-02
         0.97917E-02
         0.97917E-02
         0.97917E-02
         0.97917E-02
         0.97917E-02
         0.97917E-02
         0.97917E-02
         0.97917E-02
         0.97917E-02
         0.97917E-02
         0.97917E-02
         0.97917E-02
         0.97917E-02
         0.97917E-02
         0.97917E-02
         0.97917E-02
         0.97917E-02
         0.97917E-02
         0.97917E-02
         0.97917E-02
         0.97917E-02
         0.97917E-02
         0.97917E-02
         0.97917E-02
         0.97917E-02
         0.97917E-02
         0.97917E-02
         0.97917E-02
         0.97917E-02
         0.97917E-02
         0.97917E-02
         0.97917E-02
         0.97917E-02
         0.97917E-02
         0.97917E-02
         0.97917E-02
         0.97917E-02
         0.97917E-02
         0.97917E-02
         0.97917E-02
         0.97917E-02
         0.97917E-02
         0.97917E-02
         0.97917E-02
         0.97917E-02
         0.97917E-02
         0.97917E-02
         0.97917E-02
         0.97917E-02
         0.97917E-02
         0.97917E-02
         0.97917E-02
         0.97917E-02
         0.97917E-02
         0.97917E-02
         0.97917E-02
         0.97917E-02
         0.97917E-02
         0.97917E-02
         0.97917E-02
         0.97917E-02
         0.97917E-02
         0.97917E-02
         0.97917E-02
         0.10771E-01
         0.10771E-01
         0.10771E-01
         0.10771E-01
         0.10771E-01
         0.10771E-01
         0.10771E-01
         0.10771E-01
         0.10771E-01
         0.10771E-01
         0.10771E-01
         0.10771E-01
         0.10771E-01
         0.10771E-01
         0.10771E-01
         0.10771E-01
         0.10771E-01
         0.10771E-01
         0.10771E-01
         0.10771E-01
         0.10771E-01
         0.10771E-01
         0.10771E-01
         0.10771E-01
         0.10771E-01
         0.10771E-01
         0.10771E-01
         0.10771E-01
         0.10771E-01
         0.10771E-01
         0.10771E-01
         0.10771E-01
         0.10771E-01
         0.10771E-01
         0.10771E-01
         0.10771E-01
         0.10771E-01
         0.10771E-01
         0.10771E-01
         0.10771E-01
         0.10771E-01
         0.10771E-01
         0.10771E-01
         0.10771E-01
         0.10771E-01
         0.10771E-01
         0.10771E-01
         0.10771E-01
         0.10771E-01
         0.10771E-01
         0.10771E-01
         0.10771E-01
         0.10771E-01
         0.10771E-01
         0.10771E-01
         0.10771E-01
         0.10771E-01
         0.10771E-01
         0.10771E-01
         0.10771E-01
         0.10771E-01
         0.10771E-01
         0.10771E-01
         0.10771E-01
         0.10771E-01
         0.10771E-01
         0.10771E-01
         0.10771E-01
         0.10771E-01
         0.10771E-01
         0.10771E-01
         0.10771E-01
         0.10771E-01
         0.10771E-01
         0.10771E-01
         0.10771E-01
         0.10771E-01
         0.10771E-01
         0.11750E-01
         0.11750E-01
         0.11750E-01
         0.11750E-01
         0.11750E-01
         0.11750E-01
         0.11750E-01
         0.11750E-01
         0.11750E-01
         0.11750E-01
         0.11750E-01
         0.11750E-01
         0.11750E-01
         0.11750E-01
         0.11750E-01
         0.11750E-01
         0.11750E-01
         0.11750E-01
         0.11750E-01
         0.11750E-01
         0.11750E-01
         0.11750E-01
         0.11750E-01
         0.11750E-01
         0.11750E-01
         0.11750E-01
         0.11750E-01
         0.11750E-01
         0.11750E-01
         0.11750E-01
         0.11750E-01
         0.11750E-01
         0.11750E-01
         0.11750E-01
         0.11750E-01
         0.11750E-01
         0.11750E-01
         0.11750E-01
         0.11750E-01
         0.11750E-01
         0.11750E-01
         0.11750E-01
         0.11750E-01
         0.11750E-01
         0.11750E-01
         0.11750E-01
         0.11750E-01
         0.11750E-01
         0.11750E-01
         0.11750E-01
         0.11750E-01
         0.11750E-01
         0.11750E-01
         0.11750E-01
         0.11750E-01
         0.11750E-01
         0.11750E-01
         0.11750E-01
         0.11750E-01
         0.11750E-01
         0.11750E-01
         0.11750E-01
         0.11750E-01
         0.11750E-01
         0.11750E-01
         0.11750E-01
         0.11750E-01
         0.11750E-01
         0.11750E-01
         0.11750E-01
         0.11750E-01
         0.11750E-01
         0.11750E-01
         0.11750E-01
         0.11750E-01
         0.11750E-01
         0.11750E-01
         0.11750E-01
  
SCALARS                init_velocity_x  double 1
LOOKUP_TABLE default
         0.00000E+00
         0.00000E+00
         0.00000E+00
         0.00000E+00
         0.00000E+00
         0.00000E+00
         0.00000E+00
         0.00000E+00
         0.00000E+00
         0.00000E+00
         0.00000E+00
         0.00000E+00
         0.00000E+00
         0.00000E+00
         0.00000E+00
         0.00000E+00
         0.00000E+00
         0.00000E+00
         0.00000E+00
         0.00000E+00
         0.00000E+00
         0.00000E+00
         0.00000E+00
         0.00000E+00
         0.00000E+00
         0.00000E+00
         0.00000E+00
         0.00000E+00
         0.00000E+00
         0.00000E+00
         0.00000E+00
         0.00000E+00
         0.00000E+00
         0.00000E+00
         0.00000E+00
         0.00000E+00
         0.00000E+00
         0.00000E+00
         0.00000E+00
         0.00000E+00
         0.00000E+00
         0.00000E+00
         0.00000E+00
         0.00000E+00
         0.00000E+00
         0.00000E+00
         0.00000E+00
         0.00000E+00
         0.00000E+00
         0.00000E+00
         0.00000E+00
         0.00000E+00
         0.00000E+00
         0.00000E+00
         0.00000E+00
         0.00000E+00
         0.00000E+00
         0.00000E+00
         0.00000E+00
         0.00000E+00
         0.00000E+00
         0.00000E+00
         0.00000E+00
         0.00000E+00
         0.00000E+00
         0.00000E+00
         0.00000E+00
         0.00000E+00
         0.00000E+00
         0.00000E+00
         0.00000E+00
         0.00000E+00
         0.00000E+00
         0.00000E+00
         0.00000E+00
         0.00000E+00
         0.00000E+00
         0.00000E+00
         0.00000E+00
         0.00000E+00
         0.00000E+00
         0.00000E+00
         0.00000E+00
         0.00000E+00
         0.00000E+00
         0.00000E+00
         0.00000E+00
         0.00000E+00
         0.00000E+00
         0.00000E+00
         0.00000E+00
         0.00000E+00
         0.00000E+00
         0.00000E+00
         0.00000E+00
         0.00000E+00
         0.00000E+00
         0.00000E+00
         0.00000E+00
         0.00000E+00
         0.00000E+00
         0.00000E+00
         0.00000E+00
         0.00000E+00
         0.00000E+00
         0.00000E+00
         0.00000E+00
         0.00000E+00
         0.00000E+00
         0.00000E+00
         0.00000E+00
         0.00000E+00
         0.00000E+00
         0.00000E+00
         0.00000E+00
         0.00000E+00
         0.00000E+00
         0.00000E+00
         0.00000E+00
         0.00000E+00
         0.00000E+00
         0.00000E+00
         0.00000E+00
         0.00000E+00
         0.00000E+00
         0.00000E+00
         0.00000E+00
         0.00000E+00
         0.00000E+00
         0.00000E+00
         0.00000E+00
         0.00000E+00
         0.00000E+00
         0.00000E+00
         0.00000E+00
         0.00000E+00
         0.00000E+00
         0.00000E+00
         0.00000E+00
         0.00000E+00
         0.00000E+00
         0.00000E+00
         0.00000E+00
         0.00000E+00
         0.00000E+00
         0.00000E+00
         0.00000E+00
         0.00000E+00
         0.00000E+00
         0.00000E+00
         0.00000E+00
         0.00000E+00
         0.00000E+00
         0.00000E+00
         0.00000E+00
         0.00000E+00
         0.00000E+00
         0.00000E+00
         0.00000E+00
         0.00000E+00
         0.00000E+00
         0.00000E+00
         0.00000E+00
         0.00000E+00
         0.00000E+00
         0.00000E+00
         0.00000E+00
         0.00000E+00
         0.00000E+00
         0.00000E+00
         0.00000E+00
         0.00000E+00
         0.00000E+00
         0.00000E+00
         0.00000E+00
         0.00000E+00
         0.00000E+00
         0.00000E+00
         0.00000E+00
         0.00000E+00
         0.00000E+00
         0.00000E+00
         0.00000E+00
         0.00000E+00
         0.00000E+00
         0.00000E+00
         0.00000E+00
         0.00000E+00
         0.00000E+00
         0.00000E+00
         0.00000E+00
         0.00000E+00
         0.00000E+00
         0.00000E+00
         0.00000E+00
         0.00000E+00
         0.00000E+00
         0.00000E+00
         0.00000E+00
         0.00000E+00
         0.00000E+00
         0.00000E+00
         0.00000E+00
         0.00000E+00
         0.00000E+00
         0.00000E+00
         0.00000E+00
         0.00000E+00
         0.00000E+00
         0.00000E+00
         0.00000E+00
         0.00000E+00
         0.00000E+00
         0.00000E+00
         0.00000E+00
         0.00000E+00
         0.00000E+00
         0.00000E+00
         0.00000E+00
         0.00000E+00
         0.00000E+00
         0.00000E+00
         0.00000E+00
         0.00000E+00
         0.00000E+00
         0.00000E+00
         0.00000E+00
         0.00000E+00
         0.00000E+00
         0.00000E+00
         0.00000E+00
         0.00000E+00
         0.00000E+00
         0.00000E+00
         0.00000E+00
         0.00000E+00
         0.00000E+00
         0.00000E+00
         0.00000E+00
         0.00000E+00
         0.00000E+00
         0.00000E+00
         0.00000E+00
         0.00000E+00
         0.00000E+00
         0.00000E+00
         0.00000E+00
         0.00000E+00
         0.00000E+00
         0.00000E+00
         0.00000E+00
         0.00000E+00
         0.00000E+00
         0.00000E+00
         0.00000E+00
         0.00000E+00
         0.00000E+00
         0.00000E+00
         0.00000E+00
         0.00000E+00
         0.00000E+00
         0.00000E+00
         0.00000E+00
         0.00000E+00
         0.00000E+00
         0.00000E+00
         0.00000E+00
         0.00000E+00
         0.00000E+00
         0.00000E+00
         0.00000E+00
         0.00000E+00
         0.00000E+00
         0.00000E+00
         0.00000E+00
         0.00000E+00
         0.00000E+00
         0.00000E+00
         0.00000E+00
         0.00000E+00
         0.00000E+00
         0.00000E+00
         0.00000E+00
         0.00000E+00
         0.00000E+00
         0.00000E+00
         0.00000E+00
         0.00000E+00
         0.00000E+00
         0.00000E+00
         0.00000E+00
         0.00000E+00
         0.00000E+00
         0.00000E+00
         0.00000E+00
         0.00000E+00
         0.00000E+00
         0.00000E+00
         0.00000E+00
         0.00000E+00
         0.00000E+00
         0.00000E+00
         0.00000E+00
         0.00000E+00
         0.00000E+00
         0.00000E+00
         0.00000E+00
         0.00000E+00
         0.00000E+00
         0.00000E+00
         0.00000E+00
         0.00000E+00
         0.00000E+00
         0.00000E+00
         0.00000E+00
         0.00000E+00
         0.00000E+00
         0.00000E+00
         0.00000E+00
         0.00000E+00
         0.00000E+00
         0.00000E+00
         0.00000E+00
         0.00000E+00
         0.00000E+00
         0.00000E+00
         0.00000E+00
         0.00000E+00
         0.00000E+00
         0.00000E+00
         0.00000E+00
         0.00000E+00
         0.00000E+00
         0.00000E+00
         0.00000E+00
         0.00000E+00
         0.00000E+00
         0.00000E+00
         0.00000E+00
         0.00000E+00
         0.00000E+00
         0.00000E+00
         0.00000E+00
         0.00000E+00
         0.00000E+00
         0.00000E+00
         0.00000E+00
         0.00000E+00
         0.00000E+00
         0.00000E+00
         0.00000E+00
         0.00000E+00
         0.00000E+00
         0.00000E+00
         0.00000E+00
         0.00000E+00
         0.00000E+00
         0.00000E+00
         0.00000E+00
         0.00000E+00
         0.00000E+00
         0.00000E+00
         0.00000E+00
         0.00000E+00
         0.00000E+00
         0.00000E+00
         0.00000E+00
         0.00000E+00
         0.00000E+00
         0.00000E+00
         0.00000E+00
         0.00000E+00
         0.00000E+00
         0.00000E+00
         0.00000E+00
         0.00000E+00
         0.00000E+00
         0.00000E+00
         0.00000E+00
         0.00000E+00
         0.00000E+00
         0.00000E+00
         0.00000E+00
         0.00000E+00
         0.00000E+00
         0.00000E+00
         0.00000E+00
         0.00000E+00
         0.00000E+00
         0.00000E+00
         0.00000E+00
         0.00000E+00
         0.00000E+00
         0.00000E+00
         0.00000E+00
         0.00000E+00
         0.00000E+00
         0.00000E+00
         0.00000E+00
         0.00000E+00
         0.00000E+00
         0.00000E+00
         0.00000E+00
         0.00000E+00
         0.00000E+00
         0.00000E+00
         0.00000E+00
         0.00000E+00
         0.00000E+00
         0.00000E+00
         0.00000E+00
         0.00000E+00
         0.00000E+00
         0.00000E+00
         0.00000E+00
         0.00000E+00
         0.00000E+00
         0.00000E+00
         0.00000E+00
         0.00000E+00
         0.00000E+00
         0.00000E+00
         0.00000E+00
         0.00000E+00
         0.00000E+00
         0.00000E+00
         0.00000E+00
         0.00000E+00
         0.00000E+00
         0.00000E+00
         0.00000E+00
         0.00000E+00
         0.00000E+00
         0.00000E+00
         0.00000E+00
         0.00000E+00
         0.00000E+00
         0.00000E+00
         0.00000E+00
         0.00000E+00
         0.00000E+00
         0.00000E+00
         0.00000E+00
         0.00000E+00
         0.00000E+00
         0.00000E+00
         0.00000E+00
         0.00000E+00
         0.00000E+00
         0.00000E+00
         0.00000E+00
         0.00000E+00
         0.00000E+00
         0.00000E+00
         0.00000E+00
         0.00000E+00
         0.00000E+00
         0.00000E+00
         0.00000E+00
         0.00000E+00
         0.00000E+00
         0.00000E+00
         0.00000E+00
         0.00000E+00
         0.00000E+00
         0.00000E+00
         0.00000E+00
         0.00000E+00
         0.00000E+00
         0.00000E+00
         0.00000E+00
         0.00000E+00
         0.00000E+00
         0.00000E+00
         0.00000E+00
         0.00000E+00
         0.00000E+00
         0.00000E+00
         0.00000E+00
         0.00000E+00
         0.00000E+00
         0.00000E+00
         0.00000E+00
         0.00000E+00
         0.00000E+00
         0.00000E+00
         0.00000E+00
         0.00000E+00
         0.00000E+00
         0.00000E+00
         0.00000E+00
         0.00000E+00
         0.00000E+00
         0.00000E+00
         0.00000E+00
         0.00000E+00
         0.00000E+00
         0.00000E+00
         0.00000E+00
         0.00000E+00
         0.00000E+00
         0.00000E+00
         0.00000E+00
         0.00000E+00
         0.00000E+00
         0.00000E+00
         0.00000E+00
         0.00000E+00
         0.00000E+00
         0.00000E+00
         0.00000E+00
         0.00000E+00
         0.00000E+00
         0.00000E+00
         0.00000E+00
         0.00000E+00
         0.00000E+00
         0.00000E+00
         0.00000E+00
         0.00000E+00
         0.00000E+00
         0.00000E+00
         0.00000E+00
         0.00000E+00
         0.00000E+00
         0.00000E+00
         0.00000E+00
         0.00000E+00
         0.00000E+00
         0.00000E+00
         0.00000E+00
         0.00000E+00
         0.00000E+00
         0.00000E+00
         0.00000E+00
         0.00000E+00
         0.00000E+00
         0.00000E+00
         0.00000E+00
         0.00000E+00
         0.00000E+00
         0.00000E+00
         0.00000E+00
         0.00000E+00
         0.00000E+00
         0.00000E+00
         0.00000E+00
         0.00000E+00
         0.00000E+00
         0.00000E+00
         0.00000E+00
         0.00000E+00
         0.00000E+00
         0.00000E+00
         0.00000E+00
         0.00000E+00
         0.00000E+00
         0.00000E+00
         0.00000E+00
         0.00000E+00
         0.00000E+00
         0.00000E+00
         0.00000E+00
         0.00000E+00
         0.00000E+00
         0.00000E+00
         0.00000E+00
         0.00000E+00
         0.00000E+00
         0.00000E+00
         0.00000E+00
         0.00000E+00
         0.00000E+00
         0.00000E+00
         0.00000E+00
         0.00000E+00
         0.00000E+00
         0.00000E+00
         0.00000E+00
         0.00000E+00
         0.00000E+00
         0.00000E+00
         0.00000E+00
         0.00000E+00
         0.00000E+00
         0.00000E+00
         0.00000E+00
         0.00000E+00
         0.00000E+00
         0.00000E+00
         0.00000E+00
         0.00000E+00
         0.00000E+00
         0.00000E+00
         0.00000E+00
         0.00000E+00
         0.00000E+00
         0.00000E+00
         0.00000E+00
         0.00000E+00
         0.00000E+00
         0.00000E+00
         0.00000E+00
         0.00000E+00
         0.00000E+00
         0.00000E+00
         0.00000E+00
         0.00000E+00
         0.00000E+00
         0.00000E+00
         0.00000E+00
         0.00000E+00
         0.00000E+00
         0.00000E+00
         0.00000E+00
         0.00000E+00
         0.00000E+00
         0.00000E+00
         0.00000E+00
         0.00000E+00
         0.00000E+00
         0.00000E+00
         0.00000E+00
         0.00000E+00
         0.00000E+00
         0.00000E+00
         0.00000E+00
         0.00000E+00
         0.00000E+00
         0.00000E+00
         0.00000E+00
         0.00000E+00
         0.00000E+00
         0.00000E+00
         0.00000E+00
         0.00000E+00
         0.00000E+00
         0.00000E+00
         0.00000E+00
         0.00000E+00
         0.00000E+00
         0.00000E+00
         0.00000E+00
         0.00000E+00
         0.00000E+00
         0.00000E+00
         0.00000E+00
         0.00000E+00
         0.00000E+00
         0.00000E+00
         0.00000E+00
         0.00000E+00
         0.00000E+00
         0.00000E+00
         0.00000E+00
         0.00000E+00
         0.00000E+00
         0.00000E+00
         0.00000E+00
         0.00000E+00
         0.00000E+00
         0.00000E+00
         0.00000E+00
         0.00000E+00
         0.00000E+00
         0.00000E+00
         0.00000E+00
         0.00000E+00
         0.00000E+00
         0.00000E+00
         0.00000E+00
         0.00000E+00
         0.00000E+00
         0.00000E+00
         0.00000E+00
         0.00000E+00
         0.00000E+00
         0.00000E+00
         0.00000E+00
         0.00000E+00
         0.00000E+00
         0.00000E+00
         0.00000E+00
         0.00000E+00
         0.00000E+00
         0.00000E+00
         0.00000E+00
         0.00000E+00
         0.00000E+00
         0.00000E+00
         0.00000E+00
         0.00000E+00
         0.00000E+00
         0.00000E+00
         0.00000E+00
         0.00000E+00
         0.00000E+00
         0.00000E+00
         0.00000E+00
         0.00000E+00
         0.00000E+00
         0.00000E+00
         0.00000E+00
         0.00000E+00
         0.00000E+00
         0.00000E+00
         0.00000E+00
         0.00000E+00
         0.00000E+00
         0.00000E+00
         0.00000E+00
         0.00000E+00
         0.00000E+00
         0.00000E+00
         0.00000E+00
         0.00000E+00
         0.00000E+00
         0.00000E+00
         0.00000E+00
         0.00000E+00
         0.00000E+00
         0.00000E+00
         0.00000E+00
         0.00000E+00
         0.00000E+00
         0.00000E+00
         0.00000E+00
         0.00000E+00
         0.00000E+00
         0.00000E+00
         0.00000E+00
         0.00000E+00
         0.00000E+00
         0.00000E+00
         0.00000E+00
         0.00000E+00
         0.00000E+00
         0.00000E+00
         0.00000E+00
         0.00000E+00
         0.00000E+00
         0.00000E+00
         0.00000E+00
         0.00000E+00
         0.00000E+00
         0.00000E+00
         0.00000E+00
         0.00000E+00
         0.00000E+00
         0.00000E+00
         0.00000E+00
         0.00000E+00
         0.00000E+00
         0.00000E+00
         0.00000E+00
         0.00000E+00
         0.00000E+00
         0.00000E+00
         0.00000E+00
         0.00000E+00
         0.00000E+00
         0.00000E+00
         0.00000E+00
         0.00000E+00
         0.00000E+00
         0.00000E+00
         0.00000E+00
         0.00000E+00
         0.00000E+00
         0.00000E+00
         0.00000E+00
         0.00000E+00
         0.00000E+00
         0.00000E+00
         0.00000E+00
         0.00000E+00
         0.00000E+00
         0.00000E+00
         0.00000E+00
         0.00000E+00
         0.00000E+00
         0.00000E+00
         0.00000E+00
         0.00000E+00
         0.00000E+00
         0.00000E+00
         0.00000E+00
         0.00000E+00
         0.00000E+00
         0.00000E+00
         0.00000E+00
         0.00000E+00
         0.00000E+00
         0.00000E+00
         0.00000E+00
         0.00000E+00
         0.00000E+00
         0.00000E+00
         0.00000E+00
         0.00000E+00
         0.00000E+00
         0.00000E+00
         0.00000E+00
         0.00000E+00
         0.00000E+00
         0.00000E+00
         0.00000E+00
         0.00000E+00
         0.00000E+00
         0.00000E+00
         0.00000E+00
         0.00000E+00
         0.00000E+00
         0.00000E+00
         0.00000E+00
         0.00000E+00
         0.00000E+00
         0.00000E+00
         0.00000E+00
         0.00000E+00
         0.00000E+00
         0.00000E+00
         0.00000E+00
         0.00000E+00
         0.00000E+00
         0.00000E+00
         0.00000E+00
         0.00000E+00
         0.00000E+00
         0.00000E+00
         0.00000E+00
         0.00000E+00
         0.00000E+00
         0.00000E+00
         0.00000E+00
         0.00000E+00
         0.00000E+00
         0.00000E+00
         0.00000E+00
         0.00000E+00
         0.00000E+00
         0.00000E+00
         0.00000E+00
         0.00000E+00
         0.00000E+00
         0.00000E+00
         0.00000E+00
         0.00000E+00
         0.00000E+00
         0.00000E+00
         0.00000E+00
         0.00000E+00
         0.00000E+00
         0.00000E+00
         0.00000E+00
         0.00000E+00
         0.00000E+00
         0.00000E+00
         0.00000E+00
         0.00000E+00
         0.00000E+00
         0.00000E+00
         0.00000E+00
         0.00000E+00
         0.00000E+00
         0.00000E+00
         0.00000E+00
         0.00000E+00
         0.00000E+00
         0.00000E+00
         0.00000E+00
         0.00000E+00
         0.00000E+00
         0.00000E+00
         0.00000E+00
         0.00000E+00
         0.00000E+00
         0.00000E+00
         0.00000E+00
         0.00000E+00
         0.00000E+00
         0.00000E+00
         0.00000E+00
         0.00000E+00
         0.00000E+00
         0.00000E+00
         0.00000E+00
         0.00000E+00
         0.00000E+00
         0.00000E+00
         0.00000E+00
         0.00000E+00
         0.00000E+00
         0.00000E+00
         0.00000E+00
         0.00000E+00
         0.00000E+00
         0.00000E+00
         0.00000E+00
         0.00000E+00
         0.00000E+00
         0.00000E+00
         0.00000E+00
         0.00000E+00
         0.00000E+00
         0.00000E+00
         0.00000E+00
         0.00000E+00
         0.00000E+00
         0.00000E+00
         0.00000E+00
         0.00000E+00
         0.00000E+00
         0.00000E+00
         0.00000E+00
         0.00000E+00
         0.00000E+00
         0.00000E+00
         0.00000E+00
         0.00000E+00
         0.00000E+00
         0.00000E+00
         0.00000E+00
         0.00000E+00
         0.00000E+00
         0.00000E+00
         0.00000E+00
         0.00000E+00
         0.00000E+00
         0.00000E+00
         0.00000E+00
         0.00000E+00
         0.00000E+00
         0.00000E+00
         0.00000E+00
         0.00000E+00
         0.00000E+00
         0.00000E+00
         0.00000E+00
         0.00000E+00
         0.00000E+00
         0.00000E+00
         0.00000E+00
         0.00000E+00
         0.00000E+00
         0.00000E+00
         0.00000E+00
         0.00000E+00
         0.00000E+00
         0.00000E+00
         0.00000E+00
         0.00000E+00
         0.00000E+00
         0.00000E+00
         0.00000E+00
         0.00000E+00
         0.00000E+00
         0.00000E+00
         0.00000E+00
         0.00000E+00
         0.00000E+00
         0.00000E+00
         0.00000E+00
         0.00000E+00
         0.00000E+00
         0.00000E+00
         0.00000E+00
         0.00000E+00
         0.00000E+00
         0.00000E+00
         0.00000E+00
         0.00000E+00
         0.00000E+00
         0.00000E+00
         0.00000E+00
         0.00000E+00
         0.00000E+00
         0.00000E+00
         0.00000E+00
         0.00000E+00
         0.00000E+00
         0.00000E+00
         0.00000E+00
         0.00000E+00
         0.00000E+00
         0.00000E+00
         0.00000E+00
         0.00000E+00
         0.00000E+00
         0.00000E+00
         0.00000E+00
         0.00000E+00
         0.00000E+00
         0.00000E+00
         0.00000E+00
         0.00000E+00
         0.00000E+00
         0.00000E+00
         0.00000E+00
         0.00000E+00
         0.00000E+00
         0.00000E+00
         0.00000E+00
         0.00000E+00
         0.00000E+00
         0.00000E+00
         0.00000E+00
         0.00000E+00
         0.00000E+00
         0.00000E+00
         0.00000E+00
         0.00000E+00
         0.00000E+00
         0.00000E+00
         0.00000E+00
         0.00000E+00
         0.00000E+00
         0.00000E+00
         0.00000E+00
         0.00000E+00
         0.00000E+00
         0.00000E+00
         0.00000E+00
         0.00000E+00
         0.00000E+00
         0.00000E+00
         0.00000E+00
         0.00000E+00
         0.00000E+00
         0.00000E+00
         0.00000E+00
         0.00000E+00
         0.00000E+00
         0.00000E+00
         0.00000E+00
         0.00000E+00
         0.00000E+00
         0.00000E+00
         0.00000E+00
         0.00000E+00
         0.00000E+00
         0.00000E+00
         0.00000E+00
         0.00000E+00
         0.00000E+00
         0.00000E+00
         0.00000E+00
         0.00000E+00
         0.00000E+00
         0.00000E+00
         0.00000E+00
         0.00000E+00
         0.00000E+00
         0.00000E+00
         0.00000E+00
         0.00000E+00
         0.00000E+00
         0.00000E+00
         0.00000E+00
         0.00000E+00
         0.00000E+00
         0.00000E+00
         0.00000E+00
         0.00000E+00
         0.00000E+00
         0.00000E+00
         0.00000E+00
         0.00000E+00
         0.00000E+00
         0.00000E+00
         0.00000E+00
         0.00000E+00
         0.00000E+00
         0.00000E+00
         0.00000E+00
         0.00000E+00
         0.00000E+00
         0.00000E+00
         0.00000E+00
         0.00000E+00
         0.00000E+00
         0.00000E+00
         0.00000E+00
         0.00000E+00
         0.00000E+00
         0.00000E+00
         0.00000E+00
         0.00000E+00
         0.00000E+00
         0.00000E+00
         0.00000E+00
         0.00000E+00
         0.00000E+00
         0.00000E+00
         0.00000E+00
         0.00000E+00
         0.00000E+00
         0.00000E+00
         0.00000E+00
         0.00000E+00
         0.00000E+00
         0.00000E+00
         0.00000E+00
         0.00000E+00
         0.00000E+00
         0.00000E+00
         0.00000E+00
         0.00000E+00
         0.00000E+00
         0.00000E+00
         0.00000E+00
         0.00000E+00
         0.00000E+00
         0.00000E+00
         0.00000E+00
         0.00000E+00
         0.00000E+00
         0.00000E+00
         0.00000E+00
         0.00000E+00
         0.00000E+00
         0.00000E+00
         0.00000E+00
         0.00000E+00
         0.00000E+00
         0.00000E+00
         0.00000E+00
         0.00000E+00
         0.00000E+00
         0.00000E+00
         0.00000E+00
         0.00000E+00
         0.00000E+00
         0.00000E+00
         0.00000E+00
         0.00000E+00
         0.00000E+00
         0.00000E+00
         0.00000E+00
         0.00000E+00
         0.00000E+00
         0.00000E+00
         0.00000E+00
         0.00000E+00
         0.00000E+00
         0.00000E+00
         0.00000E+00
         0.00000E+00
         0.00000E+00
         0.00000E+00
         0.00000E+00
         0.00000E+00
         0.00000E+00
         0.00000E+00
         0.00000E+00
         0.00000E+00
         0.00000E+00
         0.00000E+00
         0.00000E+00
         0.00000E+00
         0.00000E+00
         0.00000E+00
         0.00000E+00
         0.00000E+00
         0.00000E+00
         0.00000E+00
         0.00000E+00
         0.00000E+00
         0.00000E+00
         0.00000E+00
         0.00000E+00
         0.00000E+00
         0.00000E+00
         0.00000E+00
         0.00000E+00
         0.00000E+00
         0.00000E+00
         0.00000E+00
         0.00000E+00
         0.00000E+00
         0.00000E+00
         0.00000E+00
         0.00000E+00
         0.00000E+00
         0.00000E+00
         0.00000E+00
         0.00000E+00
         0.00000E+00
         0.00000E+00
         0.00000E+00
         0.00000E+00
         0.00000E+00
         0.00000E+00
         0.00000E+00
         0.00000E+00
         0.00000E+00
         0.00000E+00
         0.00000E+00
         0.00000E+00
         0.00000E+00
         0.00000E+00
         0.00000E+00
         0.00000E+00
         0.00000E+00
         0.00000E+00
         0.00000E+00
         0.00000E+00
         0.00000E+00
         0.00000E+00
         0.00000E+00
         0.00000E+00
         0.00000E+00
         0.00000E+00
         0.00000E+00
         0.00000E+00
         0.00000E+00
         0.00000E+00
         0.00000E+00
         0.00000E+00
         0.00000E+00
         0.00000E+00
         0.00000E+00
         0.00000E+00
         0.00000E+00
         0.00000E+00
         0.00000E+00
         0.00000E+00
         0.00000E+00
         0.00000E+00
         0.00000E+00
         0.00000E+00
         0.00000E+00
         0.00000E+00
         0.00000E+00
         0.00000E+00
         0.00000E+00
         0.00000E+00
         0.00000E+00
         0.00000E+00
         0.00000E+00
         0.00000E+00
         0.00000E+00
         0.00000E+00
         0.00000E+00
         0.00000E+00
         0.00000E+00
         0.00000E+00
         0.00000E+00
         0.00000E+00
         0.00000E+00
         0.00000E+00
         0.00000E+00
         0.00000E+00
         0.00000E+00
         0.00000E+00
         0.00000E+00
         0.00000E+00
         0.00000E+00
         0.00000E+00
         0.00000E+00
         0.00000E+00
         0.00000E+00
         0.00000E+00
         0.00000E+00
         0.00000E+00
         0.00000E+00
         0.00000E+00
         0.00000E+00
         0.00000E+00
         0.00000E+00
         0.00000E+00
         0.00000E+00
         0.00000E+00
         0.00000E+00
         0.00000E+00
         0.00000E+00
         0.00000E+00
         0.00000E+00
         0.00000E+00
         0.00000E+00
         0.00000E+00
         0.00000E+00
         0.00000E+00
         0.00000E+00
         0.00000E+00
         0.00000E+00
         0.00000E+00
         0.00000E+00
         0.00000E+00
         0.00000E+00
         0.00000E+00
         0.00000E+00
         0.00000E+00
         0.00000E+00
         0.00000E+00
         0.00000E+00
         0.00000E+00
         0.00000E+00
         0.00000E+00
         0.00000E+00
         0.00000E+00
         0.00000E+00
         0.00000E+00
         0.00000E+00
         0.00000E+00
         0.00000E+00
         0.00000E+00
         0.00000E+00
         0.00000E+00
         0.00000E+00
         0.00000E+00
         0.00000E+00
         0.00000E+00
         0.00000E+00
         0.00000E+00
         0.00000E+00
         0.00000E+00
         0.00000E+00
         0.00000E+00
         0.00000E+00
         0.00000E+00
         0.00000E+00
         0.00000E+00
         0.00000E+00
         0.00000E+00
         0.00000E+00
         0.00000E+00
         0.00000E+00
         0.00000E+00
         0.00000E+00
         0.00000E+00
         0.00000E+00
         0.00000E+00
         0.00000E+00
         0.00000E+00
         0.00000E+00
         0.00000E+00
         0.00000E+00
         0.00000E+00
         0.00000E+00
         0.00000E+00
         0.00000E+00
         0.00000E+00
         0.00000E+00
         0.00000E+00
         0.00000E+00
         0.00000E+00
         0.00000E+00
         0.00000E+00
         0.00000E+00
         0.00000E+00
         0.00000E+00
         0.00000E+00
         0.00000E+00
         0.00000E+00
         0.00000E+00
         0.00000E+00
         0.00000E+00
         0.00000E+00
         0.00000E+00
         0.00000E+00
         0.00000E+00
         0.00000E+00
         0.00000E+00
         0.00000E+00
         0.00000E+00
         0.00000E+00
         0.00000E+00
         0.00000E+00
         0.00000E+00
         0.00000E+00
         0.00000E+00
         0.00000E+00
         0.00000E+00
         0.00000E+00
         0.00000E+00
         0.00000E+00
         0.00000E+00
         0.00000E+00
         0.00000E+00
         0.00000E+00
         0.00000E+00
         0.00000E+00
         0.00000E+00
         0.00000E+00
         0.00000E+00
         0.00000E+00
         0.00000E+00
         0.00000E+00
         0.00000E+00
         0.00000E+00
         0.00000E+00
         0.00000E+00
         0.00000E+00
         0.00000E+00
         0.00000E+00
         0.00000E+00
         0.00000E+00
         0.00000E+00
         0.00000E+00
         0.00000E+00
         0.00000E+00
         0.00000E+00
         0.00000E+00
         0.00000E+00
         0.00000E+00
         0.00000E+00
         0.00000E+00
         0.00000E+00
         0.00000E+00
         0.00000E+00
         0.00000E+00
         0.00000E+00
         0.00000E+00
         0.00000E+00
         0.00000E+00
         0.00000E+00
         0.00000E+00
         0.00000E+00
         0.00000E+00
         0.00000E+00
         0.00000E+00
         0.00000E+00
         0.00000E+00
         0.00000E+00
         0.00000E+00
         0.00000E+00
         0.00000E+00
         0.00000E+00
         0.00000E+00
         0.00000E+00
         0.00000E+00
         0.00000E+00
         0.00000E+00
         0.00000E+00
         0.00000E+00
         0.00000E+00
         0.00000E+00
         0.00000E+00
         0.00000E+00
         0.00000E+00
         0.00000E+00
         0.00000E+00
         0.00000E+00
         0.00000E+00
         0.00000E+00
         0.00000E+00
         0.00000E+00
         0.00000E+00
         0.00000E+00
         0.00000E+00
         0.00000E+00
         0.00000E+00
         0.00000E+00
         0.00000E+00
         0.00000E+00
         0.00000E+00
         0.00000E+00
         0.00000E+00
         0.00000E+00
         0.00000E+00
         0.00000E+00
         0.00000E+00
         0.00000E+00
         0.00000E+00
         0.00000E+00
         0.00000E+00
         0.00000E+00
         0.00000E+00
         0.00000E+00
         0.00000E+00
         0.00000E+00
         0.00000E+00
         0.00000E+00
         0.00000E+00
         0.00000E+00
         0.00000E+00
         0.00000E+00
         0.00000E+00
         0.00000E+00
         0.00000E+00
         0.00000E+00
         0.00000E+00
         0.00000E+00
         0.00000E+00
         0.00000E+00
         0.00000E+00
         0.00000E+00
         0.00000E+00
         0.00000E+00
         0.00000E+00
         0.00000E+00
         0.00000E+00
         0.00000E+00
         0.00000E+00
         0.00000E+00
         0.00000E+00
         0.00000E+00
         0.00000E+00
         0.00000E+00
         0.00000E+00
         0.00000E+00
         0.00000E+00
         0.00000E+00
         0.00000E+00
         0.00000E+00
         0.00000E+00
         0.00000E+00
         0.00000E+00
         0.00000E+00
         0.00000E+00
         0.00000E+00
         0.00000E+00
         0.00000E+00
         0.00000E+00
         0.00000E+00
         0.00000E+00
         0.00000E+00
         0.00000E+00
         0.00000E+00
         0.00000E+00
         0.00000E+00
         0.00000E+00
         0.00000E+00
         0.00000E+00
         0.00000E+00
         0.00000E+00
         0.00000E+00
         0.00000E+00
         0.00000E+00
         0.00000E+00
         0.00000E+00
         0.00000E+00
         0.00000E+00
         0.00000E+00
         0.00000E+00
         0.00000E+00
         0.00000E+00
         0.00000E+00
         0.00000E+00
         0.00000E+00
         0.00000E+00
         0.00000E+00
         0.00000E+00
         0.00000E+00
         0.00000E+00
         0.00000E+00
         0.00000E+00
         0.00000E+00
         0.00000E+00
         0.00000E+00
         0.00000E+00
         0.00000E+00
         0.00000E+00
         0.00000E+00
         0.00000E+00
         0.00000E+00
         0.00000E+00
         0.00000E+00
         0.00000E+00
         0.00000E+00
         0.00000E+00
         0.00000E+00
         0.00000E+00
         0.00000E+00
         0.00000E+00
         0.00000E+00
         0.00000E+00
         0.00000E+00
         0.00000E+00
         0.00000E+00
         0.00000E+00
         0.00000E+00
         0.00000E+00
         0.00000E+00
         0.00000E+00
         0.00000E+00
         0.00000E+00
         0.00000E+00
         0.00000E+00
         0.00000E+00
         0.00000E+00
         0.00000E+00
         0.00000E+00
         0.00000E+00
         0.00000E+00
         0.00000E+00
         0.00000E+00
         0.00000E+00
         0.00000E+00
         0.00000E+00
         0.00000E+00
         0.00000E+00
         0.00000E+00
         0.00000E+00
         0.00000E+00
         0.00000E+00
         0.00000E+00
         0.00000E+00
         0.00000E+00
         0.00000E+00
         0.00000E+00
         0.00000E+00
         0.00000E+00
         0.00000E+00
         0.00000E+00
         0.00000E+00
         0.00000E+00
         0.00000E+00
         0.00000E+00
         0.00000E+00
         0.00000E+00
         0.00000E+00
         0.00000E+00
         0.00000E+00
         0.00000E+00
         0.00000E+00
         0.00000E+00
         0.00000E+00
         0.00000E+00
         0.00000E+00
         0.00000E+00
         0.00000E+00
         0.00000E+00
         0.00000E+00
         0.00000E+00
         0.00000E+00
         0.00000E+00
         0.00000E+00
         0.00000E+00
         0.00000E+00
         0.00000E+00
         0.00000E+00
         0.00000E+00
         0.00000E+00
         0.00000E+00
         0.00000E+00
         0.00000E+00
         0.00000E+00
         0.00000E+00
         0.00000E+00
         0.00000E+00
         0.00000E+00
         0.00000E+00
         0.00000E+00
         0.00000E+00
         0.00000E+00
         0.00000E+00
         0.00000E+00
         0.00000E+00
         0.00000E+00
         0.00000E+00
         0.00000E+00
         0.00000E+00
         0.00000E+00
         0.00000E+00
         0.00000E+00
         0.00000E+00
         0.00000E+00
         0.00000E+00
         0.00000E+00
         0.00000E+00
         0.00000E+00
         0.00000E+00
         0.00000E+00
         0.00000E+00
         0.00000E+00
         0.00000E+00
         0.00000E+00
         0.00000E+00
         0.00000E+00
         0.00000E+00
         0.00000E+00
         0.00000E+00
         0.00000E+00
         0.00000E+00
         0.00000E+00
         0.00000E+00
         0.00000E+00
         0.00000E+00
         0.00000E+00
         0.00000E+00
         0.00000E+00
         0.00000E+00
         0.00000E+00
         0.00000E+00
         0.00000E+00
         0.00000E+00
         0.00000E+00
         0.00000E+00
         0.00000E+00
         0.00000E+00
         0.00000E+00
         0.00000E+00
         0.00000E+00
         0.00000E+00
         0.00000E+00
         0.00000E+00
         0.00000E+00
         0.00000E+00
         0.00000E+00
         0.00000E+00
         0.00000E+00
         0.00000E+00
         0.00000E+00
         0.00000E+00
         0.00000E+00
         0.00000E+00
         0.00000E+00
         0.00000E+00
         0.00000E+00
         0.00000E+00
         0.00000E+00
         0.00000E+00
         0.00000E+00
         0.00000E+00
         0.00000E+00
         0.00000E+00
         0.00000E+00
         0.00000E+00
         0.00000E+00
         0.00000E+00
         0.00000E+00
         0.00000E+00
         0.00000E+00
         0.00000E+00
         0.00000E+00
         0.00000E+00
         0.00000E+00
         0.00000E+00
         0.00000E+00
         0.00000E+00
         0.00000E+00
         0.00000E+00
         0.00000E+00
         0.00000E+00
         0.00000E+00
         0.00000E+00
         0.00000E+00
         0.00000E+00
         0.00000E+00
         0.00000E+00
         0.00000E+00
         0.00000E+00
         0.00000E+00
         0.00000E+00
         0.00000E+00
         0.00000E+00
         0.00000E+00
         0.00000E+00
         0.00000E+00
         0.00000E+00
         0.00000E+00
         0.00000E+00
         0.00000E+00
         0.00000E+00
         0.00000E+00
         0.00000E+00
         0.00000E+00
         0.00000E+00
         0.00000E+00
         0.00000E+00
         0.00000E+00
         0.00000E+00
         0.00000E+00
         0.00000E+00
         0.00000E+00
         0.00000E+00
         0.00000E+00
         0.00000E+00
         0.00000E+00
         0.00000E+00
         0.00000E+00
         0.00000E+00
         0.00000E+00
         0.00000E+00
         0.00000E+00
         0.00000E+00
         0.00000E+00
         0.00000E+00
         0.00000E+00
         0.00000E+00
         0.00000E+00
         0.00000E+00
         0.00000E+00
         0.00000E+00
         0.00000E+00
         0.00000E+00
         0.00000E+00
         0.00000E+00
         0.00000E+00
         0.00000E+00
         0.00000E+00
         0.00000E+00
         0.00000E+00
         0.00000E+00
         0.00000E+00
         0.00000E+00
         0.00000E+00
         0.00000E+00
         0.00000E+00
         0.00000E+00
         0.00000E+00
         0.00000E+00
         0.00000E+00
         0.00000E+00
         0.00000E+00
         0.00000E+00
         0.00000E+00
         0.00000E+00
         0.00000E+00
         0.00000E+00
         0.00000E+00
         0.00000E+00
         0.00000E+00
         0.00000E+00
         0.00000E+00
         0.00000E+00
         0.00000E+00
         0.00000E+00
         0.00000E+00
         0.00000E+00
         0.00000E+00
         0.00000E+00
         0.00000E+00
         0.00000E+00
         0.00000E+00
         0.00000E+00
         0.00000E+00
         0.00000E+00
         0.00000E+00
         0.00000E+00
         0.00000E+00
         0.00000E+00
         0.00000E+00
         0.00000E+00
         0.00000E+00
         0.00000E+00
         0.00000E+00
         0.00000E+00
         0.00000E+00
         0.00000E+00
         0.00000E+00
         0.00000E+00
         0.00000E+00
         0.00000E+00
         0.00000E+00
         0.00000E+00
         0.00000E+00
         0.00000E+00
         0.00000E+00
         0.00000E+00
         0.00000E+00
         0.00000E+00
         0.00000E+00
         0.00000E+00
         0.00000E+00
         0.00000E+00
         0.00000E+00
         0.00000E+00
         0.00000E+00
         0.00000E+00
         0.00000E+00
         0.00000E+00
         0.00000E+00
         0.00000E+00
         0.00000E+00
         0.00000E+00
         0.00000E+00
         0.00000E+00
         0.00000E+00
         0.00000E+00
         0.00000E+00
         0.00000E+00
         0.00000E+00
         0.00000E+00
         0.00000E+00
         0.00000E+00
         0.00000E+00
         0.00000E+00
         0.00000E+00
         0.00000E+00
         0.00000E+00
         0.00000E+00
         0.00000E+00
         0.00000E+00
         0.00000E+00
         0.00000E+00
         0.00000E+00
         0.00000E+00
         0.00000E+00
         0.00000E+00
         0.00000E+00
         0.00000E+00
         0.00000E+00
         0.00000E+00
         0.00000E+00
         0.00000E+00
         0.00000E+00
         0.00000E+00
         0.00000E+00
         0.00000E+00
         0.00000E+00
         0.00000E+00
         0.00000E+00
         0.00000E+00
         0.00000E+00
         0.00000E+00
         0.00000E+00
         0.00000E+00
         0.00000E+00
         0.00000E+00
         0.00000E+00
         0.00000E+00
         0.00000E+00
         0.00000E+00
         0.00000E+00
         0.00000E+00
         0.00000E+00
         0.00000E+00
         0.00000E+00
         0.00000E+00
         0.00000E+00
         0.00000E+00
         0.00000E+00
         0.00000E+00
         0.00000E+00
         0.00000E+00
         0.00000E+00
         0.00000E+00
         0.00000E+00
         0.00000E+00
         0.00000E+00
         0.00000E+00
         0.00000E+00
         0.00000E+00
         0.00000E+00
         0.00000E+00
         0.00000E+00
         0.00000E+00
         0.00000E+00
         0.00000E+00
         0.00000E+00
         0.00000E+00
         0.00000E+00
         0.00000E+00
         0.00000E+00
         0.00000E+00
         0.00000E+00
         0.00000E+00
  
SCALARS                init_velocity_y  double 1
LOOKUP_TABLE default
         0.00000E+00
         0.00000E+00
         0.00000E+00
         0.00000E+00
         0.00000E+00
         0.00000E+00
         0.00000E+00
         0.00000E+00
         0.00000E+00
         0.00000E+00
         0.00000E+00
         0.00000E+00
         0.00000E+00
         0.00000E+00
         0.00000E+00
         0.00000E+00
         0.00000E+00
         0.00000E+00
         0.00000E+00
         0.00000E+00
         0.00000E+00
         0.00000E+00
         0.00000E+00
         0.00000E+00
         0.00000E+00
         0.00000E+00
         0.00000E+00
         0.00000E+00
         0.00000E+00
         0.00000E+00
         0.00000E+00
         0.00000E+00
         0.00000E+00
         0.00000E+00
         0.00000E+00
         0.00000E+00
         0.00000E+00
         0.00000E+00
         0.00000E+00
         0.00000E+00
         0.00000E+00
         0.00000E+00
         0.00000E+00
         0.00000E+00
         0.00000E+00
         0.00000E+00
         0.00000E+00
         0.00000E+00
         0.00000E+00
         0.00000E+00
         0.00000E+00
         0.00000E+00
         0.00000E+00
         0.00000E+00
         0.00000E+00
         0.00000E+00
         0.00000E+00
         0.00000E+00
         0.00000E+00
         0.00000E+00
         0.00000E+00
         0.00000E+00
         0.00000E+00
         0.00000E+00
         0.00000E+00
         0.00000E+00
         0.00000E+00
         0.00000E+00
         0.00000E+00
         0.00000E+00
         0.00000E+00
         0.00000E+00
         0.00000E+00
         0.00000E+00
         0.00000E+00
         0.00000E+00
         0.00000E+00
         0.00000E+00
         0.00000E+00
         0.00000E+00
         0.00000E+00
         0.00000E+00
         0.00000E+00
         0.00000E+00
         0.00000E+00
         0.00000E+00
         0.00000E+00
         0.00000E+00
         0.00000E+00
         0.00000E+00
         0.00000E+00
         0.00000E+00
         0.00000E+00
         0.00000E+00
         0.00000E+00
         0.00000E+00
         0.00000E+00
         0.00000E+00
         0.00000E+00
         0.00000E+00
         0.00000E+00
         0.00000E+00
         0.00000E+00
         0.00000E+00
         0.00000E+00
         0.00000E+00
         0.00000E+00
         0.00000E+00
         0.00000E+00
         0.00000E+00
         0.00000E+00
         0.00000E+00
         0.00000E+00
         0.00000E+00
         0.00000E+00
         0.00000E+00
         0.00000E+00
         0.00000E+00
         0.00000E+00
         0.00000E+00
         0.00000E+00
         0.00000E+00
         0.00000E+00
         0.00000E+00
         0.00000E+00
         0.00000E+00
         0.00000E+00
         0.00000E+00
         0.00000E+00
         0.00000E+00
         0.00000E+00
         0.00000E+00
         0.00000E+00
         0.00000E+00
         0.00000E+00
         0.00000E+00
         0.00000E+00
         0.00000E+00
         0.00000E+00
         0.00000E+00
         0.00000E+00
         0.00000E+00
         0.00000E+00
         0.00000E+00
         0.00000E+00
         0.00000E+00
         0.00000E+00
         0.00000E+00
         0.00000E+00
         0.00000E+00
         0.00000E+00
         0.00000E+00
         0.00000E+00
         0.00000E+00
         0.00000E+00
         0.00000E+00
         0.00000E+00
         0.00000E+00
         0.00000E+00
         0.00000E+00
         0.00000E+00
         0.00000E+00
         0.00000E+00
         0.00000E+00
         0.00000E+00
         0.00000E+00
         0.00000E+00
         0.00000E+00
         0.00000E+00
         0.00000E+00
         0.00000E+00
         0.00000E+00
         0.00000E+00
         0.00000E+00
         0.00000E+00
         0.00000E+00
         0.00000E+00
         0.00000E+00
         0.00000E+00
         0.00000E+00
         0.00000E+00
         0.00000E+00
         0.00000E+00
         0.00000E+00
         0.00000E+00
         0.00000E+00
         0.00000E+00
         0.00000E+00
         0.00000E+00
         0.00000E+00
         0.00000E+00
         0.00000E+00
         0.00000E+00
         0.00000E+00
         0.00000E+00
         0.00000E+00
         0.00000E+00
         0.00000E+00
         0.00000E+00
         0.00000E+00
         0.00000E+00
         0.00000E+00
         0.00000E+00
         0.00000E+00
         0.00000E+00
         0.00000E+00
         0.00000E+00
         0.00000E+00
         0.00000E+00
         0.00000E+00
         0.00000E+00
         0.00000E+00
         0.00000E+00
         0.00000E+00
         0.00000E+00
         0.00000E+00
         0.00000E+00
         0.00000E+00
         0.00000E+00
         0.00000E+00
         0.00000E+00
         0.00000E+00
         0.00000E+00
         0.00000E+00
         0.00000E+00
         0.00000E+00
         0.00000E+00
         0.00000E+00
         0.00000E+00
         0.00000E+00
         0.00000E+00
         0.00000E+00
         0.00000E+00
         0.00000E+00
         0.00000E+00
         0.00000E+00
         0.00000E+00
         0.00000E+00
         0.00000E+00
         0.00000E+00
         0.00000E+00
         0.00000E+00
         0.00000E+00
         0.00000E+00
         0.00000E+00
         0.00000E+00
         0.00000E+00
         0.00000E+00
         0.00000E+00
         0.00000E+00
         0.00000E+00
         0.00000E+00
         0.00000E+00
         0.00000E+00
         0.00000E+00
         0.00000E+00
         0.00000E+00
         0.00000E+00
         0.00000E+00
         0.00000E+00
         0.00000E+00
         0.00000E+00
         0.00000E+00
         0.00000E+00
         0.00000E+00
         0.00000E+00
         0.00000E+00
         0.00000E+00
         0.00000E+00
         0.00000E+00
         0.00000E+00
         0.00000E+00
         0.00000E+00
         0.00000E+00
         0.00000E+00
         0.00000E+00
         0.00000E+00
         0.00000E+00
         0.00000E+00
         0.00000E+00
         0.00000E+00
         0.00000E+00
         0.00000E+00
         0.00000E+00
         0.00000E+00
         0.00000E+00
         0.00000E+00
         0.00000E+00
         0.00000E+00
         0.00000E+00
         0.00000E+00
         0.00000E+00
         0.00000E+00
         0.00000E+00
         0.00000E+00
         0.00000E+00
         0.00000E+00
         0.00000E+00
         0.00000E+00
         0.00000E+00
         0.00000E+00
         0.00000E+00
         0.00000E+00
         0.00000E+00
         0.00000E+00
         0.00000E+00
         0.00000E+00
         0.00000E+00
         0.00000E+00
         0.00000E+00
         0.00000E+00
         0.00000E+00
         0.00000E+00
         0.00000E+00
         0.00000E+00
         0.00000E+00
         0.00000E+00
         0.00000E+00
         0.00000E+00
         0.00000E+00
         0.00000E+00
         0.00000E+00
         0.00000E+00
         0.00000E+00
         0.00000E+00
         0.00000E+00
         0.00000E+00
         0.00000E+00
         0.00000E+00
         0.00000E+00
         0.00000E+00
         0.00000E+00
         0.00000E+00
         0.00000E+00
         0.00000E+00
         0.00000E+00
         0.00000E+00
         0.00000E+00
         0.00000E+00
         0.00000E+00
         0.00000E+00
         0.00000E+00
         0.00000E+00
         0.00000E+00
         0.00000E+00
         0.00000E+00
         0.00000E+00
         0.00000E+00
         0.00000E+00
         0.00000E+00
         0.00000E+00
         0.00000E+00
         0.00000E+00
         0.00000E+00
         0.00000E+00
         0.00000E+00
         0.00000E+00
         0.00000E+00
         0.00000E+00
         0.00000E+00
         0.00000E+00
         0.00000E+00
         0.00000E+00
         0.00000E+00
         0.00000E+00
         0.00000E+00
         0.00000E+00
         0.00000E+00
         0.00000E+00
         0.00000E+00
         0.00000E+00
         0.00000E+00
         0.00000E+00
         0.00000E+00
         0.00000E+00
         0.00000E+00
         0.00000E+00
         0.00000E+00
         0.00000E+00
         0.00000E+00
         0.00000E+00
         0.00000E+00
         0.00000E+00
         0.00000E+00
         0.00000E+00
         0.00000E+00
         0.00000E+00
         0.00000E+00
         0.00000E+00
         0.00000E+00
         0.00000E+00
         0.00000E+00
         0.00000E+00
         0.00000E+00
         0.00000E+00
         0.00000E+00
         0.00000E+00
         0.00000E+00
         0.00000E+00
         0.00000E+00
         0.00000E+00
         0.00000E+00
         0.00000E+00
         0.00000E+00
         0.00000E+00
         0.00000E+00
         0.00000E+00
         0.00000E+00
         0.00000E+00
         0.00000E+00
         0.00000E+00
         0.00000E+00
         0.00000E+00
         0.00000E+00
         0.00000E+00
         0.00000E+00
         0.00000E+00
         0.00000E+00
         0.00000E+00
         0.00000E+00
         0.00000E+00
         0.00000E+00
         0.00000E+00
         0.00000E+00
         0.00000E+00
         0.00000E+00
         0.00000E+00
         0.00000E+00
         0.00000E+00
         0.00000E+00
         0.00000E+00
         0.00000E+00
         0.00000E+00
         0.00000E+00
         0.00000E+00
         0.00000E+00
         0.00000E+00
         0.00000E+00
         0.00000E+00
         0.00000E+00
         0.00000E+00
         0.00000E+00
         0.00000E+00
         0.00000E+00
         0.00000E+00
         0.00000E+00
         0.00000E+00
         0.00000E+00
         0.00000E+00
         0.00000E+00
         0.00000E+00
         0.00000E+00
         0.00000E+00
         0.00000E+00
         0.00000E+00
         0.00000E+00
         0.00000E+00
         0.00000E+00
         0.00000E+00
         0.00000E+00
         0.00000E+00
         0.00000E+00
         0.00000E+00
         0.00000E+00
         0.00000E+00
         0.00000E+00
         0.00000E+00
         0.00000E+00
         0.00000E+00
         0.00000E+00
         0.00000E+00
         0.00000E+00
         0.00000E+00
         0.00000E+00
         0.00000E+00
         0.00000E+00
         0.00000E+00
         0.00000E+00
         0.00000E+00
         0.00000E+00
         0.00000E+00
         0.00000E+00
         0.00000E+00
         0.00000E+00
         0.00000E+00
         0.00000E+00
         0.00000E+00
         0.00000E+00
         0.00000E+00
         0.00000E+00
         0.00000E+00
         0.00000E+00
         0.00000E+00
         0.00000E+00
         0.00000E+00
         0.00000E+00
         0.00000E+00
         0.00000E+00
         0.00000E+00
         0.00000E+00
         0.00000E+00
         0.00000E+00
         0.00000E+00
         0.00000E+00
         0.00000E+00
         0.00000E+00
         0.00000E+00
         0.00000E+00
         0.00000E+00
         0.00000E+00
         0.00000E+00
         0.00000E+00
         0.00000E+00
         0.00000E+00
         0.00000E+00
         0.00000E+00
         0.00000E+00
         0.00000E+00
         0.00000E+00
         0.00000E+00
         0.00000E+00
         0.00000E+00
         0.00000E+00
         0.00000E+00
         0.00000E+00
         0.00000E+00
         0.00000E+00
         0.00000E+00
         0.00000E+00
         0.00000E+00
         0.00000E+00
         0.00000E+00
         0.00000E+00
         0.00000E+00
         0.00000E+00
         0.00000E+00
         0.00000E+00
         0.00000E+00
         0.00000E+00
         0.00000E+00
         0.00000E+00
         0.00000E+00
         0.00000E+00
         0.00000E+00
         0.00000E+00
         0.00000E+00
         0.00000E+00
         0.00000E+00
         0.00000E+00
         0.00000E+00
         0.00000E+00
         0.00000E+00
         0.00000E+00
         0.00000E+00
         0.00000E+00
         0.00000E+00
         0.00000E+00
         0.00000E+00
         0.00000E+00
         0.00000E+00
         0.00000E+00
         0.00000E+00
         0.00000E+00
         0.00000E+00
         0.00000E+00
         0.00000E+00
         0.00000E+00
         0.00000E+00
         0.00000E+00
         0.00000E+00
         0.00000E+00
         0.00000E+00
         0.00000E+00
         0.00000E+00
         0.00000E+00
         0.00000E+00
         0.00000E+00
         0.00000E+00
         0.00000E+00
         0.00000E+00
         0.00000E+00
         0.00000E+00
         0.00000E+00
         0.00000E+00
         0.00000E+00
         0.00000E+00
         0.00000E+00
         0.00000E+00
         0.00000E+00
         0.00000E+00
         0.00000E+00
         0.00000E+00
         0.00000E+00
         0.00000E+00
         0.00000E+00
         0.00000E+00
         0.00000E+00
         0.00000E+00
         0.00000E+00
         0.00000E+00
         0.00000E+00
         0.00000E+00
         0.00000E+00
         0.00000E+00
         0.00000E+00
         0.00000E+00
         0.00000E+00
         0.00000E+00
         0.00000E+00
         0.00000E+00
         0.00000E+00
         0.00000E+00
         0.00000E+00
         0.00000E+00
         0.00000E+00
         0.00000E+00
         0.00000E+00
         0.00000E+00
         0.00000E+00
         0.00000E+00
         0.00000E+00
         0.00000E+00
         0.00000E+00
         0.00000E+00
         0.00000E+00
         0.00000E+00
         0.00000E+00
         0.00000E+00
         0.00000E+00
         0.00000E+00
         0.00000E+00
         0.00000E+00
         0.00000E+00
         0.00000E+00
         0.00000E+00
         0.00000E+00
         0.00000E+00
         0.00000E+00
         0.00000E+00
         0.00000E+00
         0.00000E+00
         0.00000E+00
         0.00000E+00
         0.00000E+00
         0.00000E+00
         0.00000E+00
         0.00000E+00
         0.00000E+00
         0.00000E+00
         0.00000E+00
         0.00000E+00
         0.00000E+00
         0.00000E+00
         0.00000E+00
         0.00000E+00
         0.00000E+00
         0.00000E+00
         0.00000E+00
         0.00000E+00
         0.00000E+00
         0.00000E+00
         0.00000E+00
         0.00000E+00
         0.00000E+00
         0.00000E+00
         0.00000E+00
         0.00000E+00
         0.00000E+00
         0.00000E+00
         0.00000E+00
         0.00000E+00
         0.00000E+00
         0.00000E+00
         0.00000E+00
         0.00000E+00
         0.00000E+00
         0.00000E+00
         0.00000E+00
         0.00000E+00
         0.00000E+00
         0.00000E+00
         0.00000E+00
         0.00000E+00
         0.00000E+00
         0.00000E+00
         0.00000E+00
         0.00000E+00
         0.00000E+00
         0.00000E+00
         0.00000E+00
         0.00000E+00
         0.00000E+00
         0.00000E+00
         0.00000E+00
         0.00000E+00
         0.00000E+00
         0.00000E+00
         0.00000E+00
         0.00000E+00
         0.00000E+00
         0.00000E+00
         0.00000E+00
         0.00000E+00
         0.00000E+00
         0.00000E+00
         0.00000E+00
         0.00000E+00
         0.00000E+00
         0.00000E+00
         0.00000E+00
         0.00000E+00
         0.00000E+00
         0.00000E+00
         0.00000E+00
         0.00000E+00
         0.00000E+00
         0.00000E+00
         0.00000E+00
         0.00000E+00
         0.00000E+00
         0.00000E+00
         0.00000E+00
         0.00000E+00
         0.00000E+00
         0.00000E+00
         0.00000E+00
         0.00000E+00
         0.00000E+00
         0.00000E+00
         0.00000E+00
         0.00000E+00
         0.00000E+00
         0.00000E+00
         0.00000E+00
         0.00000E+00
         0.00000E+00
         0.00000E+00
         0.00000E+00
         0.00000E+00
         0.00000E+00
         0.00000E+00
         0.00000E+00
         0.00000E+00
         0.00000E+00
         0.00000E+00
         0.00000E+00
         0.00000E+00
         0.00000E+00
         0.00000E+00
         0.00000E+00
         0.00000E+00
         0.00000E+00
         0.00000E+00
         0.00000E+00
         0.00000E+00
         0.00000E+00
         0.00000E+00
         0.00000E+00
         0.00000E+00
         0.00000E+00
         0.00000E+00
         0.00000E+00
         0.00000E+00
         0.00000E+00
         0.00000E+00
         0.00000E+00
         0.00000E+00
         0.00000E+00
         0.00000E+00
         0.00000E+00
         0.00000E+00
         0.00000E+00
         0.00000E+00
         0.00000E+00
         0.00000E+00
         0.00000E+00
         0.00000E+00
         0.00000E+00
         0.00000E+00
         0.00000E+00
         0.00000E+00
         0.00000E+00
         0.00000E+00
         0.00000E+00
         0.00000E+00
         0.00000E+00
         0.00000E+00
         0.00000E+00
         0.00000E+00
         0.00000E+00
         0.00000E+00
         0.00000E+00
         0.00000E+00
         0.00000E+00
         0.00000E+00
         0.00000E+00
         0.00000E+00
         0.00000E+00
         0.00000E+00
         0.00000E+00
         0.00000E+00
         0.00000E+00
         0.00000E+00
         0.00000E+00
         0.00000E+00
         0.00000E+00
         0.00000E+00
         0.00000E+00
         0.00000E+00
         0.00000E+00
         0.00000E+00
         0.00000E+00
         0.00000E+00
         0.00000E+00
         0.00000E+00
         0.00000E+00
         0.00000E+00
         0.00000E+00
         0.00000E+00
         0.00000E+00
         0.00000E+00
         0.00000E+00
         0.00000E+00
         0.00000E+00
         0.00000E+00
         0.00000E+00
         0.00000E+00
         0.00000E+00
         0.00000E+00
         0.00000E+00
         0.00000E+00
         0.00000E+00
         0.00000E+00
         0.00000E+00
         0.00000E+00
         0.00000E+00
         0.00000E+00
         0.00000E+00
         0.00000E+00
         0.00000E+00
         0.00000E+00
         0.00000E+00
         0.00000E+00
         0.00000E+00
         0.00000E+00
         0.00000E+00
         0.00000E+00
         0.00000E+00
         0.00000E+00
         0.00000E+00
         0.00000E+00
         0.00000E+00
         0.00000E+00
         0.00000E+00
         0.00000E+00
         0.00000E+00
         0.00000E+00
         0.00000E+00
         0.00000E+00
         0.00000E+00
         0.00000E+00
         0.00000E+00
         0.00000E+00
         0.00000E+00
         0.00000E+00
         0.00000E+00
         0.00000E+00
         0.00000E+00
         0.00000E+00
         0.00000E+00
         0.00000E+00
         0.00000E+00
         0.00000E+00
         0.00000E+00
         0.00000E+00
         0.00000E+00
         0.00000E+00
         0.00000E+00
         0.00000E+00
         0.00000E+00
         0.00000E+00
         0.00000E+00
         0.00000E+00
         0.00000E+00
         0.00000E+00
         0.00000E+00
         0.00000E+00
         0.00000E+00
         0.00000E+00
         0.00000E+00
         0.00000E+00
         0.00000E+00
         0.00000E+00
         0.00000E+00
         0.00000E+00
         0.00000E+00
         0.00000E+00
         0.00000E+00
         0.00000E+00
         0.00000E+00
         0.00000E+00
         0.00000E+00
         0.00000E+00
         0.00000E+00
         0.00000E+00
         0.00000E+00
         0.00000E+00
         0.00000E+00
         0.00000E+00
         0.00000E+00
         0.00000E+00
         0.00000E+00
         0.00000E+00
         0.00000E+00
         0.00000E+00
         0.00000E+00
         0.00000E+00
         0.00000E+00
         0.00000E+00
         0.00000E+00
         0.00000E+00
         0.00000E+00
         0.00000E+00
         0.00000E+00
         0.00000E+00
         0.00000E+00
         0.00000E+00
         0.00000E+00
         0.00000E+00
         0.00000E+00
         0.00000E+00
         0.00000E+00
         0.00000E+00
         0.00000E+00
         0.00000E+00
         0.00000E+00
         0.00000E+00
         0.00000E+00
         0.00000E+00
         0.00000E+00
         0.00000E+00
         0.00000E+00
         0.00000E+00
         0.00000E+00
         0.00000E+00
         0.00000E+00
         0.00000E+00
         0.00000E+00
         0.00000E+00
         0.00000E+00
         0.00000E+00
         0.00000E+00
         0.00000E+00
         0.00000E+00
         0.00000E+00
         0.00000E+00
         0.00000E+00
         0.00000E+00
         0.00000E+00
         0.00000E+00
         0.00000E+00
         0.00000E+00
         0.00000E+00
         0.00000E+00
         0.00000E+00
         0.00000E+00
         0.00000E+00
         0.00000E+00
         0.00000E+00
         0.00000E+00
         0.00000E+00
         0.00000E+00
         0.00000E+00
         0.00000E+00
         0.00000E+00
         0.00000E+00
         0.00000E+00
         0.00000E+00
         0.00000E+00
         0.00000E+00
         0.00000E+00
         0.00000E+00
         0.00000E+00
         0.00000E+00
         0.00000E+00
         0.00000E+00
         0.00000E+00
         0.00000E+00
         0.00000E+00
         0.00000E+00
         0.00000E+00
         0.00000E+00
         0.00000E+00
         0.00000E+00
         0.00000E+00
         0.00000E+00
         0.00000E+00
         0.00000E+00
         0.00000E+00
         0.00000E+00
         0.00000E+00
         0.00000E+00
         0.00000E+00
         0.00000E+00
         0.00000E+00
         0.00000E+00
         0.00000E+00
         0.00000E+00
         0.00000E+00
         0.00000E+00
         0.00000E+00
         0.00000E+00
         0.00000E+00
         0.00000E+00
         0.00000E+00
         0.00000E+00
         0.00000E+00
         0.00000E+00
         0.00000E+00
         0.00000E+00
         0.00000E+00
         0.00000E+00
         0.00000E+00
         0.00000E+00
         0.00000E+00
         0.00000E+00
         0.00000E+00
         0.00000E+00
         0.00000E+00
         0.00000E+00
         0.00000E+00
         0.00000E+00
         0.00000E+00
         0.00000E+00
         0.00000E+00
         0.00000E+00
         0.00000E+00
         0.00000E+00
         0.00000E+00
         0.00000E+00
         0.00000E+00
         0.00000E+00
         0.00000E+00
         0.00000E+00
         0.00000E+00
         0.00000E+00
         0.00000E+00
         0.00000E+00
         0.00000E+00
         0.00000E+00
         0.00000E+00
         0.00000E+00
         0.00000E+00
         0.00000E+00
         0.00000E+00
         0.00000E+00
         0.00000E+00
         0.00000E+00
         0.00000E+00
         0.00000E+00
         0.00000E+00
         0.00000E+00
         0.00000E+00
         0.00000E+00
         0.00000E+00
         0.00000E+00
         0.00000E+00
         0.00000E+00
         0.00000E+00
         0.00000E+00
         0.00000E+00
         0.00000E+00
         0.00000E+00
         0.00000E+00
         0.00000E+00
         0.00000E+00
         0.00000E+00
         0.00000E+00
         0.00000E+00
         0.00000E+00
         0.00000E+00
         0.00000E+00
         0.00000E+00
         0.00000E+00
         0.00000E+00
         0.00000E+00
         0.00000E+00
         0.00000E+00
         0.00000E+00
         0.00000E+00
         0.00000E+00
         0.00000E+00
         0.00000E+00
         0.00000E+00
         0.00000E+00
         0.00000E+00
         0.00000E+00
         0.00000E+00
         0.00000E+00
         0.00000E+00
         0.00000E+00
         0.00000E+00
         0.00000E+00
         0.00000E+00
         0.00000E+00
         0.00000E+00
         0.00000E+00
         0.00000E+00
         0.00000E+00
         0.00000E+00
         0.00000E+00
         0.00000E+00
         0.00000E+00
         0.00000E+00
         0.00000E+00
         0.00000E+00
         0.00000E+00
         0.00000E+00
         0.00000E+00
         0.00000E+00
         0.00000E+00
         0.00000E+00
         0.00000E+00
         0.00000E+00
         0.00000E+00
         0.00000E+00
         0.00000E+00
         0.00000E+00
         0.00000E+00
         0.00000E+00
         0.00000E+00
         0.00000E+00
         0.00000E+00
         0.00000E+00
         0.00000E+00
         0.00000E+00
         0.00000E+00
         0.00000E+00
         0.00000E+00
         0.00000E+00
         0.00000E+00
         0.00000E+00
         0.00000E+00
         0.00000E+00
         0.00000E+00
         0.00000E+00
         0.00000E+00
         0.00000E+00
         0.00000E+00
         0.00000E+00
         0.00000E+00
         0.00000E+00
         0.00000E+00
         0.00000E+00
         0.00000E+00
         0.00000E+00
         0.00000E+00
         0.00000E+00
         0.00000E+00
         0.00000E+00
         0.00000E+00
         0.00000E+00
         0.00000E+00
         0.00000E+00
         0.00000E+00
         0.00000E+00
         0.00000E+00
         0.00000E+00
         0.00000E+00
         0.00000E+00
         0.00000E+00
         0.00000E+00
         0.00000E+00
         0.00000E+00
         0.00000E+00
         0.00000E+00
         0.00000E+00
         0.00000E+00
         0.00000E+00
         0.00000E+00
         0.00000E+00
         0.00000E+00
         0.00000E+00
         0.00000E+00
         0.00000E+00
         0.00000E+00
         0.00000E+00
         0.00000E+00
         0.00000E+00
         0.00000E+00
         0.00000E+00
         0.00000E+00
         0.00000E+00
         0.00000E+00
         0.00000E+00
         0.00000E+00
         0.00000E+00
         0.00000E+00
         0.00000E+00
         0.00000E+00
         0.00000E+00
         0.00000E+00
         0.00000E+00
         0.00000E+00
         0.00000E+00
         0.00000E+00
         0.00000E+00
         0.00000E+00
         0.00000E+00
         0.00000E+00
         0.00000E+00
         0.00000E+00
         0.00000E+00
         0.00000E+00
         0.00000E+00
         0.00000E+00
         0.00000E+00
         0.00000E+00
         0.00000E+00
         0.00000E+00
         0.00000E+00
         0.00000E+00
         0.00000E+00
         0.00000E+00
         0.00000E+00
         0.00000E+00
         0.00000E+00
         0.00000E+00
         0.00000E+00
         0.00000E+00
         0.00000E+00
         0.00000E+00
         0.00000E+00
         0.00000E+00
         0.00000E+00
         0.00000E+00
         0.00000E+00
         0.00000E+00
         0.00000E+00
         0.00000E+00
         0.00000E+00
         0.00000E+00
         0.00000E+00
         0.00000E+00
         0.00000E+00
         0.00000E+00
         0.00000E+00
         0.00000E+00
         0.00000E+00
         0.00000E+00
         0.00000E+00
         0.00000E+00
         0.00000E+00
         0.00000E+00
         0.00000E+00
         0.00000E+00
         0.00000E+00
         0.00000E+00
         0.00000E+00
         0.00000E+00
         0.00000E+00
         0.00000E+00
         0.00000E+00
         0.00000E+00
         0.00000E+00
         0.00000E+00
         0.00000E+00
         0.00000E+00
         0.00000E+00
         0.00000E+00
         0.00000E+00
         0.00000E+00
         0.00000E+00
         0.00000E+00
         0.00000E+00
         0.00000E+00
         0.00000E+00
         0.00000E+00
         0.00000E+00
         0.00000E+00
         0.00000E+00
         0.00000E+00
         0.00000E+00
         0.00000E+00
         0.00000E+00
         0.00000E+00
         0.00000E+00
         0.00000E+00
         0.00000E+00
         0.00000E+00
         0.00000E+00
         0.00000E+00
         0.00000E+00
         0.00000E+00
         0.00000E+00
         0.00000E+00
         0.00000E+00
         0.00000E+00
         0.00000E+00
         0.00000E+00
         0.00000E+00
         0.00000E+00
         0.00000E+00
         0.00000E+00
         0.00000E+00
         0.00000E+00
         0.00000E+00
         0.00000E+00
         0.00000E+00
         0.00000E+00
         0.00000E+00
         0.00000E+00
         0.00000E+00
         0.00000E+00
         0.00000E+00
         0.00000E+00
         0.00000E+00
         0.00000E+00
         0.00000E+00
         0.00000E+00
         0.00000E+00
         0.00000E+00
         0.00000E+00
         0.00000E+00
         0.00000E+00
         0.00000E+00
         0.00000E+00
         0.00000E+00
         0.00000E+00
         0.00000E+00
         0.00000E+00
         0.00000E+00
         0.00000E+00
         0.00000E+00
         0.00000E+00
         0.00000E+00
         0.00000E+00
         0.00000E+00
         0.00000E+00
         0.00000E+00
         0.00000E+00
         0.00000E+00
         0.00000E+00
         0.00000E+00
         0.00000E+00
         0.00000E+00
         0.00000E+00
         0.00000E+00
         0.00000E+00
         0.00000E+00
         0.00000E+00
         0.00000E+00
         0.00000E+00
         0.00000E+00
         0.00000E+00
         0.00000E+00
         0.00000E+00
         0.00000E+00
         0.00000E+00
         0.00000E+00
         0.00000E+00
         0.00000E+00
         0.00000E+00
         0.00000E+00
         0.00000E+00
         0.00000E+00
         0.00000E+00
         0.00000E+00
         0.00000E+00
         0.00000E+00
         0.00000E+00
         0.00000E+00
         0.00000E+00
         0.00000E+00
         0.00000E+00
         0.00000E+00
         0.00000E+00
         0.00000E+00
         0.00000E+00
         0.00000E+00
         0.00000E+00
         0.00000E+00
         0.00000E+00
         0.00000E+00
         0.00000E+00
         0.00000E+00
         0.00000E+00
         0.00000E+00
         0.00000E+00
         0.00000E+00
         0.00000E+00
         0.00000E+00
         0.00000E+00
         0.00000E+00
         0.00000E+00
         0.00000E+00
         0.00000E+00
         0.00000E+00
         0.00000E+00
         0.00000E+00
         0.00000E+00
         0.00000E+00
         0.00000E+00
         0.00000E+00
         0.00000E+00
         0.00000E+00
         0.00000E+00
         0.00000E+00
         0.00000E+00
         0.00000E+00
         0.00000E+00
         0.00000E+00
         0.00000E+00
         0.00000E+00
         0.00000E+00
         0.00000E+00
         0.00000E+00
         0.00000E+00
         0.00000E+00
         0.00000E+00
         0.00000E+00
         0.00000E+00
         0.00000E+00
         0.00000E+00
         0.00000E+00
         0.00000E+00
         0.00000E+00
         0.00000E+00
         0.00000E+00
         0.00000E+00
         0.00000E+00
         0.00000E+00
         0.00000E+00
         0.00000E+00
         0.00000E+00
         0.00000E+00
         0.00000E+00
         0.00000E+00
         0.00000E+00
         0.00000E+00
         0.00000E+00
         0.00000E+00
         0.00000E+00
         0.00000E+00
         0.00000E+00
         0.00000E+00
         0.00000E+00
         0.00000E+00
         0.00000E+00
         0.00000E+00
         0.00000E+00
         0.00000E+00
         0.00000E+00
         0.00000E+00
         0.00000E+00
         0.00000E+00
         0.00000E+00
         0.00000E+00
         0.00000E+00
         0.00000E+00
         0.00000E+00
         0.00000E+00
         0.00000E+00
         0.00000E+00
         0.00000E+00
         0.00000E+00
         0.00000E+00
         0.00000E+00
         0.00000E+00
         0.00000E+00
         0.00000E+00
         0.00000E+00
         0.00000E+00
         0.00000E+00
         0.00000E+00
         0.00000E+00
         0.00000E+00
         0.00000E+00
         0.00000E+00
         0.00000E+00
         0.00000E+00
         0.00000E+00
         0.00000E+00
         0.00000E+00
         0.00000E+00
         0.00000E+00
         0.00000E+00
         0.00000E+00
         0.00000E+00
         0.00000E+00
         0.00000E+00
         0.00000E+00
         0.00000E+00
         0.00000E+00
         0.00000E+00
         0.00000E+00
         0.00000E+00
         0.00000E+00
         0.00000E+00
         0.00000E+00
         0.00000E+00
         0.00000E+00
         0.00000E+00
         0.00000E+00
         0.00000E+00
         0.00000E+00
         0.00000E+00
         0.00000E+00
         0.00000E+00
         0.00000E+00
         0.00000E+00
         0.00000E+00
         0.00000E+00
         0.00000E+00
         0.00000E+00
         0.00000E+00
         0.00000E+00
         0.00000E+00
         0.00000E+00
         0.00000E+00
         0.00000E+00
         0.00000E+00
         0.00000E+00
         0.00000E+00
         0.00000E+00
         0.00000E+00
         0.00000E+00
         0.00000E+00
         0.00000E+00
         0.00000E+00
         0.00000E+00
         0.00000E+00
         0.00000E+00
         0.00000E+00
         0.00000E+00
         0.00000E+00
         0.00000E+00
         0.00000E+00
         0.00000E+00
         0.00000E+00
         0.00000E+00
         0.00000E+00
         0.00000E+00
         0.00000E+00
         0.00000E+00
         0.00000E+00
         0.00000E+00
         0.00000E+00
         0.00000E+00
         0.00000E+00
         0.00000E+00
         0.00000E+00
         0.00000E+00
         0.00000E+00
         0.00000E+00
         0.00000E+00
         0.00000E+00
         0.00000E+00
         0.00000E+00
         0.00000E+00
         0.00000E+00
         0.00000E+00
         0.00000E+00
         0.00000E+00
         0.00000E+00
         0.00000E+00
         0.00000E+00
         0.00000E+00
         0.00000E+00
         0.00000E+00
         0.00000E+00
         0.00000E+00
         0.00000E+00
         0.00000E+00
         0.00000E+00
         0.00000E+00
         0.00000E+00
         0.00000E+00
         0.00000E+00
         0.00000E+00
         0.00000E+00
         0.00000E+00
         0.00000E+00
         0.00000E+00
         0.00000E+00
         0.00000E+00
         0.00000E+00
         0.00000E+00
         0.00000E+00
         0.00000E+00
         0.00000E+00
         0.00000E+00
         0.00000E+00
         0.00000E+00
         0.00000E+00
         0.00000E+00
         0.00000E+00
         0.00000E+00
         0.00000E+00
         0.00000E+00
         0.00000E+00
         0.00000E+00
         0.00000E+00
         0.00000E+00
         0.00000E+00
         0.00000E+00
         0.00000E+00
         0.00000E+00
         0.00000E+00
         0.00000E+00
         0.00000E+00
         0.00000E+00
         0.00000E+00
         0.00000E+00
         0.00000E+00
         0.00000E+00
         0.00000E+00
         0.00000E+00
         0.00000E+00
         0.00000E+00
         0.00000E+00
         0.00000E+00
         0.00000E+00
         0.00000E+00
         0.00000E+00
         0.00000E+00
         0.00000E+00
         0.00000E+00
         0.00000E+00
         0.00000E+00
         0.00000E+00
         0.00000E+00
         0.00000E+00
         0.00000E+00
         0.00000E+00
         0.00000E+00
         0.00000E+00
         0.00000E+00
         0.00000E+00
         0.00000E+00
         0.00000E+00
         0.00000E+00
         0.00000E+00
         0.00000E+00
         0.00000E+00
         0.00000E+00
         0.00000E+00
         0.00000E+00
         0.00000E+00
         0.00000E+00
         0.00000E+00
         0.00000E+00
         0.00000E+00
         0.00000E+00
         0.00000E+00
         0.00000E+00
         0.00000E+00
         0.00000E+00
         0.00000E+00
         0.00000E+00
         0.00000E+00
         0.00000E+00
         0.00000E+00
         0.00000E+00
         0.00000E+00
         0.00000E+00
         0.00000E+00
         0.00000E+00
         0.00000E+00
         0.00000E+00
         0.00000E+00
         0.00000E+00
         0.00000E+00
         0.00000E+00
         0.00000E+00
         0.00000E+00
         0.00000E+00
         0.00000E+00
         0.00000E+00
         0.00000E+00
         0.00000E+00
         0.00000E+00
         0.00000E+00
         0.00000E+00
         0.00000E+00
         0.00000E+00
         0.00000E+00
         0.00000E+00
         0.00000E+00
         0.00000E+00
         0.00000E+00
         0.00000E+00
         0.00000E+00
         0.00000E+00
         0.00000E+00
         0.00000E+00
         0.00000E+00
         0.00000E+00
         0.00000E+00
         0.00000E+00
         0.00000E+00
         0.00000E+00
         0.00000E+00
         0.00000E+00
         0.00000E+00
         0.00000E+00
         0.00000E+00
         0.00000E+00
         0.00000E+00
         0.00000E+00
         0.00000E+00
         0.00000E+00
         0.00000E+00
         0.00000E+00
         0.00000E+00
         0.00000E+00
         0.00000E+00
         0.00000E+00
         0.00000E+00
         0.00000E+00
         0.00000E+00
         0.00000E+00
         0.00000E+00
         0.00000E+00
         0.00000E+00
         0.00000E+00
         0.00000E+00
         0.00000E+00
         0.00000E+00
         0.00000E+00
         0.00000E+00
         0.00000E+00
         0.00000E+00
         0.00000E+00
         0.00000E+00
         0.00000E+00
         0.00000E+00
         0.00000E+00
         0.00000E+00
         0.00000E+00
         0.00000E+00
         0.00000E+00
         0.00000E+00
         0.00000E+00
         0.00000E+00
         0.00000E+00
         0.00000E+00
         0.00000E+00
         0.00000E+00
         0.00000E+00
         0.00000E+00
         0.00000E+00
         0.00000E+00
         0.00000E+00
         0.00000E+00
         0.00000E+00
         0.00000E+00
         0.00000E+00
         0.00000E+00
         0.00000E+00
         0.00000E+00
         0.00000E+00
         0.00000E+00
         0.00000E+00
         0.00000E+00
         0.00000E+00
         0.00000E+00
         0.00000E+00
         0.00000E+00
         0.00000E+00
         0.00000E+00
         0.00000E+00
         0.00000E+00
         0.00000E+00
         0.00000E+00
         0.00000E+00
         0.00000E+00
         0.00000E+00
         0.00000E+00
         0.00000E+00
         0.00000E+00
         0.00000E+00
         0.00000E+00
         0.00000E+00
         0.00000E+00
         0.00000E+00
         0.00000E+00
         0.00000E+00
         0.00000E+00
         0.00000E+00
         0.00000E+00
         0.00000E+00
         0.00000E+00
         0.00000E+00
         0.00000E+00
         0.00000E+00
         0.00000E+00
         0.00000E+00
         0.00000E+00
         0.00000E+00
         0.00000E+00
         0.00000E+00
         0.00000E+00
         0.00000E+00
         0.00000E+00
         0.00000E+00
         0.00000E+00
         0.00000E+00
         0.00000E+00
         0.00000E+00
         0.00000E+00
         0.00000E+00
         0.00000E+00
         0.00000E+00
         0.00000E+00
         0.00000E+00
         0.00000E+00
         0.00000E+00
         0.00000E+00
         0.00000E+00
         0.00000E+00
         0.00000E+00
         0.00000E+00
         0.00000E+00
         0.00000E+00
         0.00000E+00
         0.00000E+00
         0.00000E+00
         0.00000E+00
         0.00000E+00
         0.00000E+00
         0.00000E+00
         0.00000E+00
         0.00000E+00
         0.00000E+00
         0.00000E+00
         0.00000E+00
         0.00000E+00
         0.00000E+00
         0.00000E+00
         0.00000E+00
         0.00000E+00
         0.00000E+00
         0.00000E+00
         0.00000E+00
         0.00000E+00
         0.00000E+00
         0.00000E+00
         0.00000E+00
         0.00000E+00
         0.00000E+00
         0.00000E+00
         0.00000E+00
         0.00000E+00
         0.00000E+00
         0.00000E+00
         0.00000E+00
         0.00000E+00
         0.00000E+00
         0.00000E+00
         0.00000E+00
         0.00000E+00
         0.00000E+00
         0.00000E+00
         0.00000E+00
         0.00000E+00
         0.00000E+00
         0.00000E+00
         0.00000E+00
         0.00000E+00
         0.00000E+00
         0.00000E+00
         0.00000E+00
         0.00000E+00
         0.00000E+00
         0.00000E+00
         0.00000E+00
         0.00000E+00
         0.00000E+00
         0.00000E+00
         0.00000E+00
         0.00000E+00
         0.00000E+00
         0.00000E+00
         0.00000E+00
         0.00000E+00
         0.00000E+00
         0.00000E+00
         0.00000E+00
         0.00000E+00
         0.00000E+00
         0.00000E+00
         0.00000E+00
         0.00000E+00
         0.00000E+00
         0.00000E+00
         0.00000E+00
         0.00000E+00
         0.00000E+00
         0.00000E+00
         0.00000E+00
         0.00000E+00
         0.00000E+00
         0.00000E+00
         0.00000E+00
         0.00000E+00
         0.00000E+00
         0.00000E+00
         0.00000E+00
         0.00000E+00
         0.00000E+00
         0.00000E+00
         0.00000E+00
         0.00000E+00
         0.00000E+00
         0.00000E+00
         0.00000E+00
         0.00000E+00
         0.00000E+00
         0.00000E+00
         0.00000E+00
         0.00000E+00
         0.00000E+00
         0.00000E+00
         0.00000E+00
         0.00000E+00
         0.00000E+00
         0.00000E+00
         0.00000E+00
         0.00000E+00
         0.00000E+00
         0.00000E+00
         0.00000E+00
         0.00000E+00
         0.00000E+00
         0.00000E+00
         0.00000E+00
         0.00000E+00
         0.00000E+00
         0.00000E+00
         0.00000E+00
         0.00000E+00
         0.00000E+00
         0.00000E+00
         0.00000E+00
         0.00000E+00
         0.00000E+00
         0.00000E+00
         0.00000E+00
         0.00000E+00
  
SCALARS                init_velocity_z  double 1
LOOKUP_TABLE default
        -0.37300E+03
        -0.37300E+03
        -0.37300E+03
        -0.37300E+03
        -0.37300E+03
        -0.37300E+03
        -0.37300E+03
        -0.37300E+03
        -0.37300E+03
        -0.37300E+03
        -0.37300E+03
        -0.37300E+03
        -0.37300E+03
        -0.37300E+03
        -0.37300E+03
        -0.37300E+03
        -0.37300E+03
        -0.37300E+03
        -0.37300E+03
        -0.37300E+03
        -0.37300E+03
        -0.37300E+03
        -0.37300E+03
        -0.37300E+03
        -0.37300E+03
        -0.37300E+03
        -0.37300E+03
        -0.37300E+03
        -0.37300E+03
        -0.37300E+03
        -0.37300E+03
        -0.37300E+03
        -0.37300E+03
        -0.37300E+03
        -0.37300E+03
        -0.37300E+03
        -0.37300E+03
        -0.37300E+03
        -0.37300E+03
        -0.37300E+03
        -0.37300E+03
        -0.37300E+03
        -0.37300E+03
        -0.37300E+03
        -0.37300E+03
        -0.37300E+03
        -0.37300E+03
        -0.37300E+03
        -0.37300E+03
        -0.37300E+03
        -0.37300E+03
        -0.37300E+03
        -0.37300E+03
        -0.37300E+03
        -0.37300E+03
        -0.37300E+03
        -0.37300E+03
        -0.37300E+03
        -0.37300E+03
        -0.37300E+03
        -0.37300E+03
        -0.37300E+03
        -0.37300E+03
        -0.37300E+03
        -0.37300E+03
        -0.37300E+03
        -0.37300E+03
        -0.37300E+03
        -0.37300E+03
        -0.37300E+03
        -0.37300E+03
        -0.37300E+03
        -0.37300E+03
        -0.37300E+03
        -0.37300E+03
        -0.37300E+03
        -0.37300E+03
        -0.37300E+03
        -0.37300E+03
        -0.37300E+03
        -0.37300E+03
        -0.37300E+03
        -0.37300E+03
        -0.37300E+03
        -0.37300E+03
        -0.37300E+03
        -0.37300E+03
        -0.37300E+03
        -0.37300E+03
        -0.37300E+03
        -0.37300E+03
        -0.37300E+03
        -0.37300E+03
        -0.37300E+03
        -0.37300E+03
        -0.37300E+03
        -0.37300E+03
        -0.37300E+03
        -0.37300E+03
        -0.37300E+03
        -0.37300E+03
        -0.37300E+03
        -0.37300E+03
        -0.37300E+03
        -0.37300E+03
        -0.37300E+03
        -0.37300E+03
        -0.37300E+03
        -0.37300E+03
        -0.37300E+03
        -0.37300E+03
        -0.37300E+03
        -0.37300E+03
        -0.37300E+03
        -0.37300E+03
        -0.37300E+03
        -0.37300E+03
        -0.37300E+03
        -0.37300E+03
        -0.37300E+03
        -0.37300E+03
        -0.37300E+03
        -0.37300E+03
        -0.37300E+03
        -0.37300E+03
        -0.37300E+03
        -0.37300E+03
        -0.37300E+03
        -0.37300E+03
        -0.37300E+03
        -0.37300E+03
        -0.37300E+03
        -0.37300E+03
        -0.37300E+03
        -0.37300E+03
        -0.37300E+03
        -0.37300E+03
        -0.37300E+03
        -0.37300E+03
        -0.37300E+03
        -0.37300E+03
        -0.37300E+03
        -0.37300E+03
        -0.37300E+03
        -0.37300E+03
        -0.37300E+03
        -0.37300E+03
        -0.37300E+03
        -0.37300E+03
        -0.37300E+03
        -0.37300E+03
        -0.37300E+03
        -0.37300E+03
        -0.37300E+03
        -0.37300E+03
        -0.37300E+03
        -0.37300E+03
        -0.37300E+03
        -0.37300E+03
        -0.37300E+03
        -0.37300E+03
        -0.37300E+03
        -0.37300E+03
        -0.37300E+03
        -0.37300E+03
        -0.37300E+03
        -0.37300E+03
        -0.37300E+03
        -0.37300E+03
        -0.37300E+03
        -0.37300E+03
        -0.37300E+03
        -0.37300E+03
        -0.37300E+03
        -0.37300E+03
        -0.37300E+03
        -0.37300E+03
        -0.37300E+03
        -0.37300E+03
        -0.37300E+03
        -0.37300E+03
        -0.37300E+03
        -0.37300E+03
        -0.37300E+03
        -0.37300E+03
        -0.37300E+03
        -0.37300E+03
        -0.37300E+03
        -0.37300E+03
        -0.37300E+03
        -0.37300E+03
        -0.37300E+03
        -0.37300E+03
        -0.37300E+03
        -0.37300E+03
        -0.37300E+03
        -0.37300E+03
        -0.37300E+03
        -0.37300E+03
        -0.37300E+03
        -0.37300E+03
        -0.37300E+03
        -0.37300E+03
        -0.37300E+03
        -0.37300E+03
        -0.37300E+03
        -0.37300E+03
        -0.37300E+03
        -0.37300E+03
        -0.37300E+03
        -0.37300E+03
        -0.37300E+03
        -0.37300E+03
        -0.37300E+03
        -0.37300E+03
        -0.37300E+03
        -0.37300E+03
        -0.37300E+03
        -0.37300E+03
        -0.37300E+03
        -0.37300E+03
        -0.37300E+03
        -0.37300E+03
        -0.37300E+03
        -0.37300E+03
        -0.37300E+03
        -0.37300E+03
        -0.37300E+03
        -0.37300E+03
        -0.37300E+03
        -0.37300E+03
        -0.37300E+03
        -0.37300E+03
        -0.37300E+03
        -0.37300E+03
        -0.37300E+03
        -0.37300E+03
        -0.37300E+03
        -0.37300E+03
        -0.37300E+03
        -0.37300E+03
        -0.37300E+03
        -0.37300E+03
        -0.37300E+03
        -0.37300E+03
        -0.37300E+03
        -0.37300E+03
        -0.37300E+03
        -0.37300E+03
        -0.37300E+03
        -0.37300E+03
        -0.37300E+03
        -0.37300E+03
        -0.37300E+03
        -0.37300E+03
        -0.37300E+03
        -0.37300E+03
        -0.37300E+03
        -0.37300E+03
        -0.37300E+03
        -0.37300E+03
        -0.37300E+03
        -0.37300E+03
        -0.37300E+03
        -0.37300E+03
        -0.37300E+03
        -0.37300E+03
        -0.37300E+03
        -0.37300E+03
        -0.37300E+03
        -0.37300E+03
        -0.37300E+03
        -0.37300E+03
        -0.37300E+03
        -0.37300E+03
        -0.37300E+03
        -0.37300E+03
        -0.37300E+03
        -0.37300E+03
        -0.37300E+03
        -0.37300E+03
        -0.37300E+03
        -0.37300E+03
        -0.37300E+03
        -0.37300E+03
        -0.37300E+03
        -0.37300E+03
        -0.37300E+03
        -0.37300E+03
        -0.37300E+03
        -0.37300E+03
        -0.37300E+03
        -0.37300E+03
        -0.37300E+03
        -0.37300E+03
        -0.37300E+03
        -0.37300E+03
        -0.37300E+03
        -0.37300E+03
        -0.37300E+03
        -0.37300E+03
        -0.37300E+03
        -0.37300E+03
        -0.37300E+03
        -0.37300E+03
        -0.37300E+03
        -0.37300E+03
        -0.37300E+03
        -0.37300E+03
        -0.37300E+03
        -0.37300E+03
        -0.37300E+03
        -0.37300E+03
        -0.37300E+03
        -0.37300E+03
        -0.37300E+03
        -0.37300E+03
        -0.37300E+03
        -0.37300E+03
        -0.37300E+03
        -0.37300E+03
        -0.37300E+03
        -0.37300E+03
        -0.37300E+03
        -0.37300E+03
        -0.37300E+03
        -0.37300E+03
        -0.37300E+03
        -0.37300E+03
        -0.37300E+03
        -0.37300E+03
        -0.37300E+03
        -0.37300E+03
        -0.37300E+03
        -0.37300E+03
        -0.37300E+03
        -0.37300E+03
        -0.37300E+03
        -0.37300E+03
        -0.37300E+03
        -0.37300E+03
        -0.37300E+03
        -0.37300E+03
        -0.37300E+03
        -0.37300E+03
        -0.37300E+03
        -0.37300E+03
        -0.37300E+03
        -0.37300E+03
        -0.37300E+03
        -0.37300E+03
        -0.37300E+03
        -0.37300E+03
        -0.37300E+03
        -0.37300E+03
        -0.37300E+03
        -0.37300E+03
        -0.37300E+03
        -0.37300E+03
        -0.37300E+03
        -0.37300E+03
        -0.37300E+03
        -0.37300E+03
        -0.37300E+03
        -0.37300E+03
        -0.37300E+03
        -0.37300E+03
        -0.37300E+03
        -0.37300E+03
        -0.37300E+03
        -0.37300E+03
        -0.37300E+03
        -0.37300E+03
        -0.37300E+03
        -0.37300E+03
        -0.37300E+03
        -0.37300E+03
        -0.37300E+03
        -0.37300E+03
        -0.37300E+03
        -0.37300E+03
        -0.37300E+03
        -0.37300E+03
        -0.37300E+03
        -0.37300E+03
        -0.37300E+03
        -0.37300E+03
        -0.37300E+03
        -0.37300E+03
        -0.37300E+03
        -0.37300E+03
        -0.37300E+03
        -0.37300E+03
        -0.37300E+03
        -0.37300E+03
        -0.37300E+03
        -0.37300E+03
        -0.37300E+03
        -0.37300E+03
        -0.37300E+03
        -0.37300E+03
        -0.37300E+03
        -0.37300E+03
        -0.37300E+03
        -0.37300E+03
        -0.37300E+03
        -0.37300E+03
        -0.37300E+03
        -0.37300E+03
        -0.37300E+03
        -0.37300E+03
        -0.37300E+03
        -0.37300E+03
        -0.37300E+03
        -0.37300E+03
        -0.37300E+03
        -0.37300E+03
        -0.37300E+03
        -0.37300E+03
        -0.37300E+03
        -0.37300E+03
        -0.37300E+03
        -0.37300E+03
        -0.37300E+03
        -0.37300E+03
        -0.37300E+03
        -0.37300E+03
        -0.37300E+03
        -0.37300E+03
        -0.37300E+03
        -0.37300E+03
        -0.37300E+03
        -0.37300E+03
        -0.37300E+03
        -0.37300E+03
        -0.37300E+03
        -0.37300E+03
        -0.37300E+03
        -0.37300E+03
        -0.37300E+03
        -0.37300E+03
        -0.37300E+03
        -0.37300E+03
        -0.37300E+03
        -0.37300E+03
        -0.37300E+03
        -0.37300E+03
        -0.37300E+03
        -0.37300E+03
        -0.37300E+03
        -0.37300E+03
        -0.37300E+03
        -0.37300E+03
        -0.37300E+03
        -0.37300E+03
        -0.37300E+03
        -0.37300E+03
        -0.37300E+03
        -0.37300E+03
        -0.37300E+03
        -0.37300E+03
        -0.37300E+03
        -0.37300E+03
        -0.37300E+03
        -0.37300E+03
        -0.37300E+03
        -0.37300E+03
        -0.37300E+03
        -0.37300E+03
        -0.37300E+03
        -0.37300E+03
        -0.37300E+03
        -0.37300E+03
        -0.37300E+03
        -0.37300E+03
        -0.37300E+03
        -0.37300E+03
        -0.37300E+03
        -0.37300E+03
        -0.37300E+03
        -0.37300E+03
        -0.37300E+03
        -0.37300E+03
        -0.37300E+03
        -0.37300E+03
        -0.37300E+03
        -0.37300E+03
        -0.37300E+03
        -0.37300E+03
        -0.37300E+03
        -0.37300E+03
        -0.37300E+03
        -0.37300E+03
        -0.37300E+03
        -0.37300E+03
        -0.37300E+03
        -0.37300E+03
        -0.37300E+03
        -0.37300E+03
        -0.37300E+03
        -0.37300E+03
        -0.37300E+03
        -0.37300E+03
        -0.37300E+03
        -0.37300E+03
        -0.37300E+03
        -0.37300E+03
        -0.37300E+03
        -0.37300E+03
        -0.37300E+03
        -0.37300E+03
        -0.37300E+03
        -0.37300E+03
        -0.37300E+03
        -0.37300E+03
        -0.37300E+03
        -0.37300E+03
        -0.37300E+03
        -0.37300E+03
        -0.37300E+03
        -0.37300E+03
        -0.37300E+03
        -0.37300E+03
        -0.37300E+03
        -0.37300E+03
        -0.37300E+03
        -0.37300E+03
        -0.37300E+03
        -0.37300E+03
        -0.37300E+03
        -0.37300E+03
        -0.37300E+03
        -0.37300E+03
        -0.37300E+03
        -0.37300E+03
        -0.37300E+03
        -0.37300E+03
        -0.37300E+03
        -0.37300E+03
        -0.37300E+03
        -0.37300E+03
        -0.37300E+03
        -0.37300E+03
        -0.37300E+03
        -0.37300E+03
        -0.37300E+03
        -0.37300E+03
        -0.37300E+03
        -0.37300E+03
        -0.37300E+03
        -0.37300E+03
        -0.37300E+03
        -0.37300E+03
        -0.37300E+03
        -0.37300E+03
        -0.37300E+03
        -0.37300E+03
        -0.37300E+03
        -0.37300E+03
        -0.37300E+03
        -0.37300E+03
        -0.37300E+03
        -0.37300E+03
        -0.37300E+03
        -0.37300E+03
        -0.37300E+03
        -0.37300E+03
        -0.37300E+03
        -0.37300E+03
        -0.37300E+03
        -0.37300E+03
        -0.37300E+03
        -0.37300E+03
        -0.37300E+03
        -0.37300E+03
        -0.37300E+03
        -0.37300E+03
        -0.37300E+03
        -0.37300E+03
        -0.37300E+03
        -0.37300E+03
        -0.37300E+03
        -0.37300E+03
        -0.37300E+03
        -0.37300E+03
        -0.37300E+03
        -0.37300E+03
        -0.37300E+03
        -0.37300E+03
        -0.37300E+03
        -0.37300E+03
        -0.37300E+03
        -0.37300E+03
        -0.37300E+03
        -0.37300E+03
        -0.37300E+03
        -0.37300E+03
        -0.37300E+03
        -0.37300E+03
        -0.37300E+03
        -0.37300E+03
        -0.37300E+03
        -0.37300E+03
        -0.37300E+03
        -0.37300E+03
        -0.37300E+03
        -0.37300E+03
        -0.37300E+03
        -0.37300E+03
        -0.37300E+03
        -0.37300E+03
        -0.37300E+03
        -0.37300E+03
        -0.37300E+03
        -0.37300E+03
        -0.37300E+03
        -0.37300E+03
        -0.37300E+03
        -0.37300E+03
        -0.37300E+03
        -0.37300E+03
        -0.37300E+03
        -0.37300E+03
        -0.37300E+03
        -0.37300E+03
        -0.37300E+03
        -0.37300E+03
        -0.37300E+03
        -0.37300E+03
        -0.37300E+03
        -0.37300E+03
        -0.37300E+03
        -0.37300E+03
        -0.37300E+03
        -0.37300E+03
        -0.37300E+03
        -0.37300E+03
        -0.37300E+03
        -0.37300E+03
        -0.37300E+03
        -0.37300E+03
        -0.37300E+03
        -0.37300E+03
        -0.37300E+03
        -0.37300E+03
        -0.37300E+03
        -0.37300E+03
        -0.37300E+03
        -0.37300E+03
        -0.37300E+03
        -0.37300E+03
        -0.37300E+03
        -0.37300E+03
        -0.37300E+03
        -0.37300E+03
        -0.37300E+03
        -0.37300E+03
        -0.37300E+03
        -0.37300E+03
        -0.37300E+03
        -0.37300E+03
        -0.37300E+03
        -0.37300E+03
        -0.37300E+03
        -0.37300E+03
        -0.37300E+03
        -0.37300E+03
        -0.37300E+03
        -0.37300E+03
        -0.37300E+03
        -0.37300E+03
        -0.37300E+03
        -0.37300E+03
        -0.37300E+03
        -0.37300E+03
        -0.37300E+03
        -0.37300E+03
        -0.37300E+03
        -0.37300E+03
        -0.37300E+03
        -0.37300E+03
        -0.37300E+03
        -0.37300E+03
        -0.37300E+03
        -0.37300E+03
        -0.37300E+03
        -0.37300E+03
        -0.37300E+03
        -0.37300E+03
        -0.37300E+03
        -0.37300E+03
        -0.37300E+03
        -0.37300E+03
        -0.37300E+03
        -0.37300E+03
        -0.37300E+03
        -0.37300E+03
        -0.37300E+03
        -0.37300E+03
        -0.37300E+03
        -0.37300E+03
        -0.37300E+03
        -0.37300E+03
        -0.37300E+03
        -0.37300E+03
        -0.37300E+03
        -0.37300E+03
        -0.37300E+03
        -0.37300E+03
        -0.37300E+03
        -0.37300E+03
        -0.37300E+03
        -0.37300E+03
        -0.37300E+03
        -0.37300E+03
        -0.37300E+03
        -0.37300E+03
        -0.37300E+03
        -0.37300E+03
        -0.37300E+03
        -0.37300E+03
        -0.37300E+03
        -0.37300E+03
        -0.37300E+03
        -0.37300E+03
        -0.37300E+03
        -0.37300E+03
        -0.37300E+03
        -0.37300E+03
        -0.37300E+03
        -0.37300E+03
        -0.37300E+03
        -0.37300E+03
        -0.37300E+03
        -0.37300E+03
        -0.37300E+03
        -0.37300E+03
        -0.37300E+03
        -0.37300E+03
        -0.37300E+03
        -0.37300E+03
        -0.37300E+03
        -0.37300E+03
        -0.37300E+03
        -0.37300E+03
        -0.37300E+03
        -0.37300E+03
        -0.37300E+03
        -0.37300E+03
        -0.37300E+03
        -0.37300E+03
        -0.37300E+03
        -0.37300E+03
        -0.37300E+03
        -0.37300E+03
        -0.37300E+03
        -0.37300E+03
        -0.37300E+03
        -0.37300E+03
        -0.37300E+03
        -0.37300E+03
        -0.37300E+03
        -0.37300E+03
        -0.37300E+03
        -0.37300E+03
        -0.37300E+03
        -0.37300E+03
        -0.37300E+03
        -0.37300E+03
        -0.37300E+03
        -0.37300E+03
        -0.37300E+03
        -0.37300E+03
        -0.37300E+03
        -0.37300E+03
        -0.37300E+03
        -0.37300E+03
        -0.37300E+03
        -0.37300E+03
        -0.37300E+03
        -0.37300E+03
        -0.37300E+03
        -0.37300E+03
        -0.37300E+03
        -0.37300E+03
        -0.37300E+03
        -0.37300E+03
        -0.37300E+03
        -0.37300E+03
        -0.37300E+03
        -0.37300E+03
        -0.37300E+03
        -0.37300E+03
        -0.37300E+03
        -0.37300E+03
        -0.37300E+03
        -0.37300E+03
        -0.37300E+03
        -0.37300E+03
        -0.37300E+03
        -0.37300E+03
        -0.37300E+03
        -0.37300E+03
        -0.37300E+03
        -0.37300E+03
        -0.37300E+03
        -0.37300E+03
        -0.37300E+03
        -0.37300E+03
        -0.37300E+03
        -0.37300E+03
        -0.37300E+03
        -0.37300E+03
        -0.37300E+03
        -0.37300E+03
        -0.37300E+03
        -0.37300E+03
        -0.37300E+03
        -0.37300E+03
        -0.37300E+03
        -0.37300E+03
        -0.37300E+03
        -0.37300E+03
        -0.37300E+03
        -0.37300E+03
        -0.37300E+03
        -0.37300E+03
        -0.37300E+03
        -0.37300E+03
        -0.37300E+03
        -0.37300E+03
        -0.37300E+03
        -0.37300E+03
        -0.37300E+03
        -0.37300E+03
        -0.37300E+03
        -0.37300E+03
        -0.37300E+03
        -0.37300E+03
        -0.37300E+03
        -0.37300E+03
        -0.37300E+03
        -0.37300E+03
        -0.37300E+03
        -0.37300E+03
        -0.37300E+03
        -0.37300E+03
        -0.37300E+03
        -0.37300E+03
        -0.37300E+03
        -0.37300E+03
        -0.37300E+03
        -0.37300E+03
        -0.37300E+03
        -0.37300E+03
        -0.37300E+03
        -0.37300E+03
        -0.37300E+03
        -0.37300E+03
        -0.37300E+03
        -0.37300E+03
        -0.37300E+03
        -0.37300E+03
        -0.37300E+03
        -0.37300E+03
        -0.37300E+03
        -0.37300E+03
        -0.37300E+03
        -0.37300E+03
        -0.37300E+03
        -0.37300E+03
        -0.37300E+03
        -0.37300E+03
        -0.37300E+03
        -0.37300E+03
        -0.37300E+03
        -0.37300E+03
        -0.37300E+03
        -0.37300E+03
        -0.37300E+03
        -0.37300E+03
        -0.37300E+03
        -0.37300E+03
        -0.37300E+03
        -0.37300E+03
        -0.37300E+03
        -0.37300E+03
        -0.37300E+03
        -0.37300E+03
        -0.37300E+03
        -0.37300E+03
        -0.37300E+03
        -0.37300E+03
        -0.37300E+03
        -0.37300E+03
        -0.37300E+03
        -0.37300E+03
        -0.37300E+03
        -0.37300E+03
        -0.37300E+03
        -0.37300E+03
        -0.37300E+03
        -0.37300E+03
        -0.37300E+03
        -0.37300E+03
        -0.37300E+03
        -0.37300E+03
        -0.37300E+03
        -0.37300E+03
        -0.37300E+03
        -0.37300E+03
        -0.37300E+03
        -0.37300E+03
        -0.37300E+03
        -0.37300E+03
        -0.37300E+03
        -0.37300E+03
        -0.37300E+03
        -0.37300E+03
        -0.37300E+03
        -0.37300E+03
        -0.37300E+03
        -0.37300E+03
        -0.37300E+03
        -0.37300E+03
        -0.37300E+03
        -0.37300E+03
        -0.37300E+03
        -0.37300E+03
        -0.37300E+03
        -0.37300E+03
        -0.37300E+03
        -0.37300E+03
        -0.37300E+03
        -0.37300E+03
        -0.37300E+03
        -0.37300E+03
        -0.37300E+03
        -0.37300E+03
        -0.37300E+03
        -0.37300E+03
        -0.37300E+03
        -0.37300E+03
        -0.37300E+03
        -0.37300E+03
        -0.37300E+03
        -0.37300E+03
        -0.37300E+03
        -0.37300E+03
        -0.37300E+03
        -0.37300E+03
        -0.37300E+03
        -0.37300E+03
        -0.37300E+03
        -0.37300E+03
        -0.37300E+03
        -0.37300E+03
        -0.37300E+03
        -0.37300E+03
        -0.37300E+03
        -0.37300E+03
        -0.37300E+03
        -0.37300E+03
        -0.37300E+03
        -0.37300E+03
        -0.37300E+03
        -0.37300E+03
        -0.37300E+03
        -0.37300E+03
        -0.37300E+03
        -0.37300E+03
        -0.37300E+03
        -0.37300E+03
        -0.37300E+03
        -0.37300E+03
        -0.37300E+03
        -0.37300E+03
        -0.37300E+03
        -0.37300E+03
        -0.37300E+03
        -0.37300E+03
        -0.37300E+03
        -0.37300E+03
        -0.37300E+03
        -0.37300E+03
        -0.37300E+03
        -0.37300E+03
        -0.37300E+03
        -0.37300E+03
        -0.37300E+03
        -0.37300E+03
        -0.37300E+03
        -0.37300E+03
        -0.37300E+03
        -0.37300E+03
        -0.37300E+03
        -0.37300E+03
        -0.37300E+03
        -0.37300E+03
        -0.37300E+03
        -0.37300E+03
        -0.37300E+03
        -0.37300E+03
        -0.37300E+03
        -0.37300E+03
        -0.37300E+03
        -0.37300E+03
        -0.37300E+03
        -0.37300E+03
        -0.37300E+03
        -0.37300E+03
        -0.37300E+03
        -0.37300E+03
        -0.37300E+03
        -0.37300E+03
        -0.37300E+03
        -0.37300E+03
        -0.37300E+03
        -0.37300E+03
        -0.37300E+03
        -0.37300E+03
        -0.37300E+03
        -0.37300E+03
        -0.37300E+03
        -0.37300E+03
        -0.37300E+03
        -0.37300E+03
        -0.37300E+03
        -0.37300E+03
        -0.37300E+03
        -0.37300E+03
        -0.37300E+03
        -0.37300E+03
        -0.37300E+03
        -0.37300E+03
        -0.37300E+03
        -0.37300E+03
        -0.37300E+03
        -0.37300E+03
        -0.37300E+03
        -0.37300E+03
        -0.37300E+03
        -0.37300E+03
        -0.37300E+03
        -0.37300E+03
        -0.37300E+03
        -0.37300E+03
        -0.37300E+03
        -0.37300E+03
        -0.37300E+03
        -0.37300E+03
        -0.37300E+03
        -0.37300E+03
        -0.37300E+03
        -0.37300E+03
        -0.37300E+03
        -0.37300E+03
        -0.37300E+03
        -0.37300E+03
        -0.37300E+03
        -0.37300E+03
        -0.37300E+03
        -0.37300E+03
        -0.37300E+03
        -0.37300E+03
        -0.37300E+03
        -0.37300E+03
        -0.37300E+03
        -0.37300E+03
        -0.37300E+03
        -0.37300E+03
        -0.37300E+03
        -0.37300E+03
        -0.37300E+03
        -0.37300E+03
        -0.37300E+03
        -0.37300E+03
        -0.37300E+03
        -0.37300E+03
        -0.37300E+03
        -0.37300E+03
        -0.37300E+03
        -0.37300E+03
        -0.37300E+03
        -0.37300E+03
        -0.37300E+03
        -0.37300E+03
        -0.37300E+03
        -0.37300E+03
        -0.37300E+03
        -0.37300E+03
        -0.37300E+03
        -0.37300E+03
        -0.37300E+03
        -0.37300E+03
        -0.37300E+03
        -0.37300E+03
        -0.37300E+03
        -0.37300E+03
        -0.37300E+03
        -0.37300E+03
        -0.37300E+03
        -0.37300E+03
        -0.37300E+03
        -0.37300E+03
        -0.37300E+03
        -0.37300E+03
        -0.37300E+03
        -0.37300E+03
        -0.37300E+03
        -0.37300E+03
        -0.37300E+03
        -0.37300E+03
        -0.37300E+03
        -0.37300E+03
        -0.37300E+03
        -0.37300E+03
        -0.37300E+03
        -0.37300E+03
        -0.37300E+03
        -0.37300E+03
        -0.37300E+03
        -0.37300E+03
        -0.37300E+03
        -0.37300E+03
        -0.37300E+03
        -0.37300E+03
        -0.37300E+03
        -0.37300E+03
        -0.37300E+03
        -0.37300E+03
        -0.37300E+03
        -0.37300E+03
        -0.37300E+03
        -0.37300E+03
        -0.37300E+03
        -0.37300E+03
        -0.37300E+03
        -0.37300E+03
        -0.37300E+03
        -0.37300E+03
        -0.37300E+03
        -0.37300E+03
        -0.37300E+03
        -0.37300E+03
        -0.37300E+03
        -0.37300E+03
        -0.37300E+03
        -0.37300E+03
        -0.37300E+03
        -0.37300E+03
        -0.37300E+03
        -0.37300E+03
        -0.37300E+03
        -0.37300E+03
        -0.37300E+03
        -0.37300E+03
        -0.37300E+03
        -0.37300E+03
        -0.37300E+03
        -0.37300E+03
        -0.37300E+03
        -0.37300E+03
        -0.37300E+03
        -0.37300E+03
        -0.37300E+03
        -0.37300E+03
        -0.37300E+03
        -0.37300E+03
        -0.37300E+03
        -0.37300E+03
        -0.37300E+03
        -0.37300E+03
        -0.37300E+03
        -0.37300E+03
        -0.37300E+03
        -0.37300E+03
        -0.37300E+03
        -0.37300E+03
        -0.37300E+03
        -0.37300E+03
        -0.37300E+03
        -0.37300E+03
        -0.37300E+03
        -0.37300E+03
        -0.37300E+03
        -0.37300E+03
        -0.37300E+03
        -0.37300E+03
        -0.37300E+03
        -0.37300E+03
        -0.37300E+03
        -0.37300E+03
        -0.37300E+03
        -0.37300E+03
        -0.37300E+03
        -0.37300E+03
        -0.37300E+03
        -0.37300E+03
        -0.37300E+03
        -0.37300E+03
        -0.37300E+03
        -0.37300E+03
        -0.37300E+03
        -0.37300E+03
        -0.37300E+03
        -0.37300E+03
        -0.37300E+03
        -0.37300E+03
        -0.37300E+03
        -0.37300E+03
        -0.37300E+03
        -0.37300E+03
        -0.37300E+03
        -0.37300E+03
        -0.37300E+03
        -0.37300E+03
        -0.37300E+03
        -0.37300E+03
        -0.37300E+03
        -0.37300E+03
        -0.37300E+03
        -0.37300E+03
        -0.37300E+03
        -0.37300E+03
        -0.37300E+03
        -0.37300E+03
        -0.37300E+03
        -0.37300E+03
        -0.37300E+03
        -0.37300E+03
        -0.37300E+03
        -0.37300E+03
        -0.37300E+03
        -0.37300E+03
        -0.37300E+03
        -0.37300E+03
        -0.37300E+03
        -0.37300E+03
        -0.37300E+03
        -0.37300E+03
        -0.37300E+03
        -0.37300E+03
        -0.37300E+03
        -0.37300E+03
        -0.37300E+03
        -0.37300E+03
        -0.37300E+03
        -0.37300E+03
        -0.37300E+03
        -0.37300E+03
        -0.37300E+03
        -0.37300E+03
        -0.37300E+03
        -0.37300E+03
        -0.37300E+03
        -0.37300E+03
        -0.37300E+03
        -0.37300E+03
        -0.37300E+03
        -0.37300E+03
        -0.37300E+03
        -0.37300E+03
        -0.37300E+03
        -0.37300E+03
        -0.37300E+03
        -0.37300E+03
        -0.37300E+03
        -0.37300E+03
        -0.37300E+03
        -0.37300E+03
        -0.37300E+03
        -0.37300E+03
        -0.37300E+03
        -0.37300E+03
        -0.37300E+03
        -0.37300E+03
        -0.37300E+03
        -0.37300E+03
        -0.37300E+03
        -0.37300E+03
        -0.37300E+03
        -0.37300E+03
        -0.37300E+03
        -0.37300E+03
        -0.37300E+03
        -0.37300E+03
        -0.37300E+03
        -0.37300E+03
        -0.37300E+03
        -0.37300E+03
        -0.37300E+03
        -0.37300E+03
        -0.37300E+03
        -0.37300E+03
        -0.37300E+03
        -0.37300E+03
        -0.37300E+03
        -0.37300E+03
        -0.37300E+03
        -0.37300E+03
        -0.37300E+03
        -0.37300E+03
        -0.37300E+03
        -0.37300E+03
        -0.37300E+03
        -0.37300E+03
        -0.37300E+03
        -0.37300E+03
        -0.37300E+03
        -0.37300E+03
        -0.37300E+03
        -0.37300E+03
        -0.37300E+03
        -0.37300E+03
        -0.37300E+03
        -0.37300E+03
        -0.37300E+03
        -0.37300E+03
        -0.37300E+03
        -0.37300E+03
        -0.37300E+03
        -0.37300E+03
        -0.37300E+03
        -0.37300E+03
        -0.37300E+03
        -0.37300E+03
        -0.37300E+03
        -0.37300E+03
        -0.37300E+03
        -0.37300E+03
        -0.37300E+03
        -0.37300E+03
        -0.37300E+03
        -0.37300E+03
        -0.37300E+03
        -0.37300E+03
        -0.37300E+03
        -0.37300E+03
        -0.37300E+03
        -0.37300E+03
        -0.37300E+03
        -0.37300E+03
        -0.37300E+03
        -0.37300E+03
        -0.37300E+03
        -0.37300E+03
        -0.37300E+03
        -0.37300E+03
        -0.37300E+03
        -0.37300E+03
        -0.37300E+03
        -0.37300E+03
        -0.37300E+03
        -0.37300E+03
        -0.37300E+03
        -0.37300E+03
        -0.37300E+03
        -0.37300E+03
        -0.37300E+03
        -0.37300E+03
        -0.37300E+03
        -0.37300E+03
        -0.37300E+03
        -0.37300E+03
        -0.37300E+03
        -0.37300E+03
        -0.37300E+03
        -0.37300E+03
        -0.37300E+03
        -0.37300E+03
        -0.37300E+03
        -0.37300E+03
        -0.37300E+03
        -0.37300E+03
        -0.37300E+03
        -0.37300E+03
        -0.37300E+03
        -0.37300E+03
        -0.37300E+03
        -0.37300E+03
        -0.37300E+03
        -0.37300E+03
        -0.37300E+03
        -0.37300E+03
        -0.37300E+03
        -0.37300E+03
        -0.37300E+03
        -0.37300E+03
        -0.37300E+03
        -0.37300E+03
        -0.37300E+03
        -0.37300E+03
        -0.37300E+03
        -0.37300E+03
        -0.37300E+03
        -0.37300E+03
        -0.37300E+03
        -0.37300E+03
        -0.37300E+03
        -0.37300E+03
        -0.37300E+03
        -0.37300E+03
        -0.37300E+03
        -0.37300E+03
        -0.37300E+03
        -0.37300E+03
        -0.37300E+03
        -0.37300E+03
        -0.37300E+03
        -0.37300E+03
        -0.37300E+03
        -0.37300E+03
        -0.37300E+03
        -0.37300E+03
        -0.37300E+03
        -0.37300E+03
        -0.37300E+03
        -0.37300E+03
        -0.37300E+03
        -0.37300E+03
        -0.37300E+03
        -0.37300E+03
        -0.37300E+03
        -0.37300E+03
        -0.37300E+03
        -0.37300E+03
        -0.37300E+03
        -0.37300E+03
        -0.37300E+03
        -0.37300E+03
        -0.37300E+03
        -0.37300E+03
        -0.37300E+03
        -0.37300E+03
        -0.37300E+03
        -0.37300E+03
        -0.37300E+03
        -0.37300E+03
        -0.37300E+03
        -0.37300E+03
        -0.37300E+03
        -0.37300E+03
        -0.37300E+03
        -0.37300E+03
        -0.37300E+03
        -0.37300E+03
        -0.37300E+03
        -0.37300E+03
        -0.37300E+03
        -0.37300E+03
        -0.37300E+03
        -0.37300E+03
        -0.37300E+03
        -0.37300E+03
        -0.37300E+03
        -0.37300E+03
        -0.37300E+03
        -0.37300E+03
        -0.37300E+03
        -0.37300E+03
        -0.37300E+03
        -0.37300E+03
        -0.37300E+03
        -0.37300E+03
        -0.37300E+03
        -0.37300E+03
        -0.37300E+03
        -0.37300E+03
        -0.37300E+03
        -0.37300E+03
        -0.37300E+03
        -0.37300E+03
        -0.37300E+03
        -0.37300E+03
        -0.37300E+03
        -0.37300E+03
        -0.37300E+03
        -0.37300E+03
        -0.37300E+03
        -0.37300E+03
        -0.37300E+03
        -0.37300E+03
        -0.37300E+03
        -0.37300E+03
        -0.37300E+03
        -0.37300E+03
        -0.37300E+03
        -0.37300E+03
        -0.37300E+03
        -0.37300E+03
        -0.37300E+03
        -0.37300E+03
        -0.37300E+03
        -0.37300E+03
        -0.37300E+03
        -0.37300E+03
        -0.37300E+03
        -0.37300E+03
        -0.37300E+03
        -0.37300E+03
        -0.37300E+03
        -0.37300E+03
        -0.37300E+03
        -0.37300E+03
        -0.37300E+03
        -0.37300E+03
        -0.37300E+03
        -0.37300E+03
        -0.37300E+03
        -0.37300E+03
        -0.37300E+03
        -0.37300E+03
        -0.37300E+03
        -0.37300E+03
        -0.37300E+03
        -0.37300E+03
        -0.37300E+03
        -0.37300E+03
        -0.37300E+03
        -0.37300E+03
        -0.37300E+03
        -0.37300E+03
        -0.37300E+03
        -0.37300E+03
        -0.37300E+03
        -0.37300E+03
        -0.37300E+03
        -0.37300E+03
        -0.37300E+03
        -0.37300E+03
        -0.37300E+03
        -0.37300E+03
        -0.37300E+03
        -0.37300E+03
        -0.37300E+03
        -0.37300E+03
        -0.37300E+03
        -0.37300E+03
        -0.37300E+03
        -0.37300E+03
        -0.37300E+03
        -0.37300E+03
        -0.37300E+03
        -0.37300E+03
        -0.37300E+03
        -0.37300E+03
        -0.37300E+03
        -0.37300E+03
        -0.37300E+03
        -0.37300E+03
        -0.37300E+03
        -0.37300E+03
        -0.37300E+03
        -0.37300E+03
        -0.37300E+03
        -0.37300E+03
        -0.37300E+03
        -0.37300E+03
        -0.37300E+03
        -0.37300E+03
        -0.37300E+03
        -0.37300E+03
        -0.37300E+03
        -0.37300E+03
        -0.37300E+03
        -0.37300E+03
        -0.37300E+03
        -0.37300E+03
        -0.37300E+03
        -0.37300E+03
        -0.37300E+03
        -0.37300E+03
        -0.37300E+03
        -0.37300E+03
        -0.37300E+03
        -0.37300E+03
        -0.37300E+03
        -0.37300E+03
        -0.37300E+03
        -0.37300E+03
        -0.37300E+03
        -0.37300E+03
        -0.37300E+03
        -0.37300E+03
        -0.37300E+03
        -0.37300E+03
        -0.37300E+03
        -0.37300E+03
        -0.37300E+03
        -0.37300E+03
        -0.37300E+03
        -0.37300E+03
        -0.37300E+03
        -0.37300E+03
        -0.37300E+03
        -0.37300E+03
        -0.37300E+03
        -0.37300E+03
        -0.37300E+03
        -0.37300E+03
        -0.37300E+03
        -0.37300E+03
        -0.37300E+03
        -0.37300E+03
        -0.37300E+03
        -0.37300E+03
        -0.37300E+03
        -0.37300E+03
        -0.37300E+03
        -0.37300E+03
        -0.37300E+03
        -0.37300E+03
        -0.37300E+03
        -0.37300E+03
        -0.37300E+03
        -0.37300E+03
        -0.37300E+03
        -0.37300E+03
        -0.37300E+03
        -0.37300E+03
        -0.37300E+03
        -0.37300E+03
        -0.37300E+03
        -0.37300E+03
        -0.37300E+03
        -0.37300E+03
        -0.37300E+03
        -0.37300E+03
        -0.37300E+03
        -0.37300E+03
        -0.37300E+03
        -0.37300E+03
        -0.37300E+03
        -0.37300E+03
        -0.37300E+03
        -0.37300E+03
        -0.37300E+03
        -0.37300E+03
        -0.37300E+03
        -0.37300E+03
        -0.37300E+03
        -0.37300E+03
        -0.37300E+03
        -0.37300E+03
        -0.37300E+03
        -0.37300E+03
        -0.37300E+03
        -0.37300E+03
        -0.37300E+03
        -0.37300E+03
        -0.37300E+03
        -0.37300E+03
        -0.37300E+03
        -0.37300E+03
        -0.37300E+03
        -0.37300E+03
        -0.37300E+03
        -0.37300E+03
        -0.37300E+03
        -0.37300E+03
        -0.37300E+03
        -0.37300E+03
        -0.37300E+03
        -0.37300E+03
        -0.37300E+03
        -0.37300E+03
        -0.37300E+03
        -0.37300E+03
        -0.37300E+03
        -0.37300E+03
        -0.37300E+03
        -0.37300E+03
        -0.37300E+03
        -0.37300E+03
        -0.37300E+03
        -0.37300E+03
        -0.37300E+03
        -0.37300E+03
        -0.37300E+03
        -0.37300E+03
        -0.37300E+03
        -0.37300E+03
        -0.37300E+03
        -0.37300E+03
        -0.37300E+03
        -0.37300E+03
        -0.37300E+03
        -0.37300E+03
        -0.37300E+03
        -0.37300E+03
        -0.37300E+03
        -0.37300E+03
        -0.37300E+03
        -0.37300E+03
        -0.37300E+03
        -0.37300E+03
        -0.37300E+03
        -0.37300E+03
        -0.37300E+03
        -0.37300E+03
        -0.37300E+03
        -0.37300E+03
        -0.37300E+03
        -0.37300E+03
        -0.37300E+03
        -0.37300E+03
        -0.37300E+03
        -0.37300E+03
        -0.37300E+03
        -0.37300E+03
        -0.37300E+03
        -0.37300E+03
        -0.37300E+03
        -0.37300E+03
        -0.37300E+03
        -0.37300E+03
        -0.37300E+03
        -0.37300E+03
        -0.37300E+03
        -0.37300E+03
        -0.37300E+03
        -0.37300E+03
        -0.37300E+03
        -0.37300E+03
        -0.37300E+03
        -0.37300E+03
        -0.37300E+03
        -0.37300E+03
        -0.37300E+03
        -0.37300E+03
        -0.37300E+03
        -0.37300E+03
        -0.37300E+03
        -0.37300E+03
        -0.37300E+03
        -0.37300E+03
        -0.37300E+03
        -0.37300E+03
        -0.37300E+03
        -0.37300E+03
        -0.37300E+03
        -0.37300E+03
        -0.37300E+03
        -0.37300E+03
        -0.37300E+03
        -0.37300E+03
        -0.37300E+03
        -0.37300E+03
        -0.37300E+03
        -0.37300E+03
        -0.37300E+03
        -0.37300E+03
        -0.37300E+03
        -0.37300E+03
        -0.37300E+03
        -0.37300E+03
        -0.37300E+03
        -0.37300E+03
        -0.37300E+03
        -0.37300E+03
        -0.37300E+03
        -0.37300E+03
        -0.37300E+03
        -0.37300E+03
        -0.37300E+03
        -0.37300E+03
        -0.37300E+03
        -0.37300E+03
        -0.37300E+03
        -0.37300E+03
        -0.37300E+03
        -0.37300E+03
        -0.37300E+03
        -0.37300E+03
        -0.37300E+03
        -0.37300E+03
        -0.37300E+03
        -0.37300E+03
        -0.37300E+03
        -0.37300E+03
        -0.37300E+03
        -0.37300E+03
        -0.37300E+03
        -0.37300E+03
        -0.37300E+03
        -0.37300E+03
        -0.37300E+03
        -0.37300E+03
        -0.37300E+03
        -0.37300E+03
        -0.37300E+03
        -0.37300E+03
        -0.37300E+03
        -0.37300E+03
        -0.37300E+03
        -0.37300E+03
        -0.37300E+03
        -0.37300E+03
        -0.37300E+03
        -0.37300E+03
        -0.37300E+03
        -0.37300E+03
        -0.37300E+03
        -0.37300E+03
        -0.37300E+03
        -0.37300E+03
        -0.37300E+03
        -0.37300E+03
        -0.37300E+03
        -0.37300E+03
        -0.37300E+03
        -0.37300E+03
        -0.37300E+03
        -0.37300E+03
        -0.37300E+03
        -0.37300E+03
        -0.37300E+03
        -0.37300E+03
        -0.37300E+03
        -0.37300E+03
        -0.37300E+03
        -0.37300E+03
        -0.37300E+03
        -0.37300E+03
        -0.37300E+03
        -0.37300E+03
        -0.37300E+03
        -0.37300E+03
        -0.37300E+03
        -0.37300E+03
        -0.37300E+03
        -0.37300E+03
        -0.37300E+03
        -0.37300E+03
        -0.37300E+03
        -0.37300E+03
        -0.37300E+03
        -0.37300E+03
        -0.37300E+03
        -0.37300E+03
        -0.37300E+03
        -0.37300E+03
        -0.37300E+03
        -0.37300E+03
        -0.37300E+03
        -0.37300E+03
        -0.37300E+03
        -0.37300E+03
        -0.37300E+03
        -0.37300E+03
        -0.37300E+03
        -0.37300E+03
        -0.37300E+03
        -0.37300E+03
        -0.37300E+03
        -0.37300E+03
        -0.37300E+03
        -0.37300E+03
        -0.37300E+03
        -0.37300E+03
        -0.37300E+03
        -0.37300E+03
        -0.37300E+03
        -0.37300E+03
        -0.37300E+03
        -0.37300E+03
        -0.37300E+03
        -0.37300E+03
        -0.37300E+03
        -0.37300E+03
        -0.37300E+03
        -0.37300E+03
        -0.37300E+03
        -0.37300E+03
        -0.37300E+03
        -0.37300E+03
        -0.37300E+03
        -0.37300E+03
        -0.37300E+03
        -0.37300E+03
        -0.37300E+03
        -0.37300E+03
        -0.37300E+03
        -0.37300E+03
        -0.37300E+03
        -0.37300E+03
        -0.37300E+03
        -0.37300E+03
        -0.37300E+03
        -0.37300E+03
        -0.37300E+03
        -0.37300E+03
        -0.37300E+03
        -0.37300E+03
        -0.37300E+03
        -0.37300E+03
        -0.37300E+03
        -0.37300E+03
        -0.37300E+03
        -0.37300E+03
        -0.37300E+03
        -0.37300E+03
        -0.37300E+03
        -0.37300E+03
        -0.37300E+03
        -0.37300E+03
        -0.37300E+03
        -0.37300E+03
        -0.37300E+03
        -0.37300E+03
        -0.37300E+03
        -0.37300E+03
        -0.37300E+03
        -0.37300E+03
        -0.37300E+03
        -0.37300E+03
        -0.37300E+03
        -0.37300E+03
        -0.37300E+03
        -0.37300E+03
        -0.37300E+03
        -0.37300E+03
        -0.37300E+03
        -0.37300E+03
        -0.37300E+03
        -0.37300E+03
        -0.37300E+03
        -0.37300E+03
        -0.37300E+03
        -0.37300E+03
        -0.37300E+03
        -0.37300E+03
        -0.37300E+03
        -0.37300E+03
        -0.37300E+03
        -0.37300E+03
        -0.37300E+03
        -0.37300E+03
        -0.37300E+03
        -0.37300E+03
        -0.37300E+03
        -0.37300E+03
        -0.37300E+03
        -0.37300E+03
        -0.37300E+03
        -0.37300E+03
        -0.37300E+03
        -0.37300E+03
        -0.37300E+03
  
SCALARS              normalized_window  double 1
LOOKUP_TABLE default
         0.27500E+01
         0.27500E+01
         0.27500E+01
         0.27500E+01
         0.27500E+01
         0.27500E+01
         0.27500E+01
         0.27500E+01
         0.27500E+01
         0.27500E+01
         0.27500E+01
         0.27500E+01
         0.27500E+01
         0.27500E+01
         0.27500E+01
         0.27500E+01
         0.27500E+01
         0.27500E+01
         0.27500E+01
         0.27500E+01
         0.27500E+01
         0.27500E+01
         0.27500E+01
         0.27500E+01
         0.27500E+01
         0.27500E+01
         0.27500E+01
         0.27500E+01
         0.27500E+01
         0.27500E+01
         0.27500E+01
         0.27500E+01
         0.27500E+01
         0.27500E+01
         0.27500E+01
         0.27500E+01
         0.27500E+01
         0.27500E+01
         0.27500E+01
         0.27500E+01
         0.27500E+01
         0.27500E+01
         0.27500E+01
         0.27500E+01
         0.27500E+01
         0.27500E+01
         0.27500E+01
         0.27500E+01
         0.27500E+01
         0.27500E+01
         0.27500E+01
         0.27500E+01
         0.27500E+01
         0.27500E+01
         0.27500E+01
         0.27500E+01
         0.27500E+01
         0.27500E+01
         0.27500E+01
         0.27500E+01
         0.27500E+01
         0.27500E+01
         0.27500E+01
         0.27500E+01
         0.27500E+01
         0.27500E+01
         0.27500E+01
         0.27500E+01
         0.27500E+01
         0.27500E+01
         0.27500E+01
         0.27500E+01
         0.27500E+01
         0.27500E+01
         0.27500E+01
         0.27500E+01
         0.27500E+01
         0.27500E+01
         0.27500E+01
         0.27500E+01
         0.27500E+01
         0.27500E+01
         0.27500E+01
         0.27500E+01
         0.27500E+01
         0.27500E+01
         0.27500E+01
         0.27500E+01
         0.27500E+01
         0.27500E+01
         0.27500E+01
         0.27500E+01
         0.27500E+01
         0.27500E+01
         0.27500E+01
         0.27500E+01
         0.27500E+01
         0.27500E+01
         0.27500E+01
         0.27500E+01
         0.27500E+01
         0.27500E+01
         0.27500E+01
         0.27500E+01
         0.27500E+01
         0.27500E+01
         0.27500E+01
         0.27500E+01
         0.27500E+01
         0.27500E+01
         0.27500E+01
         0.27500E+01
         0.27500E+01
         0.27500E+01
         0.27500E+01
         0.27500E+01
         0.27500E+01
         0.27500E+01
         0.27500E+01
         0.27500E+01
         0.27500E+01
         0.27500E+01
         0.27500E+01
         0.27500E+01
         0.27500E+01
         0.27500E+01
         0.27500E+01
         0.27500E+01
         0.27500E+01
         0.27500E+01
         0.27500E+01
         0.27500E+01
         0.27500E+01
         0.27500E+01
         0.27500E+01
         0.27500E+01
         0.27500E+01
         0.27500E+01
         0.27500E+01
         0.27500E+01
         0.27500E+01
         0.27500E+01
         0.27500E+01
         0.27500E+01
         0.27500E+01
         0.27500E+01
         0.27500E+01
         0.27500E+01
         0.27500E+01
         0.27500E+01
         0.27500E+01
         0.27500E+01
         0.27500E+01
         0.27500E+01
         0.27500E+01
         0.27500E+01
         0.27500E+01
         0.27500E+01
         0.27500E+01
         0.27500E+01
         0.27500E+01
         0.27500E+01
         0.27500E+01
         0.27500E+01
         0.27500E+01
         0.27500E+01
         0.27500E+01
         0.27500E+01
         0.27500E+01
         0.27500E+01
         0.27500E+01
         0.27500E+01
         0.27500E+01
         0.27500E+01
         0.27500E+01
         0.27500E+01
         0.27500E+01
         0.27500E+01
         0.27500E+01
         0.27500E+01
         0.27500E+01
         0.27500E+01
         0.27500E+01
         0.27500E+01
         0.27500E+01
         0.27500E+01
         0.27500E+01
         0.27500E+01
         0.27500E+01
         0.27500E+01
         0.27500E+01
         0.27500E+01
         0.27500E+01
         0.27500E+01
         0.27500E+01
         0.27500E+01
         0.27500E+01
         0.27500E+01
         0.27500E+01
         0.27500E+01
         0.27500E+01
         0.27500E+01
         0.27500E+01
         0.27500E+01
         0.27500E+01
         0.27500E+01
         0.27500E+01
         0.27500E+01
         0.27500E+01
         0.27500E+01
         0.27500E+01
         0.27500E+01
         0.27500E+01
         0.27500E+01
         0.27500E+01
         0.27500E+01
         0.27500E+01
         0.27500E+01
         0.27500E+01
         0.27500E+01
         0.27500E+01
         0.27500E+01
         0.27500E+01
         0.27500E+01
         0.27500E+01
         0.27500E+01
         0.27500E+01
         0.27500E+01
         0.27500E+01
         0.27500E+01
         0.27500E+01
         0.27500E+01
         0.27500E+01
         0.27500E+01
         0.27500E+01
         0.27500E+01
         0.27500E+01
         0.27500E+01
         0.27500E+01
         0.27500E+01
         0.27500E+01
         0.27500E+01
         0.27500E+01
         0.27500E+01
         0.27500E+01
         0.27500E+01
         0.27500E+01
         0.27500E+01
         0.27500E+01
         0.27500E+01
         0.27500E+01
         0.27500E+01
         0.27500E+01
         0.27500E+01
         0.27500E+01
         0.27500E+01
         0.27500E+01
         0.27500E+01
         0.27500E+01
         0.27500E+01
         0.27500E+01
         0.27500E+01
         0.27500E+01
         0.27500E+01
         0.27500E+01
         0.27500E+01
         0.27500E+01
         0.27500E+01
         0.27500E+01
         0.27500E+01
         0.27500E+01
         0.27500E+01
         0.27500E+01
         0.27500E+01
         0.27500E+01
         0.27500E+01
         0.27500E+01
         0.27500E+01
         0.27500E+01
         0.27500E+01
         0.27500E+01
         0.27500E+01
         0.27500E+01
         0.27500E+01
         0.27500E+01
         0.27500E+01
         0.27500E+01
         0.27500E+01
         0.27500E+01
         0.27500E+01
         0.27500E+01
         0.27500E+01
         0.27500E+01
         0.27500E+01
         0.27500E+01
         0.27500E+01
         0.27500E+01
         0.27500E+01
         0.27500E+01
         0.27500E+01
         0.27500E+01
         0.27500E+01
         0.27500E+01
         0.27500E+01
         0.27500E+01
         0.27500E+01
         0.27500E+01
         0.27500E+01
         0.27500E+01
         0.27500E+01
         0.27500E+01
         0.27500E+01
         0.27500E+01
         0.27500E+01
         0.27500E+01
         0.27500E+01
         0.27500E+01
         0.27500E+01
         0.27500E+01
         0.27500E+01
         0.27500E+01
         0.27500E+01
         0.27500E+01
         0.27500E+01
         0.27500E+01
         0.27500E+01
         0.27500E+01
         0.27500E+01
         0.27500E+01
         0.27500E+01
         0.27500E+01
         0.27500E+01
         0.27500E+01
         0.27500E+01
         0.27500E+01
         0.27500E+01
         0.27500E+01
         0.27500E+01
         0.27500E+01
         0.27500E+01
         0.27500E+01
         0.27500E+01
         0.27500E+01
         0.27500E+01
         0.27500E+01
         0.27500E+01
         0.27500E+01
         0.27500E+01
         0.27500E+01
         0.27500E+01
         0.27500E+01
         0.27500E+01
         0.27500E+01
         0.27500E+01
         0.27500E+01
         0.27500E+01
         0.27500E+01
         0.27500E+01
         0.27500E+01
         0.27500E+01
         0.27500E+01
         0.27500E+01
         0.27500E+01
         0.27500E+01
         0.27500E+01
         0.27500E+01
         0.27500E+01
         0.27500E+01
         0.27500E+01
         0.27500E+01
         0.27500E+01
         0.27500E+01
         0.27500E+01
         0.27500E+01
         0.27500E+01
         0.27500E+01
         0.27500E+01
         0.27500E+01
         0.27500E+01
         0.27500E+01
         0.27500E+01
         0.27500E+01
         0.27500E+01
         0.27500E+01
         0.27500E+01
         0.27500E+01
         0.27500E+01
         0.27500E+01
         0.27500E+01
         0.27500E+01
         0.27500E+01
         0.27500E+01
         0.27500E+01
         0.27500E+01
         0.27500E+01
         0.27500E+01
         0.27500E+01
         0.27500E+01
         0.27500E+01
         0.27500E+01
         0.27500E+01
         0.27500E+01
         0.27500E+01
         0.27500E+01
         0.27500E+01
         0.27500E+01
         0.27500E+01
         0.27500E+01
         0.27500E+01
         0.27500E+01
         0.27500E+01
         0.27500E+01
         0.27500E+01
         0.27500E+01
         0.27500E+01
         0.27500E+01
         0.27500E+01
         0.27500E+01
         0.27500E+01
         0.27500E+01
         0.27500E+01
         0.27500E+01
         0.27500E+01
         0.27500E+01
         0.27500E+01
         0.27500E+01
         0.27500E+01
         0.27500E+01
         0.27500E+01
         0.27500E+01
         0.27500E+01
         0.27500E+01
         0.27500E+01
         0.27500E+01
         0.27500E+01
         0.27500E+01
         0.27500E+01
         0.27500E+01
         0.27500E+01
         0.27500E+01
         0.27500E+01
         0.27500E+01
         0.27500E+01
         0.27500E+01
         0.27500E+01
         0.27500E+01
         0.27500E+01
         0.27500E+01
         0.27500E+01
         0.27500E+01
         0.27500E+01
         0.27500E+01
         0.27500E+01
         0.27500E+01
         0.27500E+01
         0.27500E+01
         0.27500E+01
         0.27500E+01
         0.27500E+01
         0.27500E+01
         0.27500E+01
         0.27500E+01
         0.27500E+01
         0.27500E+01
         0.27500E+01
         0.27500E+01
         0.27500E+01
         0.27500E+01
         0.27500E+01
         0.27500E+01
         0.27500E+01
         0.27500E+01
         0.27500E+01
         0.27500E+01
         0.27500E+01
         0.27500E+01
         0.27500E+01
         0.27500E+01
         0.27500E+01
         0.27500E+01
         0.27500E+01
         0.27500E+01
         0.27500E+01
         0.27500E+01
         0.27500E+01
         0.27500E+01
         0.27500E+01
         0.27500E+01
         0.27500E+01
         0.27500E+01
         0.27500E+01
         0.27500E+01
         0.27500E+01
         0.27500E+01
         0.27500E+01
         0.27500E+01
         0.27500E+01
         0.27500E+01
         0.27500E+01
         0.27500E+01
         0.27500E+01
         0.27500E+01
         0.27500E+01
         0.27500E+01
         0.27500E+01
         0.27500E+01
         0.27500E+01
         0.27500E+01
         0.27500E+01
         0.27500E+01
         0.27500E+01
         0.27500E+01
         0.27500E+01
         0.27500E+01
         0.27500E+01
         0.27500E+01
         0.27500E+01
         0.27500E+01
         0.27500E+01
         0.27500E+01
         0.27500E+01
         0.27500E+01
         0.27500E+01
         0.27500E+01
         0.27500E+01
         0.27500E+01
         0.27500E+01
         0.27500E+01
         0.27500E+01
         0.27500E+01
         0.27500E+01
         0.27500E+01
         0.27500E+01
         0.27500E+01
         0.27500E+01
         0.27500E+01
         0.27500E+01
         0.27500E+01
         0.27500E+01
         0.27500E+01
         0.27500E+01
         0.27500E+01
         0.27500E+01
         0.27500E+01
         0.27500E+01
         0.27500E+01
         0.27500E+01
         0.27500E+01
         0.27500E+01
         0.27500E+01
         0.27500E+01
         0.27500E+01
         0.27500E+01
         0.27500E+01
         0.27500E+01
         0.27500E+01
         0.27500E+01
         0.27500E+01
         0.27500E+01
         0.27500E+01
         0.27500E+01
         0.27500E+01
         0.27500E+01
         0.27500E+01
         0.27500E+01
         0.27500E+01
         0.27500E+01
         0.27500E+01
         0.27500E+01
         0.27500E+01
         0.27500E+01
         0.27500E+01
         0.27500E+01
         0.27500E+01
         0.27500E+01
         0.27500E+01
         0.27500E+01
         0.27500E+01
         0.27500E+01
         0.27500E+01
         0.27500E+01
         0.27500E+01
         0.27500E+01
         0.27500E+01
         0.27500E+01
         0.27500E+01
         0.27500E+01
         0.27500E+01
         0.27500E+01
         0.27500E+01
         0.27500E+01
         0.27500E+01
         0.27500E+01
         0.27500E+01
         0.27500E+01
         0.27500E+01
         0.27500E+01
         0.27500E+01
         0.27500E+01
         0.27500E+01
         0.27500E+01
         0.27500E+01
         0.27500E+01
         0.27500E+01
         0.27500E+01
         0.27500E+01
         0.27500E+01
         0.27500E+01
         0.27500E+01
         0.27500E+01
         0.27500E+01
         0.27500E+01
         0.27500E+01
         0.27500E+01
         0.27500E+01
         0.27500E+01
         0.27500E+01
         0.27500E+01
         0.27500E+01
         0.27500E+01
         0.27500E+01
         0.27500E+01
         0.27500E+01
         0.27500E+01
         0.27500E+01
         0.27500E+01
         0.27500E+01
         0.27500E+01
         0.27500E+01
         0.27500E+01
         0.27500E+01
         0.27500E+01
         0.27500E+01
         0.27500E+01
         0.27500E+01
         0.27500E+01
         0.27500E+01
         0.27500E+01
         0.27500E+01
         0.27500E+01
         0.27500E+01
         0.27500E+01
         0.27500E+01
         0.27500E+01
         0.27500E+01
         0.27500E+01
         0.27500E+01
         0.27500E+01
         0.27500E+01
         0.27500E+01
         0.27500E+01
         0.27500E+01
         0.27500E+01
         0.27500E+01
         0.27500E+01
         0.27500E+01
         0.27500E+01
         0.27500E+01
         0.27500E+01
         0.27500E+01
         0.27500E+01
         0.27500E+01
         0.27500E+01
         0.27500E+01
         0.27500E+01
         0.27500E+01
         0.27500E+01
         0.27500E+01
         0.27500E+01
         0.27500E+01
         0.27500E+01
         0.27500E+01
         0.27500E+01
         0.27500E+01
         0.27500E+01
         0.27500E+01
         0.27500E+01
         0.27500E+01
         0.27500E+01
         0.27500E+01
         0.27500E+01
         0.27500E+01
         0.27500E+01
         0.27500E+01
         0.27500E+01
         0.27500E+01
         0.27500E+01
         0.27500E+01
         0.27500E+01
         0.27500E+01
         0.27500E+01
         0.27500E+01
         0.27500E+01
         0.27500E+01
         0.27500E+01
         0.27500E+01
         0.27500E+01
         0.27500E+01
         0.27500E+01
         0.27500E+01
         0.27500E+01
         0.27500E+01
         0.27500E+01
         0.27500E+01
         0.27500E+01
         0.27500E+01
         0.27500E+01
         0.27500E+01
         0.27500E+01
         0.27500E+01
         0.27500E+01
         0.27500E+01
         0.27500E+01
         0.27500E+01
         0.27500E+01
         0.27500E+01
         0.27500E+01
         0.27500E+01
         0.27500E+01
         0.27500E+01
         0.27500E+01
         0.27500E+01
         0.27500E+01
         0.27500E+01
         0.27500E+01
         0.27500E+01
         0.27500E+01
         0.27500E+01
         0.27500E+01
         0.27500E+01
         0.27500E+01
         0.27500E+01
         0.27500E+01
         0.27500E+01
         0.27500E+01
         0.27500E+01
         0.27500E+01
         0.27500E+01
         0.27500E+01
         0.27500E+01
         0.27500E+01
         0.27500E+01
         0.27500E+01
         0.27500E+01
         0.27500E+01
         0.27500E+01
         0.27500E+01
         0.27500E+01
         0.27500E+01
         0.27500E+01
         0.27500E+01
         0.27500E+01
         0.27500E+01
         0.27500E+01
         0.27500E+01
         0.27500E+01
         0.27500E+01
         0.27500E+01
         0.27500E+01
         0.27500E+01
         0.27500E+01
         0.27500E+01
         0.27500E+01
         0.27500E+01
         0.27500E+01
         0.27500E+01
         0.27500E+01
         0.27500E+01
         0.27500E+01
         0.27500E+01
         0.27500E+01
         0.27500E+01
         0.27500E+01
         0.27500E+01
         0.27500E+01
         0.27500E+01
         0.27500E+01
         0.27500E+01
         0.27500E+01
         0.27500E+01
         0.27500E+01
         0.27500E+01
         0.27500E+01
         0.27500E+01
         0.27500E+01
         0.27500E+01
         0.27500E+01
         0.27500E+01
         0.27500E+01
         0.27500E+01
         0.27500E+01
         0.27500E+01
         0.27500E+01
         0.27500E+01
         0.27500E+01
         0.27500E+01
         0.27500E+01
         0.27500E+01
         0.27500E+01
         0.27500E+01
         0.27500E+01
         0.27500E+01
         0.27500E+01
         0.27500E+01
         0.27500E+01
         0.27500E+01
         0.27500E+01
         0.27500E+01
         0.27500E+01
         0.27500E+01
         0.27500E+01
         0.27500E+01
         0.27500E+01
         0.27500E+01
         0.27500E+01
         0.27500E+01
         0.27500E+01
         0.27500E+01
         0.27500E+01
         0.27500E+01
         0.27500E+01
         0.27500E+01
         0.27500E+01
         0.27500E+01
         0.27500E+01
         0.27500E+01
         0.27500E+01
         0.27500E+01
         0.27500E+01
         0.27500E+01
         0.27500E+01
         0.27500E+01
         0.27500E+01
         0.27500E+01
         0.27500E+01
         0.27500E+01
         0.27500E+01
         0.27500E+01
         0.27500E+01
         0.27500E+01
         0.27500E+01
         0.27500E+01
         0.27500E+01
         0.27500E+01
         0.27500E+01
         0.27500E+01
         0.27500E+01
         0.27500E+01
         0.27500E+01
         0.27500E+01
         0.27500E+01
         0.27500E+01
         0.27500E+01
         0.27500E+01
         0.27500E+01
         0.27500E+01
         0.27500E+01
         0.27500E+01
         0.27500E+01
         0.27500E+01
         0.27500E+01
         0.27500E+01
         0.27500E+01
         0.27500E+01
         0.27500E+01
         0.27500E+01
         0.27500E+01
         0.27500E+01
         0.27500E+01
         0.27500E+01
         0.27500E+01
         0.27500E+01
         0.27500E+01
         0.27500E+01
         0.27500E+01
         0.27500E+01
         0.27500E+01
         0.27500E+01
         0.27500E+01
         0.27500E+01
         0.27500E+01
         0.27500E+01
         0.27500E+01
         0.27500E+01
         0.27500E+01
         0.27500E+01
         0.27500E+01
         0.27500E+01
         0.27500E+01
         0.27500E+01
         0.27500E+01
         0.27500E+01
         0.27500E+01
         0.27500E+01
         0.27500E+01
         0.27500E+01
         0.27500E+01
         0.27500E+01
         0.27500E+01
         0.27500E+01
         0.27500E+01
         0.27500E+01
         0.27500E+01
         0.27500E+01
         0.27500E+01
         0.27500E+01
         0.27500E+01
         0.27500E+01
         0.27500E+01
         0.27500E+01
         0.27500E+01
         0.27500E+01
         0.27500E+01
         0.27500E+01
         0.27500E+01
         0.27500E+01
         0.27500E+01
         0.27500E+01
         0.27500E+01
         0.27500E+01
         0.27500E+01
         0.27500E+01
         0.27500E+01
         0.27500E+01
         0.27500E+01
         0.27500E+01
         0.27500E+01
         0.27500E+01
         0.27500E+01
         0.27500E+01
         0.27500E+01
         0.27500E+01
         0.27500E+01
         0.27500E+01
         0.27500E+01
         0.27500E+01
         0.27500E+01
         0.27500E+01
         0.27500E+01
         0.27500E+01
         0.27500E+01
         0.27500E+01
         0.27500E+01
         0.27500E+01
         0.27500E+01
         0.27500E+01
         0.27500E+01
         0.27500E+01
         0.27500E+01
         0.27500E+01
         0.27500E+01
         0.27500E+01
         0.27500E+01
         0.27500E+01
         0.27500E+01
         0.27500E+01
         0.27500E+01
         0.27500E+01
         0.27500E+01
         0.27500E+01
         0.27500E+01
         0.27500E+01
         0.27500E+01
         0.27500E+01
         0.27500E+01
         0.27500E+01
         0.27500E+01
         0.27500E+01
         0.27500E+01
         0.27500E+01
         0.27500E+01
         0.27500E+01
         0.27500E+01
         0.27500E+01
         0.27500E+01
         0.27500E+01
         0.27500E+01
         0.27500E+01
         0.27500E+01
         0.27500E+01
         0.27500E+01
         0.27500E+01
         0.27500E+01
         0.27500E+01
         0.27500E+01
         0.27500E+01
         0.27500E+01
         0.27500E+01
         0.27500E+01
         0.27500E+01
         0.27500E+01
         0.27500E+01
         0.27500E+01
         0.27500E+01
         0.27500E+01
         0.27500E+01
         0.27500E+01
         0.27500E+01
         0.27500E+01
         0.27500E+01
         0.27500E+01
         0.27500E+01
         0.27500E+01
         0.27500E+01
         0.27500E+01
         0.27500E+01
         0.27500E+01
         0.27500E+01
         0.27500E+01
         0.27500E+01
         0.27500E+01
         0.27500E+01
         0.27500E+01
         0.27500E+01
         0.27500E+01
         0.27500E+01
         0.27500E+01
         0.27500E+01
         0.27500E+01
         0.27500E+01
         0.27500E+01
         0.27500E+01
         0.27500E+01
         0.27500E+01
         0.27500E+01
         0.27500E+01
         0.27500E+01
         0.27500E+01
         0.27500E+01
         0.27500E+01
         0.27500E+01
         0.27500E+01
         0.27500E+01
         0.27500E+01
         0.27500E+01
         0.27500E+01
         0.27500E+01
         0.27500E+01
         0.27500E+01
         0.27500E+01
         0.27500E+01
         0.27500E+01
         0.27500E+01
         0.27500E+01
         0.27500E+01
         0.27500E+01
         0.27500E+01
         0.27500E+01
         0.27500E+01
         0.27500E+01
         0.27500E+01
         0.27500E+01
         0.27500E+01
         0.27500E+01
         0.27500E+01
         0.27500E+01
         0.27500E+01
         0.27500E+01
         0.27500E+01
         0.27500E+01
         0.27500E+01
         0.27500E+01
         0.27500E+01
         0.27500E+01
         0.27500E+01
         0.27500E+01
         0.27500E+01
         0.27500E+01
         0.27500E+01
         0.27500E+01
         0.27500E+01
         0.27500E+01
         0.27500E+01
         0.27500E+01
         0.27500E+01
         0.27500E+01
         0.27500E+01
         0.27500E+01
         0.27500E+01
         0.27500E+01
         0.27500E+01
         0.27500E+01
         0.27500E+01
         0.27500E+01
         0.27500E+01
         0.27500E+01
         0.27500E+01
         0.27500E+01
         0.27500E+01
         0.27500E+01
         0.27500E+01
         0.27500E+01
         0.27500E+01
         0.27500E+01
         0.27500E+01
         0.27500E+01
         0.27500E+01
         0.27500E+01
         0.27500E+01
         0.27500E+01
         0.27500E+01
         0.27500E+01
         0.27500E+01
         0.27500E+01
         0.27500E+01
         0.27500E+01
         0.27500E+01
         0.27500E+01
         0.27500E+01
         0.27500E+01
         0.27500E+01
         0.27500E+01
         0.27500E+01
         0.27500E+01
         0.27500E+01
         0.27500E+01
         0.27500E+01
         0.27500E+01
         0.27500E+01
         0.27500E+01
         0.27500E+01
         0.27500E+01
         0.27500E+01
         0.27500E+01
         0.27500E+01
         0.27500E+01
         0.27500E+01
         0.27500E+01
         0.27500E+01
         0.27500E+01
         0.27500E+01
         0.27500E+01
         0.27500E+01
         0.27500E+01
         0.27500E+01
         0.27500E+01
         0.27500E+01
         0.27500E+01
         0.27500E+01
         0.27500E+01
         0.27500E+01
         0.27500E+01
         0.27500E+01
         0.27500E+01
         0.27500E+01
         0.27500E+01
         0.27500E+01
         0.27500E+01
         0.27500E+01
         0.27500E+01
         0.27500E+01
         0.27500E+01
         0.27500E+01
         0.27500E+01
         0.27500E+01
         0.27500E+01
         0.27500E+01
         0.27500E+01
         0.27500E+01
         0.27500E+01
         0.27500E+01
         0.27500E+01
         0.27500E+01
         0.27500E+01
         0.27500E+01
         0.27500E+01
         0.27500E+01
         0.27500E+01
         0.27500E+01
         0.27500E+01
         0.27500E+01
         0.27500E+01
         0.27500E+01
         0.27500E+01
         0.27500E+01
         0.27500E+01
         0.27500E+01
         0.27500E+01
         0.27500E+01
         0.27500E+01
         0.27500E+01
         0.27500E+01
         0.27500E+01
         0.27500E+01
         0.27500E+01
         0.27500E+01
         0.27500E+01
         0.27500E+01
         0.27500E+01
         0.27500E+01
         0.27500E+01
         0.27500E+01
         0.27500E+01
         0.27500E+01
         0.27500E+01
         0.27500E+01
         0.27500E+01
         0.27500E+01
         0.27500E+01
         0.27500E+01
         0.27500E+01
         0.27500E+01
         0.27500E+01
         0.27500E+01
         0.27500E+01
         0.27500E+01
         0.27500E+01
         0.27500E+01
         0.27500E+01
         0.27500E+01
         0.27500E+01
         0.27500E+01
         0.27500E+01
         0.27500E+01
         0.27500E+01
         0.27500E+01
         0.27500E+01
         0.27500E+01
         0.27500E+01
         0.27500E+01
         0.27500E+01
         0.27500E+01
         0.27500E+01
         0.27500E+01
         0.27500E+01
         0.27500E+01
         0.27500E+01
         0.27500E+01
         0.27500E+01
         0.27500E+01
         0.27500E+01
         0.27500E+01
         0.27500E+01
         0.27500E+01
         0.27500E+01
         0.27500E+01
         0.27500E+01
         0.27500E+01
         0.27500E+01
         0.27500E+01
         0.27500E+01
         0.27500E+01
         0.27500E+01
         0.27500E+01
         0.27500E+01
         0.27500E+01
         0.27500E+01
         0.27500E+01
         0.27500E+01
         0.27500E+01
         0.27500E+01
         0.27500E+01
         0.27500E+01
         0.27500E+01
         0.27500E+01
         0.27500E+01
         0.27500E+01
         0.27500E+01
         0.27500E+01
         0.27500E+01
         0.27500E+01
         0.27500E+01
         0.27500E+01
         0.27500E+01
         0.27500E+01
         0.27500E+01
         0.27500E+01
         0.27500E+01
         0.27500E+01
         0.27500E+01
         0.27500E+01
         0.27500E+01
         0.27500E+01
         0.27500E+01
         0.27500E+01
         0.27500E+01
         0.27500E+01
         0.27500E+01
         0.27500E+01
         0.27500E+01
         0.27500E+01
         0.27500E+01
         0.27500E+01
         0.27500E+01
         0.27500E+01
         0.27500E+01
         0.27500E+01
         0.27500E+01
         0.27500E+01
         0.27500E+01
         0.27500E+01
         0.27500E+01
         0.27500E+01
         0.27500E+01
         0.27500E+01
         0.27500E+01
         0.27500E+01
         0.27500E+01
         0.27500E+01
         0.27500E+01
         0.27500E+01
         0.27500E+01
         0.27500E+01
         0.27500E+01
         0.27500E+01
         0.27500E+01
         0.27500E+01
         0.27500E+01
         0.27500E+01
         0.27500E+01
         0.27500E+01
         0.27500E+01
         0.27500E+01
         0.27500E+01
         0.27500E+01
         0.27500E+01
         0.27500E+01
         0.27500E+01
         0.27500E+01
         0.27500E+01
         0.27500E+01
         0.27500E+01
         0.27500E+01
         0.27500E+01
         0.27500E+01
         0.27500E+01
         0.27500E+01
         0.27500E+01
         0.27500E+01
         0.27500E+01
         0.27500E+01
         0.27500E+01
         0.27500E+01
         0.27500E+01
         0.27500E+01
         0.27500E+01
         0.27500E+01
         0.27500E+01
         0.27500E+01
         0.27500E+01
         0.27500E+01
         0.27500E+01
         0.27500E+01
         0.27500E+01
         0.27500E+01
         0.27500E+01
         0.27500E+01
         0.27500E+01
         0.27500E+01
         0.27500E+01
         0.27500E+01
         0.27500E+01
         0.27500E+01
         0.27500E+01
         0.27500E+01
         0.27500E+01
         0.27500E+01
         0.27500E+01
         0.27500E+01
         0.27500E+01
         0.27500E+01
         0.27500E+01
         0.27500E+01
         0.27500E+01
         0.27500E+01
         0.27500E+01
         0.27500E+01
         0.27500E+01
         0.27500E+01
         0.27500E+01
         0.27500E+01
         0.27500E+01
         0.27500E+01
         0.27500E+01
         0.27500E+01
         0.27500E+01
         0.27500E+01
         0.27500E+01
         0.27500E+01
         0.27500E+01
         0.27500E+01
         0.27500E+01
         0.27500E+01
         0.27500E+01
         0.27500E+01
         0.27500E+01
         0.27500E+01
         0.27500E+01
         0.27500E+01
         0.27500E+01
         0.27500E+01
         0.27500E+01
         0.27500E+01
         0.27500E+01
         0.27500E+01
         0.27500E+01
         0.27500E+01
         0.27500E+01
         0.27500E+01
         0.27500E+01
         0.27500E+01
         0.27500E+01
         0.27500E+01
         0.27500E+01
         0.27500E+01
         0.27500E+01
         0.27500E+01
         0.27500E+01
         0.27500E+01
         0.27500E+01
         0.27500E+01
         0.27500E+01
         0.27500E+01
         0.27500E+01
         0.27500E+01
         0.27500E+01
         0.27500E+01
         0.27500E+01
         0.27500E+01
         0.27500E+01
         0.27500E+01
         0.27500E+01
         0.27500E+01
         0.27500E+01
         0.27500E+01
         0.27500E+01
         0.27500E+01
         0.27500E+01
         0.27500E+01
         0.27500E+01
         0.27500E+01
         0.27500E+01
         0.27500E+01
         0.27500E+01
         0.27500E+01
         0.27500E+01
         0.27500E+01
         0.27500E+01
         0.27500E+01
         0.27500E+01
         0.27500E+01
         0.27500E+01
         0.27500E+01
         0.27500E+01
         0.27500E+01
         0.27500E+01
         0.27500E+01
         0.27500E+01
         0.27500E+01
         0.27500E+01
         0.27500E+01
         0.27500E+01
         0.27500E+01
         0.27500E+01
         0.27500E+01
         0.27500E+01
         0.27500E+01
         0.27500E+01
         0.27500E+01
         0.27500E+01
         0.27500E+01
         0.27500E+01
         0.27500E+01
         0.27500E+01
         0.27500E+01
         0.27500E+01
         0.27500E+01
         0.27500E+01
         0.27500E+01
         0.27500E+01
         0.27500E+01
         0.27500E+01
         0.27500E+01
         0.27500E+01
         0.27500E+01
         0.27500E+01
         0.27500E+01
         0.27500E+01
         0.27500E+01
         0.27500E+01
         0.27500E+01
         0.27500E+01
         0.27500E+01
         0.27500E+01
         0.27500E+01
         0.27500E+01
         0.27500E+01
         0.27500E+01
         0.27500E+01
         0.27500E+01
         0.27500E+01
         0.27500E+01
         0.27500E+01
         0.27500E+01
         0.27500E+01
         0.27500E+01
         0.27500E+01
         0.27500E+01
         0.27500E+01
         0.27500E+01
         0.27500E+01
         0.27500E+01
         0.27500E+01
         0.27500E+01
         0.27500E+01
         0.27500E+01
         0.27500E+01
         0.27500E+01
         0.27500E+01
         0.27500E+01
         0.27500E+01
         0.27500E+01
         0.27500E+01
         0.27500E+01
         0.27500E+01
         0.27500E+01
         0.27500E+01
         0.27500E+01
         0.27500E+01
         0.27500E+01
         0.27500E+01
         0.27500E+01
         0.27500E+01
         0.27500E+01
         0.27500E+01
         0.27500E+01
         0.27500E+01
         0.27500E+01
         0.27500E+01
         0.27500E+01
         0.27500E+01
         0.27500E+01
         0.27500E+01
         0.27500E+01
         0.27500E+01
         0.27500E+01
         0.27500E+01
         0.27500E+01
         0.27500E+01
         0.27500E+01
         0.27500E+01
         0.27500E+01
         0.27500E+01
         0.27500E+01
         0.27500E+01
         0.27500E+01
         0.27500E+01
         0.27500E+01
         0.27500E+01
         0.27500E+01
         0.27500E+01
         0.27500E+01
         0.27500E+01
         0.27500E+01
         0.27500E+01
         0.27500E+01
         0.27500E+01
         0.27500E+01
         0.27500E+01
         0.27500E+01
         0.27500E+01
         0.27500E+01
         0.27500E+01
         0.27500E+01
         0.27500E+01
         0.27500E+01
         0.27500E+01
         0.27500E+01
         0.27500E+01
         0.27500E+01
         0.27500E+01
         0.27500E+01
         0.27500E+01
         0.27500E+01
         0.27500E+01
         0.27500E+01
         0.27500E+01
         0.27500E+01
         0.27500E+01
         0.27500E+01
         0.27500E+01
         0.27500E+01
         0.27500E+01
         0.27500E+01
         0.27500E+01
         0.27500E+01
         0.27500E+01
         0.27500E+01
         0.27500E+01
         0.27500E+01
         0.27500E+01
         0.27500E+01
         0.27500E+01
         0.27500E+01
         0.27500E+01
         0.27500E+01
         0.27500E+01
         0.27500E+01
         0.27500E+01
         0.27500E+01
         0.27500E+01
         0.27500E+01
         0.27500E+01
         0.27500E+01
         0.27500E+01
         0.27500E+01
         0.27500E+01
         0.27500E+01
         0.27500E+01
         0.27500E+01
         0.27500E+01
         0.27500E+01
         0.27500E+01
         0.27500E+01
         0.27500E+01
         0.27500E+01
         0.27500E+01
         0.27500E+01
         0.27500E+01
         0.27500E+01
         0.27500E+01
         0.27500E+01
         0.27500E+01
         0.27500E+01
         0.27500E+01
         0.27500E+01
         0.27500E+01
         0.27500E+01
         0.27500E+01
         0.27500E+01
         0.27500E+01
         0.27500E+01
         0.27500E+01
         0.27500E+01
         0.27500E+01
         0.27500E+01
         0.27500E+01
         0.27500E+01
         0.27500E+01
         0.27500E+01
         0.27500E+01
         0.27500E+01
         0.27500E+01
         0.27500E+01
         0.27500E+01
         0.27500E+01
         0.27500E+01
         0.27500E+01
         0.27500E+01
         0.27500E+01
         0.27500E+01
         0.27500E+01
         0.27500E+01
         0.27500E+01
         0.27500E+01
         0.27500E+01
         0.27500E+01
         0.27500E+01
         0.27500E+01
         0.27500E+01
         0.27500E+01
         0.27500E+01
         0.27500E+01
         0.27500E+01
         0.27500E+01
         0.27500E+01
         0.27500E+01
         0.27500E+01
         0.27500E+01
         0.27500E+01
         0.27500E+01
         0.27500E+01
         0.27500E+01
         0.27500E+01
         0.27500E+01
         0.27500E+01
         0.27500E+01
         0.27500E+01
         0.27500E+01
         0.27500E+01
         0.27500E+01
         0.27500E+01
         0.27500E+01
         0.27500E+01
         0.27500E+01
         0.27500E+01
         0.27500E+01
         0.27500E+01
         0.27500E+01
         0.27500E+01
         0.27500E+01
         0.27500E+01
         0.27500E+01
         0.27500E+01
         0.27500E+01
         0.27500E+01
         0.27500E+01
         0.27500E+01
         0.27500E+01
         0.27500E+01
         0.27500E+01
         0.27500E+01
         0.27500E+01
         0.27500E+01
         0.27500E+01
         0.27500E+01
         0.27500E+01
         0.27500E+01
         0.27500E+01
         0.27500E+01
         0.27500E+01
         0.27500E+01
         0.27500E+01
         0.27500E+01
         0.27500E+01
         0.27500E+01
         0.27500E+01
         0.27500E+01
         0.27500E+01
         0.27500E+01
         0.27500E+01
         0.27500E+01
         0.27500E+01
         0.27500E+01
         0.27500E+01
         0.27500E+01
         0.27500E+01
         0.27500E+01
         0.27500E+01
         0.27500E+01
         0.27500E+01
         0.27500E+01
         0.27500E+01
         0.27500E+01
         0.27500E+01
         0.27500E+01
         0.27500E+01
         0.27500E+01
         0.27500E+01
         0.27500E+01
         0.27500E+01
         0.27500E+01
         0.27500E+01
         0.27500E+01
         0.27500E+01
         0.27500E+01
         0.27500E+01
         0.27500E+01
         0.27500E+01
         0.27500E+01
         0.27500E+01
         0.27500E+01
         0.27500E+01
         0.27500E+01
         0.27500E+01
         0.27500E+01
         0.27500E+01
         0.27500E+01
         0.27500E+01
         0.27500E+01
         0.27500E+01
         0.27500E+01
         0.27500E+01
         0.27500E+01
         0.27500E+01
         0.27500E+01
         0.27500E+01
         0.27500E+01
         0.27500E+01
         0.27500E+01
         0.27500E+01
         0.27500E+01
         0.27500E+01
         0.27500E+01
         0.27500E+01
         0.27500E+01
         0.27500E+01
         0.27500E+01
         0.27500E+01
         0.27500E+01
         0.27500E+01
         0.27500E+01
         0.27500E+01
         0.27500E+01
         0.27500E+01
         0.27500E+01
         0.27500E+01
         0.27500E+01
         0.27500E+01
         0.27500E+01
         0.27500E+01
         0.27500E+01
         0.27500E+01
         0.27500E+01
         0.27500E+01
         0.27500E+01
         0.27500E+01
         0.27500E+01
         0.27500E+01
         0.27500E+01
         0.27500E+01
         0.27500E+01
         0.27500E+01
         0.27500E+01
         0.27500E+01
         0.27500E+01
         0.27500E+01
         0.27500E+01
         0.27500E+01
         0.27500E+01
         0.27500E+01
         0.27500E+01
         0.27500E+01
         0.27500E+01
         0.27500E+01
         0.27500E+01
         0.27500E+01
         0.27500E+01
         0.27500E+01
         0.27500E+01
         0.27500E+01
         0.27500E+01
         0.27500E+01
         0.27500E+01
         0.27500E+01
         0.27500E+01
         0.27500E+01
         0.27500E+01
         0.27500E+01
         0.27500E+01
         0.27500E+01
         0.27500E+01
         0.27500E+01
         0.27500E+01
         0.27500E+01
         0.27500E+01
         0.27500E+01
         0.27500E+01
         0.27500E+01
         0.27500E+01
         0.27500E+01
         0.27500E+01
         0.27500E+01
         0.27500E+01
         0.27500E+01
         0.27500E+01
         0.27500E+01
         0.27500E+01
         0.27500E+01
         0.27500E+01
         0.27500E+01
         0.27500E+01
         0.27500E+01
         0.27500E+01
         0.27500E+01
         0.27500E+01
         0.27500E+01
         0.27500E+01
         0.27500E+01
         0.27500E+01
         0.27500E+01
         0.27500E+01
         0.27500E+01
         0.27500E+01
         0.27500E+01
         0.27500E+01
         0.27500E+01
         0.27500E+01
         0.27500E+01
         0.27500E+01
         0.27500E+01
         0.27500E+01
         0.27500E+01
         0.27500E+01
         0.27500E+01
         0.27500E+01
         0.27500E+01
         0.27500E+01
         0.27500E+01
         0.27500E+01
         0.27500E+01
         0.27500E+01
         0.27500E+01
         0.27500E+01
         0.27500E+01
         0.27500E+01
         0.27500E+01
         0.27500E+01
         0.27500E+01
         0.27500E+01
         0.27500E+01
         0.27500E+01
         0.27500E+01
         0.27500E+01
         0.27500E+01
         0.27500E+01
         0.27500E+01
         0.27500E+01
         0.27500E+01
         0.27500E+01
         0.27500E+01
         0.27500E+01
         0.27500E+01
         0.27500E+01
         0.27500E+01
         0.27500E+01
         0.27500E+01
         0.27500E+01
         0.27500E+01
         0.27500E+01
         0.27500E+01
         0.27500E+01
         0.27500E+01
         0.27500E+01
         0.27500E+01
         0.27500E+01
         0.27500E+01
         0.27500E+01
         0.27500E+01
         0.27500E+01
         0.27500E+01
         0.27500E+01
         0.27500E+01
         0.27500E+01
         0.27500E+01
         0.27500E+01
         0.27500E+01
         0.27500E+01
         0.27500E+01
         0.27500E+01
         0.27500E+01
         0.27500E+01
         0.27500E+01
         0.27500E+01
         0.27500E+01
         0.27500E+01
         0.27500E+01
         0.27500E+01
         0.27500E+01
         0.27500E+01
         0.27500E+01
         0.27500E+01
         0.27500E+01
         0.27500E+01
         0.27500E+01
         0.27500E+01
         0.27500E+01
         0.27500E+01
         0.27500E+01
         0.27500E+01
  
SCALARS              physical_window_x  double 1
LOOKUP_TABLE default
         0.42419E-02
         0.35201E-02
         0.37624E-02
         0.42419E-02
         0.42417E-02
         0.35201E-02
         0.37618E-02
         0.42417E-02
         0.37624E-02
         0.37624E-02
         0.37618E-02
         0.37618E-02
         0.30086E-02
         0.32069E-02
         0.30084E-02
         0.32067E-02
         0.42419E-02
         0.32069E-02
         0.42417E-02
         0.32067E-02
         0.24180E-02
         0.29942E-02
         0.32396E-02
         0.24180E-02
         0.29933E-02
         0.32385E-02
         0.26608E-02
         0.27190E-02
         0.26608E-02
         0.27190E-02
         0.42687E-02
         0.36511E-02
         0.42687E-02
         0.42687E-02
         0.36511E-02
         0.42687E-02
         0.32069E-02
         0.29739E-02
         0.32066E-02
         0.29739E-02
         0.34652E-02
         0.32621E-02
         0.34652E-02
         0.32621E-02
         0.37123E-02
         0.32069E-02
         0.37123E-02
         0.32066E-02
         0.30844E-02
         0.30844E-02
         0.35191E-02
         0.35189E-02
         0.26925E-02
         0.26925E-02
         0.26925E-02
         0.26925E-02
         0.24643E-02
         0.27651E-02
         0.24643E-02
         0.27651E-02
         0.42687E-02
         0.35191E-02
         0.42687E-02
         0.35189E-02
         0.42687E-02
         0.42687E-02
         0.34658E-02
         0.34648E-02
         0.27274E-02
         0.31799E-02
         0.27273E-02
         0.31796E-02
         0.32396E-02
         0.32385E-02
         0.26964E-02
         0.26960E-02
         0.27828E-02
         0.27828E-02
         0.27828E-02
         0.27828E-02
         0.27004E-02
         0.31883E-02
         0.27003E-02
         0.31880E-02
         0.31883E-02
         0.31880E-02
         0.37123E-02
         0.37123E-02
         0.36245E-02
         0.36245E-02
         0.28253E-02
         0.31642E-02
         0.28253E-02
         0.31636E-02
         0.33485E-02
         0.33485E-02
         0.33485E-02
         0.33485E-02
         0.31978E-02
         0.31969E-02
         0.29849E-02
         0.32843E-02
         0.29849E-02
         0.32843E-02
         0.27274E-02
         0.31109E-02
         0.27273E-02
         0.31109E-02
         0.31799E-02
         0.31796E-02
         0.32396E-02
         0.32385E-02
         0.32396E-02
         0.32385E-02
         0.29942E-02
         0.29933E-02
         0.27190E-02
         0.27190E-02
         0.26964E-02
         0.26960E-02
         0.27828E-02
         0.27828E-02
         0.27828E-02
         0.27828E-02
         0.27004E-02
         0.27003E-02
         0.31883E-02
         0.31880E-02
         0.31883E-02
         0.31880E-02
         0.32621E-02
         0.32621E-02
         0.34652E-02
         0.34652E-02
         0.37123E-02
         0.37123E-02
         0.37123E-02
         0.37123E-02
         0.36245E-02
         0.36245E-02
         0.28253E-02
         0.28253E-02
         0.29097E-02
         0.29087E-02
         0.32389E-02
         0.32378E-02
         0.32389E-02
         0.32378E-02
         0.31978E-02
         0.31969E-02
         0.29849E-02
         0.29849E-02
         0.32843E-02
         0.32843E-02
         0.32843E-02
         0.32843E-02
         0.42420E-02
         0.35201E-02
         0.37629E-02
         0.42420E-02
         0.37629E-02
         0.37629E-02
         0.30087E-02
         0.32071E-02
         0.42420E-02
         0.32071E-02
         0.24178E-02
         0.29952E-02
         0.32407E-02
         0.26596E-02
         0.27191E-02
         0.42679E-02
         0.36502E-02
         0.42679E-02
         0.32071E-02
         0.29727E-02
         0.34648E-02
         0.32622E-02
         0.37119E-02
         0.32071E-02
         0.30833E-02
         0.35193E-02
         0.26910E-02
         0.26910E-02
         0.24638E-02
         0.27644E-02
         0.42679E-02
         0.35193E-02
         0.42679E-02
         0.34670E-02
         0.27274E-02
         0.31802E-02
         0.32407E-02
         0.26968E-02
         0.27828E-02
         0.27828E-02
         0.27005E-02
         0.31885E-02
         0.31885E-02
         0.37119E-02
         0.36244E-02
         0.28250E-02
         0.31647E-02
         0.33484E-02
         0.33484E-02
         0.31986E-02
         0.29848E-02
         0.32841E-02
         0.27274E-02
         0.31099E-02
         0.31802E-02
         0.32407E-02
         0.32407E-02
         0.29952E-02
         0.27191E-02
         0.26968E-02
         0.27828E-02
         0.27828E-02
         0.27005E-02
         0.31885E-02
         0.31885E-02
         0.32622E-02
         0.34648E-02
         0.37119E-02
         0.37119E-02
         0.36244E-02
         0.28250E-02
         0.29106E-02
         0.32401E-02
         0.32401E-02
         0.31986E-02
         0.29848E-02
         0.32841E-02
         0.32841E-02
         0.42421E-02
         0.35201E-02
         0.37634E-02
         0.42421E-02
         0.37634E-02
         0.37634E-02
         0.30089E-02
         0.32073E-02
         0.42421E-02
         0.32073E-02
         0.24177E-02
         0.29961E-02
         0.32418E-02
         0.26584E-02
         0.27191E-02
         0.42670E-02
         0.36493E-02
         0.42670E-02
         0.32073E-02
         0.29714E-02
         0.34644E-02
         0.32623E-02
         0.37115E-02
         0.32073E-02
         0.30822E-02
         0.35195E-02
         0.26896E-02
         0.26896E-02
         0.24633E-02
         0.27638E-02
         0.42670E-02
         0.35195E-02
         0.42670E-02
         0.34681E-02
         0.27275E-02
         0.31805E-02
         0.32418E-02
         0.26972E-02
         0.27828E-02
         0.27828E-02
         0.27006E-02
         0.31888E-02
         0.31888E-02
         0.37115E-02
         0.36243E-02
         0.28247E-02
         0.31652E-02
         0.33483E-02
         0.33483E-02
         0.31995E-02
         0.29847E-02
         0.32839E-02
         0.27275E-02
         0.31090E-02
         0.31805E-02
         0.32418E-02
         0.32418E-02
         0.29961E-02
         0.27191E-02
         0.26972E-02
         0.27828E-02
         0.27828E-02
         0.27006E-02
         0.31888E-02
         0.31888E-02
         0.32623E-02
         0.34644E-02
         0.37115E-02
         0.37115E-02
         0.36243E-02
         0.28247E-02
         0.29116E-02
         0.32412E-02
         0.32412E-02
         0.31995E-02
         0.29847E-02
         0.32839E-02
         0.32839E-02
         0.42423E-02
         0.35200E-02
         0.37639E-02
         0.42423E-02
         0.37639E-02
         0.37639E-02
         0.30091E-02
         0.32075E-02
         0.42423E-02
         0.32075E-02
         0.24176E-02
         0.29970E-02
         0.32428E-02
         0.26572E-02
         0.27192E-02
         0.42662E-02
         0.36483E-02
         0.42662E-02
         0.32075E-02
         0.29702E-02
         0.34639E-02
         0.32624E-02
         0.37111E-02
         0.32075E-02
         0.30811E-02
         0.35197E-02
         0.26881E-02
         0.26881E-02
         0.24628E-02
         0.27631E-02
         0.42662E-02
         0.35197E-02
         0.42662E-02
         0.34692E-02
         0.27276E-02
         0.31808E-02
         0.32428E-02
         0.26975E-02
         0.27828E-02
         0.27828E-02
         0.27007E-02
         0.31890E-02
         0.31890E-02
         0.37111E-02
         0.36242E-02
         0.28243E-02
         0.31658E-02
         0.33482E-02
         0.33482E-02
         0.32003E-02
         0.29846E-02
         0.32837E-02
         0.27276E-02
         0.31081E-02
         0.31808E-02
         0.32428E-02
         0.32428E-02
         0.29970E-02
         0.27192E-02
         0.26975E-02
         0.27828E-02
         0.27828E-02
         0.27007E-02
         0.31890E-02
         0.31890E-02
         0.32624E-02
         0.34639E-02
         0.37111E-02
         0.37111E-02
         0.36242E-02
         0.28243E-02
         0.29125E-02
         0.32423E-02
         0.32423E-02
         0.32003E-02
         0.29846E-02
         0.32837E-02
         0.32837E-02
         0.42424E-02
         0.35200E-02
         0.37644E-02
         0.42424E-02
         0.37644E-02
         0.37644E-02
         0.30093E-02
         0.32077E-02
         0.42424E-02
         0.32077E-02
         0.24174E-02
         0.29979E-02
         0.32439E-02
         0.26559E-02
         0.27192E-02
         0.42653E-02
         0.36474E-02
         0.42653E-02
         0.32077E-02
         0.29690E-02
         0.34635E-02
         0.32624E-02
         0.37108E-02
         0.32077E-02
         0.30799E-02
         0.35199E-02
         0.26867E-02
         0.26867E-02
         0.24623E-02
         0.27625E-02
         0.42653E-02
         0.35199E-02
         0.42653E-02
         0.34703E-02
         0.27276E-02
         0.31812E-02
         0.32439E-02
         0.26979E-02
         0.27828E-02
         0.27828E-02
         0.27008E-02
         0.31893E-02
         0.31893E-02
         0.37108E-02
         0.36241E-02
         0.28240E-02
         0.31663E-02
         0.33481E-02
         0.33481E-02
         0.32012E-02
         0.29844E-02
         0.32835E-02
         0.27276E-02
         0.31071E-02
         0.31812E-02
         0.32439E-02
         0.32439E-02
         0.29979E-02
         0.27192E-02
         0.26979E-02
         0.27828E-02
         0.27828E-02
         0.27008E-02
         0.31893E-02
         0.31893E-02
         0.32624E-02
         0.34635E-02
         0.37108E-02
         0.37108E-02
         0.36241E-02
         0.28240E-02
         0.29135E-02
         0.32434E-02
         0.32434E-02
         0.32012E-02
         0.29844E-02
         0.32835E-02
         0.32835E-02
         0.42425E-02
         0.35200E-02
         0.37649E-02
         0.42425E-02
         0.37649E-02
         0.37649E-02
         0.30095E-02
         0.32079E-02
         0.42425E-02
         0.32079E-02
         0.24173E-02
         0.29989E-02
         0.32450E-02
         0.26547E-02
         0.27193E-02
         0.42645E-02
         0.36465E-02
         0.42645E-02
         0.32079E-02
         0.29677E-02
         0.34631E-02
         0.32625E-02
         0.37104E-02
         0.32079E-02
         0.30788E-02
         0.35201E-02
         0.26852E-02
         0.26852E-02
         0.24618E-02
         0.27618E-02
         0.42645E-02
         0.35201E-02
         0.42645E-02
         0.34715E-02
         0.27277E-02
         0.31815E-02
         0.32450E-02
         0.26983E-02
         0.27828E-02
         0.27828E-02
         0.27009E-02
         0.31895E-02
         0.31895E-02
         0.37104E-02
         0.36239E-02
         0.28237E-02
         0.31668E-02
         0.33480E-02
         0.33480E-02
         0.32020E-02
         0.29843E-02
         0.32833E-02
         0.27277E-02
         0.31062E-02
         0.31815E-02
         0.32450E-02
         0.32450E-02
         0.29989E-02
         0.27193E-02
         0.26983E-02
         0.27828E-02
         0.27828E-02
         0.27009E-02
         0.31895E-02
         0.31895E-02
         0.32625E-02
         0.34631E-02
         0.37104E-02
         0.37104E-02
         0.36239E-02
         0.28237E-02
         0.29145E-02
         0.32445E-02
         0.32445E-02
         0.32020E-02
         0.29843E-02
         0.32833E-02
         0.32833E-02
         0.42427E-02
         0.35200E-02
         0.37654E-02
         0.42427E-02
         0.37654E-02
         0.37654E-02
         0.30097E-02
         0.32081E-02
         0.42427E-02
         0.32081E-02
         0.24171E-02
         0.29998E-02
         0.32461E-02
         0.26535E-02
         0.27193E-02
         0.42636E-02
         0.36455E-02
         0.42636E-02
         0.32081E-02
         0.29665E-02
         0.34626E-02
         0.32626E-02
         0.37100E-02
         0.32081E-02
         0.30777E-02
         0.35203E-02
         0.26838E-02
         0.26838E-02
         0.24613E-02
         0.27611E-02
         0.42636E-02
         0.35203E-02
         0.42636E-02
         0.34726E-02
         0.27278E-02
         0.31818E-02
         0.32461E-02
         0.26987E-02
         0.27827E-02
         0.27827E-02
         0.27010E-02
         0.31898E-02
         0.31898E-02
         0.37100E-02
         0.36238E-02
         0.28234E-02
         0.31673E-02
         0.33479E-02
         0.33479E-02
         0.32029E-02
         0.29842E-02
         0.32831E-02
         0.27278E-02
         0.31052E-02
         0.31818E-02
         0.32461E-02
         0.32461E-02
         0.29998E-02
         0.27193E-02
         0.26987E-02
         0.27827E-02
         0.27827E-02
         0.27010E-02
         0.31898E-02
         0.31898E-02
         0.32626E-02
         0.34626E-02
         0.37100E-02
         0.37100E-02
         0.36238E-02
         0.28234E-02
         0.29154E-02
         0.32457E-02
         0.32457E-02
         0.32029E-02
         0.29842E-02
         0.32831E-02
         0.32831E-02
         0.42428E-02
         0.35199E-02
         0.37660E-02
         0.42428E-02
         0.37660E-02
         0.37660E-02
         0.30099E-02
         0.32083E-02
         0.42428E-02
         0.32083E-02
         0.24170E-02
         0.30007E-02
         0.32471E-02
         0.26523E-02
         0.27194E-02
         0.42628E-02
         0.36446E-02
         0.42628E-02
         0.32083E-02
         0.29652E-02
         0.34622E-02
         0.32627E-02
         0.37096E-02
         0.32083E-02
         0.30766E-02
         0.35205E-02
         0.26823E-02
         0.26823E-02
         0.24608E-02
         0.27605E-02
         0.42628E-02
         0.35205E-02
         0.42628E-02
         0.34737E-02
         0.27279E-02
         0.31821E-02
         0.32471E-02
         0.26991E-02
         0.27827E-02
         0.27827E-02
         0.27011E-02
         0.31900E-02
         0.31900E-02
         0.37096E-02
         0.36237E-02
         0.28231E-02
         0.31679E-02
         0.33478E-02
         0.33478E-02
         0.32038E-02
         0.29841E-02
         0.32829E-02
         0.27279E-02
         0.31043E-02
         0.31821E-02
         0.32471E-02
         0.32471E-02
         0.30007E-02
         0.27194E-02
         0.26991E-02
         0.27827E-02
         0.27827E-02
         0.27011E-02
         0.31900E-02
         0.31900E-02
         0.32627E-02
         0.34622E-02
         0.37096E-02
         0.37096E-02
         0.36237E-02
         0.28231E-02
         0.29164E-02
         0.32468E-02
         0.32468E-02
         0.32038E-02
         0.29841E-02
         0.32829E-02
         0.32829E-02
         0.42429E-02
         0.35199E-02
         0.37665E-02
         0.42429E-02
         0.37665E-02
         0.37665E-02
         0.30101E-02
         0.32085E-02
         0.42429E-02
         0.32085E-02
         0.24168E-02
         0.30017E-02
         0.32482E-02
         0.26510E-02
         0.27194E-02
         0.42619E-02
         0.36437E-02
         0.42619E-02
         0.32085E-02
         0.29640E-02
         0.34618E-02
         0.32627E-02
         0.37092E-02
         0.32085E-02
         0.30755E-02
         0.35207E-02
         0.26808E-02
         0.26808E-02
         0.24603E-02
         0.27599E-02
         0.42619E-02
         0.35207E-02
         0.42619E-02
         0.34748E-02
         0.27279E-02
         0.31824E-02
         0.32482E-02
         0.26994E-02
         0.27827E-02
         0.27827E-02
         0.27012E-02
         0.31902E-02
         0.31902E-02
         0.37092E-02
         0.36236E-02
         0.28227E-02
         0.31684E-02
         0.33477E-02
         0.33477E-02
         0.32046E-02
         0.29840E-02
         0.32827E-02
         0.27279E-02
         0.31034E-02
         0.31824E-02
         0.32482E-02
         0.32482E-02
         0.30017E-02
         0.27194E-02
         0.26994E-02
         0.27827E-02
         0.27827E-02
         0.27012E-02
         0.31902E-02
         0.31902E-02
         0.32627E-02
         0.34618E-02
         0.37092E-02
         0.37092E-02
         0.36236E-02
         0.28227E-02
         0.29173E-02
         0.32479E-02
         0.32479E-02
         0.32046E-02
         0.29840E-02
         0.32827E-02
         0.32827E-02
         0.42431E-02
         0.35199E-02
         0.37670E-02
         0.42431E-02
         0.37670E-02
         0.37670E-02
         0.30102E-02
         0.32087E-02
         0.42431E-02
         0.32087E-02
         0.24167E-02
         0.30026E-02
         0.32493E-02
         0.26498E-02
         0.27194E-02
         0.42611E-02
         0.36427E-02
         0.42611E-02
         0.32087E-02
         0.29628E-02
         0.34613E-02
         0.32628E-02
         0.37089E-02
         0.32087E-02
         0.30744E-02
         0.35209E-02
         0.26794E-02
         0.26794E-02
         0.24598E-02
         0.27592E-02
         0.42611E-02
         0.35209E-02
         0.42611E-02
         0.34759E-02
         0.27280E-02
         0.31827E-02
         0.32493E-02
         0.26998E-02
         0.27827E-02
         0.27827E-02
         0.27013E-02
         0.31905E-02
         0.31905E-02
         0.37089E-02
         0.36235E-02
         0.28224E-02
         0.31689E-02
         0.33476E-02
         0.33476E-02
         0.32055E-02
         0.29839E-02
         0.32825E-02
         0.27280E-02
         0.31024E-02
         0.31827E-02
         0.32493E-02
         0.32493E-02
         0.30026E-02
         0.27194E-02
         0.26998E-02
         0.27827E-02
         0.27827E-02
         0.27013E-02
         0.31905E-02
         0.31905E-02
         0.32628E-02
         0.34613E-02
         0.37089E-02
         0.37089E-02
         0.36235E-02
         0.28224E-02
         0.29183E-02
         0.32490E-02
         0.32490E-02
         0.32055E-02
         0.29839E-02
         0.32825E-02
         0.32825E-02
         0.42432E-02
         0.35199E-02
         0.37675E-02
         0.42432E-02
         0.37675E-02
         0.37675E-02
         0.30104E-02
         0.32089E-02
         0.42432E-02
         0.32089E-02
         0.24166E-02
         0.30035E-02
         0.32504E-02
         0.26486E-02
         0.27195E-02
         0.42603E-02
         0.36418E-02
         0.42603E-02
         0.32089E-02
         0.29615E-02
         0.34609E-02
         0.32629E-02
         0.37085E-02
         0.32089E-02
         0.30732E-02
         0.35211E-02
         0.26779E-02
         0.26779E-02
         0.24593E-02
         0.27585E-02
         0.42603E-02
         0.35211E-02
         0.42603E-02
         0.34771E-02
         0.27281E-02
         0.31830E-02
         0.32504E-02
         0.27002E-02
         0.27827E-02
         0.27827E-02
         0.27014E-02
         0.31907E-02
         0.31907E-02
         0.37085E-02
         0.36233E-02
         0.28221E-02
         0.31694E-02
         0.33475E-02
         0.33475E-02
         0.32063E-02
         0.29838E-02
         0.32823E-02
         0.27281E-02
         0.31015E-02
         0.31830E-02
         0.32504E-02
         0.32504E-02
         0.30035E-02
         0.27195E-02
         0.27002E-02
         0.27827E-02
         0.27827E-02
         0.27014E-02
         0.31907E-02
         0.31907E-02
         0.32629E-02
         0.34609E-02
         0.37085E-02
         0.37085E-02
         0.36233E-02
         0.28221E-02
         0.29193E-02
         0.32501E-02
         0.32501E-02
         0.32063E-02
         0.29838E-02
         0.32823E-02
         0.32823E-02
         0.42433E-02
         0.35199E-02
         0.37680E-02
         0.42433E-02
         0.37680E-02
         0.37680E-02
         0.30106E-02
         0.32091E-02
         0.42433E-02
         0.32091E-02
         0.24164E-02
         0.30045E-02
         0.32514E-02
         0.26474E-02
         0.27195E-02
         0.42594E-02
         0.36409E-02
         0.42594E-02
         0.32091E-02
         0.29603E-02
         0.34605E-02
         0.32630E-02
         0.37081E-02
         0.32091E-02
         0.30721E-02
         0.35213E-02
         0.26765E-02
         0.26765E-02
         0.24588E-02
         0.27579E-02
         0.42594E-02
         0.35213E-02
         0.42594E-02
         0.34782E-02
         0.27281E-02
         0.31833E-02
         0.32514E-02
         0.27006E-02
         0.27826E-02
         0.27826E-02
         0.27015E-02
         0.31910E-02
         0.31910E-02
         0.37081E-02
         0.36232E-02
         0.28218E-02
         0.31700E-02
         0.33474E-02
         0.33474E-02
         0.32072E-02
         0.29836E-02
         0.32821E-02
         0.27281E-02
         0.31005E-02
         0.31833E-02
         0.32514E-02
         0.32514E-02
         0.30045E-02
         0.27195E-02
         0.27006E-02
         0.27826E-02
         0.27826E-02
         0.27015E-02
         0.31910E-02
         0.31910E-02
         0.32630E-02
         0.34605E-02
         0.37081E-02
         0.37081E-02
         0.36232E-02
         0.28218E-02
         0.29202E-02
         0.32512E-02
         0.32512E-02
         0.32072E-02
         0.29836E-02
         0.32821E-02
         0.32821E-02
         0.42435E-02
         0.35199E-02
         0.37685E-02
         0.42435E-02
         0.37685E-02
         0.37685E-02
         0.30108E-02
         0.32093E-02
         0.42435E-02
         0.32093E-02
         0.24163E-02
         0.30054E-02
         0.32525E-02
         0.26461E-02
         0.27196E-02
         0.42586E-02
         0.36399E-02
         0.42586E-02
         0.32093E-02
         0.29591E-02
         0.34601E-02
         0.32630E-02
         0.37077E-02
         0.32093E-02
         0.30710E-02
         0.35215E-02
         0.26750E-02
         0.26750E-02
         0.24583E-02
         0.27572E-02
         0.42586E-02
         0.35215E-02
         0.42586E-02
         0.34793E-02
         0.27282E-02
         0.31836E-02
         0.32525E-02
         0.27010E-02
         0.27826E-02
         0.27826E-02
         0.27016E-02
         0.31912E-02
         0.31912E-02
         0.37077E-02
         0.36231E-02
         0.28215E-02
         0.31705E-02
         0.33473E-02
         0.33473E-02
         0.32080E-02
         0.29835E-02
         0.32819E-02
         0.27282E-02
         0.30996E-02
         0.31836E-02
         0.32525E-02
         0.32525E-02
         0.30054E-02
         0.27196E-02
         0.27010E-02
         0.27826E-02
         0.27826E-02
         0.27016E-02
         0.31912E-02
         0.31912E-02
         0.32630E-02
         0.34601E-02
         0.37077E-02
         0.37077E-02
         0.36231E-02
         0.28215E-02
         0.29212E-02
         0.32524E-02
         0.32524E-02
         0.32080E-02
         0.29835E-02
         0.32819E-02
         0.32819E-02
         0.42436E-02
         0.35198E-02
         0.37690E-02
         0.42436E-02
         0.37690E-02
         0.37690E-02
         0.30110E-02
         0.32095E-02
         0.42436E-02
         0.32095E-02
         0.24162E-02
         0.30064E-02
         0.32536E-02
         0.26449E-02
         0.27196E-02
         0.42577E-02
         0.36390E-02
         0.42577E-02
         0.32096E-02
         0.29578E-02
         0.34596E-02
         0.32631E-02
         0.37074E-02
         0.32096E-02
         0.30699E-02
         0.35217E-02
         0.26735E-02
         0.26735E-02
         0.24578E-02
         0.27566E-02
         0.42577E-02
         0.35217E-02
         0.42577E-02
         0.34804E-02
         0.27283E-02
         0.31839E-02
         0.32536E-02
         0.27013E-02
         0.27826E-02
         0.27826E-02
         0.27017E-02
         0.31915E-02
         0.31915E-02
         0.37074E-02
         0.36230E-02
         0.28211E-02
         0.31710E-02
         0.33472E-02
         0.33472E-02
         0.32089E-02
         0.29834E-02
         0.32817E-02
         0.27283E-02
         0.30986E-02
         0.31839E-02
         0.32536E-02
         0.32536E-02
         0.30064E-02
         0.27196E-02
         0.27013E-02
         0.27826E-02
         0.27826E-02
         0.27017E-02
         0.31915E-02
         0.31915E-02
         0.32631E-02
         0.34596E-02
         0.37074E-02
         0.37074E-02
         0.36230E-02
         0.28211E-02
         0.29221E-02
         0.32535E-02
         0.32535E-02
         0.32089E-02
         0.29834E-02
         0.32817E-02
         0.32817E-02
         0.42437E-02
         0.35198E-02
         0.37695E-02
         0.42437E-02
         0.37695E-02
         0.37695E-02
         0.30112E-02
         0.32097E-02
         0.42437E-02
         0.32097E-02
         0.24160E-02
         0.30073E-02
         0.32547E-02
         0.26437E-02
         0.27197E-02
         0.42569E-02
         0.36381E-02
         0.42569E-02
         0.32098E-02
         0.29566E-02
         0.34592E-02
         0.32632E-02
         0.37070E-02
         0.32098E-02
         0.30688E-02
         0.35219E-02
         0.26721E-02
         0.26721E-02
         0.24573E-02
         0.27560E-02
         0.42569E-02
         0.35219E-02
         0.42569E-02
         0.34815E-02
         0.27284E-02
         0.31843E-02
         0.32547E-02
         0.27017E-02
         0.27826E-02
         0.27826E-02
         0.27018E-02
         0.31917E-02
         0.31917E-02
         0.37070E-02
         0.36229E-02
         0.28208E-02
         0.31716E-02
         0.33471E-02
         0.33471E-02
         0.32097E-02
         0.29833E-02
         0.32815E-02
         0.27284E-02
         0.30977E-02
         0.31843E-02
         0.32547E-02
         0.32547E-02
         0.30073E-02
         0.27197E-02
         0.27017E-02
         0.27826E-02
         0.27826E-02
         0.27018E-02
         0.31917E-02
         0.31917E-02
         0.32632E-02
         0.34592E-02
         0.37070E-02
         0.37070E-02
         0.36229E-02
         0.28208E-02
         0.29231E-02
         0.32546E-02
         0.32546E-02
         0.32097E-02
         0.29833E-02
         0.32815E-02
         0.32815E-02
         0.42439E-02
         0.35198E-02
         0.37701E-02
         0.42439E-02
         0.37701E-02
         0.37701E-02
         0.30113E-02
         0.32099E-02
         0.42439E-02
         0.32099E-02
         0.24159E-02
         0.30082E-02
         0.32558E-02
         0.26425E-02
         0.27197E-02
         0.42560E-02
         0.36371E-02
         0.42560E-02
         0.32100E-02
         0.29554E-02
         0.34588E-02
         0.32633E-02
         0.37066E-02
         0.32100E-02
         0.30677E-02
         0.35221E-02
         0.26706E-02
         0.26706E-02
         0.24568E-02
         0.27553E-02
         0.42560E-02
         0.35221E-02
         0.42560E-02
         0.34827E-02
         0.27284E-02
         0.31846E-02
         0.32558E-02
         0.27021E-02
         0.27826E-02
         0.27826E-02
         0.27019E-02
         0.31920E-02
         0.31920E-02
         0.37066E-02
         0.36227E-02
         0.28205E-02
         0.31721E-02
         0.33470E-02
         0.33470E-02
         0.32106E-02
         0.29831E-02
         0.32813E-02
         0.27284E-02
         0.30968E-02
         0.31846E-02
         0.32558E-02
         0.32558E-02
         0.30082E-02
         0.27197E-02
         0.27021E-02
         0.27826E-02
         0.27826E-02
         0.27019E-02
         0.31920E-02
         0.31920E-02
         0.32633E-02
         0.34588E-02
         0.37066E-02
         0.37066E-02
         0.36227E-02
         0.28205E-02
         0.29241E-02
         0.32557E-02
         0.32557E-02
         0.32106E-02
         0.29831E-02
         0.32813E-02
         0.32813E-02
         0.42440E-02
         0.35198E-02
         0.37706E-02
         0.42440E-02
         0.37706E-02
         0.37706E-02
         0.30115E-02
         0.32101E-02
         0.42440E-02
         0.32101E-02
         0.24158E-02
         0.30091E-02
         0.32568E-02
         0.26412E-02
         0.27198E-02
         0.42552E-02
         0.36362E-02
         0.42552E-02
         0.32102E-02
         0.29541E-02
         0.34583E-02
         0.32633E-02
         0.37062E-02
         0.32102E-02
         0.30665E-02
         0.35223E-02
         0.26692E-02
         0.26692E-02
         0.24563E-02
         0.27546E-02
         0.42552E-02
         0.35223E-02
         0.42552E-02
         0.34838E-02
         0.27285E-02
         0.31849E-02
         0.32568E-02
         0.27025E-02
         0.27826E-02
         0.27826E-02
         0.27020E-02
         0.31922E-02
         0.31922E-02
         0.37062E-02
         0.36226E-02
         0.28202E-02
         0.31726E-02
         0.33469E-02
         0.33469E-02
         0.32114E-02
         0.29830E-02
         0.32811E-02
         0.27285E-02
         0.30958E-02
         0.31849E-02
         0.32568E-02
         0.32568E-02
         0.30091E-02
         0.27198E-02
         0.27025E-02
         0.27826E-02
         0.27826E-02
         0.27020E-02
         0.31922E-02
         0.31922E-02
         0.32633E-02
         0.34583E-02
         0.37062E-02
         0.37062E-02
         0.36226E-02
         0.28202E-02
         0.29250E-02
         0.32568E-02
         0.32568E-02
         0.32114E-02
         0.29830E-02
         0.32811E-02
         0.32811E-02
         0.42441E-02
         0.35198E-02
         0.37711E-02
         0.42441E-02
         0.37711E-02
         0.37711E-02
         0.30117E-02
         0.32103E-02
         0.42441E-02
         0.32103E-02
         0.24156E-02
         0.30101E-02
         0.32579E-02
         0.26400E-02
         0.27198E-02
         0.42543E-02
         0.36353E-02
         0.42543E-02
         0.32104E-02
         0.29529E-02
         0.34579E-02
         0.32634E-02
         0.37058E-02
         0.32104E-02
         0.30654E-02
         0.35225E-02
         0.26677E-02
         0.26677E-02
         0.24558E-02
         0.27540E-02
         0.42543E-02
         0.35225E-02
         0.42543E-02
         0.34849E-02
         0.27286E-02
         0.31852E-02
         0.32579E-02
         0.27029E-02
         0.27826E-02
         0.27826E-02
         0.27021E-02
         0.31924E-02
         0.31924E-02
         0.37058E-02
         0.36225E-02
         0.28198E-02
         0.31731E-02
         0.33468E-02
         0.33468E-02
         0.32123E-02
         0.29829E-02
         0.32809E-02
         0.27286E-02
         0.30949E-02
         0.31852E-02
         0.32579E-02
         0.32579E-02
         0.30101E-02
         0.27198E-02
         0.27029E-02
         0.27826E-02
         0.27826E-02
         0.27021E-02
         0.31924E-02
         0.31924E-02
         0.32634E-02
         0.34579E-02
         0.37058E-02
         0.37058E-02
         0.36225E-02
         0.28198E-02
         0.29260E-02
         0.32579E-02
         0.32579E-02
         0.32123E-02
         0.29829E-02
         0.32809E-02
         0.32809E-02
         0.42443E-02
         0.35197E-02
         0.37716E-02
         0.42443E-02
         0.37716E-02
         0.37716E-02
         0.30119E-02
         0.32105E-02
         0.42443E-02
         0.32105E-02
         0.24155E-02
         0.30110E-02
         0.32590E-02
         0.26388E-02
         0.27199E-02
         0.42535E-02
         0.36343E-02
         0.42535E-02
         0.32106E-02
         0.29517E-02
         0.34575E-02
         0.32635E-02
         0.37055E-02
         0.32106E-02
         0.30643E-02
         0.35227E-02
         0.26663E-02
         0.26663E-02
         0.24553E-02
         0.27533E-02
         0.42535E-02
         0.35227E-02
         0.42535E-02
         0.34860E-02
         0.27286E-02
         0.31855E-02
         0.32590E-02
         0.27032E-02
         0.27826E-02
         0.27826E-02
         0.27022E-02
         0.31927E-02
         0.31927E-02
         0.37055E-02
         0.36224E-02
         0.28195E-02
         0.31737E-02
         0.33467E-02
         0.33467E-02
         0.32132E-02
         0.29828E-02
         0.32807E-02
         0.27286E-02
         0.30939E-02
         0.31855E-02
         0.32590E-02
         0.32590E-02
         0.30110E-02
         0.27199E-02
         0.27032E-02
         0.27826E-02
         0.27826E-02
         0.27022E-02
         0.31927E-02
         0.31927E-02
         0.32635E-02
         0.34575E-02
         0.37055E-02
         0.37055E-02
         0.36224E-02
         0.28195E-02
         0.29269E-02
         0.32591E-02
         0.32591E-02
         0.32132E-02
         0.29828E-02
         0.32807E-02
         0.32807E-02
         0.42444E-02
         0.35197E-02
         0.37721E-02
         0.42444E-02
         0.37721E-02
         0.37721E-02
         0.30121E-02
         0.32107E-02
         0.42444E-02
         0.32107E-02
         0.24154E-02
         0.30119E-02
         0.32601E-02
         0.26376E-02
         0.27199E-02
         0.42527E-02
         0.36334E-02
         0.42527E-02
         0.32108E-02
         0.29504E-02
         0.34571E-02
         0.32636E-02
         0.37051E-02
         0.32108E-02
         0.30632E-02
         0.35229E-02
         0.26648E-02
         0.26648E-02
         0.24552E-02
         0.27527E-02
         0.42527E-02
         0.35229E-02
         0.42527E-02
         0.34871E-02
         0.27287E-02
         0.31858E-02
         0.32601E-02
         0.27036E-02
         0.27825E-02
         0.27825E-02
         0.27023E-02
         0.31929E-02
         0.31929E-02
         0.37051E-02
         0.36223E-02
         0.28192E-02
         0.31742E-02
         0.33466E-02
         0.33466E-02
         0.32140E-02
         0.29827E-02
         0.32805E-02
         0.27287E-02
         0.30930E-02
         0.31858E-02
         0.32601E-02
         0.32601E-02
         0.30119E-02
         0.27199E-02
         0.27036E-02
         0.27825E-02
         0.27825E-02
         0.27023E-02
         0.31929E-02
         0.31929E-02
         0.32636E-02
         0.34571E-02
         0.37051E-02
         0.37051E-02
         0.36223E-02
         0.28192E-02
         0.29279E-02
         0.32602E-02
         0.32602E-02
         0.32140E-02
         0.29827E-02
         0.32805E-02
         0.32805E-02
         0.42445E-02
         0.35197E-02
         0.37726E-02
         0.42445E-02
         0.37726E-02
         0.37726E-02
         0.30123E-02
         0.32108E-02
         0.42445E-02
         0.32108E-02
         0.24152E-02
         0.30129E-02
         0.32611E-02
         0.26363E-02
         0.27200E-02
         0.42518E-02
         0.36325E-02
         0.42518E-02
         0.32110E-02
         0.29492E-02
         0.34566E-02
         0.32636E-02
         0.37047E-02
         0.32110E-02
         0.30621E-02
         0.35231E-02
         0.26633E-02
         0.26633E-02
         0.24554E-02
         0.27520E-02
         0.42518E-02
         0.35231E-02
         0.42518E-02
         0.34882E-02
         0.27288E-02
         0.31861E-02
         0.32611E-02
         0.27040E-02
         0.27825E-02
         0.27825E-02
         0.27024E-02
         0.31932E-02
         0.31932E-02
         0.37047E-02
         0.36222E-02
         0.28189E-02
         0.31747E-02
         0.33465E-02
         0.33465E-02
         0.32149E-02
         0.29826E-02
         0.32803E-02
         0.27288E-02
         0.30921E-02
         0.31861E-02
         0.32611E-02
         0.32611E-02
         0.30129E-02
         0.27200E-02
         0.27040E-02
         0.27825E-02
         0.27825E-02
         0.27024E-02
         0.31932E-02
         0.31932E-02
         0.32636E-02
         0.34566E-02
         0.37047E-02
         0.37047E-02
         0.36222E-02
         0.28189E-02
         0.29289E-02
         0.32613E-02
         0.32613E-02
         0.32149E-02
         0.29826E-02
         0.32803E-02
         0.32803E-02
         0.42447E-02
         0.35196E-02
         0.37732E-02
         0.42447E-02
         0.37732E-02
         0.37732E-02
         0.30125E-02
         0.32111E-02
         0.42447E-02
         0.32111E-02
         0.24151E-02
         0.30138E-02
         0.32622E-02
         0.26351E-02
         0.27200E-02
         0.42510E-02
         0.36315E-02
         0.42510E-02
         0.32112E-02
         0.29480E-02
         0.34562E-02
         0.32637E-02
         0.37043E-02
         0.32112E-02
         0.30610E-02
         0.35233E-02
         0.26619E-02
         0.26619E-02
         0.24557E-02
         0.27514E-02
         0.42510E-02
         0.35233E-02
         0.42510E-02
         0.34894E-02
         0.27289E-02
         0.31864E-02
         0.32622E-02
         0.27044E-02
         0.27825E-02
         0.27825E-02
         0.27025E-02
         0.31934E-02
         0.31934E-02
         0.37043E-02
         0.36220E-02
         0.28186E-02
         0.31753E-02
         0.33464E-02
         0.33464E-02
         0.32157E-02
         0.29824E-02
         0.32801E-02
         0.27289E-02
         0.30911E-02
         0.31864E-02
         0.32622E-02
         0.32622E-02
         0.30138E-02
         0.27200E-02
         0.27044E-02
         0.27825E-02
         0.27825E-02
         0.27025E-02
         0.31934E-02
         0.31934E-02
         0.32637E-02
         0.34562E-02
         0.37043E-02
         0.37043E-02
         0.36220E-02
         0.28186E-02
         0.29298E-02
         0.32624E-02
         0.32624E-02
         0.32157E-02
         0.29824E-02
         0.32801E-02
         0.32801E-02
         0.42448E-02
         0.35196E-02
         0.37737E-02
         0.42448E-02
         0.37737E-02
         0.37737E-02
         0.30126E-02
         0.32112E-02
         0.42448E-02
         0.32112E-02
         0.24150E-02
         0.30147E-02
         0.32633E-02
         0.26339E-02
         0.27200E-02
         0.42501E-02
         0.36306E-02
         0.42501E-02
         0.32114E-02
         0.29467E-02
         0.34558E-02
         0.32638E-02
         0.37039E-02
         0.32114E-02
         0.30598E-02
         0.35235E-02
         0.26604E-02
         0.26604E-02
         0.24559E-02
         0.27507E-02
         0.42501E-02
         0.35235E-02
         0.42501E-02
         0.34905E-02
         0.27289E-02
         0.31867E-02
         0.32633E-02
         0.27048E-02
         0.27825E-02
         0.27825E-02
         0.27026E-02
         0.31937E-02
         0.31937E-02
         0.37039E-02
         0.36219E-02
         0.28183E-02
         0.31758E-02
         0.33463E-02
         0.33463E-02
         0.32166E-02
         0.29823E-02
         0.32799E-02
         0.27289E-02
         0.30902E-02
         0.31867E-02
         0.32633E-02
         0.32633E-02
         0.30147E-02
         0.27200E-02
         0.27048E-02
         0.27825E-02
         0.27825E-02
         0.27026E-02
         0.31937E-02
         0.31937E-02
         0.32638E-02
         0.34558E-02
         0.37039E-02
         0.37039E-02
         0.36219E-02
         0.28183E-02
         0.29308E-02
         0.32635E-02
         0.32635E-02
         0.32166E-02
         0.29823E-02
         0.32799E-02
         0.32799E-02
         0.42448E-02
         0.35196E-02
         0.37737E-02
         0.42448E-02
         0.37737E-02
         0.37737E-02
         0.30126E-02
         0.32112E-02
         0.42448E-02
         0.32112E-02
         0.24148E-02
         0.30147E-02
         0.32633E-02
         0.26327E-02
         0.27200E-02
         0.42493E-02
         0.36297E-02
         0.42493E-02
         0.32114E-02
         0.29455E-02
         0.34553E-02
         0.32638E-02
         0.37036E-02
         0.32114E-02
         0.30587E-02
         0.35235E-02
         0.26590E-02
         0.26590E-02
         0.24559E-02
         0.27501E-02
         0.42493E-02
         0.35235E-02
         0.42493E-02
         0.34905E-02
         0.27289E-02
         0.31867E-02
         0.32633E-02
         0.27048E-02
         0.27825E-02
         0.27825E-02
         0.27026E-02
         0.31937E-02
         0.31937E-02
         0.37036E-02
         0.36218E-02
         0.28180E-02
         0.31758E-02
         0.33462E-02
         0.33462E-02
         0.32166E-02
         0.29822E-02
         0.32797E-02
         0.27289E-02
         0.30892E-02
         0.31867E-02
         0.32633E-02
         0.32633E-02
         0.30147E-02
         0.27200E-02
         0.27048E-02
         0.27825E-02
         0.27825E-02
         0.27026E-02
         0.31937E-02
         0.31937E-02
         0.32638E-02
         0.34553E-02
         0.37036E-02
         0.37036E-02
         0.36218E-02
         0.28180E-02
         0.29308E-02
         0.32635E-02
         0.32635E-02
         0.32166E-02
         0.29822E-02
         0.32797E-02
         0.32797E-02
  
SCALARS              physical_window_y  double 1
LOOKUP_TABLE default
         0.43155E-02
         0.43155E-02
         0.43155E-02
         0.43155E-02
         0.43155E-02
         0.43155E-02
         0.43155E-02
         0.43155E-02
         0.34883E-02
         0.34883E-02
         0.34882E-02
         0.34882E-02
         0.32826E-02
         0.32142E-02
         0.32826E-02
         0.32142E-02
         0.37863E-02
         0.31884E-02
         0.37863E-02
         0.31884E-02
         0.27172E-02
         0.33887E-02
         0.37164E-02
         0.27172E-02
         0.33887E-02
         0.37164E-02
         0.27582E-02
         0.28966E-02
         0.27582E-02
         0.28954E-02
         0.37007E-02
         0.35859E-02
         0.37863E-02
         0.37007E-02
         0.35824E-02
         0.37863E-02
         0.29875E-02
         0.29875E-02
         0.29867E-02
         0.29867E-02
         0.28561E-02
         0.26860E-02
         0.28556E-02
         0.26852E-02
         0.29518E-02
         0.28068E-02
         0.29517E-02
         0.28066E-02
         0.29975E-02
         0.29949E-02
         0.37007E-02
         0.37007E-02
         0.28693E-02
         0.28693E-02
         0.28693E-02
         0.28693E-02
         0.27602E-02
         0.26193E-02
         0.27602E-02
         0.26193E-02
         0.37007E-02
         0.37007E-02
         0.37007E-02
         0.37007E-02
         0.37685E-02
         0.37665E-02
         0.37685E-02
         0.37665E-02
         0.30230E-02
         0.37003E-02
         0.30229E-02
         0.37003E-02
         0.37164E-02
         0.37164E-02
         0.31934E-02
         0.31921E-02
         0.32777E-02
         0.32771E-02
         0.32777E-02
         0.32771E-02
         0.27006E-02
         0.25920E-02
         0.27006E-02
         0.25920E-02
         0.25916E-02
         0.25916E-02
         0.29715E-02
         0.29715E-02
         0.29715E-02
         0.29715E-02
         0.26477E-02
         0.29102E-02
         0.26477E-02
         0.29102E-02
         0.34085E-02
         0.34085E-02
         0.35350E-02
         0.35350E-02
         0.35350E-02
         0.35350E-02
         0.29766E-02
         0.32272E-02
         0.29763E-02
         0.32254E-02
         0.29087E-02
         0.29835E-02
         0.29087E-02
         0.29825E-02
         0.37003E-02
         0.37003E-02
         0.37164E-02
         0.37164E-02
         0.37164E-02
         0.37164E-02
         0.33887E-02
         0.33887E-02
         0.28966E-02
         0.28954E-02
         0.31934E-02
         0.31921E-02
         0.32777E-02
         0.32771E-02
         0.32777E-02
         0.32771E-02
         0.27006E-02
         0.27006E-02
         0.25920E-02
         0.25920E-02
         0.25916E-02
         0.25916E-02
         0.26860E-02
         0.26852E-02
         0.28561E-02
         0.28556E-02
         0.29518E-02
         0.29517E-02
         0.29715E-02
         0.29715E-02
         0.29715E-02
         0.29715E-02
         0.26477E-02
         0.26477E-02
         0.27685E-02
         0.27685E-02
         0.34085E-02
         0.34085E-02
         0.35350E-02
         0.35350E-02
         0.35350E-02
         0.35350E-02
         0.29766E-02
         0.29763E-02
         0.31381E-02
         0.31368E-02
         0.31381E-02
         0.31368E-02
         0.43153E-02
         0.43153E-02
         0.43153E-02
         0.43153E-02
         0.34883E-02
         0.34883E-02
         0.32812E-02
         0.32132E-02
         0.37858E-02
         0.31880E-02
         0.27155E-02
         0.33883E-02
         0.37163E-02
         0.27535E-02
         0.28978E-02
         0.37004E-02
         0.35894E-02
         0.37858E-02
         0.29882E-02
         0.29882E-02
         0.28566E-02
         0.26867E-02
         0.29519E-02
         0.28071E-02
         0.30001E-02
         0.37004E-02
         0.28667E-02
         0.28667E-02
         0.27589E-02
         0.26183E-02
         0.37004E-02
         0.37004E-02
         0.37706E-02
         0.37706E-02
         0.30232E-02
         0.36991E-02
         0.37163E-02
         0.31947E-02
         0.32784E-02
         0.32784E-02
         0.27006E-02
         0.25920E-02
         0.25909E-02
         0.29715E-02
         0.29715E-02
         0.26476E-02
         0.29101E-02
         0.34078E-02
         0.35344E-02
         0.35344E-02
         0.29769E-02
         0.32290E-02
         0.29059E-02
         0.29845E-02
         0.36991E-02
         0.37163E-02
         0.37163E-02
         0.33883E-02
         0.28978E-02
         0.31947E-02
         0.32784E-02
         0.32784E-02
         0.27006E-02
         0.25920E-02
         0.25909E-02
         0.26867E-02
         0.28566E-02
         0.29519E-02
         0.29715E-02
         0.29715E-02
         0.26476E-02
         0.27685E-02
         0.34078E-02
         0.35344E-02
         0.35344E-02
         0.29769E-02
         0.31395E-02
         0.31395E-02
         0.43150E-02
         0.43150E-02
         0.43150E-02
         0.43150E-02
         0.34884E-02
         0.34884E-02
         0.32798E-02
         0.32122E-02
         0.37853E-02
         0.31876E-02
         0.27137E-02
         0.33879E-02
         0.37162E-02
         0.27488E-02
         0.28990E-02
         0.37001E-02
         0.35930E-02
         0.37853E-02
         0.29889E-02
         0.29889E-02
         0.28571E-02
         0.26875E-02
         0.29521E-02
         0.28074E-02
         0.30027E-02
         0.37001E-02
         0.28641E-02
         0.28641E-02
         0.27576E-02
         0.26173E-02
         0.37001E-02
         0.37001E-02
         0.37727E-02
         0.37727E-02
         0.30234E-02
         0.36979E-02
         0.37162E-02
         0.31960E-02
         0.32790E-02
         0.32790E-02
         0.27006E-02
         0.25920E-02
         0.25902E-02
         0.29715E-02
         0.29715E-02
         0.26476E-02
         0.29100E-02
         0.34071E-02
         0.35339E-02
         0.35339E-02
         0.29772E-02
         0.32307E-02
         0.29032E-02
         0.29855E-02
         0.36979E-02
         0.37162E-02
         0.37162E-02
         0.33879E-02
         0.28990E-02
         0.31960E-02
         0.32790E-02
         0.32790E-02
         0.27006E-02
         0.25920E-02
         0.25902E-02
         0.26875E-02
         0.28571E-02
         0.29521E-02
         0.29715E-02
         0.29715E-02
         0.26476E-02
         0.27684E-02
         0.34071E-02
         0.35339E-02
         0.35339E-02
         0.29772E-02
         0.31408E-02
         0.31408E-02
         0.43148E-02
         0.43148E-02
         0.43148E-02
         0.43148E-02
         0.34885E-02
         0.34885E-02
         0.32783E-02
         0.32112E-02
         0.37849E-02
         0.31872E-02
         0.27120E-02
         0.33875E-02
         0.37161E-02
         0.27441E-02
         0.29003E-02
         0.36998E-02
         0.35965E-02
         0.37849E-02
         0.29896E-02
         0.29896E-02
         0.28575E-02
         0.26882E-02
         0.29522E-02
         0.28077E-02
         0.30053E-02
         0.36998E-02
         0.28615E-02
         0.28615E-02
         0.27563E-02
         0.26163E-02
         0.36998E-02
         0.36998E-02
         0.37747E-02
         0.37747E-02
         0.30236E-02
         0.36967E-02
         0.37161E-02
         0.31973E-02
         0.32796E-02
         0.32796E-02
         0.27006E-02
         0.25920E-02
         0.25895E-02
         0.29714E-02
         0.29714E-02
         0.26475E-02
         0.29099E-02
         0.34063E-02
         0.35333E-02
         0.35333E-02
         0.29775E-02
         0.32325E-02
         0.29004E-02
         0.29865E-02
         0.36967E-02
         0.37161E-02
         0.37161E-02
         0.33875E-02
         0.29003E-02
         0.31973E-02
         0.32796E-02
         0.32796E-02
         0.27006E-02
         0.25920E-02
         0.25895E-02
         0.26882E-02
         0.28575E-02
         0.29522E-02
         0.29714E-02
         0.29714E-02
         0.26475E-02
         0.27684E-02
         0.34063E-02
         0.35333E-02
         0.35333E-02
         0.29775E-02
         0.31422E-02
         0.31422E-02
         0.43145E-02
         0.43145E-02
         0.43145E-02
         0.43145E-02
         0.34886E-02
         0.34886E-02
         0.32769E-02
         0.32102E-02
         0.37844E-02
         0.31868E-02
         0.27103E-02
         0.33871E-02
         0.37160E-02
         0.27394E-02
         0.29015E-02
         0.36995E-02
         0.36000E-02
         0.37844E-02
         0.29903E-02
         0.29903E-02
         0.28580E-02
         0.26890E-02
         0.29523E-02
         0.28079E-02
         0.30079E-02
         0.36995E-02
         0.28589E-02
         0.28589E-02
         0.27550E-02
         0.26152E-02
         0.36995E-02
         0.36995E-02
         0.37768E-02
         0.37768E-02
         0.30238E-02
         0.36956E-02
         0.37160E-02
         0.31986E-02
         0.32802E-02
         0.32802E-02
         0.27006E-02
         0.25920E-02
         0.25887E-02
         0.29714E-02
         0.29714E-02
         0.26475E-02
         0.29098E-02
         0.34056E-02
         0.35327E-02
         0.35327E-02
         0.29778E-02
         0.32342E-02
         0.28977E-02
         0.29875E-02
         0.36956E-02
         0.37160E-02
         0.37160E-02
         0.33871E-02
         0.29015E-02
         0.31986E-02
         0.32802E-02
         0.32802E-02
         0.27006E-02
         0.25920E-02
         0.25887E-02
         0.26890E-02
         0.28580E-02
         0.29523E-02
         0.29714E-02
         0.29714E-02
         0.26475E-02
         0.27683E-02
         0.34056E-02
         0.35327E-02
         0.35327E-02
         0.29778E-02
         0.31435E-02
         0.31435E-02
         0.43143E-02
         0.43143E-02
         0.43143E-02
         0.43143E-02
         0.34887E-02
         0.34887E-02
         0.32755E-02
         0.32091E-02
         0.37839E-02
         0.31864E-02
         0.27086E-02
         0.33867E-02
         0.37159E-02
         0.27347E-02
         0.29027E-02
         0.36991E-02
         0.36036E-02
         0.37839E-02
         0.29920E-02
         0.29920E-02
         0.28585E-02
         0.26897E-02
         0.29525E-02
         0.28082E-02
         0.30105E-02
         0.36991E-02
         0.28563E-02
         0.28563E-02
         0.27537E-02
         0.26142E-02
         0.36991E-02
         0.36991E-02
         0.37789E-02
         0.37789E-02
         0.30240E-02
         0.36944E-02
         0.37159E-02
         0.31999E-02
         0.32808E-02
         0.32808E-02
         0.27006E-02
         0.25920E-02
         0.25880E-02
         0.29714E-02
         0.29714E-02
         0.26474E-02
         0.29097E-02
         0.34049E-02
         0.35322E-02
         0.35322E-02
         0.29781E-02
         0.32360E-02
         0.28949E-02
         0.29885E-02
         0.36944E-02
         0.37159E-02
         0.37159E-02
         0.33867E-02
         0.29027E-02
         0.31999E-02
         0.32808E-02
         0.32808E-02
         0.27006E-02
         0.25920E-02
         0.25880E-02
         0.26897E-02
         0.28585E-02
         0.29525E-02
         0.29714E-02
         0.29714E-02
         0.26474E-02
         0.27683E-02
         0.34049E-02
         0.35322E-02
         0.35322E-02
         0.29781E-02
         0.31449E-02
         0.31449E-02
         0.43140E-02
         0.43140E-02
         0.43140E-02
         0.43140E-02
         0.34888E-02
         0.34888E-02
         0.32740E-02
         0.32081E-02
         0.37834E-02
         0.31860E-02
         0.27069E-02
         0.33863E-02
         0.37158E-02
         0.27299E-02
         0.29039E-02
         0.36988E-02
         0.36071E-02
         0.37834E-02
         0.29946E-02
         0.29946E-02
         0.28589E-02
         0.26905E-02
         0.29526E-02
         0.28085E-02
         0.30131E-02
         0.36988E-02
         0.28538E-02
         0.28538E-02
         0.27524E-02
         0.26132E-02
         0.36988E-02
         0.36988E-02
         0.37809E-02
         0.37809E-02
         0.30241E-02
         0.36932E-02
         0.37158E-02
         0.32012E-02
         0.32814E-02
         0.32814E-02
         0.27006E-02
         0.25920E-02
         0.25873E-02
         0.29714E-02
         0.29714E-02
         0.26473E-02
         0.29097E-02
         0.34041E-02
         0.35316E-02
         0.35316E-02
         0.29784E-02
         0.32378E-02
         0.28921E-02
         0.29895E-02
         0.36932E-02
         0.37158E-02
         0.37158E-02
         0.33863E-02
         0.29039E-02
         0.32012E-02
         0.32814E-02
         0.32814E-02
         0.27006E-02
         0.25920E-02
         0.25873E-02
         0.26905E-02
         0.28589E-02
         0.29526E-02
         0.29714E-02
         0.29714E-02
         0.26473E-02
         0.27683E-02
         0.34041E-02
         0.35316E-02
         0.35316E-02
         0.29784E-02
         0.31463E-02
         0.31463E-02
         0.43138E-02
         0.43138E-02
         0.43138E-02
         0.43138E-02
         0.34888E-02
         0.34888E-02
         0.32726E-02
         0.32071E-02
         0.37830E-02
         0.31856E-02
         0.27051E-02
         0.33859E-02
         0.37157E-02
         0.27252E-02
         0.29051E-02
         0.36985E-02
         0.36106E-02
         0.37830E-02
         0.29972E-02
         0.29972E-02
         0.28594E-02
         0.26912E-02
         0.29528E-02
         0.28087E-02
         0.30156E-02
         0.36985E-02
         0.28512E-02
         0.28512E-02
         0.27512E-02
         0.26122E-02
         0.36985E-02
         0.36985E-02
         0.37830E-02
         0.37830E-02
         0.30243E-02
         0.36920E-02
         0.37157E-02
         0.32025E-02
         0.32821E-02
         0.32821E-02
         0.27006E-02
         0.25920E-02
         0.25866E-02
         0.29714E-02
         0.29714E-02
         0.26473E-02
         0.29096E-02
         0.34034E-02
         0.35310E-02
         0.35310E-02
         0.29787E-02
         0.32396E-02
         0.28894E-02
         0.29905E-02
         0.36920E-02
         0.37157E-02
         0.37157E-02
         0.33859E-02
         0.29051E-02
         0.32025E-02
         0.32821E-02
         0.32821E-02
         0.27006E-02
         0.25920E-02
         0.25866E-02
         0.26912E-02
         0.28594E-02
         0.29528E-02
         0.29714E-02
         0.29714E-02
         0.26473E-02
         0.27682E-02
         0.34034E-02
         0.35310E-02
         0.35310E-02
         0.29787E-02
         0.31476E-02
         0.31476E-02
         0.43135E-02
         0.43135E-02
         0.43135E-02
         0.43135E-02
         0.34889E-02
         0.34889E-02
         0.32712E-02
         0.32061E-02
         0.37825E-02
         0.31852E-02
         0.27034E-02
         0.33856E-02
         0.37156E-02
         0.27205E-02
         0.29063E-02
         0.36982E-02
         0.36142E-02
         0.37851E-02
         0.29998E-02
         0.29998E-02
         0.28599E-02
         0.26920E-02
         0.29529E-02
         0.28090E-02
         0.30182E-02
         0.36982E-02
         0.28486E-02
         0.28486E-02
         0.27499E-02
         0.26112E-02
         0.36982E-02
         0.36982E-02
         0.37851E-02
         0.37851E-02
         0.30245E-02
         0.36908E-02
         0.37156E-02
         0.32038E-02
         0.32827E-02
         0.32827E-02
         0.27006E-02
         0.25920E-02
         0.25859E-02
         0.29714E-02
         0.29714E-02
         0.26472E-02
         0.29095E-02
         0.34027E-02
         0.35304E-02
         0.35304E-02
         0.29790E-02
         0.32413E-02
         0.28866E-02
         0.29915E-02
         0.36908E-02
         0.37156E-02
         0.37156E-02
         0.33856E-02
         0.29063E-02
         0.32038E-02
         0.32827E-02
         0.32827E-02
         0.27006E-02
         0.25920E-02
         0.25859E-02
         0.26920E-02
         0.28599E-02
         0.29529E-02
         0.29714E-02
         0.29714E-02
         0.26472E-02
         0.27682E-02
         0.34027E-02
         0.35304E-02
         0.35304E-02
         0.29790E-02
         0.31490E-02
         0.31490E-02
         0.43133E-02
         0.43133E-02
         0.43133E-02
         0.43133E-02
         0.34890E-02
         0.34890E-02
         0.32698E-02
         0.32051E-02
         0.37820E-02
         0.31848E-02
         0.27017E-02
         0.33851E-02
         0.37155E-02
         0.27158E-02
         0.29075E-02
         0.36979E-02
         0.36177E-02
         0.37871E-02
         0.30024E-02
         0.30024E-02
         0.28603E-02
         0.26927E-02
         0.29530E-02
         0.28093E-02
         0.30208E-02
         0.36979E-02
         0.28460E-02
         0.28460E-02
         0.27486E-02
         0.26101E-02
         0.36979E-02
         0.36979E-02
         0.37871E-02
         0.37871E-02
         0.30247E-02
         0.36896E-02
         0.37155E-02
         0.32051E-02
         0.32833E-02
         0.32833E-02
         0.27006E-02
         0.25920E-02
         0.25851E-02
         0.29714E-02
         0.29714E-02
         0.26472E-02
         0.29094E-02
         0.34019E-02
         0.35299E-02
         0.35299E-02
         0.29793E-02
         0.32431E-02
         0.28838E-02
         0.29925E-02
         0.36896E-02
         0.37155E-02
         0.37155E-02
         0.33851E-02
         0.29075E-02
         0.32051E-02
         0.32833E-02
         0.32833E-02
         0.27006E-02
         0.25920E-02
         0.25851E-02
         0.26927E-02
         0.28603E-02
         0.29530E-02
         0.29714E-02
         0.29714E-02
         0.26472E-02
         0.27681E-02
         0.34019E-02
         0.35299E-02
         0.35299E-02
         0.29793E-02
         0.31503E-02
         0.31503E-02
         0.43130E-02
         0.43130E-02
         0.43130E-02
         0.43130E-02
         0.34891E-02
         0.34891E-02
         0.32683E-02
         0.32041E-02
         0.37816E-02
         0.31844E-02
         0.27000E-02
         0.33848E-02
         0.37154E-02
         0.27111E-02
         0.29087E-02
         0.36976E-02
         0.36213E-02
         0.37892E-02
         0.30050E-02
         0.30050E-02
         0.28608E-02
         0.26935E-02
         0.29532E-02
         0.28096E-02
         0.30234E-02
         0.36976E-02
         0.28434E-02
         0.28434E-02
         0.27472E-02
         0.26091E-02
         0.36976E-02
         0.36976E-02
         0.37892E-02
         0.37892E-02
         0.30249E-02
         0.36885E-02
         0.37154E-02
         0.32064E-02
         0.32839E-02
         0.32839E-02
         0.27006E-02
         0.25920E-02
         0.25844E-02
         0.29714E-02
         0.29714E-02
         0.26471E-02
         0.29094E-02
         0.34012E-02
         0.35293E-02
         0.35293E-02
         0.29797E-02
         0.32449E-02
         0.28811E-02
         0.29935E-02
         0.36885E-02
         0.37154E-02
         0.37154E-02
         0.33848E-02
         0.29087E-02
         0.32064E-02
         0.32839E-02
         0.32839E-02
         0.27006E-02
         0.25920E-02
         0.25844E-02
         0.26935E-02
         0.28608E-02
         0.29532E-02
         0.29714E-02
         0.29714E-02
         0.26471E-02
         0.27681E-02
         0.34012E-02
         0.35293E-02
         0.35293E-02
         0.29797E-02
         0.31517E-02
         0.31517E-02
         0.43128E-02
         0.43128E-02
         0.43128E-02
         0.43128E-02
         0.34892E-02
         0.34892E-02
         0.32669E-02
         0.32031E-02
         0.37811E-02
         0.31840E-02
         0.26982E-02
         0.33844E-02
         0.37152E-02
         0.27063E-02
         0.29099E-02
         0.36973E-02
         0.36248E-02
         0.37913E-02
         0.30076E-02
         0.30076E-02
         0.28613E-02
         0.26942E-02
         0.29533E-02
         0.28099E-02
         0.30260E-02
         0.36973E-02
         0.28408E-02
         0.28408E-02
         0.27460E-02
         0.26081E-02
         0.36973E-02
         0.36973E-02
         0.37913E-02
         0.37913E-02
         0.30250E-02
         0.36873E-02
         0.37152E-02
         0.32077E-02
         0.32845E-02
         0.32845E-02
         0.27006E-02
         0.25920E-02
         0.25837E-02
         0.29714E-02
         0.29714E-02
         0.26471E-02
         0.29093E-02
         0.34005E-02
         0.35287E-02
         0.35287E-02
         0.29800E-02
         0.32467E-02
         0.28783E-02
         0.29945E-02
         0.36873E-02
         0.37152E-02
         0.37152E-02
         0.33844E-02
         0.29099E-02
         0.32077E-02
         0.32845E-02
         0.32845E-02
         0.27006E-02
         0.25920E-02
         0.25837E-02
         0.26942E-02
         0.28613E-02
         0.29533E-02
         0.29714E-02
         0.29714E-02
         0.26471E-02
         0.27681E-02
         0.34005E-02
         0.35287E-02
         0.35287E-02
         0.29800E-02
         0.31530E-02
         0.31530E-02
         0.43125E-02
         0.43125E-02
         0.43125E-02
         0.43125E-02
         0.34893E-02
         0.34893E-02
         0.32655E-02
         0.32021E-02
         0.37806E-02
         0.31836E-02
         0.26965E-02
         0.33840E-02
         0.37151E-02
         0.27016E-02
         0.29111E-02
         0.36969E-02
         0.36283E-02
         0.37933E-02
         0.30102E-02
         0.30102E-02
         0.28617E-02
         0.26950E-02
         0.29535E-02
         0.28101E-02
         0.30286E-02
         0.36969E-02
         0.28382E-02
         0.28382E-02
         0.27447E-02
         0.26071E-02
         0.36969E-02
         0.36969E-02
         0.37933E-02
         0.37933E-02
         0.30252E-02
         0.36861E-02
         0.37151E-02
         0.32090E-02
         0.32852E-02
         0.32852E-02
         0.27006E-02
         0.25920E-02
         0.25830E-02
         0.29714E-02
         0.29714E-02
         0.26470E-02
         0.29092E-02
         0.33997E-02
         0.35282E-02
         0.35282E-02
         0.29803E-02
         0.32484E-02
         0.28755E-02
         0.29955E-02
         0.36861E-02
         0.37151E-02
         0.37151E-02
         0.33840E-02
         0.29111E-02
         0.32090E-02
         0.32852E-02
         0.32852E-02
         0.27006E-02
         0.25920E-02
         0.25830E-02
         0.26950E-02
         0.28617E-02
         0.29535E-02
         0.29714E-02
         0.29714E-02
         0.26470E-02
         0.27680E-02
         0.33997E-02
         0.35282E-02
         0.35282E-02
         0.29803E-02
         0.31544E-02
         0.31544E-02
         0.43123E-02
         0.43123E-02
         0.43123E-02
         0.43123E-02
         0.34893E-02
         0.34893E-02
         0.32640E-02
         0.32011E-02
         0.37801E-02
         0.31832E-02
         0.26948E-02
         0.33836E-02
         0.37150E-02
         0.26969E-02
         0.29123E-02
         0.36966E-02
         0.36319E-02
         0.37954E-02
         0.30128E-02
         0.30128E-02
         0.28622E-02
         0.26957E-02
         0.29536E-02
         0.28104E-02
         0.30312E-02
         0.36966E-02
         0.28357E-02
         0.28357E-02
         0.27434E-02
         0.26061E-02
         0.36966E-02
         0.36966E-02
         0.37954E-02
         0.37954E-02
         0.30254E-02
         0.36849E-02
         0.37150E-02
         0.32103E-02
         0.32858E-02
         0.32858E-02
         0.27006E-02
         0.25920E-02
         0.25823E-02
         0.29714E-02
         0.29714E-02
         0.26470E-02
         0.29091E-02
         0.33990E-02
         0.35276E-02
         0.35276E-02
         0.29806E-02
         0.32502E-02
         0.28728E-02
         0.29965E-02
         0.36849E-02
         0.37150E-02
         0.37150E-02
         0.33836E-02
         0.29123E-02
         0.32103E-02
         0.32858E-02
         0.32858E-02
         0.27006E-02
         0.25920E-02
         0.25823E-02
         0.26957E-02
         0.28622E-02
         0.29536E-02
         0.29714E-02
         0.29714E-02
         0.26470E-02
         0.27680E-02
         0.33990E-02
         0.35276E-02
         0.35276E-02
         0.29806E-02
         0.31557E-02
         0.31557E-02
         0.43120E-02
         0.43120E-02
         0.43120E-02
         0.43120E-02
         0.34894E-02
         0.34894E-02
         0.32626E-02
         0.32001E-02
         0.37797E-02
         0.31828E-02
         0.26931E-02
         0.33832E-02
         0.37149E-02
         0.26922E-02
         0.29135E-02
         0.36963E-02
         0.36354E-02
         0.37975E-02
         0.30154E-02
         0.30154E-02
         0.28627E-02
         0.26965E-02
         0.29537E-02
         0.28107E-02
         0.30338E-02
         0.36963E-02
         0.28331E-02
         0.28331E-02
         0.27421E-02
         0.26051E-02
         0.36963E-02
         0.36963E-02
         0.37975E-02
         0.37975E-02
         0.30256E-02
         0.36838E-02
         0.37149E-02
         0.32116E-02
         0.32864E-02
         0.32864E-02
         0.27006E-02
         0.25920E-02
         0.25815E-02
         0.29714E-02
         0.29714E-02
         0.26469E-02
         0.29090E-02
         0.33983E-02
         0.35270E-02
         0.35270E-02
         0.29809E-02
         0.32519E-02
         0.28700E-02
         0.29975E-02
         0.36838E-02
         0.37149E-02
         0.37149E-02
         0.33832E-02
         0.29135E-02
         0.32116E-02
         0.32864E-02
         0.32864E-02
         0.27006E-02
         0.25920E-02
         0.25815E-02
         0.26965E-02
         0.28627E-02
         0.29537E-02
         0.29714E-02
         0.29714E-02
         0.26469E-02
         0.27680E-02
         0.33983E-02
         0.35270E-02
         0.35270E-02
         0.29809E-02
         0.31571E-02
         0.31571E-02
         0.43118E-02
         0.43118E-02
         0.43118E-02
         0.43118E-02
         0.34895E-02
         0.34895E-02
         0.32612E-02
         0.31990E-02
         0.37792E-02
         0.31824E-02
         0.26913E-02
         0.33828E-02
         0.37148E-02
         0.26875E-02
         0.29148E-02
         0.36960E-02
         0.36390E-02
         0.37995E-02
         0.30180E-02
         0.30180E-02
         0.28631E-02
         0.26972E-02
         0.29539E-02
         0.28110E-02
         0.30364E-02
         0.36960E-02
         0.28305E-02
         0.28305E-02
         0.27408E-02
         0.26040E-02
         0.36960E-02
         0.36960E-02
         0.37995E-02
         0.37995E-02
         0.30258E-02
         0.36826E-02
         0.37148E-02
         0.32129E-02
         0.32870E-02
         0.32870E-02
         0.27006E-02
         0.25920E-02
         0.25808E-02
         0.29713E-02
         0.29713E-02
         0.26468E-02
         0.29089E-02
         0.33975E-02
         0.35264E-02
         0.35264E-02
         0.29812E-02
         0.32537E-02
         0.28672E-02
         0.29985E-02
         0.36826E-02
         0.37148E-02
         0.37148E-02
         0.33828E-02
         0.29148E-02
         0.32129E-02
         0.32870E-02
         0.32870E-02
         0.27006E-02
         0.25920E-02
         0.25808E-02
         0.26972E-02
         0.28631E-02
         0.29539E-02
         0.29713E-02
         0.29713E-02
         0.26468E-02
         0.27679E-02
         0.33975E-02
         0.35264E-02
         0.35264E-02
         0.29812E-02
         0.31585E-02
         0.31585E-02
         0.43115E-02
         0.43115E-02
         0.43115E-02
         0.43115E-02
         0.34896E-02
         0.34896E-02
         0.32597E-02
         0.31980E-02
         0.37787E-02
         0.31820E-02
         0.26896E-02
         0.33824E-02
         0.37147E-02
         0.26827E-02
         0.29160E-02
         0.36957E-02
         0.36425E-02
         0.38016E-02
         0.30206E-02
         0.30206E-02
         0.28636E-02
         0.26980E-02
         0.29540E-02
         0.28112E-02
         0.30390E-02
         0.36957E-02
         0.28279E-02
         0.28279E-02
         0.27395E-02
         0.26030E-02
         0.36957E-02
         0.36957E-02
         0.38016E-02
         0.38016E-02
         0.30260E-02
         0.36814E-02
         0.37147E-02
         0.32141E-02
         0.32876E-02
         0.32876E-02
         0.27006E-02
         0.25920E-02
         0.25801E-02
         0.29713E-02
         0.29713E-02
         0.26468E-02
         0.29089E-02
         0.33968E-02
         0.35259E-02
         0.35259E-02
         0.29815E-02
         0.32555E-02
         0.28645E-02
         0.29995E-02
         0.36814E-02
         0.37147E-02
         0.37147E-02
         0.33824E-02
         0.29160E-02
         0.32141E-02
         0.32876E-02
         0.32876E-02
         0.27006E-02
         0.25920E-02
         0.25801E-02
         0.26980E-02
         0.28636E-02
         0.29540E-02
         0.29713E-02
         0.29713E-02
         0.26468E-02
         0.27679E-02
         0.33968E-02
         0.35259E-02
         0.35259E-02
         0.29815E-02
         0.31598E-02
         0.31598E-02
         0.43113E-02
         0.43113E-02
         0.43113E-02
         0.43113E-02
         0.34897E-02
         0.34897E-02
         0.32583E-02
         0.31970E-02
         0.37783E-02
         0.31816E-02
         0.26879E-02
         0.33820E-02
         0.37146E-02
         0.26780E-02
         0.29172E-02
         0.36954E-02
         0.36460E-02
         0.38037E-02
         0.30232E-02
         0.30232E-02
         0.28641E-02
         0.26987E-02
         0.29542E-02
         0.28115E-02
         0.30416E-02
         0.36954E-02
         0.28253E-02
         0.28253E-02
         0.27382E-02
         0.26020E-02
         0.36954E-02
         0.36954E-02
         0.38037E-02
         0.38037E-02
         0.30261E-02
         0.36802E-02
         0.37146E-02
         0.32154E-02
         0.32882E-02
         0.32882E-02
         0.27006E-02
         0.25921E-02
         0.25794E-02
         0.29713E-02
         0.29713E-02
         0.26467E-02
         0.29088E-02
         0.33961E-02
         0.35253E-02
         0.35253E-02
         0.29818E-02
         0.32573E-02
         0.28617E-02
         0.30005E-02
         0.36802E-02
         0.37146E-02
         0.37146E-02
         0.33820E-02
         0.29172E-02
         0.32154E-02
         0.32882E-02
         0.32882E-02
         0.27006E-02
         0.25921E-02
         0.25794E-02
         0.26987E-02
         0.28641E-02
         0.29542E-02
         0.29713E-02
         0.29713E-02
         0.26467E-02
         0.27678E-02
         0.33961E-02
         0.35253E-02
         0.35253E-02
         0.29818E-02
         0.31612E-02
         0.31612E-02
         0.43110E-02
         0.43110E-02
         0.43110E-02
         0.43110E-02
         0.34898E-02
         0.34898E-02
         0.32569E-02
         0.31960E-02
         0.37778E-02
         0.31812E-02
         0.26862E-02
         0.33816E-02
         0.37145E-02
         0.26733E-02
         0.29184E-02
         0.36950E-02
         0.36495E-02
         0.38057E-02
         0.30258E-02
         0.30258E-02
         0.28645E-02
         0.26995E-02
         0.29543E-02
         0.28118E-02
         0.30442E-02
         0.36950E-02
         0.28227E-02
         0.28227E-02
         0.27369E-02
         0.26010E-02
         0.36950E-02
         0.36950E-02
         0.38057E-02
         0.38057E-02
         0.30263E-02
         0.36790E-02
         0.37145E-02
         0.32167E-02
         0.32889E-02
         0.32889E-02
         0.27006E-02
         0.25921E-02
         0.25787E-02
         0.29713E-02
         0.29713E-02
         0.26467E-02
         0.29087E-02
         0.33953E-02
         0.35247E-02
         0.35247E-02
         0.29821E-02
         0.32590E-02
         0.28589E-02
         0.30015E-02
         0.36790E-02
         0.37145E-02
         0.37145E-02
         0.33816E-02
         0.29184E-02
         0.32167E-02
         0.32889E-02
         0.32889E-02
         0.27006E-02
         0.25921E-02
         0.25787E-02
         0.26995E-02
         0.28645E-02
         0.29543E-02
         0.29713E-02
         0.29713E-02
         0.26467E-02
         0.27678E-02
         0.33953E-02
         0.35247E-02
         0.35247E-02
         0.29821E-02
         0.31625E-02
         0.31625E-02
         0.43108E-02
         0.43108E-02
         0.43108E-02
         0.43108E-02
         0.34898E-02
         0.34898E-02
         0.32555E-02
         0.31950E-02
         0.37773E-02
         0.31808E-02
         0.26845E-02
         0.33812E-02
         0.37144E-02
         0.26686E-02
         0.29196E-02
         0.36948E-02
         0.36531E-02
         0.38078E-02
         0.30285E-02
         0.30285E-02
         0.28650E-02
         0.27002E-02
         0.29544E-02
         0.28120E-02
         0.30467E-02
         0.36948E-02
         0.28201E-02
         0.28201E-02
         0.27356E-02
         0.26000E-02
         0.36948E-02
         0.36948E-02
         0.38078E-02
         0.38078E-02
         0.30265E-02
         0.36779E-02
         0.37144E-02
         0.32181E-02
         0.32895E-02
         0.32895E-02
         0.27006E-02
         0.25921E-02
         0.25779E-02
         0.29713E-02
         0.29713E-02
         0.26466E-02
         0.29086E-02
         0.33946E-02
         0.35242E-02
         0.35242E-02
         0.29824E-02
         0.32608E-02
         0.28562E-02
         0.30025E-02
         0.36779E-02
         0.37144E-02
         0.37144E-02
         0.33812E-02
         0.29196E-02
         0.32181E-02
         0.32895E-02
         0.32895E-02
         0.27006E-02
         0.25921E-02
         0.25779E-02
         0.27002E-02
         0.28650E-02
         0.29544E-02
         0.29713E-02
         0.29713E-02
         0.26466E-02
         0.27678E-02
         0.33946E-02
         0.35242E-02
         0.35242E-02
         0.29824E-02
         0.31639E-02
         0.31639E-02
         0.43105E-02
         0.43105E-02
         0.43105E-02
         0.43105E-02
         0.34899E-02
         0.34899E-02
         0.32540E-02
         0.31940E-02
         0.37768E-02
         0.31804E-02
         0.26827E-02
         0.33808E-02
         0.37143E-02
         0.26639E-02
         0.29208E-02
         0.36944E-02
         0.36566E-02
         0.38099E-02
         0.30311E-02
         0.30311E-02
         0.28655E-02
         0.27010E-02
         0.29546E-02
         0.28123E-02
         0.30493E-02
         0.36944E-02
         0.28175E-02
         0.28175E-02
         0.27343E-02
         0.25990E-02
         0.36944E-02
         0.36944E-02
         0.38099E-02
         0.38099E-02
         0.30267E-02
         0.36767E-02
         0.37143E-02
         0.32193E-02
         0.32901E-02
         0.32901E-02
         0.27006E-02
         0.25921E-02
         0.25772E-02
         0.29713E-02
         0.29713E-02
         0.26466E-02
         0.29085E-02
         0.33939E-02
         0.35236E-02
         0.35236E-02
         0.29827E-02
         0.32626E-02
         0.28534E-02
         0.30035E-02
         0.36767E-02
         0.37143E-02
         0.37143E-02
         0.33808E-02
         0.29208E-02
         0.32193E-02
         0.32901E-02
         0.32901E-02
         0.27006E-02
         0.25921E-02
         0.25772E-02
         0.27010E-02
         0.28655E-02
         0.29546E-02
         0.29713E-02
         0.29713E-02
         0.26466E-02
         0.27677E-02
         0.33939E-02
         0.35236E-02
         0.35236E-02
         0.29827E-02
         0.31652E-02
         0.31652E-02
         0.43103E-02
         0.43103E-02
         0.43103E-02
         0.43103E-02
         0.34900E-02
         0.34900E-02
         0.32526E-02
         0.31930E-02
         0.37764E-02
         0.31800E-02
         0.26810E-02
         0.33804E-02
         0.37142E-02
         0.26591E-02
         0.29220E-02
         0.36941E-02
         0.36602E-02
         0.38119E-02
         0.30337E-02
         0.30337E-02
         0.28660E-02
         0.27017E-02
         0.29547E-02
         0.28126E-02
         0.30519E-02
         0.36941E-02
         0.28150E-02
         0.28150E-02
         0.27330E-02
         0.25979E-02
         0.36941E-02
         0.36941E-02
         0.38119E-02
         0.38119E-02
         0.30269E-02
         0.36755E-02
         0.37142E-02
         0.32206E-02
         0.32907E-02
         0.32907E-02
         0.27006E-02
         0.25921E-02
         0.25765E-02
         0.29713E-02
         0.29713E-02
         0.26465E-02
         0.29085E-02
         0.33931E-02
         0.35230E-02
         0.35230E-02
         0.29830E-02
         0.32643E-02
         0.28507E-02
         0.30045E-02
         0.36755E-02
         0.37142E-02
         0.37142E-02
         0.33804E-02
         0.29220E-02
         0.32206E-02
         0.32907E-02
         0.32907E-02
         0.27006E-02
         0.25921E-02
         0.25765E-02
         0.27017E-02
         0.28660E-02
         0.29547E-02
         0.29713E-02
         0.29713E-02
         0.26465E-02
         0.27677E-02
         0.33931E-02
         0.35230E-02
         0.35230E-02
         0.29830E-02
         0.31666E-02
         0.31666E-02
         0.43100E-02
         0.43100E-02
         0.43100E-02
         0.43100E-02
         0.34901E-02
         0.34901E-02
         0.32512E-02
         0.31920E-02
         0.37759E-02
         0.31796E-02
         0.26793E-02
         0.33800E-02
         0.37141E-02
         0.26544E-02
         0.29232E-02
         0.36938E-02
         0.36637E-02
         0.38140E-02
         0.30363E-02
         0.30363E-02
         0.28664E-02
         0.27025E-02
         0.29548E-02
         0.28129E-02
         0.30545E-02
         0.36938E-02
         0.28124E-02
         0.28124E-02
         0.27317E-02
         0.25969E-02
         0.36938E-02
         0.36938E-02
         0.38140E-02
         0.38140E-02
         0.30271E-02
         0.36743E-02
         0.37141E-02
         0.32219E-02
         0.32913E-02
         0.32913E-02
         0.27006E-02
         0.25921E-02
         0.25758E-02
         0.29713E-02
         0.29713E-02
         0.26465E-02
         0.29084E-02
         0.33924E-02
         0.35224E-02
         0.35224E-02
         0.29833E-02
         0.32661E-02
         0.28479E-02
         0.30055E-02
         0.36743E-02
         0.37141E-02
         0.37141E-02
         0.33800E-02
         0.29232E-02
         0.32219E-02
         0.32913E-02
         0.32913E-02
         0.27006E-02
         0.25921E-02
         0.25758E-02
         0.27025E-02
         0.28664E-02
         0.29548E-02
         0.29713E-02
         0.29713E-02
         0.26465E-02
         0.27677E-02
         0.33924E-02
         0.35224E-02
         0.35224E-02
         0.29833E-02
         0.31680E-02
         0.31680E-02
         0.43098E-02
         0.43098E-02
         0.43098E-02
         0.43098E-02
         0.34901E-02
         0.34901E-02
         0.32498E-02
         0.31910E-02
         0.37754E-02
         0.31792E-02
         0.26776E-02
         0.33796E-02
         0.37140E-02
         0.26497E-02
         0.29232E-02
         0.36935E-02
         0.36637E-02
         0.38140E-02
         0.30363E-02
         0.30363E-02
         0.28664E-02
         0.27025E-02
         0.29548E-02
         0.28129E-02
         0.30545E-02
         0.36935E-02
         0.28098E-02
         0.28098E-02
         0.27304E-02
         0.25959E-02
         0.36935E-02
         0.36935E-02
         0.38140E-02
         0.38140E-02
         0.30271E-02
         0.36731E-02
         0.37140E-02
         0.32219E-02
         0.32913E-02
         0.32913E-02
         0.27006E-02
         0.25921E-02
         0.25751E-02
         0.29713E-02
         0.29713E-02
         0.26464E-02
         0.29083E-02
         0.33916E-02
         0.35219E-02
         0.35219E-02
         0.29833E-02
         0.32661E-02
         0.28451E-02
         0.30055E-02
         0.36731E-02
         0.37140E-02
         0.37140E-02
         0.33796E-02
         0.29232E-02
         0.32219E-02
         0.32913E-02
         0.32913E-02
         0.27006E-02
         0.25921E-02
         0.25751E-02
         0.27025E-02
         0.28664E-02
         0.29548E-02
         0.29713E-02
         0.29713E-02
         0.26464E-02
         0.27676E-02
         0.33916E-02
         0.35219E-02
         0.35219E-02
         0.29833E-02
         0.31680E-02
         0.31680E-02
  
SCALARS              physical_window_z  double 1
LOOKUP_TABLE default
         0.26928E-02
         0.26928E-02
         0.26928E-02
         0.26928E-02
         0.26928E-02
         0.26928E-02
         0.26928E-02
         0.26928E-02
         0.26928E-02
         0.26928E-02
         0.26928E-02
         0.26928E-02
         0.26928E-02
         0.26928E-02
         0.26928E-02
         0.26928E-02
         0.26928E-02
         0.26928E-02
         0.26928E-02
         0.26928E-02
         0.26928E-02
         0.26928E-02
         0.26928E-02
         0.26928E-02
         0.26928E-02
         0.26928E-02
         0.26928E-02
         0.26928E-02
         0.26928E-02
         0.26928E-02
         0.26928E-02
         0.26928E-02
         0.26928E-02
         0.26928E-02
         0.26928E-02
         0.26928E-02
         0.26928E-02
         0.26928E-02
         0.26928E-02
         0.26928E-02
         0.26928E-02
         0.26928E-02
         0.26928E-02
         0.26928E-02
         0.26928E-02
         0.26928E-02
         0.26928E-02
         0.26928E-02
         0.26928E-02
         0.26928E-02
         0.26928E-02
         0.26928E-02
         0.26928E-02
         0.26928E-02
         0.26928E-02
         0.26928E-02
         0.26928E-02
         0.26928E-02
         0.26928E-02
         0.26928E-02
         0.26928E-02
         0.26928E-02
         0.26928E-02
         0.26928E-02
         0.26928E-02
         0.26928E-02
         0.26928E-02
         0.26928E-02
         0.26928E-02
         0.26928E-02
         0.26928E-02
         0.26928E-02
         0.26928E-02
         0.26928E-02
         0.26928E-02
         0.26928E-02
         0.26928E-02
         0.26928E-02
         0.26928E-02
         0.26928E-02
         0.26928E-02
         0.26928E-02
         0.26928E-02
         0.26928E-02
         0.26928E-02
         0.26928E-02
         0.26928E-02
         0.26928E-02
         0.26928E-02
         0.26928E-02
         0.26928E-02
         0.26928E-02
         0.26928E-02
         0.26928E-02
         0.26928E-02
         0.26928E-02
         0.26928E-02
         0.26928E-02
         0.26928E-02
         0.26928E-02
         0.26928E-02
         0.26928E-02
         0.26928E-02
         0.26928E-02
         0.26928E-02
         0.26928E-02
         0.26928E-02
         0.26928E-02
         0.26928E-02
         0.26928E-02
         0.26928E-02
         0.26928E-02
         0.26928E-02
         0.26928E-02
         0.26928E-02
         0.26928E-02
         0.26928E-02
         0.26928E-02
         0.26928E-02
         0.26928E-02
         0.26928E-02
         0.26928E-02
         0.26928E-02
         0.26928E-02
         0.26928E-02
         0.26928E-02
         0.26928E-02
         0.26928E-02
         0.26928E-02
         0.26928E-02
         0.26928E-02
         0.26928E-02
         0.26928E-02
         0.26928E-02
         0.26928E-02
         0.26928E-02
         0.26928E-02
         0.26928E-02
         0.26928E-02
         0.26928E-02
         0.26928E-02
         0.26928E-02
         0.26928E-02
         0.26928E-02
         0.26928E-02
         0.26928E-02
         0.26928E-02
         0.26928E-02
         0.26928E-02
         0.26928E-02
         0.26928E-02
         0.26928E-02
         0.26928E-02
         0.26928E-02
         0.26928E-02
         0.26928E-02
         0.26927E-02
         0.26927E-02
         0.26927E-02
         0.26927E-02
         0.26927E-02
         0.26927E-02
         0.26927E-02
         0.26927E-02
         0.26927E-02
         0.26927E-02
         0.26927E-02
         0.26927E-02
         0.26927E-02
         0.26927E-02
         0.26927E-02
         0.26927E-02
         0.26927E-02
         0.26927E-02
         0.26927E-02
         0.26927E-02
         0.26927E-02
         0.26927E-02
         0.26927E-02
         0.26927E-02
         0.26927E-02
         0.26927E-02
         0.26927E-02
         0.26927E-02
         0.26927E-02
         0.26927E-02
         0.26927E-02
         0.26927E-02
         0.26927E-02
         0.26927E-02
         0.26927E-02
         0.26927E-02
         0.26927E-02
         0.26927E-02
         0.26927E-02
         0.26927E-02
         0.26927E-02
         0.26927E-02
         0.26927E-02
         0.26927E-02
         0.26927E-02
         0.26927E-02
         0.26927E-02
         0.26927E-02
         0.26927E-02
         0.26927E-02
         0.26927E-02
         0.26927E-02
         0.26927E-02
         0.26927E-02
         0.26927E-02
         0.26927E-02
         0.26927E-02
         0.26927E-02
         0.26927E-02
         0.26927E-02
         0.26927E-02
         0.26927E-02
         0.26927E-02
         0.26927E-02
         0.26927E-02
         0.26927E-02
         0.26927E-02
         0.26927E-02
         0.26927E-02
         0.26927E-02
         0.26927E-02
         0.26927E-02
         0.26927E-02
         0.26927E-02
         0.26927E-02
         0.26927E-02
         0.26927E-02
         0.26927E-02
         0.26927E-02
         0.26927E-02
         0.26927E-02
         0.26927E-02
         0.26927E-02
         0.26927E-02
         0.26927E-02
         0.26927E-02
         0.26927E-02
         0.26927E-02
         0.26927E-02
         0.26927E-02
         0.26927E-02
         0.26927E-02
         0.26927E-02
         0.26927E-02
         0.26927E-02
         0.26927E-02
         0.26927E-02
         0.26927E-02
         0.26927E-02
         0.26927E-02
         0.26927E-02
         0.26927E-02
         0.26927E-02
         0.26927E-02
         0.26927E-02
         0.26927E-02
         0.26927E-02
         0.26927E-02
         0.26927E-02
         0.26927E-02
         0.26927E-02
         0.26927E-02
         0.26927E-02
         0.26927E-02
         0.26927E-02
         0.26927E-02
         0.26927E-02
         0.26927E-02
         0.26927E-02
         0.26927E-02
         0.26927E-02
         0.26927E-02
         0.26927E-02
         0.26927E-02
         0.26927E-02
         0.26927E-02
         0.26927E-02
         0.26927E-02
         0.26927E-02
         0.26927E-02
         0.26927E-02
         0.26927E-02
         0.26927E-02
         0.26927E-02
         0.26927E-02
         0.26927E-02
         0.26927E-02
         0.26927E-02
         0.26927E-02
         0.26927E-02
         0.26927E-02
         0.26927E-02
         0.26927E-02
         0.26927E-02
         0.26927E-02
         0.26927E-02
         0.26927E-02
         0.26927E-02
         0.26927E-02
         0.26927E-02
         0.26927E-02
         0.26927E-02
         0.26927E-02
         0.26927E-02
         0.26927E-02
         0.26927E-02
         0.26927E-02
         0.26927E-02
         0.26927E-02
         0.26927E-02
         0.26927E-02
         0.26927E-02
         0.26927E-02
         0.26927E-02
         0.26927E-02
         0.26927E-02
         0.26927E-02
         0.26927E-02
         0.26927E-02
         0.26927E-02
         0.26927E-02
         0.26927E-02
         0.26927E-02
         0.26927E-02
         0.26927E-02
         0.26927E-02
         0.26927E-02
         0.26927E-02
         0.26927E-02
         0.26927E-02
         0.26927E-02
         0.26927E-02
         0.26927E-02
         0.26927E-02
         0.26927E-02
         0.26927E-02
         0.26927E-02
         0.26927E-02
         0.26927E-02
         0.26927E-02
         0.26927E-02
         0.26927E-02
         0.26927E-02
         0.26927E-02
         0.26927E-02
         0.26927E-02
         0.26927E-02
         0.26927E-02
         0.26927E-02
         0.26927E-02
         0.26927E-02
         0.26927E-02
         0.26927E-02
         0.26927E-02
         0.26927E-02
         0.26927E-02
         0.26927E-02
         0.26927E-02
         0.26927E-02
         0.26927E-02
         0.26927E-02
         0.26927E-02
         0.26927E-02
         0.26927E-02
         0.26927E-02
         0.26927E-02
         0.26927E-02
         0.26927E-02
         0.26927E-02
         0.26927E-02
         0.26927E-02
         0.26927E-02
         0.26927E-02
         0.26927E-02
         0.26927E-02
         0.26927E-02
         0.26927E-02
         0.26927E-02
         0.26927E-02
         0.26927E-02
         0.26927E-02
         0.26927E-02
         0.26927E-02
         0.26927E-02
         0.26927E-02
         0.26927E-02
         0.26927E-02
         0.26927E-02
         0.26927E-02
         0.26927E-02
         0.26927E-02
         0.26927E-02
         0.26927E-02
         0.26927E-02
         0.26927E-02
         0.26927E-02
         0.26927E-02
         0.26927E-02
         0.26927E-02
         0.26927E-02
         0.26927E-02
         0.26927E-02
         0.26927E-02
         0.26927E-02
         0.26927E-02
         0.26927E-02
         0.26927E-02
         0.26927E-02
         0.26927E-02
         0.26927E-02
         0.26927E-02
         0.26927E-02
         0.26927E-02
         0.26927E-02
         0.26927E-02
         0.26927E-02
         0.26927E-02
         0.26927E-02
         0.26927E-02
         0.26927E-02
         0.26927E-02
         0.26927E-02
         0.26927E-02
         0.26927E-02
         0.26927E-02
         0.26927E-02
         0.26927E-02
         0.26927E-02
         0.26927E-02
         0.26927E-02
         0.26927E-02
         0.26927E-02
         0.26927E-02
         0.26927E-02
         0.26927E-02
         0.26927E-02
         0.26927E-02
         0.26927E-02
         0.26927E-02
         0.26927E-02
         0.26927E-02
         0.26927E-02
         0.26927E-02
         0.26927E-02
         0.26927E-02
         0.26927E-02
         0.26927E-02
         0.26927E-02
         0.26927E-02
         0.26927E-02
         0.26927E-02
         0.26927E-02
         0.26927E-02
         0.26927E-02
         0.26927E-02
         0.26927E-02
         0.26927E-02
         0.26927E-02
         0.26927E-02
         0.26927E-02
         0.26927E-02
         0.26927E-02
         0.26927E-02
         0.26927E-02
         0.26927E-02
         0.26927E-02
         0.26927E-02
         0.26927E-02
         0.26927E-02
         0.26927E-02
         0.26927E-02
         0.26927E-02
         0.26927E-02
         0.26927E-02
         0.26927E-02
         0.26927E-02
         0.26927E-02
         0.26927E-02
         0.26927E-02
         0.26927E-02
         0.26927E-02
         0.26927E-02
         0.26927E-02
         0.26927E-02
         0.26927E-02
         0.26927E-02
         0.26927E-02
         0.26927E-02
         0.26927E-02
         0.26927E-02
         0.26927E-02
         0.26927E-02
         0.26927E-02
         0.26927E-02
         0.26927E-02
         0.26927E-02
         0.26927E-02
         0.26927E-02
         0.26927E-02
         0.26927E-02
         0.26927E-02
         0.26927E-02
         0.26927E-02
         0.26927E-02
         0.26927E-02
         0.26927E-02
         0.26927E-02
         0.26927E-02
         0.26927E-02
         0.26927E-02
         0.26927E-02
         0.26927E-02
         0.26927E-02
         0.26927E-02
         0.26927E-02
         0.26927E-02
         0.26927E-02
         0.26927E-02
         0.26927E-02
         0.26927E-02
         0.26927E-02
         0.26927E-02
         0.26927E-02
         0.26927E-02
         0.26927E-02
         0.26927E-02
         0.26927E-02
         0.26927E-02
         0.26927E-02
         0.26927E-02
         0.26927E-02
         0.26927E-02
         0.26927E-02
         0.26927E-02
         0.26927E-02
         0.26927E-02
         0.26927E-02
         0.26927E-02
         0.26927E-02
         0.26927E-02
         0.26927E-02
         0.26927E-02
         0.26927E-02
         0.26927E-02
         0.26927E-02
         0.26927E-02
         0.26927E-02
         0.26927E-02
         0.26927E-02
         0.26927E-02
         0.26927E-02
         0.26927E-02
         0.26927E-02
         0.26927E-02
         0.26927E-02
         0.26927E-02
         0.26927E-02
         0.26927E-02
         0.26927E-02
         0.26927E-02
         0.26927E-02
         0.26927E-02
         0.26927E-02
         0.26927E-02
         0.26927E-02
         0.26927E-02
         0.26927E-02
         0.26927E-02
         0.26927E-02
         0.26927E-02
         0.26927E-02
         0.26927E-02
         0.26927E-02
         0.26927E-02
         0.26927E-02
         0.26927E-02
         0.26927E-02
         0.26927E-02
         0.26927E-02
         0.26927E-02
         0.26927E-02
         0.26927E-02
         0.26927E-02
         0.26927E-02
         0.26927E-02
         0.26927E-02
         0.26927E-02
         0.26927E-02
         0.26927E-02
         0.26927E-02
         0.26927E-02
         0.26927E-02
         0.26927E-02
         0.26927E-02
         0.26927E-02
         0.26927E-02
         0.26927E-02
         0.26927E-02
         0.26927E-02
         0.26927E-02
         0.26927E-02
         0.26927E-02
         0.26927E-02
         0.26927E-02
         0.26927E-02
         0.26927E-02
         0.26927E-02
         0.26927E-02
         0.26927E-02
         0.26927E-02
         0.26927E-02
         0.26927E-02
         0.26927E-02
         0.26927E-02
         0.26927E-02
         0.26927E-02
         0.26927E-02
         0.26927E-02
         0.26927E-02
         0.26927E-02
         0.26927E-02
         0.26927E-02
         0.26927E-02
         0.26927E-02
         0.26927E-02
         0.26927E-02
         0.26927E-02
         0.26927E-02
         0.26927E-02
         0.26927E-02
         0.26927E-02
         0.26927E-02
         0.26927E-02
         0.26927E-02
         0.26927E-02
         0.26927E-02
         0.26927E-02
         0.26927E-02
         0.26927E-02
         0.26927E-02
         0.26927E-02
         0.26927E-02
         0.26927E-02
         0.26927E-02
         0.26927E-02
         0.26927E-02
         0.26927E-02
         0.26927E-02
         0.26927E-02
         0.26927E-02
         0.26927E-02
         0.26927E-02
         0.26927E-02
         0.26927E-02
         0.26927E-02
         0.26927E-02
         0.26927E-02
         0.26927E-02
         0.26927E-02
         0.26927E-02
         0.26927E-02
         0.26927E-02
         0.26927E-02
         0.26927E-02
         0.26927E-02
         0.26927E-02
         0.26927E-02
         0.26927E-02
         0.26927E-02
         0.26927E-02
         0.26927E-02
         0.26927E-02
         0.26927E-02
         0.26927E-02
         0.26927E-02
         0.26927E-02
         0.26927E-02
         0.26927E-02
         0.26927E-02
         0.26927E-02
         0.26927E-02
         0.26927E-02
         0.26927E-02
         0.26927E-02
         0.26927E-02
         0.26927E-02
         0.26927E-02
         0.26927E-02
         0.26927E-02
         0.26927E-02
         0.26927E-02
         0.26927E-02
         0.26927E-02
         0.26927E-02
         0.26927E-02
         0.26927E-02
         0.26927E-02
         0.26927E-02
         0.26927E-02
         0.26927E-02
         0.26927E-02
         0.26927E-02
         0.26927E-02
         0.26927E-02
         0.26927E-02
         0.26927E-02
         0.26927E-02
         0.26927E-02
         0.26927E-02
         0.26927E-02
         0.26927E-02
         0.26927E-02
         0.26927E-02
         0.26927E-02
         0.26927E-02
         0.26927E-02
         0.26927E-02
         0.26927E-02
         0.26927E-02
         0.26927E-02
         0.26927E-02
         0.26927E-02
         0.26927E-02
         0.26927E-02
         0.26927E-02
         0.26927E-02
         0.26927E-02
         0.26927E-02
         0.26927E-02
         0.26927E-02
         0.26927E-02
         0.26927E-02
         0.26927E-02
         0.26927E-02
         0.26927E-02
         0.26927E-02
         0.26927E-02
         0.26927E-02
         0.26927E-02
         0.26927E-02
         0.26927E-02
         0.26927E-02
         0.26927E-02
         0.26927E-02
         0.26927E-02
         0.26927E-02
         0.26927E-02
         0.26927E-02
         0.26927E-02
         0.26927E-02
         0.26927E-02
         0.26927E-02
         0.26927E-02
         0.26927E-02
         0.26927E-02
         0.26927E-02
         0.26927E-02
         0.26927E-02
         0.26927E-02
         0.26927E-02
         0.26927E-02
         0.26927E-02
         0.26927E-02
         0.26927E-02
         0.26927E-02
         0.26927E-02
         0.26927E-02
         0.26927E-02
         0.26927E-02
         0.26927E-02
         0.26927E-02
         0.26927E-02
         0.26927E-02
         0.26927E-02
         0.26927E-02
         0.26927E-02
         0.26927E-02
         0.26927E-02
         0.26927E-02
         0.26927E-02
         0.26927E-02
         0.26927E-02
         0.26927E-02
         0.26927E-02
         0.26927E-02
         0.26927E-02
         0.26927E-02
         0.26927E-02
         0.26927E-02
         0.26927E-02
         0.26927E-02
         0.26927E-02
         0.26927E-02
         0.26927E-02
         0.26927E-02
         0.26927E-02
         0.26927E-02
         0.26927E-02
         0.26927E-02
         0.26927E-02
         0.26927E-02
         0.26927E-02
         0.26927E-02
         0.26927E-02
         0.26927E-02
         0.26927E-02
         0.26927E-02
         0.26927E-02
         0.26927E-02
         0.26927E-02
         0.26927E-02
         0.26927E-02
         0.26927E-02
         0.26927E-02
         0.26927E-02
         0.26927E-02
         0.26927E-02
         0.26927E-02
         0.26927E-02
         0.26927E-02
         0.26927E-02
         0.26927E-02
         0.26927E-02
         0.26927E-02
         0.26927E-02
         0.26927E-02
         0.26927E-02
         0.26927E-02
         0.26927E-02
         0.26927E-02
         0.26927E-02
         0.26927E-02
         0.26927E-02
         0.26927E-02
         0.26927E-02
         0.26927E-02
         0.26927E-02
         0.26927E-02
         0.26927E-02
         0.26927E-02
         0.26927E-02
         0.26927E-02
         0.26927E-02
         0.26927E-02
         0.26927E-02
         0.26927E-02
         0.26927E-02
         0.26927E-02
         0.26927E-02
         0.26927E-02
         0.26927E-02
         0.26927E-02
         0.26927E-02
         0.26927E-02
         0.26927E-02
         0.26927E-02
         0.26927E-02
         0.26927E-02
         0.26927E-02
         0.26927E-02
         0.26927E-02
         0.26927E-02
         0.26927E-02
         0.26927E-02
         0.26927E-02
         0.26927E-02
         0.26927E-02
         0.26927E-02
         0.26927E-02
         0.26927E-02
         0.26927E-02
         0.26927E-02
         0.26927E-02
         0.26927E-02
         0.26927E-02
         0.26927E-02
         0.26927E-02
         0.26927E-02
         0.26927E-02
         0.26927E-02
         0.26927E-02
         0.26927E-02
         0.26927E-02
         0.26927E-02
         0.26927E-02
         0.26927E-02
         0.26927E-02
         0.26927E-02
         0.26927E-02
         0.26927E-02
         0.26927E-02
         0.26927E-02
         0.26927E-02
         0.26927E-02
         0.26927E-02
         0.26927E-02
         0.26927E-02
         0.26927E-02
         0.26927E-02
         0.26927E-02
         0.26927E-02
         0.26927E-02
         0.26927E-02
         0.26927E-02
         0.26927E-02
         0.26927E-02
         0.26927E-02
         0.26927E-02
         0.26927E-02
         0.26927E-02
         0.26927E-02
         0.26927E-02
         0.26927E-02
         0.26927E-02
         0.26927E-02
         0.26927E-02
         0.26927E-02
         0.26927E-02
         0.26927E-02
         0.26927E-02
         0.26927E-02
         0.26927E-02
         0.26927E-02
         0.26927E-02
         0.26927E-02
         0.26927E-02
         0.26927E-02
         0.26927E-02
         0.26927E-02
         0.26927E-02
         0.26927E-02
         0.26927E-02
         0.26927E-02
         0.26927E-02
         0.26927E-02
         0.26927E-02
         0.26927E-02
         0.26927E-02
         0.26927E-02
         0.26927E-02
         0.26927E-02
         0.26927E-02
         0.26927E-02
         0.26927E-02
         0.26927E-02
         0.26927E-02
         0.26927E-02
         0.26927E-02
         0.26927E-02
         0.26927E-02
         0.26927E-02
         0.26927E-02
         0.26927E-02
         0.26927E-02
         0.26927E-02
         0.26927E-02
         0.26927E-02
         0.26927E-02
         0.26927E-02
         0.26927E-02
         0.26927E-02
         0.26927E-02
         0.26927E-02
         0.26927E-02
         0.26927E-02
         0.26927E-02
         0.26927E-02
         0.26927E-02
         0.26927E-02
         0.26927E-02
         0.26927E-02
         0.26927E-02
         0.26927E-02
         0.26927E-02
         0.26927E-02
         0.26927E-02
         0.26927E-02
         0.26927E-02
         0.26927E-02
         0.26927E-02
         0.26927E-02
         0.26927E-02
         0.26927E-02
         0.26927E-02
         0.26927E-02
         0.26927E-02
         0.26927E-02
         0.26927E-02
         0.26927E-02
         0.26927E-02
         0.26927E-02
         0.26927E-02
         0.26927E-02
         0.26927E-02
         0.26927E-02
         0.26927E-02
         0.26927E-02
         0.26927E-02
         0.26927E-02
         0.26927E-02
         0.26927E-02
         0.26927E-02
         0.26927E-02
         0.26927E-02
         0.26927E-02
         0.26927E-02
         0.26927E-02
         0.26927E-02
         0.26927E-02
         0.26927E-02
         0.26927E-02
         0.26927E-02
         0.26927E-02
         0.26927E-02
         0.26927E-02
         0.26927E-02
         0.26927E-02
         0.26927E-02
         0.26927E-02
         0.26927E-02
         0.26927E-02
         0.26927E-02
         0.26927E-02
         0.26927E-02
         0.26927E-02
         0.26927E-02
         0.26927E-02
         0.26927E-02
         0.26927E-02
         0.26927E-02
         0.26927E-02
         0.26927E-02
         0.26927E-02
         0.26927E-02
         0.26927E-02
         0.26927E-02
         0.26927E-02
         0.26927E-02
         0.26927E-02
         0.26927E-02
         0.26927E-02
         0.26927E-02
         0.26927E-02
         0.26927E-02
         0.26927E-02
         0.26927E-02
         0.26927E-02
         0.26927E-02
         0.26927E-02
         0.26927E-02
         0.26927E-02
         0.26927E-02
         0.26927E-02
         0.26927E-02
         0.26927E-02
         0.26927E-02
         0.26927E-02
         0.26927E-02
         0.26927E-02
         0.26927E-02
         0.26927E-02
         0.26927E-02
         0.26927E-02
         0.26927E-02
         0.26927E-02
         0.26927E-02
         0.26927E-02
         0.26927E-02
         0.26927E-02
         0.26927E-02
         0.26927E-02
         0.26927E-02
         0.26927E-02
         0.26927E-02
         0.26927E-02
         0.26927E-02
         0.26927E-02
         0.26927E-02
         0.26927E-02
         0.26927E-02
         0.26927E-02
         0.26927E-02
         0.26927E-02
         0.26927E-02
         0.26927E-02
         0.26927E-02
         0.26927E-02
         0.26927E-02
         0.26927E-02
         0.26927E-02
         0.26927E-02
         0.26927E-02
         0.26927E-02
         0.26927E-02
         0.26927E-02
         0.26927E-02
         0.26927E-02
         0.26927E-02
         0.26927E-02
         0.26927E-02
         0.26927E-02
         0.26927E-02
         0.26927E-02
         0.26927E-02
         0.26927E-02
         0.26927E-02
         0.26927E-02
         0.26927E-02
         0.26927E-02
         0.26927E-02
         0.26927E-02
         0.26927E-02
         0.26927E-02
         0.26927E-02
         0.26927E-02
         0.26927E-02
         0.26927E-02
         0.26927E-02
         0.26927E-02
         0.26927E-02
         0.26927E-02
         0.26927E-02
         0.26927E-02
         0.26927E-02
         0.26927E-02
         0.26927E-02
         0.26927E-02
         0.26927E-02
         0.26927E-02
         0.26927E-02
         0.26927E-02
         0.26927E-02
         0.26927E-02
         0.26927E-02
         0.26927E-02
         0.26927E-02
         0.26927E-02
         0.26927E-02
         0.26927E-02
         0.26927E-02
         0.26927E-02
         0.26927E-02
         0.26927E-02
         0.26927E-02
         0.26927E-02
         0.26927E-02
         0.26927E-02
         0.26927E-02
         0.26927E-02
         0.26927E-02
         0.26927E-02
         0.26927E-02
         0.26927E-02
         0.26927E-02
         0.26927E-02
         0.26927E-02
         0.26927E-02
         0.26927E-02
         0.26927E-02
         0.26927E-02
         0.26927E-02
         0.26927E-02
         0.26927E-02
         0.26927E-02
         0.26927E-02
         0.26927E-02
         0.26927E-02
         0.26927E-02
         0.26927E-02
         0.26927E-02
         0.26927E-02
         0.26927E-02
         0.26927E-02
         0.26927E-02
         0.26927E-02
         0.26927E-02
         0.26927E-02
         0.26927E-02
         0.26927E-02
         0.26927E-02
         0.26927E-02
         0.26927E-02
         0.26927E-02
         0.26927E-02
         0.26927E-02
         0.26927E-02
         0.26927E-02
         0.26927E-02
         0.26927E-02
         0.26927E-02
         0.26927E-02
         0.26927E-02
         0.26927E-02
         0.26927E-02
         0.26927E-02
         0.26927E-02
         0.26927E-02
         0.26927E-02
         0.26927E-02
         0.26927E-02
         0.26927E-02
         0.26927E-02
         0.26927E-02
         0.26927E-02
         0.26927E-02
         0.26927E-02
         0.26927E-02
         0.26927E-02
         0.26927E-02
         0.26927E-02
         0.26927E-02
         0.26927E-02
         0.26927E-02
         0.26927E-02
         0.26927E-02
         0.26927E-02
         0.26927E-02
         0.26927E-02
         0.26927E-02
         0.26927E-02
         0.26927E-02
         0.26927E-02
         0.26927E-02
         0.26927E-02
         0.26927E-02
         0.26927E-02
         0.26927E-02
         0.26927E-02
         0.26927E-02
         0.26927E-02
         0.26927E-02
         0.26927E-02
         0.26927E-02
         0.26927E-02
         0.26927E-02
         0.26927E-02
         0.26927E-02
         0.26927E-02
         0.26927E-02
         0.26927E-02
         0.26927E-02
         0.26927E-02
         0.26927E-02
         0.26927E-02
         0.26927E-02
         0.26927E-02
         0.26927E-02
         0.26927E-02
         0.26927E-02
         0.26927E-02
         0.26927E-02
         0.26927E-02
         0.26927E-02
         0.26927E-02
         0.26927E-02
         0.26927E-02
         0.26927E-02
         0.26927E-02
         0.26927E-02
         0.26927E-02
         0.26927E-02
         0.26927E-02
         0.26927E-02
         0.26927E-02
         0.26927E-02
         0.26927E-02
         0.26927E-02
         0.26927E-02
         0.26927E-02
         0.26927E-02
         0.26927E-02
         0.26927E-02
         0.26927E-02
         0.26927E-02
         0.26927E-02
         0.26927E-02
         0.26927E-02
         0.26927E-02
         0.26927E-02
         0.26927E-02
         0.26927E-02
         0.26927E-02
         0.26927E-02
         0.26927E-02
         0.26927E-02
         0.26927E-02
         0.26927E-02
         0.26927E-02
         0.26927E-02
         0.26927E-02
         0.26927E-02
         0.26927E-02
         0.26927E-02
         0.26927E-02
         0.26927E-02
         0.26927E-02
         0.26927E-02
         0.26927E-02
         0.26927E-02
         0.26927E-02
         0.26927E-02
         0.26927E-02
         0.26927E-02
         0.26927E-02
         0.26927E-02
         0.26927E-02
         0.26927E-02
         0.26927E-02
         0.26927E-02
         0.26927E-02
         0.26927E-02
         0.26927E-02
         0.26927E-02
         0.26927E-02
         0.26927E-02
         0.26927E-02
         0.26927E-02
         0.26927E-02
         0.26927E-02
         0.26927E-02
         0.26927E-02
         0.26927E-02
         0.26927E-02
         0.26927E-02
         0.26927E-02
         0.26927E-02
         0.26927E-02
         0.26927E-02
         0.26927E-02
         0.26927E-02
         0.26927E-02
         0.26927E-02
         0.26927E-02
         0.26927E-02
         0.26927E-02
         0.26927E-02
         0.26927E-02
         0.26927E-02
         0.26927E-02
         0.26927E-02
         0.26927E-02
         0.26927E-02
         0.26927E-02
         0.26927E-02
         0.26927E-02
         0.26927E-02
         0.26927E-02
         0.26927E-02
         0.26927E-02
         0.26927E-02
         0.26927E-02
         0.26927E-02
         0.26927E-02
         0.26927E-02
         0.26927E-02
         0.26927E-02
         0.26927E-02
         0.26927E-02
         0.26927E-02
         0.26927E-02
         0.26927E-02
         0.26927E-02
         0.26927E-02
         0.26927E-02
         0.26927E-02
         0.26927E-02
         0.26927E-02
         0.26927E-02
         0.26927E-02
         0.26927E-02
         0.26927E-02
         0.26927E-02
         0.26927E-02
         0.26927E-02
         0.26927E-02
         0.26927E-02
         0.26927E-02
         0.26927E-02
         0.26927E-02
         0.26927E-02
         0.26927E-02
         0.26927E-02
         0.26927E-02
         0.26927E-02
         0.26927E-02
         0.26927E-02
         0.26927E-02
         0.26927E-02
         0.26927E-02
         0.26927E-02
         0.26927E-02
         0.26927E-02
         0.26927E-02
         0.26927E-02
         0.26927E-02
         0.26927E-02
         0.26927E-02
         0.26927E-02
         0.26927E-02
         0.26927E-02
         0.26927E-02
         0.26927E-02
         0.26927E-02
         0.26927E-02
         0.26927E-02
         0.26927E-02
         0.26927E-02
         0.26927E-02
         0.26927E-02
         0.26927E-02
         0.26927E-02
         0.26927E-02
         0.26927E-02
         0.26927E-02
         0.26927E-02
         0.26927E-02
         0.26927E-02
         0.26927E-02
         0.26927E-02
         0.26927E-02
         0.26927E-02
         0.26927E-02
         0.26927E-02
         0.26927E-02
         0.26927E-02
         0.26927E-02
         0.26927E-02
         0.26927E-02
         0.26927E-02
         0.26927E-02
         0.26927E-02
         0.26927E-02
         0.26927E-02
         0.26927E-02
         0.26927E-02
         0.26927E-02
         0.26927E-02
         0.26927E-02
         0.26927E-02
         0.26927E-02
         0.26927E-02
         0.26927E-02
         0.26927E-02
         0.26927E-02
         0.26927E-02
         0.26927E-02
         0.26927E-02
         0.26927E-02
         0.26927E-02
         0.26927E-02
         0.26927E-02
         0.26927E-02
         0.26927E-02
         0.26927E-02
         0.26927E-02
         0.26927E-02
         0.26927E-02
         0.26927E-02
         0.26927E-02
         0.26927E-02
         0.26927E-02
         0.26927E-02
         0.26927E-02
         0.26927E-02
         0.26927E-02
         0.26927E-02
         0.26927E-02
         0.26927E-02
         0.26927E-02
         0.26927E-02
         0.26927E-02
         0.26927E-02
         0.26927E-02
         0.26927E-02
         0.26927E-02
         0.26927E-02
         0.26927E-02
         0.26927E-02
         0.26927E-02
         0.26927E-02
         0.26927E-02
         0.26927E-02
         0.26927E-02
         0.26927E-02
         0.26927E-02
         0.26927E-02
         0.26927E-02
         0.26927E-02
         0.26927E-02
         0.26927E-02
         0.26927E-02
         0.26927E-02
         0.26927E-02
         0.26927E-02
         0.26927E-02
         0.26927E-02
         0.26927E-02
         0.26927E-02
         0.26927E-02
         0.26927E-02
         0.26927E-02
         0.26927E-02
         0.26927E-02
         0.26927E-02
         0.26927E-02
         0.26927E-02
         0.26927E-02
         0.26927E-02
         0.26927E-02
         0.26927E-02
         0.26927E-02
         0.26927E-02
         0.26927E-02
         0.26927E-02
         0.26927E-02
         0.26927E-02
         0.26927E-02
         0.26927E-02
         0.26927E-02
         0.26927E-02
         0.26927E-02
         0.26927E-02
         0.26927E-02
         0.26927E-02
         0.26927E-02
         0.26927E-02
         0.26927E-02
         0.26927E-02
         0.26927E-02
         0.26927E-02
         0.26927E-02
         0.26927E-02
         0.26927E-02
         0.26927E-02
         0.26927E-02
         0.26927E-02
         0.26927E-02
         0.26927E-02
         0.26927E-02
         0.26927E-02
         0.26927E-02
         0.26927E-02
         0.26927E-02
         0.26927E-02
         0.26927E-02
         0.26927E-02
         0.26927E-02
         0.26927E-02
         0.26927E-02
         0.26927E-02
         0.26927E-02
         0.26927E-02
         0.26927E-02
         0.26927E-02
         0.26927E-02
         0.26927E-02
         0.26927E-02
         0.26927E-02
         0.26927E-02
         0.26927E-02
         0.26927E-02
         0.26927E-02
         0.26927E-02
         0.26927E-02
         0.26927E-02
         0.26927E-02
         0.26927E-02
         0.26927E-02
         0.26927E-02
         0.26927E-02
         0.26927E-02
         0.26927E-02
         0.26927E-02
         0.26927E-02
         0.26927E-02
         0.26927E-02
         0.26927E-02
         0.26927E-02
         0.26927E-02
         0.26927E-02
         0.26927E-02
         0.26927E-02
         0.26927E-02
         0.26927E-02
         0.26927E-02
         0.26927E-02
         0.26927E-02
         0.26927E-02
         0.26927E-02
         0.26927E-02
         0.26927E-02
         0.26927E-02
         0.26927E-02
         0.26927E-02
         0.26927E-02
         0.26927E-02
         0.26927E-02
         0.26927E-02
         0.26927E-02
         0.26927E-02
         0.26927E-02
         0.26927E-02
         0.26927E-02
         0.26927E-02
         0.26927E-02
         0.26927E-02
         0.26927E-02
         0.26927E-02
         0.26927E-02
         0.26927E-02
         0.26927E-02
         0.26927E-02
         0.26927E-02
         0.26927E-02
         0.26927E-02
         0.26927E-02
         0.26927E-02
         0.26927E-02
         0.26927E-02
         0.26927E-02
         0.26927E-02
         0.26927E-02
         0.26927E-02
         0.26927E-02
         0.26927E-02
         0.26927E-02
         0.26927E-02
         0.26927E-02
         0.26927E-02
         0.26927E-02
         0.26927E-02
         0.26927E-02
         0.26927E-02
         0.26927E-02
         0.26927E-02
         0.26927E-02
         0.26927E-02
         0.26927E-02
         0.26927E-02
         0.26927E-02
         0.26927E-02
         0.26927E-02
         0.26927E-02
         0.26927E-02
         0.26927E-02
         0.26927E-02
         0.26927E-02
         0.26927E-02
         0.26927E-02
         0.26927E-02
         0.26927E-02
         0.26927E-02
         0.26927E-02
         0.26927E-02
         0.26927E-02
         0.26927E-02
         0.26927E-02
         0.26927E-02
         0.26927E-02
         0.26927E-02
         0.26927E-02
         0.26927E-02
         0.26927E-02
         0.26927E-02
         0.26927E-02
         0.26927E-02
         0.26927E-02
         0.26927E-02
         0.26927E-02
         0.26927E-02
         0.26927E-02
         0.26927E-02
         0.26927E-02
         0.26927E-02
         0.26927E-02
         0.26927E-02
         0.26927E-02
         0.26927E-02
         0.26927E-02
         0.26927E-02
         0.26927E-02
         0.26927E-02
         0.26927E-02
         0.26927E-02
         0.26927E-02
         0.26927E-02
         0.26927E-02
         0.26927E-02
         0.26927E-02
         0.26927E-02
         0.26927E-02
         0.26927E-02
         0.26927E-02
         0.26927E-02
         0.26927E-02
         0.26927E-02
         0.26927E-02
         0.26927E-02
         0.26927E-02
         0.26927E-02
         0.26927E-02
         0.26927E-02
         0.26927E-02
         0.26927E-02
         0.26927E-02
         0.26927E-02
         0.26927E-02
         0.26927E-02
         0.26927E-02
         0.26927E-02
         0.26927E-02
         0.26927E-02
         0.26927E-02
         0.26927E-02
         0.26927E-02
         0.26927E-02
         0.26927E-02
         0.26927E-02
         0.26927E-02
         0.26927E-02
         0.26927E-02
         0.26927E-02
         0.26927E-02
         0.26927E-02
         0.26927E-02
         0.26927E-02
         0.26927E-02
         0.26927E-02
         0.26927E-02
         0.26927E-02
         0.26927E-02
         0.26927E-02
         0.26927E-02
         0.26927E-02
         0.26927E-02
         0.26927E-02
         0.26927E-02
         0.26927E-02
         0.26927E-02
         0.26927E-02
         0.26927E-02
         0.26927E-02
         0.26927E-02
         0.26927E-02
         0.26927E-02
         0.26927E-02
         0.26927E-02
         0.26927E-02
         0.26927E-02
         0.26927E-02
         0.26927E-02
         0.26927E-02
         0.26927E-02
         0.26927E-02
         0.26927E-02
         0.26927E-02
         0.26927E-02
         0.26927E-02
         0.26927E-02
         0.26927E-02
         0.26927E-02
         0.26927E-02
         0.26927E-02
         0.26927E-02
         0.26927E-02
         0.26927E-02
         0.26927E-02
         0.26927E-02
         0.26927E-02
         0.26927E-02
         0.26927E-02
         0.26927E-02
         0.26927E-02
         0.26927E-02
         0.26927E-02
         0.26927E-02
         0.26927E-02
         0.26927E-02
         0.26927E-02
         0.26927E-02
         0.26927E-02
         0.26927E-02
         0.26927E-02
         0.26927E-02
         0.26927E-02
         0.26927E-02
         0.26927E-02
         0.26927E-02
         0.26928E-02
         0.26928E-02
         0.26928E-02
         0.26928E-02
         0.26928E-02
         0.26928E-02
         0.26928E-02
         0.26928E-02
         0.26928E-02
         0.26928E-02
         0.26928E-02
         0.26928E-02
         0.26928E-02
         0.26928E-02
         0.26928E-02
         0.26928E-02
         0.26928E-02
         0.26928E-02
         0.26928E-02
         0.26928E-02
         0.26928E-02
         0.26928E-02
         0.26928E-02
         0.26928E-02
         0.26928E-02
         0.26928E-02
         0.26928E-02
         0.26928E-02
         0.26928E-02
         0.26928E-02
         0.26928E-02
         0.26928E-02
         0.26928E-02
         0.26928E-02
         0.26928E-02
         0.26928E-02
         0.26928E-02
         0.26928E-02
         0.26928E-02
         0.26928E-02
         0.26928E-02
         0.26928E-02
         0.26928E-02
         0.26928E-02
         0.26928E-02
         0.26928E-02
         0.26928E-02
         0.26928E-02
         0.26928E-02
         0.26928E-02
         0.26928E-02
         0.26928E-02
         0.26928E-02
         0.26928E-02
         0.26928E-02
         0.26928E-02
         0.26928E-02
         0.26928E-02
         0.26928E-02
         0.26928E-02
         0.26928E-02
         0.26928E-02
         0.26928E-02
         0.26928E-02
         0.26928E-02
         0.26928E-02
         0.26928E-02
         0.26928E-02
         0.26928E-02
         0.26928E-02
         0.26928E-02
         0.26928E-02
         0.26928E-02
         0.26928E-02
         0.26928E-02
         0.26928E-02
         0.26928E-02
         0.26928E-02
         0.26928E-02
         0.26928E-02
         0.26928E-02
         0.26928E-02
         0.26928E-02
         0.26928E-02
         0.26928E-02
         0.26928E-02
         0.26928E-02
         0.26928E-02
         0.26928E-02
         0.26928E-02
         0.26928E-02
         0.26928E-02
         0.26928E-02
         0.26928E-02
         0.26928E-02
         0.26928E-02
         0.26928E-02
         0.26928E-02
         0.26928E-02
         0.26928E-02
         0.26928E-02
         0.26928E-02
         0.26928E-02
         0.26928E-02
         0.26928E-02
         0.26928E-02
         0.26928E-02
         0.26928E-02
         0.26928E-02
         0.26928E-02
         0.26928E-02
         0.26928E-02
         0.26928E-02
         0.26928E-02
         0.26928E-02
         0.26928E-02
         0.26928E-02
         0.26928E-02
         0.26928E-02
         0.26928E-02
         0.26928E-02
         0.26928E-02
         0.26928E-02
         0.26928E-02
         0.26928E-02
         0.26928E-02
         0.26928E-02
         0.26928E-02
         0.26928E-02
         0.26928E-02
         0.26928E-02
         0.26928E-02
         0.26928E-02
         0.26928E-02
         0.26928E-02
         0.26928E-02
         0.26928E-02
         0.26928E-02
         0.26928E-02
         0.26928E-02
         0.26928E-02
         0.26928E-02
         0.26928E-02
         0.26928E-02
         0.26928E-02
         0.26928E-02
         0.26928E-02
         0.26928E-02
         0.26928E-02
         0.26928E-02
         0.26928E-02
         0.26928E-02
         0.26928E-02
         0.26928E-02
         0.26928E-02
         0.26928E-02
  
SCALARS                   nodal_volume  double 1
LOOKUP_TABLE default
         0.91140E-09
         0.72412E-09
         0.77574E-09
         0.13316E-08
         0.45570E-09
         0.36211E-09
         0.38787E-09
         0.66566E-09
         0.71537E-09
         0.91211E-09
         0.35767E-09
         0.45600E-09
         0.51195E-09
         0.61532E-09
         0.25605E-09
         0.30776E-09
         0.10101E-08
         0.74536E-09
         0.50500E-09
         0.37281E-09
         0.30273E-09
         0.57012E-09
         0.62699E-09
         0.15144E-09
         0.28509E-09
         0.31352E-09
         0.51329E-09
         0.64933E-09
         0.25683E-09
         0.32471E-09
         0.12026E-08
         0.93909E-09
         0.11935E-08
         0.60122E-09
         0.46945E-09
         0.59663E-09
         0.70296E-09
         0.80270E-09
         0.35149E-09
         0.40134E-09
         0.75859E-09
         0.84013E-09
         0.37932E-09
         0.42007E-09
         0.64542E-09
         0.40086E-09
         0.32274E-09
         0.20045E-09
         0.76288E-09
         0.38153E-09
         0.63346E-09
         0.31675E-09
         0.66583E-09
         0.33318E-09
         0.68008E-09
         0.34022E-09
         0.58930E-09
         0.71738E-09
         0.29472E-09
         0.35874E-09
         0.90938E-09
         0.64302E-09
         0.45469E-09
         0.32154E-09
         0.10152E-08
         0.50747E-09
         0.88120E-09
         0.44042E-09
         0.40077E-09
         0.61872E-09
         0.20039E-09
         0.30940E-09
         0.70206E-09
         0.35106E-09
         0.74172E-09
         0.37089E-09
         0.71539E-09
         0.35770E-09
         0.56226E-09
         0.28113E-09
         0.35349E-09
         0.58452E-09
         0.17675E-09
         0.29229E-09
         0.77354E-09
         0.38679E-09
         0.62469E-09
         0.31238E-09
         0.54957E-09
         0.27483E-09
         0.36009E-09
         0.61365E-09
         0.18007E-09
         0.30685E-09
         0.83268E-09
         0.41635E-09
         0.87287E-09
         0.43642E-09
         0.70438E-09
         0.35217E-09
         0.43365E-09
         0.74413E-09
         0.21683E-09
         0.37198E-09
         0.27660E-09
         0.35144E-09
         0.13833E-09
         0.17573E-09
         0.32921E-09
         0.16465E-09
         0.38764E-09
         0.19382E-09
         0.37797E-09
         0.18897E-09
         0.36707E-09
         0.18352E-09
         0.39112E-09
         0.19552E-09
         0.41268E-09
         0.20627E-09
         0.38876E-09
         0.19433E-09
         0.30402E-09
         0.15200E-09
         0.24796E-09
         0.12398E-09
         0.31999E-09
         0.16000E-09
         0.42608E-09
         0.21303E-09
         0.46805E-09
         0.23401E-09
         0.44933E-09
         0.22466E-09
         0.40550E-09
         0.20276E-09
         0.36826E-09
         0.18414E-09
         0.29911E-09
         0.14956E-09
         0.25178E-09
         0.12591E-09
         0.32888E-09
         0.16445E-09
         0.43529E-09
         0.21765E-09
         0.44963E-09
         0.22482E-09
         0.36384E-09
         0.18194E-09
         0.29543E-09
         0.14774E-09
         0.36126E-09
         0.18063E-09
         0.42771E-09
         0.21386E-09
         0.91143E-09
         0.72396E-09
         0.77579E-09
         0.13322E-08
         0.71547E-09
         0.91237E-09
         0.51167E-09
         0.61494E-09
         0.10105E-08
         0.74486E-09
         0.30244E-09
         0.57001E-09
         0.62694E-09
         0.51257E-09
         0.64918E-09
         0.12029E-08
         0.93950E-09
         0.11941E-08
         0.70298E-09
         0.80279E-09
         0.75855E-09
         0.84015E-09
         0.64535E-09
         0.40081E-09
         0.76254E-09
         0.63339E-09
         0.66483E-09
         0.67941E-09
         0.58904E-09
         0.71721E-09
         0.90946E-09
         0.64293E-09
         0.10157E-08
         0.88199E-09
         0.40076E-09
         0.61859E-09
         0.70195E-09
         0.74166E-09
         0.71543E-09
         0.56228E-09
         0.35349E-09
         0.58443E-09
         0.77349E-09
         0.62459E-09
         0.54943E-09
         0.35999E-09
         0.61359E-09
         0.83268E-09
         0.87299E-09
         0.70451E-09
         0.43366E-09
         0.74449E-09
         0.27651E-09
         0.35143E-09
         0.32904E-09
         0.38765E-09
         0.37805E-09
         0.36714E-09
         0.39129E-09
         0.41297E-09
         0.38899E-09
         0.30408E-09
         0.24798E-09
         0.31999E-09
         0.42613E-09
         0.46815E-09
         0.44938E-09
         0.40548E-09
         0.36823E-09
         0.29908E-09
         0.25174E-09
         0.32885E-09
         0.43527E-09
         0.44962E-09
         0.36376E-09
         0.29536E-09
         0.36130E-09
         0.42769E-09
         0.91151E-09
         0.72383E-09
         0.77587E-09
         0.13329E-08
         0.71560E-09
         0.91267E-09
         0.51142E-09
         0.61459E-09
         0.10109E-08
         0.74439E-09
         0.30216E-09
         0.56992E-09
         0.62691E-09
         0.51187E-09
         0.64906E-09
         0.12033E-08
         0.93995E-09
         0.11947E-08
         0.70302E-09
         0.80291E-09
         0.75853E-09
         0.84020E-09
         0.64530E-09
         0.40078E-09
         0.76223E-09
         0.63335E-09
         0.66385E-09
         0.67875E-09
         0.58880E-09
         0.71706E-09
         0.90957E-09
         0.64286E-09
         0.10162E-08
         0.88281E-09
         0.40076E-09
         0.61849E-09
         0.70188E-09
         0.74162E-09
         0.71550E-09
         0.56232E-09
         0.35350E-09
         0.58436E-09
         0.77347E-09
         0.62452E-09
         0.54931E-09
         0.35990E-09
         0.61355E-09
         0.83270E-09
         0.87315E-09
         0.70467E-09
         0.43368E-09
         0.74487E-09
         0.27643E-09
         0.35143E-09
         0.32889E-09
         0.38767E-09
         0.37814E-09
         0.36723E-09
         0.39147E-09
         0.41328E-09
         0.38923E-09
         0.30416E-09
         0.24800E-09
         0.32001E-09
         0.42620E-09
         0.46826E-09
         0.44944E-09
         0.40548E-09
         0.36821E-09
         0.29906E-09
         0.25171E-09
         0.32883E-09
         0.43527E-09
         0.44963E-09
         0.36369E-09
         0.29530E-09
         0.36135E-09
         0.42769E-09
         0.91156E-09
         0.72368E-09
         0.77594E-09
         0.13335E-08
         0.71571E-09
         0.91295E-09
         0.51115E-09
         0.61422E-09
         0.10112E-08
         0.74389E-09
         0.30187E-09
         0.56982E-09
         0.62686E-09
         0.51116E-09
         0.64892E-09
         0.12036E-08
         0.94038E-09
         0.11953E-08
         0.70304E-09
         0.80300E-09
         0.75850E-09
         0.84023E-09
         0.64523E-09
         0.40073E-09
         0.76190E-09
         0.63330E-09
         0.66285E-09
         0.67809E-09
         0.58855E-09
         0.71689E-09
         0.90966E-09
         0.64278E-09
         0.10168E-08
         0.88361E-09
         0.40076E-09
         0.61837E-09
         0.70178E-09
         0.74156E-09
         0.71554E-09
         0.56234E-09
         0.35350E-09
         0.58428E-09
         0.77343E-09
         0.62442E-09
         0.54918E-09
         0.35981E-09
         0.61349E-09
         0.83271E-09
         0.87328E-09
         0.70481E-09
         0.43369E-09
         0.74524E-09
         0.27634E-09
         0.35142E-09
         0.32873E-09
         0.38768E-09
         0.37823E-09
         0.36731E-09
         0.39163E-09
         0.41358E-09
         0.38945E-09
         0.30422E-09
         0.24802E-09
         0.32001E-09
         0.42625E-09
         0.46837E-09
         0.44949E-09
         0.40546E-09
         0.36819E-09
         0.29904E-09
         0.25167E-09
         0.32881E-09
         0.43526E-09
         0.44963E-09
         0.36362E-09
         0.29523E-09
         0.36139E-09
         0.42768E-09
         0.91161E-09
         0.72353E-09
         0.77600E-09
         0.13341E-08
         0.71583E-09
         0.91323E-09
         0.51088E-09
         0.61386E-09
         0.10116E-08
         0.74341E-09
         0.30158E-09
         0.56972E-09
         0.62682E-09
         0.51045E-09
         0.64879E-09
         0.12040E-08
         0.94081E-09
         0.11959E-08
         0.70307E-09
         0.80310E-09
         0.75847E-09
         0.84027E-09
         0.64517E-09
         0.40069E-09
         0.76158E-09
         0.63325E-09
         0.66186E-09
         0.67742E-09
         0.58831E-09
         0.71673E-09
         0.90975E-09
         0.64270E-09
         0.10173E-08
         0.88441E-09
         0.40075E-09
         0.61825E-09
         0.70169E-09
         0.74151E-09
         0.71559E-09
         0.56237E-09
         0.35350E-09
         0.58420E-09
         0.77339E-09
         0.62433E-09
         0.54905E-09
         0.35972E-09
         0.61344E-09
         0.83272E-09
         0.87341E-09
         0.70496E-09
         0.43370E-09
         0.74562E-09
         0.27626E-09
         0.35142E-09
         0.32857E-09
         0.38770E-09
         0.37832E-09
         0.36739E-09
         0.39181E-09
         0.41387E-09
         0.38968E-09
         0.30429E-09
         0.24804E-09
         0.32002E-09
         0.42631E-09
         0.46847E-09
         0.44954E-09
         0.40545E-09
         0.36816E-09
         0.29901E-09
         0.25163E-09
         0.32878E-09
         0.43525E-09
         0.44963E-09
         0.36354E-09
         0.29517E-09
         0.36144E-09
         0.42766E-09
         0.91167E-09
         0.72338E-09
         0.77607E-09
         0.13348E-08
         0.71594E-09
         0.91351E-09
         0.51062E-09
         0.61349E-09
         0.10119E-08
         0.74292E-09
         0.30129E-09
         0.56962E-09
         0.62678E-09
         0.50974E-09
         0.64865E-09
         0.12044E-08
         0.94125E-09
         0.11965E-08
         0.70310E-09
         0.80321E-09
         0.75844E-09
         0.84031E-09
         0.64511E-09
         0.40065E-09
         0.76125E-09
         0.63320E-09
         0.66087E-09
         0.67676E-09
         0.58806E-09
         0.71657E-09
         0.90984E-09
         0.64263E-09
         0.10179E-08
         0.88522E-09
         0.40075E-09
         0.61813E-09
         0.70160E-09
         0.74146E-09
         0.71564E-09
         0.56240E-09
         0.35350E-09
         0.58412E-09
         0.77336E-09
         0.62425E-09
         0.54892E-09
         0.35963E-09
         0.61339E-09
         0.83274E-09
         0.87355E-09
         0.70511E-09
         0.43371E-09
         0.74599E-09
         0.27618E-09
         0.35141E-09
         0.32841E-09
         0.38771E-09
         0.37841E-09
         0.36747E-09
         0.39198E-09
         0.41417E-09
         0.38992E-09
         0.30436E-09
         0.24806E-09
         0.32003E-09
         0.42637E-09
         0.46858E-09
         0.44960E-09
         0.40544E-09
         0.36814E-09
         0.29899E-09
         0.25159E-09
         0.32876E-09
         0.43525E-09
         0.44963E-09
         0.36347E-09
         0.29511E-09
         0.36148E-09
         0.42766E-09
         0.91171E-09
         0.72323E-09
         0.77613E-09
         0.13354E-08
         0.71606E-09
         0.91379E-09
         0.51035E-09
         0.61313E-09
         0.10123E-08
         0.74243E-09
         0.30101E-09
         0.56952E-09
         0.62674E-09
         0.50903E-09
         0.64851E-09
         0.12047E-08
         0.94167E-09
         0.11971E-08
         0.70312E-09
         0.80331E-09
         0.75840E-09
         0.84034E-09
         0.64504E-09
         0.40061E-09
         0.76092E-09
         0.63314E-09
         0.65988E-09
         0.67609E-09
         0.58781E-09
         0.71641E-09
         0.90993E-09
         0.64255E-09
         0.10184E-08
         0.88601E-09
         0.40075E-09
         0.61801E-09
         0.70151E-09
         0.74140E-09
         0.71569E-09
         0.56243E-09
         0.35350E-09
         0.58404E-09
         0.77332E-09
         0.62416E-09
         0.54879E-09
         0.35953E-09
         0.61334E-09
         0.83274E-09
         0.87368E-09
         0.70525E-09
         0.43372E-09
         0.74636E-09
         0.27609E-09
         0.35141E-09
         0.32825E-09
         0.38772E-09
         0.37849E-09
         0.36754E-09
         0.39215E-09
         0.41447E-09
         0.39014E-09
         0.30443E-09
         0.24808E-09
         0.32004E-09
         0.42642E-09
         0.46868E-09
         0.44965E-09
         0.40543E-09
         0.36812E-09
         0.29897E-09
         0.25155E-09
         0.32874E-09
         0.43524E-09
         0.44963E-09
         0.36340E-09
         0.29504E-09
         0.36153E-09
         0.42764E-09
         0.91176E-09
         0.72308E-09
         0.77620E-09
         0.13360E-08
         0.71617E-09
         0.91407E-09
         0.51008E-09
         0.61276E-09
         0.10126E-08
         0.74195E-09
         0.30072E-09
         0.56942E-09
         0.62670E-09
         0.50832E-09
         0.64838E-09
         0.12051E-08
         0.94210E-09
         0.11977E-08
         0.70314E-09
         0.80341E-09
         0.75837E-09
         0.84038E-09
         0.64498E-09
         0.40056E-09
         0.76060E-09
         0.63309E-09
         0.65888E-09
         0.67542E-09
         0.58756E-09
         0.71624E-09
         0.91002E-09
         0.64247E-09
         0.10189E-08
         0.88682E-09
         0.40074E-09
         0.61790E-09
         0.70142E-09
         0.74135E-09
         0.71574E-09
         0.56245E-09
         0.35351E-09
         0.58396E-09
         0.77328E-09
         0.62407E-09
         0.54866E-09
         0.35944E-09
         0.61329E-09
         0.83275E-09
         0.87382E-09
         0.70539E-09
         0.43373E-09
         0.74673E-09
         0.27601E-09
         0.35140E-09
         0.32809E-09
         0.38774E-09
         0.37858E-09
         0.36762E-09
         0.39232E-09
         0.41477E-09
         0.39037E-09
         0.30450E-09
         0.24810E-09
         0.32005E-09
         0.42648E-09
         0.46879E-09
         0.44970E-09
         0.40541E-09
         0.36809E-09
         0.29894E-09
         0.25151E-09
         0.32871E-09
         0.43523E-09
         0.44963E-09
         0.36333E-09
         0.29497E-09
         0.36157E-09
         0.42763E-09
         0.91182E-09
         0.72293E-09
         0.77627E-09
         0.13367E-08
         0.71629E-09
         0.91436E-09
         0.50982E-09
         0.61240E-09
         0.10130E-08
         0.74146E-09
         0.30043E-09
         0.56932E-09
         0.62666E-09
         0.50762E-09
         0.64825E-09
         0.12054E-08
         0.94253E-09
         0.11983E-08
         0.70317E-09
         0.80351E-09
         0.75834E-09
         0.84041E-09
         0.64491E-09
         0.40053E-09
         0.76028E-09
         0.63304E-09
         0.65790E-09
         0.67476E-09
         0.58731E-09
         0.71609E-09
         0.91012E-09
         0.64239E-09
         0.10195E-08
         0.88762E-09
         0.40074E-09
         0.61778E-09
         0.70133E-09
         0.74130E-09
         0.71579E-09
         0.56249E-09
         0.35351E-09
         0.58388E-09
         0.77324E-09
         0.62398E-09
         0.54853E-09
         0.35935E-09
         0.61324E-09
         0.83277E-09
         0.87396E-09
         0.70554E-09
         0.43375E-09
         0.74711E-09
         0.27592E-09
         0.35140E-09
         0.32793E-09
         0.38775E-09
         0.37867E-09
         0.36770E-09
         0.39249E-09
         0.41507E-09
         0.39061E-09
         0.30457E-09
         0.24812E-09
         0.32006E-09
         0.42654E-09
         0.46890E-09
         0.44975E-09
         0.40540E-09
         0.36807E-09
         0.29892E-09
         0.25148E-09
         0.32869E-09
         0.43522E-09
         0.44963E-09
         0.36325E-09
         0.29491E-09
         0.36162E-09
         0.42762E-09
         0.91187E-09
         0.72278E-09
         0.77633E-09
         0.13373E-08
         0.71640E-09
         0.91463E-09
         0.50955E-09
         0.61204E-09
         0.10134E-08
         0.74098E-09
         0.30015E-09
         0.56922E-09
         0.62662E-09
         0.50691E-09
         0.64811E-09
         0.12058E-08
         0.94296E-09
         0.11989E-08
         0.70320E-09
         0.80361E-09
         0.75831E-09
         0.84045E-09
         0.64485E-09
         0.40048E-09
         0.75995E-09
         0.63298E-09
         0.65690E-09
         0.67409E-09
         0.58706E-09
         0.71592E-09
         0.91020E-09
         0.64231E-09
         0.10200E-08
         0.88843E-09
         0.40074E-09
         0.61766E-09
         0.70124E-09
         0.74124E-09
         0.71584E-09
         0.56251E-09
         0.35351E-09
         0.58380E-09
         0.77320E-09
         0.62389E-09
         0.54840E-09
         0.35926E-09
         0.61318E-09
         0.83277E-09
         0.87409E-09
         0.70568E-09
         0.43376E-09
         0.74748E-09
         0.27584E-09
         0.35139E-09
         0.32777E-09
         0.38777E-09
         0.37876E-09
         0.36778E-09
         0.39266E-09
         0.41536E-09
         0.39084E-09
         0.30464E-09
         0.24814E-09
         0.32006E-09
         0.42659E-09
         0.46900E-09
         0.44980E-09
         0.40539E-09
         0.36805E-09
         0.29890E-09
         0.25144E-09
         0.32867E-09
         0.43521E-09
         0.44963E-09
         0.36318E-09
         0.29485E-09
         0.36166E-09
         0.42761E-09
         0.91192E-09
         0.72263E-09
         0.77640E-09
         0.13380E-08
         0.71652E-09
         0.91491E-09
         0.50928E-09
         0.61167E-09
         0.10137E-08
         0.74049E-09
         0.29986E-09
         0.56912E-09
         0.62657E-09
         0.50620E-09
         0.64797E-09
         0.12061E-08
         0.94339E-09
         0.11995E-08
         0.70322E-09
         0.80371E-09
         0.75827E-09
         0.84048E-09
         0.64478E-09
         0.40044E-09
         0.75962E-09
         0.63293E-09
         0.65591E-09
         0.67343E-09
         0.58681E-09
         0.71576E-09
         0.91029E-09
         0.64223E-09
         0.10205E-08
         0.88923E-09
         0.40073E-09
         0.61754E-09
         0.70114E-09
         0.74119E-09
         0.71588E-09
         0.56254E-09
         0.35351E-09
         0.58372E-09
         0.77316E-09
         0.62380E-09
         0.54827E-09
         0.35917E-09
         0.61313E-09
         0.83278E-09
         0.87422E-09
         0.70582E-09
         0.43377E-09
         0.74785E-09
         0.27575E-09
         0.35138E-09
         0.32761E-09
         0.38778E-09
         0.37885E-09
         0.36786E-09
         0.39283E-09
         0.41566E-09
         0.39107E-09
         0.30470E-09
         0.24816E-09
         0.32007E-09
         0.42665E-09
         0.46911E-09
         0.44985E-09
         0.40538E-09
         0.36802E-09
         0.29887E-09
         0.25140E-09
         0.32864E-09
         0.43520E-09
         0.44963E-09
         0.36310E-09
         0.29478E-09
         0.36170E-09
         0.42760E-09
         0.91198E-09
         0.72248E-09
         0.77646E-09
         0.13386E-08
         0.71663E-09
         0.91520E-09
         0.50901E-09
         0.61131E-09
         0.10141E-08
         0.74000E-09
         0.29957E-09
         0.56902E-09
         0.62653E-09
         0.50549E-09
         0.64784E-09
         0.12065E-08
         0.94382E-09
         0.12002E-08
         0.70325E-09
         0.80381E-09
         0.75824E-09
         0.84052E-09
         0.64472E-09
         0.40040E-09
         0.75929E-09
         0.63288E-09
         0.65492E-09
         0.67276E-09
         0.58657E-09
         0.71560E-09
         0.91038E-09
         0.64216E-09
         0.10211E-08
         0.89003E-09
         0.40073E-09
         0.61742E-09
         0.70105E-09
         0.74114E-09
         0.71593E-09
         0.56257E-09
         0.35351E-09
         0.58364E-09
         0.77313E-09
         0.62371E-09
         0.54814E-09
         0.35908E-09
         0.61308E-09
         0.83280E-09
         0.87436E-09
         0.70597E-09
         0.43378E-09
         0.74823E-09
         0.27567E-09
         0.35138E-09
         0.32745E-09
         0.38779E-09
         0.37893E-09
         0.36794E-09
         0.39300E-09
         0.41596E-09
         0.39130E-09
         0.30477E-09
         0.24818E-09
         0.32008E-09
         0.42671E-09
         0.46921E-09
         0.44991E-09
         0.40537E-09
         0.36800E-09
         0.29885E-09
         0.25136E-09
         0.32862E-09
         0.43520E-09
         0.44963E-09
         0.36303E-09
         0.29472E-09
         0.36175E-09
         0.42759E-09
         0.91203E-09
         0.72233E-09
         0.77653E-09
         0.13392E-08
         0.71675E-09
         0.91547E-09
         0.50875E-09
         0.61094E-09
         0.10144E-08
         0.73952E-09
         0.29928E-09
         0.56892E-09
         0.62649E-09
         0.50478E-09
         0.64770E-09
         0.12068E-08
         0.94424E-09
         0.12008E-08
         0.70327E-09
         0.80391E-09
         0.75821E-09
         0.84055E-09
         0.64465E-09
         0.40035E-09
         0.75896E-09
         0.63282E-09
         0.65393E-09
         0.67210E-09
         0.58632E-09
         0.71543E-09
         0.91047E-09
         0.64208E-09
         0.10216E-08
         0.89084E-09
         0.40073E-09
         0.61730E-09
         0.70096E-09
         0.74108E-09
         0.71598E-09
         0.56259E-09
         0.35351E-09
         0.58356E-09
         0.77309E-09
         0.62362E-09
         0.54801E-09
         0.35898E-09
         0.61303E-09
         0.83281E-09
         0.87449E-09
         0.70611E-09
         0.43379E-09
         0.74860E-09
         0.27558E-09
         0.35137E-09
         0.32729E-09
         0.38781E-09
         0.37902E-09
         0.36802E-09
         0.39317E-09
         0.41625E-09
         0.39153E-09
         0.30484E-09
         0.24820E-09
         0.32009E-09
         0.42677E-09
         0.46932E-09
         0.44996E-09
         0.40536E-09
         0.36798E-09
         0.29883E-09
         0.25132E-09
         0.32859E-09
         0.43519E-09
         0.44963E-09
         0.36296E-09
         0.29465E-09
         0.36179E-09
         0.42758E-09
         0.91208E-09
         0.72218E-09
         0.77659E-09
         0.13399E-08
         0.71686E-09
         0.91576E-09
         0.50848E-09
         0.61058E-09
         0.10148E-08
         0.73903E-09
         0.29900E-09
         0.56882E-09
         0.62645E-09
         0.50408E-09
         0.64757E-09
         0.12072E-08
         0.94467E-09
         0.12014E-08
         0.70330E-09
         0.80401E-09
         0.75818E-09
         0.84059E-09
         0.64459E-09
         0.40031E-09
         0.75864E-09
         0.63277E-09
         0.65294E-09
         0.67143E-09
         0.58607E-09
         0.71527E-09
         0.91057E-09
         0.64200E-09
         0.10221E-08
         0.89164E-09
         0.40072E-09
         0.61719E-09
         0.70087E-09
         0.74103E-09
         0.71603E-09
         0.56262E-09
         0.35352E-09
         0.58348E-09
         0.77305E-09
         0.62354E-09
         0.54788E-09
         0.35889E-09
         0.61298E-09
         0.83282E-09
         0.87463E-09
         0.70626E-09
         0.43380E-09
         0.74897E-09
         0.27550E-09
         0.35137E-09
         0.32713E-09
         0.38782E-09
         0.37911E-09
         0.36810E-09
         0.39334E-09
         0.41655E-09
         0.39176E-09
         0.30491E-09
         0.24822E-09
         0.32010E-09
         0.42682E-09
         0.46942E-09
         0.45001E-09
         0.40534E-09
         0.36796E-09
         0.29881E-09
         0.25128E-09
         0.32857E-09
         0.43518E-09
         0.44963E-09
         0.36288E-09
         0.29459E-09
         0.36184E-09
         0.42757E-09
         0.91214E-09
         0.72204E-09
         0.77666E-09
         0.13405E-08
         0.71698E-09
         0.91604E-09
         0.50822E-09
         0.61022E-09
         0.10151E-08
         0.73855E-09
         0.29871E-09
         0.56872E-09
         0.62641E-09
         0.50337E-09
         0.64743E-09
         0.12075E-08
         0.94510E-09
         0.12020E-08
         0.70333E-09
         0.80411E-09
         0.75815E-09
         0.84063E-09
         0.64453E-09
         0.40027E-09
         0.75831E-09
         0.63272E-09
         0.65196E-09
         0.67077E-09
         0.58582E-09
         0.71511E-09
         0.91066E-09
         0.64192E-09
         0.10227E-08
         0.89245E-09
         0.40072E-09
         0.61707E-09
         0.70078E-09
         0.74098E-09
         0.71608E-09
         0.56265E-09
         0.35352E-09
         0.58340E-09
         0.77301E-09
         0.62345E-09
         0.54775E-09
         0.35880E-09
         0.61293E-09
         0.83283E-09
         0.87476E-09
         0.70641E-09
         0.43382E-09
         0.74935E-09
         0.27541E-09
         0.35136E-09
         0.32697E-09
         0.38784E-09
         0.37920E-09
         0.36818E-09
         0.39352E-09
         0.41685E-09
         0.39199E-09
         0.30498E-09
         0.24824E-09
         0.32011E-09
         0.42688E-09
         0.46953E-09
         0.45007E-09
         0.40533E-09
         0.36793E-09
         0.29878E-09
         0.25124E-09
         0.32855E-09
         0.43517E-09
         0.44963E-09
         0.36281E-09
         0.29452E-09
         0.36188E-09
         0.42756E-09
         0.91219E-09
         0.72188E-09
         0.77672E-09
         0.13412E-08
         0.71709E-09
         0.91632E-09
         0.50795E-09
         0.60986E-09
         0.10155E-08
         0.73806E-09
         0.29842E-09
         0.56862E-09
         0.62636E-09
         0.50266E-09
         0.64730E-09
         0.12079E-08
         0.94552E-09
         0.12026E-08
         0.70335E-09
         0.80421E-09
         0.75811E-09
         0.84066E-09
         0.64446E-09
         0.40023E-09
         0.75798E-09
         0.63267E-09
         0.65096E-09
         0.67010E-09
         0.58557E-09
         0.71494E-09
         0.91074E-09
         0.64184E-09
         0.10232E-08
         0.89325E-09
         0.40072E-09
         0.61695E-09
         0.70069E-09
         0.74092E-09
         0.71612E-09
         0.56268E-09
         0.35352E-09
         0.58332E-09
         0.77297E-09
         0.62336E-09
         0.54762E-09
         0.35871E-09
         0.61287E-09
         0.83284E-09
         0.87489E-09
         0.70655E-09
         0.43383E-09
         0.74972E-09
         0.27533E-09
         0.35136E-09
         0.32681E-09
         0.38785E-09
         0.37929E-09
         0.36825E-09
         0.39369E-09
         0.41715E-09
         0.39222E-09
         0.30505E-09
         0.24826E-09
         0.32011E-09
         0.42694E-09
         0.46963E-09
         0.45011E-09
         0.40532E-09
         0.36791E-09
         0.29876E-09
         0.25120E-09
         0.32853E-09
         0.43516E-09
         0.44962E-09
         0.36274E-09
         0.29445E-09
         0.36192E-09
         0.42755E-09
         0.91224E-09
         0.72173E-09
         0.77679E-09
         0.13418E-08
         0.71720E-09
         0.91660E-09
         0.50768E-09
         0.60949E-09
         0.10158E-08
         0.73758E-09
         0.29814E-09
         0.56852E-09
         0.62632E-09
         0.50195E-09
         0.64716E-09
         0.12082E-08
         0.94595E-09
         0.12032E-08
         0.70337E-09
         0.80431E-09
         0.75808E-09
         0.84069E-09
         0.64440E-09
         0.40018E-09
         0.75766E-09
         0.63262E-09
         0.64998E-09
         0.66943E-09
         0.58532E-09
         0.71478E-09
         0.91083E-09
         0.64176E-09
         0.10238E-08
         0.89406E-09
         0.40071E-09
         0.61683E-09
         0.70059E-09
         0.74087E-09
         0.71617E-09
         0.56270E-09
         0.35352E-09
         0.58324E-09
         0.77294E-09
         0.62327E-09
         0.54749E-09
         0.35861E-09
         0.61282E-09
         0.83284E-09
         0.87503E-09
         0.70669E-09
         0.43384E-09
         0.75009E-09
         0.27524E-09
         0.35135E-09
         0.32665E-09
         0.38786E-09
         0.37937E-09
         0.36833E-09
         0.39386E-09
         0.41745E-09
         0.39245E-09
         0.30512E-09
         0.24828E-09
         0.32012E-09
         0.42699E-09
         0.46974E-09
         0.45017E-09
         0.40531E-09
         0.36788E-09
         0.29873E-09
         0.25117E-09
         0.32850E-09
         0.43515E-09
         0.44962E-09
         0.36266E-09
         0.29439E-09
         0.36197E-09
         0.42754E-09
         0.91230E-09
         0.72159E-09
         0.77686E-09
         0.13425E-08
         0.71732E-09
         0.91688E-09
         0.50742E-09
         0.60913E-09
         0.10162E-08
         0.73710E-09
         0.29785E-09
         0.56842E-09
         0.62628E-09
         0.50125E-09
         0.64703E-09
         0.12086E-08
         0.94638E-09
         0.12038E-08
         0.70340E-09
         0.80441E-09
         0.75805E-09
         0.84073E-09
         0.64433E-09
         0.40014E-09
         0.75733E-09
         0.63257E-09
         0.64899E-09
         0.66877E-09
         0.58508E-09
         0.71462E-09
         0.91093E-09
         0.64169E-09
         0.10243E-08
         0.89487E-09
         0.40071E-09
         0.61671E-09
         0.70051E-09
         0.74082E-09
         0.71622E-09
         0.56273E-09
         0.35352E-09
         0.58316E-09
         0.77290E-09
         0.62318E-09
         0.54737E-09
         0.35852E-09
         0.61277E-09
         0.83286E-09
         0.87517E-09
         0.70684E-09
         0.43385E-09
         0.75047E-09
         0.27516E-09
         0.35135E-09
         0.32649E-09
         0.38788E-09
         0.37946E-09
         0.36841E-09
         0.39403E-09
         0.41775E-09
         0.39268E-09
         0.30519E-09
         0.24830E-09
         0.32013E-09
         0.42705E-09
         0.46985E-09
         0.45022E-09
         0.40530E-09
         0.36786E-09
         0.29871E-09
         0.25113E-09
         0.32848E-09
         0.43515E-09
         0.44962E-09
         0.36259E-09
         0.29433E-09
         0.36201E-09
         0.42753E-09
         0.91235E-09
         0.72143E-09
         0.77692E-09
         0.13431E-08
         0.71743E-09
         0.91716E-09
         0.50715E-09
         0.60877E-09
         0.10165E-08
         0.73661E-09
         0.29757E-09
         0.56832E-09
         0.62624E-09
         0.50054E-09
         0.64689E-09
         0.12089E-08
         0.94680E-09
         0.12044E-08
         0.70342E-09
         0.80450E-09
         0.75802E-09
         0.84076E-09
         0.64427E-09
         0.40010E-09
         0.75700E-09
         0.63251E-09
         0.64800E-09
         0.66810E-09
         0.58482E-09
         0.71445E-09
         0.91101E-09
         0.64161E-09
         0.10248E-08
         0.89567E-09
         0.40071E-09
         0.61659E-09
         0.70041E-09
         0.74077E-09
         0.71627E-09
         0.56276E-09
         0.35352E-09
         0.58308E-09
         0.77286E-09
         0.62309E-09
         0.54723E-09
         0.35843E-09
         0.61272E-09
         0.83287E-09
         0.87530E-09
         0.70698E-09
         0.43386E-09
         0.75084E-09
         0.27507E-09
         0.35134E-09
         0.32633E-09
         0.38789E-09
         0.37955E-09
         0.36849E-09
         0.39420E-09
         0.41804E-09
         0.39291E-09
         0.30525E-09
         0.24832E-09
         0.32014E-09
         0.42711E-09
         0.46995E-09
         0.45027E-09
         0.40528E-09
         0.36784E-09
         0.29869E-09
         0.25109E-09
         0.32845E-09
         0.43514E-09
         0.44962E-09
         0.36252E-09
         0.29426E-09
         0.36206E-09
         0.42751E-09
         0.91240E-09
         0.72128E-09
         0.77698E-09
         0.13437E-08
         0.71755E-09
         0.91744E-09
         0.50688E-09
         0.60841E-09
         0.10169E-08
         0.73612E-09
         0.29728E-09
         0.56822E-09
         0.62619E-09
         0.49984E-09
         0.64676E-09
         0.12093E-08
         0.94723E-09
         0.12050E-08
         0.70345E-09
         0.80460E-09
         0.75798E-09
         0.84080E-09
         0.64420E-09
         0.40006E-09
         0.75667E-09
         0.63246E-09
         0.64701E-09
         0.66744E-09
         0.58457E-09
         0.71429E-09
         0.91110E-09
         0.64153E-09
         0.10254E-08
         0.89648E-09
         0.40070E-09
         0.61647E-09
         0.70032E-09
         0.74071E-09
         0.71632E-09
         0.56279E-09
         0.35353E-09
         0.58300E-09
         0.77282E-09
         0.62300E-09
         0.54710E-09
         0.35834E-09
         0.61266E-09
         0.83288E-09
         0.87543E-09
         0.70713E-09
         0.43387E-09
         0.75122E-09
         0.27499E-09
         0.35133E-09
         0.32617E-09
         0.38790E-09
         0.37964E-09
         0.36857E-09
         0.39437E-09
         0.41834E-09
         0.39314E-09
         0.30532E-09
         0.24834E-09
         0.32014E-09
         0.42716E-09
         0.47005E-09
         0.45032E-09
         0.40527E-09
         0.36781E-09
         0.29866E-09
         0.25105E-09
         0.32843E-09
         0.43513E-09
         0.44962E-09
         0.36244E-09
         0.29419E-09
         0.36210E-09
         0.42750E-09
         0.91246E-09
         0.72114E-09
         0.77705E-09
         0.13444E-08
         0.71767E-09
         0.91773E-09
         0.50662E-09
         0.60805E-09
         0.10173E-08
         0.73564E-09
         0.29700E-09
         0.56812E-09
         0.62616E-09
         0.49914E-09
         0.64663E-09
         0.12097E-08
         0.94766E-09
         0.12056E-08
         0.70348E-09
         0.80471E-09
         0.75796E-09
         0.84084E-09
         0.64414E-09
         0.40002E-09
         0.75635E-09
         0.63241E-09
         0.64603E-09
         0.66678E-09
         0.58433E-09
         0.71413E-09
         0.91120E-09
         0.64146E-09
         0.10259E-08
         0.89729E-09
         0.40070E-09
         0.61636E-09
         0.70023E-09
         0.74067E-09
         0.71637E-09
         0.56282E-09
         0.35353E-09
         0.58293E-09
         0.77279E-09
         0.62291E-09
         0.54698E-09
         0.35825E-09
         0.61261E-09
         0.83289E-09
         0.87557E-09
         0.70728E-09
         0.43389E-09
         0.75160E-09
         0.27491E-09
         0.35133E-09
         0.32601E-09
         0.38792E-09
         0.37972E-09
         0.36865E-09
         0.39454E-09
         0.41864E-09
         0.39337E-09
         0.30539E-09
         0.24836E-09
         0.32015E-09
         0.42722E-09
         0.47016E-09
         0.45038E-09
         0.40526E-09
         0.36779E-09
         0.29864E-09
         0.25101E-09
         0.32841E-09
         0.43512E-09
         0.44962E-09
         0.36237E-09
         0.29413E-09
         0.36215E-09
         0.42750E-09
         0.91249E-09
         0.72097E-09
         0.77710E-09
         0.13450E-08
         0.71777E-09
         0.91799E-09
         0.50634E-09
         0.60767E-09
         0.10176E-08
         0.73514E-09
         0.29670E-09
         0.56801E-09
         0.62610E-09
         0.49842E-09
         0.64648E-09
         0.12100E-08
         0.94806E-09
         0.12062E-08
         0.70349E-09
         0.80479E-09
         0.75791E-09
         0.84086E-09
         0.64406E-09
         0.39997E-09
         0.75600E-09
         0.63234E-09
         0.64503E-09
         0.66610E-09
         0.58407E-09
         0.71395E-09
         0.91127E-09
         0.64136E-09
         0.10264E-08
         0.89808E-09
         0.40069E-09
         0.61622E-09
         0.70012E-09
         0.74060E-09
         0.71641E-09
         0.56283E-09
         0.35352E-09
         0.58283E-09
         0.77273E-09
         0.62281E-09
         0.54684E-09
         0.35815E-09
         0.61255E-09
         0.83288E-09
         0.87569E-09
         0.70741E-09
         0.43389E-09
         0.75195E-09
         0.27482E-09
         0.35132E-09
         0.32584E-09
         0.38793E-09
         0.37980E-09
         0.36872E-09
         0.39470E-09
         0.41893E-09
         0.39360E-09
         0.30545E-09
         0.24837E-09
         0.32016E-09
         0.42727E-09
         0.47026E-09
         0.45042E-09
         0.40524E-09
         0.36776E-09
         0.29861E-09
         0.25097E-09
         0.32838E-09
         0.43510E-09
         0.44961E-09
         0.36229E-09
         0.29406E-09
         0.36218E-09
         0.42748E-09
         0.91256E-09
         0.72083E-09
         0.77718E-09
         0.13457E-08
         0.71789E-09
         0.91829E-09
         0.50608E-09
         0.60732E-09
         0.10180E-08
         0.73467E-09
         0.29642E-09
         0.56792E-09
         0.62607E-09
         0.49772E-09
         0.64636E-09
         0.12103E-08
         0.94850E-09
         0.12068E-08
         0.70352E-09
         0.80490E-09
         0.75789E-09
         0.84091E-09
         0.64401E-09
         0.39993E-09
         0.75569E-09
         0.63230E-09
         0.64405E-09
         0.66544E-09
         0.58382E-09
         0.71379E-09
         0.91137E-09
         0.64129E-09
         0.10270E-08
         0.89890E-09
         0.40069E-09
         0.61611E-09
         0.70004E-09
         0.74056E-09
         0.71646E-09
         0.56287E-09
         0.35353E-09
         0.58276E-09
         0.77271E-09
         0.62273E-09
         0.54672E-09
         0.35806E-09
         0.61251E-09
         0.83291E-09
         0.87583E-09
         0.70756E-09
         0.43391E-09
         0.75234E-09
         0.27474E-09
         0.35132E-09
         0.32569E-09
         0.38794E-09
         0.37990E-09
         0.36881E-09
         0.39488E-09
         0.41923E-09
         0.39383E-09
         0.30553E-09
         0.24840E-09
         0.32017E-09
         0.42734E-09
         0.47037E-09
         0.45048E-09
         0.40524E-09
         0.36774E-09
         0.29859E-09
         0.25093E-09
         0.32836E-09
         0.43510E-09
         0.44962E-09
         0.36222E-09
         0.29400E-09
         0.36223E-09
         0.42747E-09
         0.45631E-09
         0.36039E-09
         0.38862E-09
         0.67302E-09
         0.35899E-09
         0.45923E-09
         0.25298E-09
         0.30358E-09
         0.50909E-09
         0.36723E-09
         0.14815E-09
         0.28394E-09
         0.31303E-09
         0.24869E-09
         0.32316E-09
         0.60528E-09
         0.47437E-09
         0.60357E-09
         0.35178E-09
         0.40249E-09
         0.37895E-09
         0.42048E-09
         0.32200E-09
         0.19996E-09
         0.37777E-09
         0.31615E-09
         0.32179E-09
         0.33257E-09
         0.29186E-09
         0.35687E-09
         0.45572E-09
         0.32064E-09
         0.51365E-09
         0.44967E-09
         0.20035E-09
         0.30804E-09
         0.35001E-09
         0.37028E-09
         0.35826E-09
         0.28145E-09
         0.17677E-09
         0.29137E-09
         0.38636E-09
         0.31135E-09
         0.27333E-09
         0.17901E-09
         0.30625E-09
         0.41647E-09
         0.43797E-09
         0.35383E-09
         0.21697E-09
         0.37628E-09
         0.13735E-09
         0.17566E-09
         0.16281E-09
         0.19398E-09
         0.18998E-09
         0.18443E-09
         0.19749E-09
         0.20970E-09
         0.19698E-09
         0.15279E-09
         0.12421E-09
         0.16009E-09
         0.21369E-09
         0.23522E-09
         0.22526E-09
         0.20262E-09
         0.18387E-09
         0.14930E-09
         0.12546E-09
         0.16418E-09
         0.21756E-09
         0.22482E-09
         0.18110E-09
         0.14699E-09
         0.18113E-09
         0.21374E-09
  
SCALARS               pre_disp_force_x  double 1
LOOKUP_TABLE default
         0.00000E+00
         0.00000E+00
         0.00000E+00
         0.00000E+00
         0.00000E+00
         0.00000E+00
         0.00000E+00
         0.00000E+00
         0.00000E+00
         0.00000E+00
         0.00000E+00
         0.00000E+00
         0.00000E+00
         0.00000E+00
         0.00000E+00
         0.00000E+00
         0.00000E+00
         0.00000E+00
         0.00000E+00
         0.00000E+00
         0.00000E+00
         0.00000E+00
         0.00000E+00
         0.00000E+00
         0.00000E+00
         0.00000E+00
         0.00000E+00
         0.00000E+00
         0.00000E+00
         0.00000E+00
         0.00000E+00
         0.00000E+00
         0.00000E+00
         0.00000E+00
         0.00000E+00
         0.00000E+00
         0.00000E+00
         0.00000E+00
         0.00000E+00
         0.00000E+00
         0.00000E+00
         0.00000E+00
         0.00000E+00
         0.00000E+00
         0.00000E+00
         0.00000E+00
         0.00000E+00
         0.00000E+00
         0.00000E+00
         0.00000E+00
         0.00000E+00
         0.00000E+00
         0.00000E+00
         0.00000E+00
         0.00000E+00
         0.00000E+00
         0.00000E+00
         0.00000E+00
         0.00000E+00
         0.00000E+00
         0.00000E+00
         0.00000E+00
         0.00000E+00
         0.00000E+00
         0.00000E+00
         0.00000E+00
         0.00000E+00
         0.00000E+00
         0.00000E+00
         0.00000E+00
         0.00000E+00
         0.00000E+00
         0.00000E+00
         0.00000E+00
         0.00000E+00
         0.00000E+00
         0.00000E+00
         0.00000E+00
         0.00000E+00
         0.00000E+00
         0.00000E+00
         0.00000E+00
         0.00000E+00
         0.00000E+00
         0.00000E+00
         0.00000E+00
         0.00000E+00
         0.00000E+00
         0.00000E+00
         0.00000E+00
         0.00000E+00
         0.00000E+00
         0.00000E+00
         0.00000E+00
         0.00000E+00
         0.00000E+00
         0.00000E+00
         0.00000E+00
         0.00000E+00
         0.00000E+00
         0.00000E+00
         0.00000E+00
         0.00000E+00
         0.00000E+00
         0.00000E+00
         0.00000E+00
         0.00000E+00
         0.00000E+00
         0.00000E+00
         0.00000E+00
         0.00000E+00
         0.00000E+00
         0.00000E+00
         0.00000E+00
         0.00000E+00
         0.00000E+00
         0.00000E+00
         0.00000E+00
         0.00000E+00
         0.00000E+00
         0.00000E+00
         0.00000E+00
         0.00000E+00
         0.00000E+00
         0.00000E+00
         0.00000E+00
         0.00000E+00
         0.00000E+00
         0.00000E+00
         0.00000E+00
         0.00000E+00
         0.00000E+00
         0.00000E+00
         0.00000E+00
         0.00000E+00
         0.00000E+00
         0.00000E+00
         0.00000E+00
         0.00000E+00
         0.00000E+00
         0.00000E+00
         0.00000E+00
         0.00000E+00
         0.00000E+00
         0.00000E+00
         0.00000E+00
         0.00000E+00
         0.00000E+00
         0.00000E+00
         0.00000E+00
         0.00000E+00
         0.00000E+00
         0.00000E+00
         0.00000E+00
         0.00000E+00
         0.00000E+00
         0.00000E+00
         0.00000E+00
         0.00000E+00
         0.00000E+00
         0.00000E+00
         0.00000E+00
         0.00000E+00
         0.00000E+00
         0.00000E+00
         0.00000E+00
         0.00000E+00
         0.00000E+00
         0.00000E+00
         0.00000E+00
         0.00000E+00
         0.00000E+00
         0.00000E+00
         0.00000E+00
         0.00000E+00
         0.00000E+00
         0.00000E+00
         0.00000E+00
         0.00000E+00
         0.00000E+00
         0.00000E+00
         0.00000E+00
         0.00000E+00
         0.00000E+00
         0.00000E+00
         0.00000E+00
         0.00000E+00
         0.00000E+00
         0.00000E+00
         0.00000E+00
         0.00000E+00
         0.00000E+00
         0.00000E+00
         0.00000E+00
         0.00000E+00
         0.00000E+00
         0.00000E+00
         0.00000E+00
         0.00000E+00
         0.00000E+00
         0.00000E+00
         0.00000E+00
         0.00000E+00
         0.00000E+00
         0.00000E+00
         0.00000E+00
         0.00000E+00
         0.00000E+00
         0.00000E+00
         0.00000E+00
         0.00000E+00
         0.00000E+00
         0.00000E+00
         0.00000E+00
         0.00000E+00
         0.00000E+00
         0.00000E+00
         0.00000E+00
         0.00000E+00
         0.00000E+00
         0.00000E+00
         0.00000E+00
         0.00000E+00
         0.00000E+00
         0.00000E+00
         0.00000E+00
         0.00000E+00
         0.00000E+00
         0.00000E+00
         0.00000E+00
         0.00000E+00
         0.00000E+00
         0.00000E+00
         0.00000E+00
         0.00000E+00
         0.00000E+00
         0.00000E+00
         0.00000E+00
         0.00000E+00
         0.00000E+00
         0.00000E+00
         0.00000E+00
         0.00000E+00
         0.00000E+00
         0.00000E+00
         0.00000E+00
         0.00000E+00
         0.00000E+00
         0.00000E+00
         0.00000E+00
         0.00000E+00
         0.00000E+00
         0.00000E+00
         0.00000E+00
         0.00000E+00
         0.00000E+00
         0.00000E+00
         0.00000E+00
         0.00000E+00
         0.00000E+00
         0.00000E+00
         0.00000E+00
         0.00000E+00
         0.00000E+00
         0.00000E+00
         0.00000E+00
         0.00000E+00
         0.00000E+00
         0.00000E+00
         0.00000E+00
         0.00000E+00
         0.00000E+00
         0.00000E+00
         0.00000E+00
         0.00000E+00
         0.00000E+00
         0.00000E+00
         0.00000E+00
         0.00000E+00
         0.00000E+00
         0.00000E+00
         0.00000E+00
         0.00000E+00
         0.00000E+00
         0.00000E+00
         0.00000E+00
         0.00000E+00
         0.00000E+00
         0.00000E+00
         0.00000E+00
         0.00000E+00
         0.00000E+00
         0.00000E+00
         0.00000E+00
         0.00000E+00
         0.00000E+00
         0.00000E+00
         0.00000E+00
         0.00000E+00
         0.00000E+00
         0.00000E+00
         0.00000E+00
         0.00000E+00
         0.00000E+00
         0.00000E+00
         0.00000E+00
         0.00000E+00
         0.00000E+00
         0.00000E+00
         0.00000E+00
         0.00000E+00
         0.00000E+00
         0.00000E+00
         0.00000E+00
         0.00000E+00
         0.00000E+00
         0.00000E+00
         0.00000E+00
         0.00000E+00
         0.00000E+00
         0.00000E+00
         0.00000E+00
         0.00000E+00
         0.00000E+00
         0.00000E+00
         0.00000E+00
         0.00000E+00
         0.00000E+00
         0.00000E+00
         0.00000E+00
         0.00000E+00
         0.00000E+00
         0.00000E+00
         0.00000E+00
         0.00000E+00
         0.00000E+00
         0.00000E+00
         0.00000E+00
         0.00000E+00
         0.00000E+00
         0.00000E+00
         0.00000E+00
         0.00000E+00
         0.00000E+00
         0.00000E+00
         0.00000E+00
         0.00000E+00
         0.00000E+00
         0.00000E+00
         0.00000E+00
         0.00000E+00
         0.00000E+00
         0.00000E+00
         0.00000E+00
         0.00000E+00
         0.00000E+00
         0.00000E+00
         0.00000E+00
         0.00000E+00
         0.00000E+00
         0.00000E+00
         0.00000E+00
         0.00000E+00
         0.00000E+00
         0.00000E+00
         0.00000E+00
         0.00000E+00
         0.00000E+00
         0.00000E+00
         0.00000E+00
         0.00000E+00
         0.00000E+00
         0.00000E+00
         0.00000E+00
         0.00000E+00
         0.00000E+00
         0.00000E+00
         0.00000E+00
         0.00000E+00
         0.00000E+00
         0.00000E+00
         0.00000E+00
         0.00000E+00
         0.00000E+00
         0.00000E+00
         0.00000E+00
         0.00000E+00
         0.00000E+00
         0.00000E+00
         0.00000E+00
         0.00000E+00
         0.00000E+00
         0.00000E+00
         0.00000E+00
         0.00000E+00
         0.00000E+00
         0.00000E+00
         0.00000E+00
         0.00000E+00
         0.00000E+00
         0.00000E+00
         0.00000E+00
         0.00000E+00
         0.00000E+00
         0.00000E+00
         0.00000E+00
         0.00000E+00
         0.00000E+00
         0.00000E+00
         0.00000E+00
         0.00000E+00
         0.00000E+00
         0.00000E+00
         0.00000E+00
         0.00000E+00
         0.00000E+00
         0.00000E+00
         0.00000E+00
         0.00000E+00
         0.00000E+00
         0.00000E+00
         0.00000E+00
         0.00000E+00
         0.00000E+00
         0.00000E+00
         0.00000E+00
         0.00000E+00
         0.00000E+00
         0.00000E+00
         0.00000E+00
         0.00000E+00
         0.00000E+00
         0.00000E+00
         0.00000E+00
         0.00000E+00
         0.00000E+00
         0.00000E+00
         0.00000E+00
         0.00000E+00
         0.00000E+00
         0.00000E+00
         0.00000E+00
         0.00000E+00
         0.00000E+00
         0.00000E+00
         0.00000E+00
         0.00000E+00
         0.00000E+00
         0.00000E+00
         0.00000E+00
         0.00000E+00
         0.00000E+00
         0.00000E+00
         0.00000E+00
         0.00000E+00
         0.00000E+00
         0.00000E+00
         0.00000E+00
         0.00000E+00
         0.00000E+00
         0.00000E+00
         0.00000E+00
         0.00000E+00
         0.00000E+00
         0.00000E+00
         0.00000E+00
         0.00000E+00
         0.00000E+00
         0.00000E+00
         0.00000E+00
         0.00000E+00
         0.00000E+00
         0.00000E+00
         0.00000E+00
         0.00000E+00
         0.00000E+00
         0.00000E+00
         0.00000E+00
         0.00000E+00
         0.00000E+00
         0.00000E+00
         0.00000E+00
         0.00000E+00
         0.00000E+00
         0.00000E+00
         0.00000E+00
         0.00000E+00
         0.00000E+00
         0.00000E+00
         0.00000E+00
         0.00000E+00
         0.00000E+00
         0.00000E+00
         0.00000E+00
         0.00000E+00
         0.00000E+00
         0.00000E+00
         0.00000E+00
         0.00000E+00
         0.00000E+00
         0.00000E+00
         0.00000E+00
         0.00000E+00
         0.00000E+00
         0.00000E+00
         0.00000E+00
         0.00000E+00
         0.00000E+00
         0.00000E+00
         0.00000E+00
         0.00000E+00
         0.00000E+00
         0.00000E+00
         0.00000E+00
         0.00000E+00
         0.00000E+00
         0.00000E+00
         0.00000E+00
         0.00000E+00
         0.00000E+00
         0.00000E+00
         0.00000E+00
         0.00000E+00
         0.00000E+00
         0.00000E+00
         0.00000E+00
         0.00000E+00
         0.00000E+00
         0.00000E+00
         0.00000E+00
         0.00000E+00
         0.00000E+00
         0.00000E+00
         0.00000E+00
         0.00000E+00
         0.00000E+00
         0.00000E+00
         0.00000E+00
         0.00000E+00
         0.00000E+00
         0.00000E+00
         0.00000E+00
         0.00000E+00
         0.00000E+00
         0.00000E+00
         0.00000E+00
         0.00000E+00
         0.00000E+00
         0.00000E+00
         0.00000E+00
         0.00000E+00
         0.00000E+00
         0.00000E+00
         0.00000E+00
         0.00000E+00
         0.00000E+00
         0.00000E+00
         0.00000E+00
         0.00000E+00
         0.00000E+00
         0.00000E+00
         0.00000E+00
         0.00000E+00
         0.00000E+00
         0.00000E+00
         0.00000E+00
         0.00000E+00
         0.00000E+00
         0.00000E+00
         0.00000E+00
         0.00000E+00
         0.00000E+00
         0.00000E+00
         0.00000E+00
         0.00000E+00
         0.00000E+00
         0.00000E+00
         0.00000E+00
         0.00000E+00
         0.00000E+00
         0.00000E+00
         0.00000E+00
         0.00000E+00
         0.00000E+00
         0.00000E+00
         0.00000E+00
         0.00000E+00
         0.00000E+00
         0.00000E+00
         0.00000E+00
         0.00000E+00
         0.00000E+00
         0.00000E+00
         0.00000E+00
         0.00000E+00
         0.00000E+00
         0.00000E+00
         0.00000E+00
         0.00000E+00
         0.00000E+00
         0.00000E+00
         0.00000E+00
         0.00000E+00
         0.00000E+00
         0.00000E+00
         0.00000E+00
         0.00000E+00
         0.00000E+00
         0.00000E+00
         0.00000E+00
         0.00000E+00
         0.00000E+00
         0.00000E+00
         0.00000E+00
         0.00000E+00
         0.00000E+00
         0.00000E+00
         0.00000E+00
         0.00000E+00
         0.00000E+00
         0.00000E+00
         0.00000E+00
         0.00000E+00
         0.00000E+00
         0.00000E+00
         0.00000E+00
         0.00000E+00
         0.00000E+00
         0.00000E+00
         0.00000E+00
         0.00000E+00
         0.00000E+00
         0.00000E+00
         0.00000E+00
         0.00000E+00
         0.00000E+00
         0.00000E+00
         0.00000E+00
         0.00000E+00
         0.00000E+00
         0.00000E+00
         0.00000E+00
         0.00000E+00
         0.00000E+00
         0.00000E+00
         0.00000E+00
         0.00000E+00
         0.00000E+00
         0.00000E+00
         0.00000E+00
         0.00000E+00
         0.00000E+00
         0.00000E+00
         0.00000E+00
         0.00000E+00
         0.00000E+00
         0.00000E+00
         0.00000E+00
         0.00000E+00
         0.00000E+00
         0.00000E+00
         0.00000E+00
         0.00000E+00
         0.00000E+00
         0.00000E+00
         0.00000E+00
         0.00000E+00
         0.00000E+00
         0.00000E+00
         0.00000E+00
         0.00000E+00
         0.00000E+00
         0.00000E+00
         0.00000E+00
         0.00000E+00
         0.00000E+00
         0.00000E+00
         0.00000E+00
         0.00000E+00
         0.00000E+00
         0.00000E+00
         0.00000E+00
         0.00000E+00
         0.00000E+00
         0.00000E+00
         0.00000E+00
         0.00000E+00
         0.00000E+00
         0.00000E+00
         0.00000E+00
         0.00000E+00
         0.00000E+00
         0.00000E+00
         0.00000E+00
         0.00000E+00
         0.00000E+00
         0.00000E+00
         0.00000E+00
         0.00000E+00
         0.00000E+00
         0.00000E+00
         0.00000E+00
         0.00000E+00
         0.00000E+00
         0.00000E+00
         0.00000E+00
         0.00000E+00
         0.00000E+00
         0.00000E+00
         0.00000E+00
         0.00000E+00
         0.00000E+00
         0.00000E+00
         0.00000E+00
         0.00000E+00
         0.00000E+00
         0.00000E+00
         0.00000E+00
         0.00000E+00
         0.00000E+00
         0.00000E+00
         0.00000E+00
         0.00000E+00
         0.00000E+00
         0.00000E+00
         0.00000E+00
         0.00000E+00
         0.00000E+00
         0.00000E+00
         0.00000E+00
         0.00000E+00
         0.00000E+00
         0.00000E+00
         0.00000E+00
         0.00000E+00
         0.00000E+00
         0.00000E+00
         0.00000E+00
         0.00000E+00
         0.00000E+00
         0.00000E+00
         0.00000E+00
         0.00000E+00
         0.00000E+00
         0.00000E+00
         0.00000E+00
         0.00000E+00
         0.00000E+00
         0.00000E+00
         0.00000E+00
         0.00000E+00
         0.00000E+00
         0.00000E+00
         0.00000E+00
         0.00000E+00
         0.00000E+00
         0.00000E+00
         0.00000E+00
         0.00000E+00
         0.00000E+00
         0.00000E+00
         0.00000E+00
         0.00000E+00
         0.00000E+00
         0.00000E+00
         0.00000E+00
         0.00000E+00
         0.00000E+00
         0.00000E+00
         0.00000E+00
         0.00000E+00
         0.00000E+00
         0.00000E+00
         0.00000E+00
         0.00000E+00
         0.00000E+00
         0.00000E+00
         0.00000E+00
         0.00000E+00
         0.00000E+00
         0.00000E+00
         0.00000E+00
         0.00000E+00
         0.00000E+00
         0.00000E+00
         0.00000E+00
         0.00000E+00
         0.00000E+00
         0.00000E+00
         0.00000E+00
         0.00000E+00
         0.00000E+00
         0.00000E+00
         0.00000E+00
         0.00000E+00
         0.00000E+00
         0.00000E+00
         0.00000E+00
         0.00000E+00
         0.00000E+00
         0.00000E+00
         0.00000E+00
         0.00000E+00
         0.00000E+00
         0.00000E+00
         0.00000E+00
         0.00000E+00
         0.00000E+00
         0.00000E+00
         0.00000E+00
         0.00000E+00
         0.00000E+00
         0.00000E+00
         0.00000E+00
         0.00000E+00
         0.00000E+00
         0.00000E+00
         0.00000E+00
         0.00000E+00
         0.00000E+00
         0.00000E+00
         0.00000E+00
         0.00000E+00
         0.00000E+00
         0.00000E+00
         0.00000E+00
         0.00000E+00
         0.00000E+00
         0.00000E+00
         0.00000E+00
         0.00000E+00
         0.00000E+00
         0.00000E+00
         0.00000E+00
         0.00000E+00
         0.00000E+00
         0.00000E+00
         0.00000E+00
         0.00000E+00
         0.00000E+00
         0.00000E+00
         0.00000E+00
         0.00000E+00
         0.00000E+00
         0.00000E+00
         0.00000E+00
         0.00000E+00
         0.00000E+00
         0.00000E+00
         0.00000E+00
         0.00000E+00
         0.00000E+00
         0.00000E+00
         0.00000E+00
         0.00000E+00
         0.00000E+00
         0.00000E+00
         0.00000E+00
         0.00000E+00
         0.00000E+00
         0.00000E+00
         0.00000E+00
         0.00000E+00
         0.00000E+00
         0.00000E+00
         0.00000E+00
         0.00000E+00
         0.00000E+00
         0.00000E+00
         0.00000E+00
         0.00000E+00
         0.00000E+00
         0.00000E+00
         0.00000E+00
         0.00000E+00
         0.00000E+00
         0.00000E+00
         0.00000E+00
         0.00000E+00
         0.00000E+00
         0.00000E+00
         0.00000E+00
         0.00000E+00
         0.00000E+00
         0.00000E+00
         0.00000E+00
         0.00000E+00
         0.00000E+00
         0.00000E+00
         0.00000E+00
         0.00000E+00
         0.00000E+00
         0.00000E+00
         0.00000E+00
         0.00000E+00
         0.00000E+00
         0.00000E+00
         0.00000E+00
         0.00000E+00
         0.00000E+00
         0.00000E+00
         0.00000E+00
         0.00000E+00
         0.00000E+00
         0.00000E+00
         0.00000E+00
         0.00000E+00
         0.00000E+00
         0.00000E+00
         0.00000E+00
         0.00000E+00
         0.00000E+00
         0.00000E+00
         0.00000E+00
         0.00000E+00
         0.00000E+00
         0.00000E+00
         0.00000E+00
         0.00000E+00
         0.00000E+00
         0.00000E+00
         0.00000E+00
         0.00000E+00
         0.00000E+00
         0.00000E+00
         0.00000E+00
         0.00000E+00
         0.00000E+00
         0.00000E+00
         0.00000E+00
         0.00000E+00
         0.00000E+00
         0.00000E+00
         0.00000E+00
         0.00000E+00
         0.00000E+00
         0.00000E+00
         0.00000E+00
         0.00000E+00
         0.00000E+00
         0.00000E+00
         0.00000E+00
         0.00000E+00
         0.00000E+00
         0.00000E+00
         0.00000E+00
         0.00000E+00
         0.00000E+00
         0.00000E+00
         0.00000E+00
         0.00000E+00
         0.00000E+00
         0.00000E+00
         0.00000E+00
         0.00000E+00
         0.00000E+00
         0.00000E+00
         0.00000E+00
         0.00000E+00
         0.00000E+00
         0.00000E+00
         0.00000E+00
         0.00000E+00
         0.00000E+00
         0.00000E+00
         0.00000E+00
         0.00000E+00
         0.00000E+00
         0.00000E+00
         0.00000E+00
         0.00000E+00
         0.00000E+00
         0.00000E+00
         0.00000E+00
         0.00000E+00
         0.00000E+00
         0.00000E+00
         0.00000E+00
         0.00000E+00
         0.00000E+00
         0.00000E+00
         0.00000E+00
         0.00000E+00
         0.00000E+00
         0.00000E+00
         0.00000E+00
         0.00000E+00
         0.00000E+00
         0.00000E+00
         0.00000E+00
         0.00000E+00
         0.00000E+00
         0.00000E+00
         0.00000E+00
         0.00000E+00
         0.00000E+00
         0.00000E+00
         0.00000E+00
         0.00000E+00
         0.00000E+00
         0.00000E+00
         0.00000E+00
         0.00000E+00
         0.00000E+00
         0.00000E+00
         0.00000E+00
         0.00000E+00
         0.00000E+00
         0.00000E+00
         0.00000E+00
         0.00000E+00
         0.00000E+00
         0.00000E+00
         0.00000E+00
         0.00000E+00
         0.00000E+00
         0.00000E+00
         0.00000E+00
         0.00000E+00
         0.00000E+00
         0.00000E+00
         0.00000E+00
         0.00000E+00
         0.00000E+00
         0.00000E+00
         0.00000E+00
         0.00000E+00
         0.00000E+00
         0.00000E+00
         0.00000E+00
         0.00000E+00
         0.00000E+00
         0.00000E+00
         0.00000E+00
         0.00000E+00
         0.00000E+00
         0.00000E+00
         0.00000E+00
         0.00000E+00
         0.00000E+00
         0.00000E+00
         0.00000E+00
         0.00000E+00
         0.00000E+00
         0.00000E+00
         0.00000E+00
         0.00000E+00
         0.00000E+00
         0.00000E+00
         0.00000E+00
         0.00000E+00
         0.00000E+00
         0.00000E+00
         0.00000E+00
         0.00000E+00
         0.00000E+00
         0.00000E+00
         0.00000E+00
         0.00000E+00
         0.00000E+00
         0.00000E+00
         0.00000E+00
         0.00000E+00
         0.00000E+00
         0.00000E+00
         0.00000E+00
         0.00000E+00
         0.00000E+00
         0.00000E+00
         0.00000E+00
         0.00000E+00
         0.00000E+00
         0.00000E+00
         0.00000E+00
         0.00000E+00
         0.00000E+00
         0.00000E+00
         0.00000E+00
         0.00000E+00
         0.00000E+00
         0.00000E+00
         0.00000E+00
         0.00000E+00
         0.00000E+00
         0.00000E+00
         0.00000E+00
         0.00000E+00
         0.00000E+00
         0.00000E+00
         0.00000E+00
         0.00000E+00
         0.00000E+00
         0.00000E+00
         0.00000E+00
         0.00000E+00
         0.00000E+00
         0.00000E+00
         0.00000E+00
         0.00000E+00
         0.00000E+00
         0.00000E+00
         0.00000E+00
         0.00000E+00
         0.00000E+00
         0.00000E+00
         0.00000E+00
         0.00000E+00
         0.00000E+00
         0.00000E+00
         0.00000E+00
         0.00000E+00
         0.00000E+00
         0.00000E+00
         0.00000E+00
         0.00000E+00
         0.00000E+00
         0.00000E+00
         0.00000E+00
         0.00000E+00
         0.00000E+00
         0.00000E+00
         0.00000E+00
         0.00000E+00
         0.00000E+00
         0.00000E+00
         0.00000E+00
         0.00000E+00
         0.00000E+00
         0.00000E+00
         0.00000E+00
         0.00000E+00
         0.00000E+00
         0.00000E+00
         0.00000E+00
         0.00000E+00
         0.00000E+00
         0.00000E+00
         0.00000E+00
         0.00000E+00
         0.00000E+00
         0.00000E+00
         0.00000E+00
         0.00000E+00
         0.00000E+00
         0.00000E+00
         0.00000E+00
         0.00000E+00
         0.00000E+00
         0.00000E+00
         0.00000E+00
         0.00000E+00
         0.00000E+00
         0.00000E+00
         0.00000E+00
         0.00000E+00
         0.00000E+00
         0.00000E+00
         0.00000E+00
         0.00000E+00
         0.00000E+00
         0.00000E+00
         0.00000E+00
         0.00000E+00
         0.00000E+00
         0.00000E+00
         0.00000E+00
         0.00000E+00
         0.00000E+00
         0.00000E+00
         0.00000E+00
         0.00000E+00
         0.00000E+00
         0.00000E+00
         0.00000E+00
         0.00000E+00
         0.00000E+00
         0.00000E+00
         0.00000E+00
         0.00000E+00
         0.00000E+00
         0.00000E+00
         0.00000E+00
         0.00000E+00
         0.00000E+00
         0.00000E+00
         0.00000E+00
         0.00000E+00
         0.00000E+00
         0.00000E+00
         0.00000E+00
         0.00000E+00
         0.00000E+00
         0.00000E+00
         0.00000E+00
         0.00000E+00
         0.00000E+00
         0.00000E+00
         0.00000E+00
         0.00000E+00
         0.00000E+00
         0.00000E+00
         0.00000E+00
         0.00000E+00
         0.00000E+00
         0.00000E+00
         0.00000E+00
         0.00000E+00
         0.00000E+00
         0.00000E+00
         0.00000E+00
         0.00000E+00
         0.00000E+00
         0.00000E+00
         0.00000E+00
         0.00000E+00
         0.00000E+00
         0.00000E+00
         0.00000E+00
         0.00000E+00
         0.00000E+00
         0.00000E+00
         0.00000E+00
         0.00000E+00
         0.00000E+00
         0.00000E+00
         0.00000E+00
         0.00000E+00
         0.00000E+00
         0.00000E+00
         0.00000E+00
         0.00000E+00
         0.00000E+00
         0.00000E+00
         0.00000E+00
         0.00000E+00
         0.00000E+00
         0.00000E+00
         0.00000E+00
         0.00000E+00
         0.00000E+00
         0.00000E+00
         0.00000E+00
         0.00000E+00
         0.00000E+00
         0.00000E+00
         0.00000E+00
         0.00000E+00
         0.00000E+00
         0.00000E+00
         0.00000E+00
         0.00000E+00
         0.00000E+00
         0.00000E+00
         0.00000E+00
         0.00000E+00
         0.00000E+00
         0.00000E+00
         0.00000E+00
         0.00000E+00
         0.00000E+00
         0.00000E+00
         0.00000E+00
         0.00000E+00
         0.00000E+00
         0.00000E+00
         0.00000E+00
         0.00000E+00
         0.00000E+00
         0.00000E+00
         0.00000E+00
         0.00000E+00
         0.00000E+00
         0.00000E+00
         0.00000E+00
         0.00000E+00
         0.00000E+00
         0.00000E+00
         0.00000E+00
         0.00000E+00
         0.00000E+00
         0.00000E+00
         0.00000E+00
         0.00000E+00
         0.00000E+00
         0.00000E+00
         0.00000E+00
         0.00000E+00
         0.00000E+00
         0.00000E+00
         0.00000E+00
         0.00000E+00
         0.00000E+00
         0.00000E+00
         0.00000E+00
         0.00000E+00
         0.00000E+00
         0.00000E+00
         0.00000E+00
         0.00000E+00
         0.00000E+00
         0.00000E+00
         0.00000E+00
         0.00000E+00
         0.00000E+00
         0.00000E+00
         0.00000E+00
         0.00000E+00
         0.00000E+00
         0.00000E+00
         0.00000E+00
         0.00000E+00
         0.00000E+00
         0.00000E+00
         0.00000E+00
         0.00000E+00
         0.00000E+00
         0.00000E+00
         0.00000E+00
         0.00000E+00
         0.00000E+00
         0.00000E+00
         0.00000E+00
         0.00000E+00
         0.00000E+00
         0.00000E+00
         0.00000E+00
         0.00000E+00
         0.00000E+00
         0.00000E+00
         0.00000E+00
         0.00000E+00
         0.00000E+00
         0.00000E+00
         0.00000E+00
         0.00000E+00
         0.00000E+00
         0.00000E+00
         0.00000E+00
         0.00000E+00
         0.00000E+00
         0.00000E+00
         0.00000E+00
         0.00000E+00
         0.00000E+00
         0.00000E+00
         0.00000E+00
         0.00000E+00
         0.00000E+00
         0.00000E+00
         0.00000E+00
         0.00000E+00
         0.00000E+00
         0.00000E+00
         0.00000E+00
         0.00000E+00
         0.00000E+00
         0.00000E+00
         0.00000E+00
         0.00000E+00
         0.00000E+00
         0.00000E+00
         0.00000E+00
         0.00000E+00
         0.00000E+00
         0.00000E+00
         0.00000E+00
         0.00000E+00
         0.00000E+00
         0.00000E+00
         0.00000E+00
         0.00000E+00
         0.00000E+00
         0.00000E+00
         0.00000E+00
         0.00000E+00
         0.00000E+00
         0.00000E+00
         0.00000E+00
         0.00000E+00
         0.00000E+00
         0.00000E+00
         0.00000E+00
         0.00000E+00
         0.00000E+00
         0.00000E+00
         0.00000E+00
         0.00000E+00
         0.00000E+00
         0.00000E+00
         0.00000E+00
         0.00000E+00
         0.00000E+00
         0.00000E+00
         0.00000E+00
         0.00000E+00
         0.00000E+00
         0.00000E+00
         0.00000E+00
         0.00000E+00
         0.00000E+00
         0.00000E+00
         0.00000E+00
         0.00000E+00
         0.00000E+00
         0.00000E+00
         0.00000E+00
         0.00000E+00
         0.00000E+00
         0.00000E+00
         0.00000E+00
         0.00000E+00
         0.00000E+00
         0.00000E+00
         0.00000E+00
         0.00000E+00
         0.00000E+00
         0.00000E+00
         0.00000E+00
         0.00000E+00
         0.00000E+00
         0.00000E+00
         0.00000E+00
         0.00000E+00
         0.00000E+00
         0.00000E+00
         0.00000E+00
         0.00000E+00
         0.00000E+00
         0.00000E+00
         0.00000E+00
         0.00000E+00
         0.00000E+00
         0.00000E+00
         0.00000E+00
         0.00000E+00
         0.00000E+00
         0.00000E+00
         0.00000E+00
         0.00000E+00
         0.00000E+00
         0.00000E+00
         0.00000E+00
         0.00000E+00
         0.00000E+00
         0.00000E+00
         0.00000E+00
         0.00000E+00
         0.00000E+00
         0.00000E+00
         0.00000E+00
         0.00000E+00
         0.00000E+00
         0.00000E+00
         0.00000E+00
         0.00000E+00
         0.00000E+00
         0.00000E+00
         0.00000E+00
         0.00000E+00
         0.00000E+00
         0.00000E+00
         0.00000E+00
         0.00000E+00
         0.00000E+00
         0.00000E+00
         0.00000E+00
         0.00000E+00
         0.00000E+00
         0.00000E+00
         0.00000E+00
         0.00000E+00
         0.00000E+00
         0.00000E+00
         0.00000E+00
         0.00000E+00
         0.00000E+00
         0.00000E+00
         0.00000E+00
         0.00000E+00
         0.00000E+00
         0.00000E+00
         0.00000E+00
         0.00000E+00
         0.00000E+00
         0.00000E+00
         0.00000E+00
         0.00000E+00
         0.00000E+00
         0.00000E+00
         0.00000E+00
         0.00000E+00
         0.00000E+00
         0.00000E+00
         0.00000E+00
         0.00000E+00
         0.00000E+00
         0.00000E+00
         0.00000E+00
         0.00000E+00
         0.00000E+00
         0.00000E+00
         0.00000E+00
         0.00000E+00
         0.00000E+00
         0.00000E+00
         0.00000E+00
         0.00000E+00
         0.00000E+00
         0.00000E+00
         0.00000E+00
         0.00000E+00
         0.00000E+00
         0.00000E+00
         0.00000E+00
         0.00000E+00
         0.00000E+00
         0.00000E+00
         0.00000E+00
         0.00000E+00
         0.00000E+00
         0.00000E+00
         0.00000E+00
         0.00000E+00
         0.00000E+00
         0.00000E+00
         0.00000E+00
         0.00000E+00
         0.00000E+00
         0.00000E+00
         0.00000E+00
         0.00000E+00
         0.00000E+00
         0.00000E+00
         0.00000E+00
         0.00000E+00
         0.00000E+00
         0.00000E+00
         0.00000E+00
         0.00000E+00
         0.00000E+00
         0.00000E+00
         0.00000E+00
         0.00000E+00
         0.00000E+00
         0.00000E+00
         0.00000E+00
         0.00000E+00
         0.00000E+00
         0.00000E+00
         0.00000E+00
         0.00000E+00
         0.00000E+00
         0.00000E+00
         0.00000E+00
         0.00000E+00
         0.00000E+00
         0.00000E+00
         0.00000E+00
         0.00000E+00
         0.00000E+00
         0.00000E+00
         0.00000E+00
         0.00000E+00
         0.00000E+00
         0.00000E+00
         0.00000E+00
         0.00000E+00
         0.00000E+00
         0.00000E+00
         0.00000E+00
         0.00000E+00
         0.00000E+00
         0.00000E+00
         0.00000E+00
         0.00000E+00
         0.00000E+00
         0.00000E+00
         0.00000E+00
         0.00000E+00
         0.00000E+00
         0.00000E+00
         0.00000E+00
         0.00000E+00
         0.00000E+00
         0.00000E+00
         0.00000E+00
         0.00000E+00
         0.00000E+00
         0.00000E+00
         0.00000E+00
         0.00000E+00
         0.00000E+00
         0.00000E+00
         0.00000E+00
         0.00000E+00
         0.00000E+00
         0.00000E+00
         0.00000E+00
         0.00000E+00
         0.00000E+00
         0.00000E+00
         0.00000E+00
         0.00000E+00
         0.00000E+00
         0.00000E+00
         0.00000E+00
         0.00000E+00
         0.00000E+00
         0.00000E+00
         0.00000E+00
         0.00000E+00
         0.00000E+00
         0.00000E+00
         0.00000E+00
         0.00000E+00
         0.00000E+00
         0.00000E+00
         0.00000E+00
         0.00000E+00
         0.00000E+00
         0.00000E+00
         0.00000E+00
         0.00000E+00
         0.00000E+00
         0.00000E+00
         0.00000E+00
         0.00000E+00
         0.00000E+00
         0.00000E+00
         0.00000E+00
         0.00000E+00
         0.00000E+00
         0.00000E+00
         0.00000E+00
         0.00000E+00
         0.00000E+00
         0.00000E+00
         0.00000E+00
         0.00000E+00
         0.00000E+00
         0.00000E+00
         0.00000E+00
         0.00000E+00
         0.00000E+00
         0.00000E+00
         0.00000E+00
         0.00000E+00
         0.00000E+00
         0.00000E+00
         0.00000E+00
         0.00000E+00
         0.00000E+00
         0.00000E+00
         0.00000E+00
         0.00000E+00
         0.00000E+00
         0.00000E+00
         0.00000E+00
         0.00000E+00
         0.00000E+00
         0.00000E+00
         0.00000E+00
         0.00000E+00
         0.00000E+00
         0.00000E+00
         0.00000E+00
         0.00000E+00
         0.00000E+00
         0.00000E+00
         0.00000E+00
         0.00000E+00
         0.00000E+00
         0.00000E+00
         0.00000E+00
         0.00000E+00
         0.00000E+00
         0.00000E+00
         0.00000E+00
         0.00000E+00
         0.00000E+00
         0.00000E+00
         0.00000E+00
         0.00000E+00
         0.00000E+00
         0.00000E+00
         0.00000E+00
         0.00000E+00
         0.00000E+00
         0.00000E+00
         0.00000E+00
         0.00000E+00
         0.00000E+00
         0.00000E+00
         0.00000E+00
         0.00000E+00
         0.00000E+00
         0.00000E+00
         0.00000E+00
         0.00000E+00
         0.00000E+00
         0.00000E+00
         0.00000E+00
         0.00000E+00
         0.00000E+00
         0.00000E+00
         0.00000E+00
         0.00000E+00
         0.00000E+00
         0.00000E+00
         0.00000E+00
         0.00000E+00
         0.00000E+00
         0.00000E+00
         0.00000E+00
         0.00000E+00
         0.00000E+00
         0.00000E+00
         0.00000E+00
         0.00000E+00
         0.00000E+00
         0.00000E+00
         0.00000E+00
         0.00000E+00
         0.00000E+00
         0.00000E+00
         0.00000E+00
         0.00000E+00
         0.00000E+00
         0.00000E+00
         0.00000E+00
         0.00000E+00
         0.00000E+00
         0.00000E+00
         0.00000E+00
         0.00000E+00
         0.00000E+00
         0.00000E+00
         0.00000E+00
         0.00000E+00
         0.00000E+00
         0.00000E+00
         0.00000E+00
         0.00000E+00
         0.00000E+00
         0.00000E+00
         0.00000E+00
         0.00000E+00
         0.00000E+00
         0.00000E+00
         0.00000E+00
         0.00000E+00
         0.00000E+00
         0.00000E+00
         0.00000E+00
         0.00000E+00
         0.00000E+00
         0.00000E+00
         0.00000E+00
         0.00000E+00
         0.00000E+00
         0.00000E+00
         0.00000E+00
         0.00000E+00
         0.00000E+00
         0.00000E+00
         0.00000E+00
         0.00000E+00
         0.00000E+00
         0.00000E+00
         0.00000E+00
         0.00000E+00
         0.00000E+00
         0.00000E+00
         0.00000E+00
         0.00000E+00
         0.00000E+00
         0.00000E+00
         0.00000E+00
         0.00000E+00
         0.00000E+00
         0.00000E+00
         0.00000E+00
         0.00000E+00
         0.00000E+00
         0.00000E+00
         0.00000E+00
         0.00000E+00
         0.00000E+00
         0.00000E+00
         0.00000E+00
         0.00000E+00
         0.00000E+00
         0.00000E+00
         0.00000E+00
         0.00000E+00
         0.00000E+00
         0.00000E+00
         0.00000E+00
         0.00000E+00
         0.00000E+00
         0.00000E+00
         0.00000E+00
         0.00000E+00
         0.00000E+00
         0.00000E+00
         0.00000E+00
         0.00000E+00
         0.00000E+00
         0.00000E+00
         0.00000E+00
         0.00000E+00
         0.00000E+00
         0.00000E+00
         0.00000E+00
         0.00000E+00
         0.00000E+00
         0.00000E+00
         0.00000E+00
         0.00000E+00
         0.00000E+00
         0.00000E+00
         0.00000E+00
         0.00000E+00
         0.00000E+00
         0.00000E+00
         0.00000E+00
         0.00000E+00
         0.00000E+00
         0.00000E+00
         0.00000E+00
         0.00000E+00
         0.00000E+00
         0.00000E+00
         0.00000E+00
         0.00000E+00
         0.00000E+00
         0.00000E+00
         0.00000E+00
         0.00000E+00
         0.00000E+00
         0.00000E+00
         0.00000E+00
         0.00000E+00
         0.00000E+00
         0.00000E+00
         0.00000E+00
         0.00000E+00
         0.00000E+00
         0.00000E+00
         0.00000E+00
         0.00000E+00
         0.00000E+00
         0.00000E+00
         0.00000E+00
         0.00000E+00
         0.00000E+00
         0.00000E+00
         0.00000E+00
         0.00000E+00
         0.00000E+00
         0.00000E+00
         0.00000E+00
         0.00000E+00
         0.00000E+00
         0.00000E+00
         0.00000E+00
         0.00000E+00
         0.00000E+00
         0.00000E+00
         0.00000E+00
         0.00000E+00
         0.00000E+00
         0.00000E+00
         0.00000E+00
         0.00000E+00
         0.00000E+00
         0.00000E+00
         0.00000E+00
         0.00000E+00
         0.00000E+00
         0.00000E+00
         0.00000E+00
         0.00000E+00
         0.00000E+00
         0.00000E+00
         0.00000E+00
         0.00000E+00
         0.00000E+00
         0.00000E+00
         0.00000E+00
         0.00000E+00
         0.00000E+00
         0.00000E+00
         0.00000E+00
         0.00000E+00
         0.00000E+00
         0.00000E+00
         0.00000E+00
         0.00000E+00
         0.00000E+00
         0.00000E+00
         0.00000E+00
         0.00000E+00
         0.00000E+00
         0.00000E+00
         0.00000E+00
         0.00000E+00
         0.00000E+00
         0.00000E+00
         0.00000E+00
         0.00000E+00
         0.00000E+00
         0.00000E+00
         0.00000E+00
         0.00000E+00
         0.00000E+00
         0.00000E+00
         0.00000E+00
         0.00000E+00
         0.00000E+00
         0.00000E+00
         0.00000E+00
         0.00000E+00
         0.00000E+00
         0.00000E+00
         0.00000E+00
         0.00000E+00
         0.00000E+00
         0.00000E+00
         0.00000E+00
         0.00000E+00
         0.00000E+00
         0.00000E+00
         0.00000E+00
         0.00000E+00
         0.00000E+00
         0.00000E+00
         0.00000E+00
         0.00000E+00
         0.00000E+00
         0.00000E+00
         0.00000E+00
         0.00000E+00
         0.00000E+00
         0.00000E+00
         0.00000E+00
         0.00000E+00
         0.00000E+00
         0.00000E+00
         0.00000E+00
  
SCALARS               pre_disp_force_y  double 1
LOOKUP_TABLE default
         0.00000E+00
         0.00000E+00
         0.00000E+00
         0.00000E+00
         0.00000E+00
         0.00000E+00
         0.00000E+00
         0.00000E+00
         0.00000E+00
         0.00000E+00
         0.00000E+00
         0.00000E+00
         0.00000E+00
         0.00000E+00
         0.00000E+00
         0.00000E+00
         0.00000E+00
         0.00000E+00
         0.00000E+00
         0.00000E+00
         0.00000E+00
         0.00000E+00
         0.00000E+00
         0.00000E+00
         0.00000E+00
         0.00000E+00
         0.00000E+00
         0.00000E+00
         0.00000E+00
         0.00000E+00
         0.00000E+00
         0.00000E+00
         0.00000E+00
         0.00000E+00
         0.00000E+00
         0.00000E+00
         0.00000E+00
         0.00000E+00
         0.00000E+00
         0.00000E+00
         0.00000E+00
         0.00000E+00
         0.00000E+00
         0.00000E+00
         0.00000E+00
         0.00000E+00
         0.00000E+00
         0.00000E+00
         0.00000E+00
         0.00000E+00
         0.00000E+00
         0.00000E+00
         0.00000E+00
         0.00000E+00
         0.00000E+00
         0.00000E+00
         0.00000E+00
         0.00000E+00
         0.00000E+00
         0.00000E+00
         0.00000E+00
         0.00000E+00
         0.00000E+00
         0.00000E+00
         0.00000E+00
         0.00000E+00
         0.00000E+00
         0.00000E+00
         0.00000E+00
         0.00000E+00
         0.00000E+00
         0.00000E+00
         0.00000E+00
         0.00000E+00
         0.00000E+00
         0.00000E+00
         0.00000E+00
         0.00000E+00
         0.00000E+00
         0.00000E+00
         0.00000E+00
         0.00000E+00
         0.00000E+00
         0.00000E+00
         0.00000E+00
         0.00000E+00
         0.00000E+00
         0.00000E+00
         0.00000E+00
         0.00000E+00
         0.00000E+00
         0.00000E+00
         0.00000E+00
         0.00000E+00
         0.00000E+00
         0.00000E+00
         0.00000E+00
         0.00000E+00
         0.00000E+00
         0.00000E+00
         0.00000E+00
         0.00000E+00
         0.00000E+00
         0.00000E+00
         0.00000E+00
         0.00000E+00
         0.00000E+00
         0.00000E+00
         0.00000E+00
         0.00000E+00
         0.00000E+00
         0.00000E+00
         0.00000E+00
         0.00000E+00
         0.00000E+00
         0.00000E+00
         0.00000E+00
         0.00000E+00
         0.00000E+00
         0.00000E+00
         0.00000E+00
         0.00000E+00
         0.00000E+00
         0.00000E+00
         0.00000E+00
         0.00000E+00
         0.00000E+00
         0.00000E+00
         0.00000E+00
         0.00000E+00
         0.00000E+00
         0.00000E+00
         0.00000E+00
         0.00000E+00
         0.00000E+00
         0.00000E+00
         0.00000E+00
         0.00000E+00
         0.00000E+00
         0.00000E+00
         0.00000E+00
         0.00000E+00
         0.00000E+00
         0.00000E+00
         0.00000E+00
         0.00000E+00
         0.00000E+00
         0.00000E+00
         0.00000E+00
         0.00000E+00
         0.00000E+00
         0.00000E+00
         0.00000E+00
         0.00000E+00
         0.00000E+00
         0.00000E+00
         0.00000E+00
         0.00000E+00
         0.00000E+00
         0.00000E+00
         0.00000E+00
         0.00000E+00
         0.00000E+00
         0.00000E+00
         0.00000E+00
         0.00000E+00
         0.00000E+00
         0.00000E+00
         0.00000E+00
         0.00000E+00
         0.00000E+00
         0.00000E+00
         0.00000E+00
         0.00000E+00
         0.00000E+00
         0.00000E+00
         0.00000E+00
         0.00000E+00
         0.00000E+00
         0.00000E+00
         0.00000E+00
         0.00000E+00
         0.00000E+00
         0.00000E+00
         0.00000E+00
         0.00000E+00
         0.00000E+00
         0.00000E+00
         0.00000E+00
         0.00000E+00
         0.00000E+00
         0.00000E+00
         0.00000E+00
         0.00000E+00
         0.00000E+00
         0.00000E+00
         0.00000E+00
         0.00000E+00
         0.00000E+00
         0.00000E+00
         0.00000E+00
         0.00000E+00
         0.00000E+00
         0.00000E+00
         0.00000E+00
         0.00000E+00
         0.00000E+00
         0.00000E+00
         0.00000E+00
         0.00000E+00
         0.00000E+00
         0.00000E+00
         0.00000E+00
         0.00000E+00
         0.00000E+00
         0.00000E+00
         0.00000E+00
         0.00000E+00
         0.00000E+00
         0.00000E+00
         0.00000E+00
         0.00000E+00
         0.00000E+00
         0.00000E+00
         0.00000E+00
         0.00000E+00
         0.00000E+00
         0.00000E+00
         0.00000E+00
         0.00000E+00
         0.00000E+00
         0.00000E+00
         0.00000E+00
         0.00000E+00
         0.00000E+00
         0.00000E+00
         0.00000E+00
         0.00000E+00
         0.00000E+00
         0.00000E+00
         0.00000E+00
         0.00000E+00
         0.00000E+00
         0.00000E+00
         0.00000E+00
         0.00000E+00
         0.00000E+00
         0.00000E+00
         0.00000E+00
         0.00000E+00
         0.00000E+00
         0.00000E+00
         0.00000E+00
         0.00000E+00
         0.00000E+00
         0.00000E+00
         0.00000E+00
         0.00000E+00
         0.00000E+00
         0.00000E+00
         0.00000E+00
         0.00000E+00
         0.00000E+00
         0.00000E+00
         0.00000E+00
         0.00000E+00
         0.00000E+00
         0.00000E+00
         0.00000E+00
         0.00000E+00
         0.00000E+00
         0.00000E+00
         0.00000E+00
         0.00000E+00
         0.00000E+00
         0.00000E+00
         0.00000E+00
         0.00000E+00
         0.00000E+00
         0.00000E+00
         0.00000E+00
         0.00000E+00
         0.00000E+00
         0.00000E+00
         0.00000E+00
         0.00000E+00
         0.00000E+00
         0.00000E+00
         0.00000E+00
         0.00000E+00
         0.00000E+00
         0.00000E+00
         0.00000E+00
         0.00000E+00
         0.00000E+00
         0.00000E+00
         0.00000E+00
         0.00000E+00
         0.00000E+00
         0.00000E+00
         0.00000E+00
         0.00000E+00
         0.00000E+00
         0.00000E+00
         0.00000E+00
         0.00000E+00
         0.00000E+00
         0.00000E+00
         0.00000E+00
         0.00000E+00
         0.00000E+00
         0.00000E+00
         0.00000E+00
         0.00000E+00
         0.00000E+00
         0.00000E+00
         0.00000E+00
         0.00000E+00
         0.00000E+00
         0.00000E+00
         0.00000E+00
         0.00000E+00
         0.00000E+00
         0.00000E+00
         0.00000E+00
         0.00000E+00
         0.00000E+00
         0.00000E+00
         0.00000E+00
         0.00000E+00
         0.00000E+00
         0.00000E+00
         0.00000E+00
         0.00000E+00
         0.00000E+00
         0.00000E+00
         0.00000E+00
         0.00000E+00
         0.00000E+00
         0.00000E+00
         0.00000E+00
         0.00000E+00
         0.00000E+00
         0.00000E+00
         0.00000E+00
         0.00000E+00
         0.00000E+00
         0.00000E+00
         0.00000E+00
         0.00000E+00
         0.00000E+00
         0.00000E+00
         0.00000E+00
         0.00000E+00
         0.00000E+00
         0.00000E+00
         0.00000E+00
         0.00000E+00
         0.00000E+00
         0.00000E+00
         0.00000E+00
         0.00000E+00
         0.00000E+00
         0.00000E+00
         0.00000E+00
         0.00000E+00
         0.00000E+00
         0.00000E+00
         0.00000E+00
         0.00000E+00
         0.00000E+00
         0.00000E+00
         0.00000E+00
         0.00000E+00
         0.00000E+00
         0.00000E+00
         0.00000E+00
         0.00000E+00
         0.00000E+00
         0.00000E+00
         0.00000E+00
         0.00000E+00
         0.00000E+00
         0.00000E+00
         0.00000E+00
         0.00000E+00
         0.00000E+00
         0.00000E+00
         0.00000E+00
         0.00000E+00
         0.00000E+00
         0.00000E+00
         0.00000E+00
         0.00000E+00
         0.00000E+00
         0.00000E+00
         0.00000E+00
         0.00000E+00
         0.00000E+00
         0.00000E+00
         0.00000E+00
         0.00000E+00
         0.00000E+00
         0.00000E+00
         0.00000E+00
         0.00000E+00
         0.00000E+00
         0.00000E+00
         0.00000E+00
         0.00000E+00
         0.00000E+00
         0.00000E+00
         0.00000E+00
         0.00000E+00
         0.00000E+00
         0.00000E+00
         0.00000E+00
         0.00000E+00
         0.00000E+00
         0.00000E+00
         0.00000E+00
         0.00000E+00
         0.00000E+00
         0.00000E+00
         0.00000E+00
         0.00000E+00
         0.00000E+00
         0.00000E+00
         0.00000E+00
         0.00000E+00
         0.00000E+00
         0.00000E+00
         0.00000E+00
         0.00000E+00
         0.00000E+00
         0.00000E+00
         0.00000E+00
         0.00000E+00
         0.00000E+00
         0.00000E+00
         0.00000E+00
         0.00000E+00
         0.00000E+00
         0.00000E+00
         0.00000E+00
         0.00000E+00
         0.00000E+00
         0.00000E+00
         0.00000E+00
         0.00000E+00
         0.00000E+00
         0.00000E+00
         0.00000E+00
         0.00000E+00
         0.00000E+00
         0.00000E+00
         0.00000E+00
         0.00000E+00
         0.00000E+00
         0.00000E+00
         0.00000E+00
         0.00000E+00
         0.00000E+00
         0.00000E+00
         0.00000E+00
         0.00000E+00
         0.00000E+00
         0.00000E+00
         0.00000E+00
         0.00000E+00
         0.00000E+00
         0.00000E+00
         0.00000E+00
         0.00000E+00
         0.00000E+00
         0.00000E+00
         0.00000E+00
         0.00000E+00
         0.00000E+00
         0.00000E+00
         0.00000E+00
         0.00000E+00
         0.00000E+00
         0.00000E+00
         0.00000E+00
         0.00000E+00
         0.00000E+00
         0.00000E+00
         0.00000E+00
         0.00000E+00
         0.00000E+00
         0.00000E+00
         0.00000E+00
         0.00000E+00
         0.00000E+00
         0.00000E+00
         0.00000E+00
         0.00000E+00
         0.00000E+00
         0.00000E+00
         0.00000E+00
         0.00000E+00
         0.00000E+00
         0.00000E+00
         0.00000E+00
         0.00000E+00
         0.00000E+00
         0.00000E+00
         0.00000E+00
         0.00000E+00
         0.00000E+00
         0.00000E+00
         0.00000E+00
         0.00000E+00
         0.00000E+00
         0.00000E+00
         0.00000E+00
         0.00000E+00
         0.00000E+00
         0.00000E+00
         0.00000E+00
         0.00000E+00
         0.00000E+00
         0.00000E+00
         0.00000E+00
         0.00000E+00
         0.00000E+00
         0.00000E+00
         0.00000E+00
         0.00000E+00
         0.00000E+00
         0.00000E+00
         0.00000E+00
         0.00000E+00
         0.00000E+00
         0.00000E+00
         0.00000E+00
         0.00000E+00
         0.00000E+00
         0.00000E+00
         0.00000E+00
         0.00000E+00
         0.00000E+00
         0.00000E+00
         0.00000E+00
         0.00000E+00
         0.00000E+00
         0.00000E+00
         0.00000E+00
         0.00000E+00
         0.00000E+00
         0.00000E+00
         0.00000E+00
         0.00000E+00
         0.00000E+00
         0.00000E+00
         0.00000E+00
         0.00000E+00
         0.00000E+00
         0.00000E+00
         0.00000E+00
         0.00000E+00
         0.00000E+00
         0.00000E+00
         0.00000E+00
         0.00000E+00
         0.00000E+00
         0.00000E+00
         0.00000E+00
         0.00000E+00
         0.00000E+00
         0.00000E+00
         0.00000E+00
         0.00000E+00
         0.00000E+00
         0.00000E+00
         0.00000E+00
         0.00000E+00
         0.00000E+00
         0.00000E+00
         0.00000E+00
         0.00000E+00
         0.00000E+00
         0.00000E+00
         0.00000E+00
         0.00000E+00
         0.00000E+00
         0.00000E+00
         0.00000E+00
         0.00000E+00
         0.00000E+00
         0.00000E+00
         0.00000E+00
         0.00000E+00
         0.00000E+00
         0.00000E+00
         0.00000E+00
         0.00000E+00
         0.00000E+00
         0.00000E+00
         0.00000E+00
         0.00000E+00
         0.00000E+00
         0.00000E+00
         0.00000E+00
         0.00000E+00
         0.00000E+00
         0.00000E+00
         0.00000E+00
         0.00000E+00
         0.00000E+00
         0.00000E+00
         0.00000E+00
         0.00000E+00
         0.00000E+00
         0.00000E+00
         0.00000E+00
         0.00000E+00
         0.00000E+00
         0.00000E+00
         0.00000E+00
         0.00000E+00
         0.00000E+00
         0.00000E+00
         0.00000E+00
         0.00000E+00
         0.00000E+00
         0.00000E+00
         0.00000E+00
         0.00000E+00
         0.00000E+00
         0.00000E+00
         0.00000E+00
         0.00000E+00
         0.00000E+00
         0.00000E+00
         0.00000E+00
         0.00000E+00
         0.00000E+00
         0.00000E+00
         0.00000E+00
         0.00000E+00
         0.00000E+00
         0.00000E+00
         0.00000E+00
         0.00000E+00
         0.00000E+00
         0.00000E+00
         0.00000E+00
         0.00000E+00
         0.00000E+00
         0.00000E+00
         0.00000E+00
         0.00000E+00
         0.00000E+00
         0.00000E+00
         0.00000E+00
         0.00000E+00
         0.00000E+00
         0.00000E+00
         0.00000E+00
         0.00000E+00
         0.00000E+00
         0.00000E+00
         0.00000E+00
         0.00000E+00
         0.00000E+00
         0.00000E+00
         0.00000E+00
         0.00000E+00
         0.00000E+00
         0.00000E+00
         0.00000E+00
         0.00000E+00
         0.00000E+00
         0.00000E+00
         0.00000E+00
         0.00000E+00
         0.00000E+00
         0.00000E+00
         0.00000E+00
         0.00000E+00
         0.00000E+00
         0.00000E+00
         0.00000E+00
         0.00000E+00
         0.00000E+00
         0.00000E+00
         0.00000E+00
         0.00000E+00
         0.00000E+00
         0.00000E+00
         0.00000E+00
         0.00000E+00
         0.00000E+00
         0.00000E+00
         0.00000E+00
         0.00000E+00
         0.00000E+00
         0.00000E+00
         0.00000E+00
         0.00000E+00
         0.00000E+00
         0.00000E+00
         0.00000E+00
         0.00000E+00
         0.00000E+00
         0.00000E+00
         0.00000E+00
         0.00000E+00
         0.00000E+00
         0.00000E+00
         0.00000E+00
         0.00000E+00
         0.00000E+00
         0.00000E+00
         0.00000E+00
         0.00000E+00
         0.00000E+00
         0.00000E+00
         0.00000E+00
         0.00000E+00
         0.00000E+00
         0.00000E+00
         0.00000E+00
         0.00000E+00
         0.00000E+00
         0.00000E+00
         0.00000E+00
         0.00000E+00
         0.00000E+00
         0.00000E+00
         0.00000E+00
         0.00000E+00
         0.00000E+00
         0.00000E+00
         0.00000E+00
         0.00000E+00
         0.00000E+00
         0.00000E+00
         0.00000E+00
         0.00000E+00
         0.00000E+00
         0.00000E+00
         0.00000E+00
         0.00000E+00
         0.00000E+00
         0.00000E+00
         0.00000E+00
         0.00000E+00
         0.00000E+00
         0.00000E+00
         0.00000E+00
         0.00000E+00
         0.00000E+00
         0.00000E+00
         0.00000E+00
         0.00000E+00
         0.00000E+00
         0.00000E+00
         0.00000E+00
         0.00000E+00
         0.00000E+00
         0.00000E+00
         0.00000E+00
         0.00000E+00
         0.00000E+00
         0.00000E+00
         0.00000E+00
         0.00000E+00
         0.00000E+00
         0.00000E+00
         0.00000E+00
         0.00000E+00
         0.00000E+00
         0.00000E+00
         0.00000E+00
         0.00000E+00
         0.00000E+00
         0.00000E+00
         0.00000E+00
         0.00000E+00
         0.00000E+00
         0.00000E+00
         0.00000E+00
         0.00000E+00
         0.00000E+00
         0.00000E+00
         0.00000E+00
         0.00000E+00
         0.00000E+00
         0.00000E+00
         0.00000E+00
         0.00000E+00
         0.00000E+00
         0.00000E+00
         0.00000E+00
         0.00000E+00
         0.00000E+00
         0.00000E+00
         0.00000E+00
         0.00000E+00
         0.00000E+00
         0.00000E+00
         0.00000E+00
         0.00000E+00
         0.00000E+00
         0.00000E+00
         0.00000E+00
         0.00000E+00
         0.00000E+00
         0.00000E+00
         0.00000E+00
         0.00000E+00
         0.00000E+00
         0.00000E+00
         0.00000E+00
         0.00000E+00
         0.00000E+00
         0.00000E+00
         0.00000E+00
         0.00000E+00
         0.00000E+00
         0.00000E+00
         0.00000E+00
         0.00000E+00
         0.00000E+00
         0.00000E+00
         0.00000E+00
         0.00000E+00
         0.00000E+00
         0.00000E+00
         0.00000E+00
         0.00000E+00
         0.00000E+00
         0.00000E+00
         0.00000E+00
         0.00000E+00
         0.00000E+00
         0.00000E+00
         0.00000E+00
         0.00000E+00
         0.00000E+00
         0.00000E+00
         0.00000E+00
         0.00000E+00
         0.00000E+00
         0.00000E+00
         0.00000E+00
         0.00000E+00
         0.00000E+00
         0.00000E+00
         0.00000E+00
         0.00000E+00
         0.00000E+00
         0.00000E+00
         0.00000E+00
         0.00000E+00
         0.00000E+00
         0.00000E+00
         0.00000E+00
         0.00000E+00
         0.00000E+00
         0.00000E+00
         0.00000E+00
         0.00000E+00
         0.00000E+00
         0.00000E+00
         0.00000E+00
         0.00000E+00
         0.00000E+00
         0.00000E+00
         0.00000E+00
         0.00000E+00
         0.00000E+00
         0.00000E+00
         0.00000E+00
         0.00000E+00
         0.00000E+00
         0.00000E+00
         0.00000E+00
         0.00000E+00
         0.00000E+00
         0.00000E+00
         0.00000E+00
         0.00000E+00
         0.00000E+00
         0.00000E+00
         0.00000E+00
         0.00000E+00
         0.00000E+00
         0.00000E+00
         0.00000E+00
         0.00000E+00
         0.00000E+00
         0.00000E+00
         0.00000E+00
         0.00000E+00
         0.00000E+00
         0.00000E+00
         0.00000E+00
         0.00000E+00
         0.00000E+00
         0.00000E+00
         0.00000E+00
         0.00000E+00
         0.00000E+00
         0.00000E+00
         0.00000E+00
         0.00000E+00
         0.00000E+00
         0.00000E+00
         0.00000E+00
         0.00000E+00
         0.00000E+00
         0.00000E+00
         0.00000E+00
         0.00000E+00
         0.00000E+00
         0.00000E+00
         0.00000E+00
         0.00000E+00
         0.00000E+00
         0.00000E+00
         0.00000E+00
         0.00000E+00
         0.00000E+00
         0.00000E+00
         0.00000E+00
         0.00000E+00
         0.00000E+00
         0.00000E+00
         0.00000E+00
         0.00000E+00
         0.00000E+00
         0.00000E+00
         0.00000E+00
         0.00000E+00
         0.00000E+00
         0.00000E+00
         0.00000E+00
         0.00000E+00
         0.00000E+00
         0.00000E+00
         0.00000E+00
         0.00000E+00
         0.00000E+00
         0.00000E+00
         0.00000E+00
         0.00000E+00
         0.00000E+00
         0.00000E+00
         0.00000E+00
         0.00000E+00
         0.00000E+00
         0.00000E+00
         0.00000E+00
         0.00000E+00
         0.00000E+00
         0.00000E+00
         0.00000E+00
         0.00000E+00
         0.00000E+00
         0.00000E+00
         0.00000E+00
         0.00000E+00
         0.00000E+00
         0.00000E+00
         0.00000E+00
         0.00000E+00
         0.00000E+00
         0.00000E+00
         0.00000E+00
         0.00000E+00
         0.00000E+00
         0.00000E+00
         0.00000E+00
         0.00000E+00
         0.00000E+00
         0.00000E+00
         0.00000E+00
         0.00000E+00
         0.00000E+00
         0.00000E+00
         0.00000E+00
         0.00000E+00
         0.00000E+00
         0.00000E+00
         0.00000E+00
         0.00000E+00
         0.00000E+00
         0.00000E+00
         0.00000E+00
         0.00000E+00
         0.00000E+00
         0.00000E+00
         0.00000E+00
         0.00000E+00
         0.00000E+00
         0.00000E+00
         0.00000E+00
         0.00000E+00
         0.00000E+00
         0.00000E+00
         0.00000E+00
         0.00000E+00
         0.00000E+00
         0.00000E+00
         0.00000E+00
         0.00000E+00
         0.00000E+00
         0.00000E+00
         0.00000E+00
         0.00000E+00
         0.00000E+00
         0.00000E+00
         0.00000E+00
         0.00000E+00
         0.00000E+00
         0.00000E+00
         0.00000E+00
         0.00000E+00
         0.00000E+00
         0.00000E+00
         0.00000E+00
         0.00000E+00
         0.00000E+00
         0.00000E+00
         0.00000E+00
         0.00000E+00
         0.00000E+00
         0.00000E+00
         0.00000E+00
         0.00000E+00
         0.00000E+00
         0.00000E+00
         0.00000E+00
         0.00000E+00
         0.00000E+00
         0.00000E+00
         0.00000E+00
         0.00000E+00
         0.00000E+00
         0.00000E+00
         0.00000E+00
         0.00000E+00
         0.00000E+00
         0.00000E+00
         0.00000E+00
         0.00000E+00
         0.00000E+00
         0.00000E+00
         0.00000E+00
         0.00000E+00
         0.00000E+00
         0.00000E+00
         0.00000E+00
         0.00000E+00
         0.00000E+00
         0.00000E+00
         0.00000E+00
         0.00000E+00
         0.00000E+00
         0.00000E+00
         0.00000E+00
         0.00000E+00
         0.00000E+00
         0.00000E+00
         0.00000E+00
         0.00000E+00
         0.00000E+00
         0.00000E+00
         0.00000E+00
         0.00000E+00
         0.00000E+00
         0.00000E+00
         0.00000E+00
         0.00000E+00
         0.00000E+00
         0.00000E+00
         0.00000E+00
         0.00000E+00
         0.00000E+00
         0.00000E+00
         0.00000E+00
         0.00000E+00
         0.00000E+00
         0.00000E+00
         0.00000E+00
         0.00000E+00
         0.00000E+00
         0.00000E+00
         0.00000E+00
         0.00000E+00
         0.00000E+00
         0.00000E+00
         0.00000E+00
         0.00000E+00
         0.00000E+00
         0.00000E+00
         0.00000E+00
         0.00000E+00
         0.00000E+00
         0.00000E+00
         0.00000E+00
         0.00000E+00
         0.00000E+00
         0.00000E+00
         0.00000E+00
         0.00000E+00
         0.00000E+00
         0.00000E+00
         0.00000E+00
         0.00000E+00
         0.00000E+00
         0.00000E+00
         0.00000E+00
         0.00000E+00
         0.00000E+00
         0.00000E+00
         0.00000E+00
         0.00000E+00
         0.00000E+00
         0.00000E+00
         0.00000E+00
         0.00000E+00
         0.00000E+00
         0.00000E+00
         0.00000E+00
         0.00000E+00
         0.00000E+00
         0.00000E+00
         0.00000E+00
         0.00000E+00
         0.00000E+00
         0.00000E+00
         0.00000E+00
         0.00000E+00
         0.00000E+00
         0.00000E+00
         0.00000E+00
         0.00000E+00
         0.00000E+00
         0.00000E+00
         0.00000E+00
         0.00000E+00
         0.00000E+00
         0.00000E+00
         0.00000E+00
         0.00000E+00
         0.00000E+00
         0.00000E+00
         0.00000E+00
         0.00000E+00
         0.00000E+00
         0.00000E+00
         0.00000E+00
         0.00000E+00
         0.00000E+00
         0.00000E+00
         0.00000E+00
         0.00000E+00
         0.00000E+00
         0.00000E+00
         0.00000E+00
         0.00000E+00
         0.00000E+00
         0.00000E+00
         0.00000E+00
         0.00000E+00
         0.00000E+00
         0.00000E+00
         0.00000E+00
         0.00000E+00
         0.00000E+00
         0.00000E+00
         0.00000E+00
         0.00000E+00
         0.00000E+00
         0.00000E+00
         0.00000E+00
         0.00000E+00
         0.00000E+00
         0.00000E+00
         0.00000E+00
         0.00000E+00
         0.00000E+00
         0.00000E+00
         0.00000E+00
         0.00000E+00
         0.00000E+00
         0.00000E+00
         0.00000E+00
         0.00000E+00
         0.00000E+00
         0.00000E+00
         0.00000E+00
         0.00000E+00
         0.00000E+00
         0.00000E+00
         0.00000E+00
         0.00000E+00
         0.00000E+00
         0.00000E+00
         0.00000E+00
         0.00000E+00
         0.00000E+00
         0.00000E+00
         0.00000E+00
         0.00000E+00
         0.00000E+00
         0.00000E+00
         0.00000E+00
         0.00000E+00
         0.00000E+00
         0.00000E+00
         0.00000E+00
         0.00000E+00
         0.00000E+00
         0.00000E+00
         0.00000E+00
         0.00000E+00
         0.00000E+00
         0.00000E+00
         0.00000E+00
         0.00000E+00
         0.00000E+00
         0.00000E+00
         0.00000E+00
         0.00000E+00
         0.00000E+00
         0.00000E+00
         0.00000E+00
         0.00000E+00
         0.00000E+00
         0.00000E+00
         0.00000E+00
         0.00000E+00
         0.00000E+00
         0.00000E+00
         0.00000E+00
         0.00000E+00
         0.00000E+00
         0.00000E+00
         0.00000E+00
         0.00000E+00
         0.00000E+00
         0.00000E+00
         0.00000E+00
         0.00000E+00
         0.00000E+00
         0.00000E+00
         0.00000E+00
         0.00000E+00
         0.00000E+00
         0.00000E+00
         0.00000E+00
         0.00000E+00
         0.00000E+00
         0.00000E+00
         0.00000E+00
         0.00000E+00
         0.00000E+00
         0.00000E+00
         0.00000E+00
         0.00000E+00
         0.00000E+00
         0.00000E+00
         0.00000E+00
         0.00000E+00
         0.00000E+00
         0.00000E+00
         0.00000E+00
         0.00000E+00
         0.00000E+00
         0.00000E+00
         0.00000E+00
         0.00000E+00
         0.00000E+00
         0.00000E+00
         0.00000E+00
         0.00000E+00
         0.00000E+00
         0.00000E+00
         0.00000E+00
         0.00000E+00
         0.00000E+00
         0.00000E+00
         0.00000E+00
         0.00000E+00
         0.00000E+00
         0.00000E+00
         0.00000E+00
         0.00000E+00
         0.00000E+00
         0.00000E+00
         0.00000E+00
         0.00000E+00
         0.00000E+00
         0.00000E+00
         0.00000E+00
         0.00000E+00
         0.00000E+00
         0.00000E+00
         0.00000E+00
         0.00000E+00
         0.00000E+00
         0.00000E+00
         0.00000E+00
         0.00000E+00
         0.00000E+00
         0.00000E+00
         0.00000E+00
         0.00000E+00
         0.00000E+00
         0.00000E+00
         0.00000E+00
         0.00000E+00
         0.00000E+00
         0.00000E+00
         0.00000E+00
         0.00000E+00
         0.00000E+00
         0.00000E+00
         0.00000E+00
         0.00000E+00
         0.00000E+00
         0.00000E+00
         0.00000E+00
         0.00000E+00
         0.00000E+00
         0.00000E+00
         0.00000E+00
         0.00000E+00
         0.00000E+00
         0.00000E+00
         0.00000E+00
         0.00000E+00
         0.00000E+00
         0.00000E+00
         0.00000E+00
         0.00000E+00
         0.00000E+00
         0.00000E+00
         0.00000E+00
         0.00000E+00
         0.00000E+00
         0.00000E+00
         0.00000E+00
         0.00000E+00
         0.00000E+00
         0.00000E+00
         0.00000E+00
         0.00000E+00
         0.00000E+00
         0.00000E+00
         0.00000E+00
         0.00000E+00
         0.00000E+00
         0.00000E+00
         0.00000E+00
         0.00000E+00
         0.00000E+00
         0.00000E+00
         0.00000E+00
         0.00000E+00
         0.00000E+00
         0.00000E+00
         0.00000E+00
         0.00000E+00
         0.00000E+00
         0.00000E+00
         0.00000E+00
         0.00000E+00
         0.00000E+00
         0.00000E+00
         0.00000E+00
         0.00000E+00
         0.00000E+00
         0.00000E+00
         0.00000E+00
         0.00000E+00
         0.00000E+00
         0.00000E+00
         0.00000E+00
         0.00000E+00
         0.00000E+00
         0.00000E+00
         0.00000E+00
         0.00000E+00
         0.00000E+00
         0.00000E+00
         0.00000E+00
         0.00000E+00
         0.00000E+00
         0.00000E+00
         0.00000E+00
         0.00000E+00
         0.00000E+00
         0.00000E+00
         0.00000E+00
         0.00000E+00
         0.00000E+00
         0.00000E+00
         0.00000E+00
         0.00000E+00
         0.00000E+00
         0.00000E+00
         0.00000E+00
         0.00000E+00
         0.00000E+00
         0.00000E+00
         0.00000E+00
         0.00000E+00
         0.00000E+00
         0.00000E+00
         0.00000E+00
         0.00000E+00
         0.00000E+00
         0.00000E+00
         0.00000E+00
         0.00000E+00
         0.00000E+00
         0.00000E+00
         0.00000E+00
         0.00000E+00
         0.00000E+00
         0.00000E+00
         0.00000E+00
         0.00000E+00
         0.00000E+00
         0.00000E+00
         0.00000E+00
         0.00000E+00
         0.00000E+00
         0.00000E+00
         0.00000E+00
         0.00000E+00
         0.00000E+00
         0.00000E+00
         0.00000E+00
         0.00000E+00
         0.00000E+00
         0.00000E+00
         0.00000E+00
         0.00000E+00
         0.00000E+00
         0.00000E+00
         0.00000E+00
         0.00000E+00
         0.00000E+00
         0.00000E+00
         0.00000E+00
         0.00000E+00
         0.00000E+00
         0.00000E+00
         0.00000E+00
         0.00000E+00
         0.00000E+00
         0.00000E+00
         0.00000E+00
         0.00000E+00
         0.00000E+00
         0.00000E+00
         0.00000E+00
         0.00000E+00
         0.00000E+00
         0.00000E+00
         0.00000E+00
         0.00000E+00
         0.00000E+00
         0.00000E+00
         0.00000E+00
         0.00000E+00
         0.00000E+00
         0.00000E+00
         0.00000E+00
         0.00000E+00
         0.00000E+00
         0.00000E+00
         0.00000E+00
         0.00000E+00
         0.00000E+00
         0.00000E+00
         0.00000E+00
         0.00000E+00
         0.00000E+00
         0.00000E+00
         0.00000E+00
         0.00000E+00
         0.00000E+00
         0.00000E+00
         0.00000E+00
         0.00000E+00
         0.00000E+00
         0.00000E+00
         0.00000E+00
         0.00000E+00
         0.00000E+00
         0.00000E+00
         0.00000E+00
         0.00000E+00
         0.00000E+00
         0.00000E+00
         0.00000E+00
         0.00000E+00
         0.00000E+00
         0.00000E+00
         0.00000E+00
         0.00000E+00
         0.00000E+00
         0.00000E+00
         0.00000E+00
         0.00000E+00
         0.00000E+00
         0.00000E+00
         0.00000E+00
         0.00000E+00
         0.00000E+00
         0.00000E+00
         0.00000E+00
         0.00000E+00
         0.00000E+00
         0.00000E+00
         0.00000E+00
         0.00000E+00
         0.00000E+00
         0.00000E+00
         0.00000E+00
         0.00000E+00
         0.00000E+00
         0.00000E+00
         0.00000E+00
         0.00000E+00
         0.00000E+00
         0.00000E+00
         0.00000E+00
         0.00000E+00
         0.00000E+00
         0.00000E+00
         0.00000E+00
         0.00000E+00
         0.00000E+00
         0.00000E+00
         0.00000E+00
         0.00000E+00
         0.00000E+00
         0.00000E+00
         0.00000E+00
         0.00000E+00
         0.00000E+00
         0.00000E+00
         0.00000E+00
         0.00000E+00
         0.00000E+00
         0.00000E+00
         0.00000E+00
         0.00000E+00
         0.00000E+00
         0.00000E+00
         0.00000E+00
         0.00000E+00
         0.00000E+00
         0.00000E+00
         0.00000E+00
         0.00000E+00
         0.00000E+00
         0.00000E+00
         0.00000E+00
         0.00000E+00
         0.00000E+00
         0.00000E+00
         0.00000E+00
         0.00000E+00
         0.00000E+00
         0.00000E+00
         0.00000E+00
         0.00000E+00
         0.00000E+00
         0.00000E+00
         0.00000E+00
         0.00000E+00
         0.00000E+00
         0.00000E+00
         0.00000E+00
         0.00000E+00
         0.00000E+00
         0.00000E+00
         0.00000E+00
         0.00000E+00
         0.00000E+00
         0.00000E+00
         0.00000E+00
         0.00000E+00
         0.00000E+00
         0.00000E+00
         0.00000E+00
         0.00000E+00
         0.00000E+00
         0.00000E+00
         0.00000E+00
         0.00000E+00
         0.00000E+00
         0.00000E+00
         0.00000E+00
         0.00000E+00
         0.00000E+00
         0.00000E+00
         0.00000E+00
         0.00000E+00
         0.00000E+00
         0.00000E+00
         0.00000E+00
         0.00000E+00
         0.00000E+00
         0.00000E+00
         0.00000E+00
         0.00000E+00
         0.00000E+00
         0.00000E+00
         0.00000E+00
         0.00000E+00
         0.00000E+00
         0.00000E+00
         0.00000E+00
         0.00000E+00
         0.00000E+00
         0.00000E+00
         0.00000E+00
         0.00000E+00
         0.00000E+00
         0.00000E+00
         0.00000E+00
         0.00000E+00
         0.00000E+00
         0.00000E+00
         0.00000E+00
         0.00000E+00
         0.00000E+00
         0.00000E+00
         0.00000E+00
         0.00000E+00
         0.00000E+00
         0.00000E+00
         0.00000E+00
         0.00000E+00
         0.00000E+00
         0.00000E+00
         0.00000E+00
         0.00000E+00
         0.00000E+00
         0.00000E+00
         0.00000E+00
         0.00000E+00
         0.00000E+00
         0.00000E+00
         0.00000E+00
         0.00000E+00
         0.00000E+00
         0.00000E+00
         0.00000E+00
         0.00000E+00
         0.00000E+00
         0.00000E+00
         0.00000E+00
         0.00000E+00
         0.00000E+00
         0.00000E+00
         0.00000E+00
         0.00000E+00
         0.00000E+00
         0.00000E+00
         0.00000E+00
         0.00000E+00
         0.00000E+00
         0.00000E+00
         0.00000E+00
         0.00000E+00
         0.00000E+00
         0.00000E+00
         0.00000E+00
         0.00000E+00
         0.00000E+00
         0.00000E+00
         0.00000E+00
         0.00000E+00
         0.00000E+00
         0.00000E+00
         0.00000E+00
         0.00000E+00
         0.00000E+00
         0.00000E+00
         0.00000E+00
         0.00000E+00
         0.00000E+00
         0.00000E+00
         0.00000E+00
         0.00000E+00
         0.00000E+00
         0.00000E+00
         0.00000E+00
         0.00000E+00
         0.00000E+00
         0.00000E+00
         0.00000E+00
         0.00000E+00
         0.00000E+00
         0.00000E+00
         0.00000E+00
         0.00000E+00
         0.00000E+00
         0.00000E+00
         0.00000E+00
         0.00000E+00
         0.00000E+00
         0.00000E+00
         0.00000E+00
         0.00000E+00
         0.00000E+00
         0.00000E+00
         0.00000E+00
         0.00000E+00
         0.00000E+00
         0.00000E+00
         0.00000E+00
         0.00000E+00
         0.00000E+00
         0.00000E+00
         0.00000E+00
         0.00000E+00
         0.00000E+00
         0.00000E+00
         0.00000E+00
         0.00000E+00
         0.00000E+00
         0.00000E+00
         0.00000E+00
         0.00000E+00
         0.00000E+00
         0.00000E+00
         0.00000E+00
         0.00000E+00
         0.00000E+00
         0.00000E+00
         0.00000E+00
         0.00000E+00
         0.00000E+00
         0.00000E+00
         0.00000E+00
         0.00000E+00
         0.00000E+00
         0.00000E+00
         0.00000E+00
         0.00000E+00
         0.00000E+00
         0.00000E+00
         0.00000E+00
         0.00000E+00
         0.00000E+00
         0.00000E+00
         0.00000E+00
         0.00000E+00
         0.00000E+00
         0.00000E+00
         0.00000E+00
         0.00000E+00
         0.00000E+00
         0.00000E+00
         0.00000E+00
         0.00000E+00
         0.00000E+00
         0.00000E+00
         0.00000E+00
         0.00000E+00
         0.00000E+00
         0.00000E+00
         0.00000E+00
         0.00000E+00
         0.00000E+00
         0.00000E+00
         0.00000E+00
         0.00000E+00
         0.00000E+00
         0.00000E+00
         0.00000E+00
         0.00000E+00
         0.00000E+00
         0.00000E+00
         0.00000E+00
         0.00000E+00
         0.00000E+00
         0.00000E+00
         0.00000E+00
         0.00000E+00
         0.00000E+00
         0.00000E+00
         0.00000E+00
         0.00000E+00
         0.00000E+00
         0.00000E+00
         0.00000E+00
         0.00000E+00
         0.00000E+00
         0.00000E+00
         0.00000E+00
         0.00000E+00
         0.00000E+00
         0.00000E+00
         0.00000E+00
         0.00000E+00
         0.00000E+00
         0.00000E+00
         0.00000E+00
         0.00000E+00
         0.00000E+00
         0.00000E+00
         0.00000E+00
         0.00000E+00
         0.00000E+00
         0.00000E+00
         0.00000E+00
         0.00000E+00
         0.00000E+00
         0.00000E+00
         0.00000E+00
         0.00000E+00
         0.00000E+00
         0.00000E+00
         0.00000E+00
         0.00000E+00
         0.00000E+00
         0.00000E+00
         0.00000E+00
         0.00000E+00
         0.00000E+00
         0.00000E+00
         0.00000E+00
         0.00000E+00
         0.00000E+00
         0.00000E+00
         0.00000E+00
         0.00000E+00
         0.00000E+00
         0.00000E+00
         0.00000E+00
         0.00000E+00
         0.00000E+00
         0.00000E+00
         0.00000E+00
         0.00000E+00
         0.00000E+00
         0.00000E+00
         0.00000E+00
         0.00000E+00
         0.00000E+00
         0.00000E+00
         0.00000E+00
         0.00000E+00
         0.00000E+00
         0.00000E+00
         0.00000E+00
         0.00000E+00
         0.00000E+00
         0.00000E+00
         0.00000E+00
         0.00000E+00
         0.00000E+00
         0.00000E+00
         0.00000E+00
         0.00000E+00
         0.00000E+00
         0.00000E+00
         0.00000E+00
         0.00000E+00
         0.00000E+00
         0.00000E+00
         0.00000E+00
         0.00000E+00
         0.00000E+00
         0.00000E+00
         0.00000E+00
         0.00000E+00
         0.00000E+00
         0.00000E+00
         0.00000E+00
         0.00000E+00
         0.00000E+00
         0.00000E+00
         0.00000E+00
         0.00000E+00
         0.00000E+00
         0.00000E+00
         0.00000E+00
         0.00000E+00
         0.00000E+00
         0.00000E+00
         0.00000E+00
         0.00000E+00
         0.00000E+00
         0.00000E+00
         0.00000E+00
         0.00000E+00
         0.00000E+00
         0.00000E+00
         0.00000E+00
         0.00000E+00
         0.00000E+00
         0.00000E+00
         0.00000E+00
         0.00000E+00
         0.00000E+00
         0.00000E+00
         0.00000E+00
         0.00000E+00
         0.00000E+00
         0.00000E+00
         0.00000E+00
         0.00000E+00
         0.00000E+00
         0.00000E+00
         0.00000E+00
         0.00000E+00
         0.00000E+00
         0.00000E+00
         0.00000E+00
         0.00000E+00
         0.00000E+00
         0.00000E+00
         0.00000E+00
         0.00000E+00
         0.00000E+00
         0.00000E+00
         0.00000E+00
         0.00000E+00
         0.00000E+00
         0.00000E+00
         0.00000E+00
         0.00000E+00
         0.00000E+00
         0.00000E+00
         0.00000E+00
         0.00000E+00
         0.00000E+00
         0.00000E+00
         0.00000E+00
         0.00000E+00
         0.00000E+00
         0.00000E+00
         0.00000E+00
         0.00000E+00
  
SCALARS               pre_disp_force_z  double 1
LOOKUP_TABLE default
         0.00000E+00
         0.00000E+00
         0.00000E+00
         0.00000E+00
        -0.00000E+00
        -0.00000E+00
        -0.00000E+00
        -0.00000E+00
         0.00000E+00
         0.00000E+00
        -0.00000E+00
        -0.00000E+00
         0.00000E+00
         0.00000E+00
        -0.00000E+00
        -0.00000E+00
         0.00000E+00
         0.00000E+00
        -0.00000E+00
        -0.00000E+00
         0.00000E+00
         0.00000E+00
         0.00000E+00
        -0.00000E+00
        -0.00000E+00
        -0.00000E+00
         0.00000E+00
         0.00000E+00
        -0.00000E+00
        -0.00000E+00
         0.00000E+00
         0.00000E+00
         0.00000E+00
        -0.00000E+00
        -0.00000E+00
        -0.00000E+00
         0.00000E+00
         0.00000E+00
        -0.00000E+00
        -0.00000E+00
         0.00000E+00
         0.00000E+00
        -0.00000E+00
        -0.00000E+00
         0.00000E+00
         0.00000E+00
        -0.00000E+00
        -0.00000E+00
         0.00000E+00
        -0.00000E+00
         0.00000E+00
        -0.00000E+00
         0.00000E+00
        -0.00000E+00
         0.00000E+00
        -0.00000E+00
         0.00000E+00
         0.00000E+00
        -0.00000E+00
        -0.00000E+00
         0.00000E+00
         0.00000E+00
        -0.00000E+00
        -0.00000E+00
         0.00000E+00
        -0.00000E+00
         0.00000E+00
        -0.00000E+00
         0.00000E+00
         0.00000E+00
        -0.00000E+00
        -0.00000E+00
         0.00000E+00
        -0.00000E+00
         0.00000E+00
        -0.00000E+00
         0.00000E+00
        -0.00000E+00
         0.00000E+00
        -0.00000E+00
         0.00000E+00
         0.00000E+00
        -0.00000E+00
        -0.00000E+00
         0.00000E+00
        -0.00000E+00
         0.00000E+00
        -0.00000E+00
         0.00000E+00
        -0.00000E+00
         0.00000E+00
         0.00000E+00
        -0.00000E+00
        -0.00000E+00
         0.00000E+00
        -0.00000E+00
         0.00000E+00
        -0.00000E+00
         0.00000E+00
        -0.00000E+00
         0.00000E+00
         0.00000E+00
        -0.00000E+00
        -0.00000E+00
         0.00000E+00
         0.00000E+00
        -0.00000E+00
        -0.00000E+00
         0.00000E+00
        -0.00000E+00
         0.00000E+00
        -0.00000E+00
         0.00000E+00
        -0.00000E+00
         0.00000E+00
        -0.00000E+00
         0.00000E+00
        -0.00000E+00
         0.00000E+00
        -0.00000E+00
         0.00000E+00
        -0.00000E+00
         0.00000E+00
        -0.00000E+00
         0.00000E+00
        -0.00000E+00
         0.00000E+00
        -0.00000E+00
         0.00000E+00
        -0.00000E+00
         0.00000E+00
        -0.00000E+00
         0.00000E+00
        -0.00000E+00
         0.00000E+00
        -0.00000E+00
         0.00000E+00
        -0.00000E+00
         0.00000E+00
        -0.00000E+00
         0.00000E+00
        -0.00000E+00
         0.00000E+00
        -0.00000E+00
         0.00000E+00
        -0.00000E+00
         0.00000E+00
        -0.00000E+00
         0.00000E+00
        -0.00000E+00
         0.00000E+00
        -0.00000E+00
         0.00000E+00
        -0.00000E+00
         0.00000E+00
        -0.00000E+00
         0.00000E+00
         0.00000E+00
         0.00000E+00
         0.00000E+00
         0.00000E+00
         0.00000E+00
         0.00000E+00
         0.00000E+00
         0.00000E+00
         0.00000E+00
         0.00000E+00
         0.00000E+00
         0.00000E+00
         0.00000E+00
         0.00000E+00
         0.00000E+00
         0.00000E+00
         0.00000E+00
         0.00000E+00
         0.00000E+00
         0.00000E+00
         0.00000E+00
         0.00000E+00
         0.00000E+00
         0.00000E+00
         0.00000E+00
         0.00000E+00
         0.00000E+00
         0.00000E+00
         0.00000E+00
         0.00000E+00
         0.00000E+00
         0.00000E+00
         0.00000E+00
         0.00000E+00
         0.00000E+00
         0.00000E+00
         0.00000E+00
         0.00000E+00
         0.00000E+00
         0.00000E+00
         0.00000E+00
         0.00000E+00
         0.00000E+00
         0.00000E+00
         0.00000E+00
         0.00000E+00
         0.00000E+00
         0.00000E+00
         0.00000E+00
         0.00000E+00
         0.00000E+00
         0.00000E+00
         0.00000E+00
         0.00000E+00
         0.00000E+00
         0.00000E+00
         0.00000E+00
         0.00000E+00
         0.00000E+00
         0.00000E+00
         0.00000E+00
         0.00000E+00
         0.00000E+00
         0.00000E+00
         0.00000E+00
         0.00000E+00
         0.00000E+00
         0.00000E+00
         0.00000E+00
         0.00000E+00
         0.00000E+00
         0.00000E+00
         0.00000E+00
         0.00000E+00
         0.00000E+00
         0.00000E+00
         0.00000E+00
         0.00000E+00
         0.00000E+00
         0.00000E+00
         0.00000E+00
         0.00000E+00
         0.00000E+00
         0.00000E+00
         0.00000E+00
         0.00000E+00
         0.00000E+00
         0.00000E+00
         0.00000E+00
         0.00000E+00
         0.00000E+00
         0.00000E+00
         0.00000E+00
         0.00000E+00
         0.00000E+00
         0.00000E+00
         0.00000E+00
         0.00000E+00
         0.00000E+00
         0.00000E+00
         0.00000E+00
         0.00000E+00
         0.00000E+00
         0.00000E+00
         0.00000E+00
         0.00000E+00
         0.00000E+00
         0.00000E+00
         0.00000E+00
         0.00000E+00
         0.00000E+00
         0.00000E+00
         0.00000E+00
         0.00000E+00
         0.00000E+00
         0.00000E+00
         0.00000E+00
         0.00000E+00
         0.00000E+00
         0.00000E+00
         0.00000E+00
         0.00000E+00
         0.00000E+00
         0.00000E+00
         0.00000E+00
         0.00000E+00
         0.00000E+00
         0.00000E+00
         0.00000E+00
         0.00000E+00
         0.00000E+00
         0.00000E+00
         0.00000E+00
         0.00000E+00
         0.00000E+00
         0.00000E+00
         0.00000E+00
         0.00000E+00
         0.00000E+00
         0.00000E+00
         0.00000E+00
         0.00000E+00
         0.00000E+00
         0.00000E+00
         0.00000E+00
         0.00000E+00
         0.00000E+00
         0.00000E+00
         0.00000E+00
         0.00000E+00
         0.00000E+00
         0.00000E+00
         0.00000E+00
         0.00000E+00
         0.00000E+00
         0.00000E+00
         0.00000E+00
         0.00000E+00
         0.00000E+00
         0.00000E+00
         0.00000E+00
         0.00000E+00
         0.00000E+00
         0.00000E+00
         0.00000E+00
         0.00000E+00
         0.00000E+00
         0.00000E+00
         0.00000E+00
         0.00000E+00
         0.00000E+00
         0.00000E+00
         0.00000E+00
         0.00000E+00
         0.00000E+00
         0.00000E+00
         0.00000E+00
         0.00000E+00
         0.00000E+00
         0.00000E+00
         0.00000E+00
         0.00000E+00
         0.00000E+00
         0.00000E+00
         0.00000E+00
         0.00000E+00
         0.00000E+00
         0.00000E+00
         0.00000E+00
         0.00000E+00
         0.00000E+00
         0.00000E+00
         0.00000E+00
         0.00000E+00
         0.00000E+00
         0.00000E+00
         0.00000E+00
         0.00000E+00
         0.00000E+00
         0.00000E+00
         0.00000E+00
         0.00000E+00
         0.00000E+00
         0.00000E+00
         0.00000E+00
         0.00000E+00
         0.00000E+00
         0.00000E+00
         0.00000E+00
         0.00000E+00
         0.00000E+00
         0.00000E+00
         0.00000E+00
         0.00000E+00
         0.00000E+00
         0.00000E+00
         0.00000E+00
         0.00000E+00
         0.00000E+00
         0.00000E+00
         0.00000E+00
         0.00000E+00
         0.00000E+00
         0.00000E+00
         0.00000E+00
         0.00000E+00
         0.00000E+00
         0.00000E+00
         0.00000E+00
         0.00000E+00
         0.00000E+00
         0.00000E+00
         0.00000E+00
         0.00000E+00
         0.00000E+00
         0.00000E+00
         0.00000E+00
         0.00000E+00
         0.00000E+00
         0.00000E+00
         0.00000E+00
         0.00000E+00
         0.00000E+00
         0.00000E+00
         0.00000E+00
         0.00000E+00
         0.00000E+00
         0.00000E+00
         0.00000E+00
         0.00000E+00
         0.00000E+00
         0.00000E+00
         0.00000E+00
         0.00000E+00
         0.00000E+00
         0.00000E+00
         0.00000E+00
         0.00000E+00
         0.00000E+00
         0.00000E+00
         0.00000E+00
         0.00000E+00
         0.00000E+00
         0.00000E+00
         0.00000E+00
         0.00000E+00
         0.00000E+00
         0.00000E+00
         0.00000E+00
         0.00000E+00
         0.00000E+00
         0.00000E+00
         0.00000E+00
         0.00000E+00
         0.00000E+00
         0.00000E+00
         0.00000E+00
         0.00000E+00
         0.00000E+00
         0.00000E+00
         0.00000E+00
         0.00000E+00
         0.00000E+00
         0.00000E+00
         0.00000E+00
         0.00000E+00
         0.00000E+00
         0.00000E+00
         0.00000E+00
         0.00000E+00
         0.00000E+00
         0.00000E+00
         0.00000E+00
         0.00000E+00
         0.00000E+00
         0.00000E+00
         0.00000E+00
         0.00000E+00
         0.00000E+00
         0.00000E+00
         0.00000E+00
         0.00000E+00
         0.00000E+00
         0.00000E+00
         0.00000E+00
         0.00000E+00
         0.00000E+00
         0.00000E+00
         0.00000E+00
         0.00000E+00
         0.00000E+00
         0.00000E+00
         0.00000E+00
         0.00000E+00
         0.00000E+00
         0.00000E+00
         0.00000E+00
         0.00000E+00
         0.00000E+00
         0.00000E+00
         0.00000E+00
         0.00000E+00
         0.00000E+00
         0.00000E+00
         0.00000E+00
         0.00000E+00
         0.00000E+00
         0.00000E+00
         0.00000E+00
         0.00000E+00
         0.00000E+00
         0.00000E+00
         0.00000E+00
         0.00000E+00
         0.00000E+00
         0.00000E+00
         0.00000E+00
         0.00000E+00
         0.00000E+00
         0.00000E+00
         0.00000E+00
         0.00000E+00
         0.00000E+00
         0.00000E+00
         0.00000E+00
         0.00000E+00
         0.00000E+00
         0.00000E+00
         0.00000E+00
         0.00000E+00
         0.00000E+00
         0.00000E+00
         0.00000E+00
         0.00000E+00
         0.00000E+00
         0.00000E+00
         0.00000E+00
         0.00000E+00
         0.00000E+00
         0.00000E+00
         0.00000E+00
         0.00000E+00
         0.00000E+00
         0.00000E+00
         0.00000E+00
         0.00000E+00
         0.00000E+00
         0.00000E+00
         0.00000E+00
         0.00000E+00
         0.00000E+00
         0.00000E+00
         0.00000E+00
         0.00000E+00
         0.00000E+00
         0.00000E+00
         0.00000E+00
         0.00000E+00
         0.00000E+00
         0.00000E+00
         0.00000E+00
         0.00000E+00
         0.00000E+00
         0.00000E+00
         0.00000E+00
         0.00000E+00
         0.00000E+00
         0.00000E+00
         0.00000E+00
         0.00000E+00
         0.00000E+00
         0.00000E+00
         0.00000E+00
         0.00000E+00
         0.00000E+00
         0.00000E+00
         0.00000E+00
         0.00000E+00
         0.00000E+00
         0.00000E+00
         0.00000E+00
         0.00000E+00
         0.00000E+00
         0.00000E+00
         0.00000E+00
         0.00000E+00
         0.00000E+00
         0.00000E+00
         0.00000E+00
         0.00000E+00
         0.00000E+00
         0.00000E+00
         0.00000E+00
         0.00000E+00
         0.00000E+00
         0.00000E+00
         0.00000E+00
         0.00000E+00
         0.00000E+00
         0.00000E+00
         0.00000E+00
         0.00000E+00
         0.00000E+00
         0.00000E+00
         0.00000E+00
         0.00000E+00
         0.00000E+00
         0.00000E+00
         0.00000E+00
         0.00000E+00
         0.00000E+00
         0.00000E+00
         0.00000E+00
         0.00000E+00
         0.00000E+00
         0.00000E+00
         0.00000E+00
         0.00000E+00
         0.00000E+00
         0.00000E+00
         0.00000E+00
         0.00000E+00
         0.00000E+00
         0.00000E+00
         0.00000E+00
         0.00000E+00
         0.00000E+00
         0.00000E+00
         0.00000E+00
         0.00000E+00
         0.00000E+00
         0.00000E+00
         0.00000E+00
         0.00000E+00
         0.00000E+00
         0.00000E+00
         0.00000E+00
         0.00000E+00
         0.00000E+00
         0.00000E+00
         0.00000E+00
         0.00000E+00
         0.00000E+00
         0.00000E+00
         0.00000E+00
         0.00000E+00
         0.00000E+00
         0.00000E+00
         0.00000E+00
         0.00000E+00
         0.00000E+00
         0.00000E+00
         0.00000E+00
         0.00000E+00
         0.00000E+00
         0.00000E+00
         0.00000E+00
         0.00000E+00
         0.00000E+00
         0.00000E+00
         0.00000E+00
         0.00000E+00
         0.00000E+00
         0.00000E+00
         0.00000E+00
         0.00000E+00
         0.00000E+00
         0.00000E+00
         0.00000E+00
         0.00000E+00
         0.00000E+00
         0.00000E+00
         0.00000E+00
         0.00000E+00
         0.00000E+00
         0.00000E+00
         0.00000E+00
         0.00000E+00
         0.00000E+00
         0.00000E+00
         0.00000E+00
         0.00000E+00
         0.00000E+00
         0.00000E+00
         0.00000E+00
         0.00000E+00
         0.00000E+00
         0.00000E+00
         0.00000E+00
         0.00000E+00
         0.00000E+00
         0.00000E+00
         0.00000E+00
         0.00000E+00
         0.00000E+00
         0.00000E+00
         0.00000E+00
         0.00000E+00
         0.00000E+00
         0.00000E+00
         0.00000E+00
         0.00000E+00
         0.00000E+00
         0.00000E+00
         0.00000E+00
         0.00000E+00
         0.00000E+00
         0.00000E+00
         0.00000E+00
         0.00000E+00
         0.00000E+00
         0.00000E+00
         0.00000E+00
         0.00000E+00
         0.00000E+00
         0.00000E+00
         0.00000E+00
         0.00000E+00
         0.00000E+00
         0.00000E+00
         0.00000E+00
         0.00000E+00
         0.00000E+00
         0.00000E+00
         0.00000E+00
         0.00000E+00
         0.00000E+00
         0.00000E+00
         0.00000E+00
         0.00000E+00
         0.00000E+00
         0.00000E+00
         0.00000E+00
         0.00000E+00
         0.00000E+00
         0.00000E+00
         0.00000E+00
         0.00000E+00
         0.00000E+00
         0.00000E+00
         0.00000E+00
         0.00000E+00
         0.00000E+00
         0.00000E+00
         0.00000E+00
         0.00000E+00
         0.00000E+00
         0.00000E+00
         0.00000E+00
         0.00000E+00
         0.00000E+00
         0.00000E+00
         0.00000E+00
         0.00000E+00
         0.00000E+00
         0.00000E+00
         0.00000E+00
         0.00000E+00
         0.00000E+00
         0.00000E+00
         0.00000E+00
         0.00000E+00
         0.00000E+00
         0.00000E+00
         0.00000E+00
         0.00000E+00
         0.00000E+00
         0.00000E+00
         0.00000E+00
         0.00000E+00
         0.00000E+00
         0.00000E+00
         0.00000E+00
         0.00000E+00
         0.00000E+00
         0.00000E+00
         0.00000E+00
         0.00000E+00
         0.00000E+00
         0.00000E+00
         0.00000E+00
         0.00000E+00
         0.00000E+00
         0.00000E+00
         0.00000E+00
         0.00000E+00
         0.00000E+00
         0.00000E+00
         0.00000E+00
         0.00000E+00
         0.00000E+00
         0.00000E+00
         0.00000E+00
         0.00000E+00
         0.00000E+00
         0.00000E+00
         0.00000E+00
         0.00000E+00
         0.00000E+00
         0.00000E+00
         0.00000E+00
         0.00000E+00
         0.00000E+00
         0.00000E+00
         0.00000E+00
         0.00000E+00
         0.00000E+00
         0.00000E+00
         0.00000E+00
         0.00000E+00
         0.00000E+00
         0.00000E+00
         0.00000E+00
         0.00000E+00
         0.00000E+00
         0.00000E+00
         0.00000E+00
         0.00000E+00
         0.00000E+00
         0.00000E+00
         0.00000E+00
         0.00000E+00
         0.00000E+00
         0.00000E+00
         0.00000E+00
         0.00000E+00
         0.00000E+00
         0.00000E+00
         0.00000E+00
         0.00000E+00
         0.00000E+00
         0.00000E+00
         0.00000E+00
         0.00000E+00
         0.00000E+00
         0.00000E+00
         0.00000E+00
         0.00000E+00
         0.00000E+00
         0.00000E+00
         0.00000E+00
         0.00000E+00
         0.00000E+00
         0.00000E+00
         0.00000E+00
         0.00000E+00
         0.00000E+00
         0.00000E+00
         0.00000E+00
         0.00000E+00
         0.00000E+00
         0.00000E+00
         0.00000E+00
         0.00000E+00
         0.00000E+00
         0.00000E+00
         0.00000E+00
         0.00000E+00
         0.00000E+00
         0.00000E+00
         0.00000E+00
         0.00000E+00
         0.00000E+00
         0.00000E+00
         0.00000E+00
         0.00000E+00
         0.00000E+00
         0.00000E+00
         0.00000E+00
         0.00000E+00
         0.00000E+00
         0.00000E+00
         0.00000E+00
         0.00000E+00
         0.00000E+00
         0.00000E+00
         0.00000E+00
         0.00000E+00
         0.00000E+00
         0.00000E+00
         0.00000E+00
         0.00000E+00
         0.00000E+00
         0.00000E+00
         0.00000E+00
         0.00000E+00
         0.00000E+00
         0.00000E+00
         0.00000E+00
         0.00000E+00
         0.00000E+00
         0.00000E+00
         0.00000E+00
         0.00000E+00
         0.00000E+00
         0.00000E+00
         0.00000E+00
         0.00000E+00
         0.00000E+00
         0.00000E+00
         0.00000E+00
         0.00000E+00
         0.00000E+00
         0.00000E+00
         0.00000E+00
         0.00000E+00
         0.00000E+00
         0.00000E+00
         0.00000E+00
         0.00000E+00
         0.00000E+00
         0.00000E+00
         0.00000E+00
         0.00000E+00
         0.00000E+00
         0.00000E+00
         0.00000E+00
         0.00000E+00
         0.00000E+00
         0.00000E+00
         0.00000E+00
         0.00000E+00
         0.00000E+00
         0.00000E+00
         0.00000E+00
         0.00000E+00
         0.00000E+00
         0.00000E+00
         0.00000E+00
         0.00000E+00
         0.00000E+00
         0.00000E+00
         0.00000E+00
         0.00000E+00
         0.00000E+00
         0.00000E+00
         0.00000E+00
         0.00000E+00
         0.00000E+00
         0.00000E+00
         0.00000E+00
         0.00000E+00
         0.00000E+00
         0.00000E+00
         0.00000E+00
         0.00000E+00
         0.00000E+00
         0.00000E+00
         0.00000E+00
         0.00000E+00
         0.00000E+00
         0.00000E+00
         0.00000E+00
         0.00000E+00
         0.00000E+00
         0.00000E+00
         0.00000E+00
         0.00000E+00
         0.00000E+00
         0.00000E+00
         0.00000E+00
         0.00000E+00
         0.00000E+00
         0.00000E+00
         0.00000E+00
         0.00000E+00
         0.00000E+00
         0.00000E+00
         0.00000E+00
         0.00000E+00
         0.00000E+00
         0.00000E+00
         0.00000E+00
         0.00000E+00
         0.00000E+00
         0.00000E+00
         0.00000E+00
         0.00000E+00
         0.00000E+00
         0.00000E+00
         0.00000E+00
         0.00000E+00
         0.00000E+00
         0.00000E+00
         0.00000E+00
         0.00000E+00
         0.00000E+00
         0.00000E+00
         0.00000E+00
         0.00000E+00
         0.00000E+00
         0.00000E+00
         0.00000E+00
         0.00000E+00
         0.00000E+00
         0.00000E+00
         0.00000E+00
         0.00000E+00
         0.00000E+00
         0.00000E+00
         0.00000E+00
         0.00000E+00
         0.00000E+00
         0.00000E+00
         0.00000E+00
         0.00000E+00
         0.00000E+00
         0.00000E+00
         0.00000E+00
         0.00000E+00
         0.00000E+00
         0.00000E+00
         0.00000E+00
         0.00000E+00
         0.00000E+00
         0.00000E+00
         0.00000E+00
         0.00000E+00
         0.00000E+00
         0.00000E+00
         0.00000E+00
         0.00000E+00
         0.00000E+00
         0.00000E+00
         0.00000E+00
         0.00000E+00
         0.00000E+00
         0.00000E+00
         0.00000E+00
         0.00000E+00
         0.00000E+00
         0.00000E+00
         0.00000E+00
         0.00000E+00
         0.00000E+00
         0.00000E+00
         0.00000E+00
         0.00000E+00
         0.00000E+00
         0.00000E+00
         0.00000E+00
         0.00000E+00
         0.00000E+00
         0.00000E+00
         0.00000E+00
         0.00000E+00
         0.00000E+00
         0.00000E+00
         0.00000E+00
         0.00000E+00
         0.00000E+00
         0.00000E+00
         0.00000E+00
         0.00000E+00
         0.00000E+00
         0.00000E+00
         0.00000E+00
         0.00000E+00
         0.00000E+00
         0.00000E+00
         0.00000E+00
         0.00000E+00
         0.00000E+00
         0.00000E+00
         0.00000E+00
         0.00000E+00
         0.00000E+00
         0.00000E+00
         0.00000E+00
         0.00000E+00
         0.00000E+00
         0.00000E+00
         0.00000E+00
         0.00000E+00
         0.00000E+00
         0.00000E+00
         0.00000E+00
         0.00000E+00
         0.00000E+00
         0.00000E+00
         0.00000E+00
         0.00000E+00
         0.00000E+00
         0.00000E+00
         0.00000E+00
         0.00000E+00
         0.00000E+00
         0.00000E+00
         0.00000E+00
         0.00000E+00
         0.00000E+00
         0.00000E+00
         0.00000E+00
         0.00000E+00
         0.00000E+00
         0.00000E+00
         0.00000E+00
         0.00000E+00
         0.00000E+00
         0.00000E+00
         0.00000E+00
         0.00000E+00
         0.00000E+00
         0.00000E+00
         0.00000E+00
         0.00000E+00
         0.00000E+00
         0.00000E+00
         0.00000E+00
         0.00000E+00
         0.00000E+00
         0.00000E+00
         0.00000E+00
         0.00000E+00
         0.00000E+00
         0.00000E+00
         0.00000E+00
         0.00000E+00
         0.00000E+00
         0.00000E+00
         0.00000E+00
         0.00000E+00
         0.00000E+00
         0.00000E+00
         0.00000E+00
         0.00000E+00
         0.00000E+00
         0.00000E+00
         0.00000E+00
         0.00000E+00
         0.00000E+00
         0.00000E+00
         0.00000E+00
         0.00000E+00
         0.00000E+00
         0.00000E+00
         0.00000E+00
         0.00000E+00
         0.00000E+00
         0.00000E+00
         0.00000E+00
         0.00000E+00
         0.00000E+00
         0.00000E+00
         0.00000E+00
         0.00000E+00
         0.00000E+00
         0.00000E+00
         0.00000E+00
         0.00000E+00
         0.00000E+00
         0.00000E+00
         0.00000E+00
         0.00000E+00
         0.00000E+00
         0.00000E+00
         0.00000E+00
         0.00000E+00
         0.00000E+00
         0.00000E+00
         0.00000E+00
         0.00000E+00
         0.00000E+00
         0.00000E+00
         0.00000E+00
         0.00000E+00
         0.00000E+00
         0.00000E+00
         0.00000E+00
         0.00000E+00
         0.00000E+00
         0.00000E+00
         0.00000E+00
         0.00000E+00
         0.00000E+00
         0.00000E+00
         0.00000E+00
         0.00000E+00
         0.00000E+00
         0.00000E+00
         0.00000E+00
         0.00000E+00
         0.00000E+00
         0.00000E+00
         0.00000E+00
         0.00000E+00
         0.00000E+00
         0.00000E+00
         0.00000E+00
         0.00000E+00
         0.00000E+00
         0.00000E+00
         0.00000E+00
         0.00000E+00
         0.00000E+00
         0.00000E+00
         0.00000E+00
         0.00000E+00
         0.00000E+00
         0.00000E+00
         0.00000E+00
         0.00000E+00
         0.00000E+00
         0.00000E+00
         0.00000E+00
         0.00000E+00
         0.00000E+00
         0.00000E+00
         0.00000E+00
         0.00000E+00
         0.00000E+00
         0.00000E+00
         0.00000E+00
         0.00000E+00
         0.00000E+00
         0.00000E+00
         0.00000E+00
         0.00000E+00
         0.00000E+00
         0.00000E+00
         0.00000E+00
         0.00000E+00
         0.00000E+00
         0.00000E+00
         0.00000E+00
         0.00000E+00
         0.00000E+00
         0.00000E+00
         0.00000E+00
         0.00000E+00
         0.00000E+00
         0.00000E+00
         0.00000E+00
         0.00000E+00
         0.00000E+00
         0.00000E+00
         0.00000E+00
         0.00000E+00
         0.00000E+00
         0.00000E+00
         0.00000E+00
         0.00000E+00
         0.00000E+00
         0.00000E+00
         0.00000E+00
         0.00000E+00
         0.00000E+00
         0.00000E+00
         0.00000E+00
         0.00000E+00
         0.00000E+00
         0.00000E+00
         0.00000E+00
         0.00000E+00
         0.00000E+00
         0.00000E+00
         0.00000E+00
         0.00000E+00
         0.00000E+00
         0.00000E+00
         0.00000E+00
         0.00000E+00
         0.00000E+00
         0.00000E+00
         0.00000E+00
         0.00000E+00
         0.00000E+00
         0.00000E+00
         0.00000E+00
         0.00000E+00
         0.00000E+00
         0.00000E+00
         0.00000E+00
         0.00000E+00
         0.00000E+00
         0.00000E+00
         0.00000E+00
         0.00000E+00
         0.00000E+00
         0.00000E+00
         0.00000E+00
         0.00000E+00
         0.00000E+00
         0.00000E+00
         0.00000E+00
         0.00000E+00
         0.00000E+00
         0.00000E+00
         0.00000E+00
         0.00000E+00
         0.00000E+00
         0.00000E+00
         0.00000E+00
         0.00000E+00
         0.00000E+00
         0.00000E+00
         0.00000E+00
         0.00000E+00
         0.00000E+00
         0.00000E+00
         0.00000E+00
         0.00000E+00
         0.00000E+00
         0.00000E+00
         0.00000E+00
         0.00000E+00
         0.00000E+00
         0.00000E+00
         0.00000E+00
         0.00000E+00
         0.00000E+00
         0.00000E+00
         0.00000E+00
         0.00000E+00
         0.00000E+00
         0.00000E+00
         0.00000E+00
         0.00000E+00
         0.00000E+00
         0.00000E+00
         0.00000E+00
         0.00000E+00
         0.00000E+00
         0.00000E+00
         0.00000E+00
         0.00000E+00
         0.00000E+00
         0.00000E+00
         0.00000E+00
         0.00000E+00
         0.00000E+00
         0.00000E+00
         0.00000E+00
         0.00000E+00
         0.00000E+00
         0.00000E+00
         0.00000E+00
         0.00000E+00
         0.00000E+00
         0.00000E+00
         0.00000E+00
         0.00000E+00
         0.00000E+00
         0.00000E+00
         0.00000E+00
         0.00000E+00
         0.00000E+00
         0.00000E+00
         0.00000E+00
         0.00000E+00
         0.00000E+00
         0.00000E+00
         0.00000E+00
         0.00000E+00
         0.00000E+00
         0.00000E+00
         0.00000E+00
         0.00000E+00
         0.00000E+00
         0.00000E+00
         0.00000E+00
         0.00000E+00
         0.00000E+00
         0.00000E+00
         0.00000E+00
         0.00000E+00
         0.00000E+00
         0.00000E+00
         0.00000E+00
         0.00000E+00
         0.00000E+00
         0.00000E+00
         0.00000E+00
         0.00000E+00
         0.00000E+00
         0.00000E+00
         0.00000E+00
         0.00000E+00
         0.00000E+00
         0.00000E+00
         0.00000E+00
         0.00000E+00
         0.00000E+00
         0.00000E+00
         0.00000E+00
         0.00000E+00
         0.00000E+00
         0.00000E+00
         0.00000E+00
         0.00000E+00
         0.00000E+00
         0.00000E+00
         0.00000E+00
         0.00000E+00
         0.00000E+00
         0.00000E+00
         0.00000E+00
         0.00000E+00
         0.00000E+00
         0.00000E+00
         0.00000E+00
         0.00000E+00
         0.00000E+00
         0.00000E+00
         0.00000E+00
         0.00000E+00
         0.00000E+00
         0.00000E+00
         0.00000E+00
         0.00000E+00
         0.00000E+00
         0.00000E+00
         0.00000E+00
         0.00000E+00
         0.00000E+00
         0.00000E+00
         0.00000E+00
         0.00000E+00
         0.00000E+00
         0.00000E+00
         0.00000E+00
         0.00000E+00
         0.00000E+00
         0.00000E+00
         0.00000E+00
         0.00000E+00
         0.00000E+00
         0.00000E+00
         0.00000E+00
         0.00000E+00
         0.00000E+00
         0.00000E+00
         0.00000E+00
         0.00000E+00
         0.00000E+00
         0.00000E+00
         0.00000E+00
         0.00000E+00
         0.00000E+00
         0.00000E+00
         0.00000E+00
         0.00000E+00
         0.00000E+00
         0.00000E+00
         0.00000E+00
         0.00000E+00
         0.00000E+00
         0.00000E+00
         0.00000E+00
         0.00000E+00
         0.00000E+00
         0.00000E+00
         0.00000E+00
         0.00000E+00
         0.00000E+00
         0.00000E+00
         0.00000E+00
         0.00000E+00
         0.00000E+00
         0.00000E+00
         0.00000E+00
         0.00000E+00
         0.00000E+00
         0.00000E+00
         0.00000E+00
         0.00000E+00
         0.00000E+00
         0.00000E+00
         0.00000E+00
         0.00000E+00
         0.00000E+00
         0.00000E+00
         0.00000E+00
         0.00000E+00
         0.00000E+00
         0.00000E+00
         0.00000E+00
         0.00000E+00
         0.00000E+00
         0.00000E+00
         0.00000E+00
         0.00000E+00
         0.00000E+00
         0.00000E+00
         0.00000E+00
         0.00000E+00
         0.00000E+00
         0.00000E+00
         0.00000E+00
         0.00000E+00
         0.00000E+00
         0.00000E+00
         0.00000E+00
         0.00000E+00
         0.00000E+00
         0.00000E+00
         0.00000E+00
         0.00000E+00
         0.00000E+00
         0.00000E+00
         0.00000E+00
         0.00000E+00
         0.00000E+00
         0.00000E+00
         0.00000E+00
         0.00000E+00
         0.00000E+00
         0.00000E+00
         0.00000E+00
         0.00000E+00
         0.00000E+00
         0.00000E+00
         0.00000E+00
         0.00000E+00
         0.00000E+00
         0.00000E+00
         0.00000E+00
         0.00000E+00
         0.00000E+00
         0.00000E+00
         0.00000E+00
         0.00000E+00
         0.00000E+00
         0.00000E+00
         0.00000E+00
         0.00000E+00
         0.00000E+00
         0.00000E+00
         0.00000E+00
         0.00000E+00
         0.00000E+00
         0.00000E+00
         0.00000E+00
         0.00000E+00
         0.00000E+00
         0.00000E+00
         0.00000E+00
         0.00000E+00
         0.00000E+00
         0.00000E+00
         0.00000E+00
         0.00000E+00
         0.00000E+00
         0.00000E+00
         0.00000E+00
         0.00000E+00
         0.00000E+00
         0.00000E+00
         0.00000E+00
         0.00000E+00
         0.00000E+00
         0.00000E+00
         0.00000E+00
         0.00000E+00
         0.00000E+00
         0.00000E+00
         0.00000E+00
         0.00000E+00
         0.00000E+00
         0.00000E+00
         0.00000E+00
         0.00000E+00
         0.00000E+00
         0.00000E+00
         0.00000E+00
         0.00000E+00
         0.00000E+00
         0.00000E+00
         0.00000E+00
         0.00000E+00
         0.00000E+00
         0.00000E+00
         0.00000E+00
         0.00000E+00
         0.00000E+00
         0.00000E+00
         0.00000E+00
         0.00000E+00
         0.00000E+00
         0.00000E+00
         0.00000E+00
         0.00000E+00
         0.00000E+00
         0.00000E+00
         0.00000E+00
         0.00000E+00
         0.00000E+00
         0.00000E+00
         0.00000E+00
         0.00000E+00
         0.00000E+00
         0.00000E+00
         0.00000E+00
         0.00000E+00
         0.00000E+00
         0.00000E+00
         0.00000E+00
         0.00000E+00
         0.00000E+00
         0.00000E+00
         0.00000E+00
         0.00000E+00
         0.00000E+00
         0.00000E+00
         0.00000E+00
         0.00000E+00
         0.00000E+00
         0.00000E+00
         0.00000E+00
         0.00000E+00
         0.00000E+00
         0.00000E+00
         0.00000E+00
         0.00000E+00
         0.00000E+00
         0.00000E+00
         0.00000E+00
         0.00000E+00
         0.00000E+00
         0.00000E+00
         0.00000E+00
         0.00000E+00
         0.00000E+00
         0.00000E+00
         0.00000E+00
         0.00000E+00
         0.00000E+00
         0.00000E+00
         0.00000E+00
         0.00000E+00
         0.00000E+00
         0.00000E+00
         0.00000E+00
         0.00000E+00
         0.00000E+00
         0.00000E+00
         0.00000E+00
         0.00000E+00
         0.00000E+00
         0.00000E+00
         0.00000E+00
         0.00000E+00
         0.00000E+00
         0.00000E+00
         0.00000E+00
         0.00000E+00
         0.00000E+00
         0.00000E+00
         0.00000E+00
         0.00000E+00
         0.00000E+00
         0.00000E+00
         0.00000E+00
         0.00000E+00
         0.00000E+00
         0.00000E+00
         0.00000E+00
         0.00000E+00
         0.00000E+00
         0.00000E+00
         0.00000E+00
         0.00000E+00
         0.00000E+00
         0.00000E+00
         0.00000E+00
         0.00000E+00
         0.00000E+00
         0.00000E+00
         0.00000E+00
         0.00000E+00
         0.00000E+00
         0.00000E+00
         0.00000E+00
         0.00000E+00
         0.00000E+00
         0.00000E+00
         0.00000E+00
         0.00000E+00
         0.00000E+00
         0.00000E+00
         0.00000E+00
         0.00000E+00
         0.00000E+00
         0.00000E+00
         0.00000E+00
         0.00000E+00
         0.00000E+00
         0.00000E+00
         0.00000E+00
         0.00000E+00
         0.00000E+00
         0.00000E+00
         0.00000E+00
         0.00000E+00
         0.00000E+00
         0.00000E+00
         0.00000E+00
         0.00000E+00
         0.00000E+00
         0.00000E+00
         0.00000E+00
         0.00000E+00
         0.00000E+00
         0.00000E+00
         0.00000E+00
         0.00000E+00
         0.00000E+00
         0.00000E+00
         0.00000E+00
         0.00000E+00
         0.00000E+00
         0.00000E+00
         0.00000E+00
         0.00000E+00
         0.00000E+00
         0.00000E+00
         0.00000E+00
         0.00000E+00
         0.00000E+00
         0.00000E+00
         0.00000E+00
         0.00000E+00
         0.00000E+00
         0.00000E+00
         0.00000E+00
         0.00000E+00
         0.00000E+00
         0.00000E+00
         0.00000E+00
         0.00000E+00
         0.00000E+00
         0.00000E+00
         0.00000E+00
         0.00000E+00
         0.00000E+00
         0.00000E+00
         0.00000E+00
         0.00000E+00
         0.00000E+00
         0.00000E+00
         0.00000E+00
         0.00000E+00
         0.00000E+00
         0.00000E+00
         0.00000E+00
         0.00000E+00
         0.00000E+00
         0.00000E+00
         0.00000E+00
         0.00000E+00
         0.00000E+00
         0.00000E+00
         0.00000E+00
         0.00000E+00
         0.00000E+00
         0.00000E+00
         0.00000E+00
         0.00000E+00
         0.00000E+00
         0.00000E+00
         0.00000E+00
         0.00000E+00
         0.00000E+00
         0.00000E+00
         0.00000E+00
         0.00000E+00
         0.00000E+00
         0.00000E+00
         0.00000E+00
         0.00000E+00
         0.00000E+00
         0.00000E+00
         0.00000E+00
         0.00000E+00
         0.00000E+00
         0.00000E+00
         0.00000E+00
         0.00000E+00
         0.00000E+00
         0.00000E+00
         0.00000E+00
         0.00000E+00
         0.00000E+00
         0.00000E+00
         0.00000E+00
         0.00000E+00
         0.00000E+00
         0.00000E+00
         0.00000E+00
         0.00000E+00
         0.00000E+00
         0.00000E+00
         0.00000E+00
         0.00000E+00
         0.00000E+00
         0.00000E+00
         0.00000E+00
         0.00000E+00
         0.00000E+00
         0.00000E+00
         0.00000E+00
         0.00000E+00
         0.00000E+00
         0.00000E+00
         0.00000E+00
         0.00000E+00
         0.00000E+00
         0.00000E+00
         0.00000E+00
         0.00000E+00
         0.00000E+00
         0.00000E+00
         0.00000E+00
         0.00000E+00
         0.00000E+00
         0.00000E+00
         0.00000E+00
         0.00000E+00
         0.00000E+00
         0.00000E+00
         0.00000E+00
         0.00000E+00
         0.00000E+00
         0.00000E+00
         0.00000E+00
         0.00000E+00
         0.00000E+00
         0.00000E+00
         0.00000E+00
         0.00000E+00
         0.00000E+00
         0.00000E+00
         0.00000E+00
         0.00000E+00
         0.00000E+00
         0.00000E+00
         0.00000E+00
         0.00000E+00
         0.00000E+00
         0.00000E+00
         0.00000E+00
         0.00000E+00
         0.00000E+00
         0.00000E+00
         0.00000E+00
         0.00000E+00
         0.00000E+00
         0.00000E+00
         0.00000E+00
         0.00000E+00
         0.00000E+00
         0.00000E+00
         0.00000E+00
         0.00000E+00
         0.00000E+00
         0.00000E+00
         0.00000E+00
         0.00000E+00
         0.00000E+00
         0.00000E+00
         0.00000E+00
         0.00000E+00
         0.00000E+00
         0.00000E+00
         0.00000E+00
         0.00000E+00
         0.00000E+00
         0.00000E+00
         0.00000E+00
         0.00000E+00
         0.00000E+00
         0.00000E+00
         0.00000E+00
         0.00000E+00
         0.00000E+00
         0.00000E+00
         0.00000E+00
         0.00000E+00
         0.00000E+00
         0.00000E+00
         0.00000E+00
         0.00000E+00
         0.00000E+00
         0.00000E+00
         0.00000E+00
         0.00000E+00
         0.00000E+00
         0.00000E+00
         0.00000E+00
         0.00000E+00
         0.00000E+00
         0.00000E+00
         0.00000E+00
         0.00000E+00
         0.00000E+00
         0.00000E+00
         0.00000E+00
         0.00000E+00
         0.00000E+00
         0.00000E+00
         0.00000E+00
         0.00000E+00
         0.00000E+00
         0.00000E+00
         0.00000E+00
         0.00000E+00
         0.00000E+00
         0.00000E+00
         0.00000E+00
         0.00000E+00
         0.00000E+00
         0.00000E+00
         0.00000E+00
         0.00000E+00
         0.00000E+00
         0.00000E+00
         0.00000E+00
         0.00000E+00
         0.00000E+00
         0.00000E+00
         0.00000E+00
         0.00000E+00
         0.00000E+00
         0.00000E+00
         0.00000E+00
         0.00000E+00
         0.00000E+00
         0.00000E+00
         0.00000E+00
         0.00000E+00
         0.00000E+00
         0.00000E+00
         0.00000E+00
         0.00000E+00
         0.00000E+00
         0.00000E+00
         0.00000E+00
         0.00000E+00
         0.00000E+00
         0.00000E+00
         0.00000E+00
         0.00000E+00
         0.00000E+00
         0.00000E+00
         0.00000E+00
         0.00000E+00
         0.00000E+00
         0.00000E+00
         0.00000E+00
         0.00000E+00
         0.00000E+00
         0.00000E+00
         0.00000E+00
         0.00000E+00
         0.00000E+00
         0.00000E+00
         0.00000E+00
         0.00000E+00
         0.00000E+00
         0.00000E+00
         0.00000E+00
         0.00000E+00
         0.00000E+00
         0.00000E+00
         0.00000E+00
         0.00000E+00
         0.00000E+00
         0.00000E+00
         0.00000E+00
         0.00000E+00
         0.00000E+00
         0.00000E+00
         0.00000E+00
  
SCALARS                      stress_xx  double 1
LOOKUP_TABLE default
         0.80166E+11
         0.78346E+11
         0.79500E+11
         0.81571E+11
        -0.73591E+02
        -0.82520E+02
        -0.79016E+02
        -0.71783E+02
         0.78282E+11
         0.78898E+11
        -0.74206E+02
        -0.71813E+02
         0.75712E+11
         0.75615E+11
        -0.88173E+02
        -0.82905E+02
         0.81268E+11
         0.75757E+11
        -0.65150E+02
        -0.72262E+02
         0.73736E+11
         0.72168E+11
         0.74663E+11
        -0.87389E+02
        -0.76318E+02
        -0.78807E+02
         0.72229E+11
         0.69941E+11
        -0.83838E+02
        -0.70702E+02
         0.81168E+11
         0.78769E+11
         0.83496E+11
        -0.71543E+02
        -0.66510E+02
        -0.64665E+02
         0.79780E+11
         0.76726E+11
        -0.75690E+02
        -0.69067E+02
         0.78570E+11
         0.76214E+11
        -0.65417E+02
        -0.57913E+02
         0.80566E+11
         0.81451E+11
        -0.71689E+02
        -0.80101E+02
         0.74327E+11
        -0.70033E+02
         0.81278E+11
        -0.82292E+02
         0.71569E+11
        -0.73958E+02
         0.70850E+11
        -0.70941E+02
         0.70861E+11
         0.73418E+11
        -0.72280E+02
        -0.70393E+02
         0.81119E+11
         0.80196E+11
        -0.72478E+02
        -0.81936E+02
         0.81695E+11
        -0.69937E+02
         0.80599E+11
        -0.76327E+02
         0.77715E+11
         0.77427E+11
        -0.73473E+02
        -0.76986E+02
         0.76776E+11
        -0.77632E+02
         0.69129E+11
        -0.61335E+02
         0.68728E+11
        -0.59535E+02
         0.68928E+11
        -0.62774E+02
         0.70033E+11
         0.71183E+11
        -0.59809E+02
        -0.62354E+02
         0.73501E+11
        -0.58074E+02
         0.80519E+11
        -0.76157E+02
         0.79422E+11
        -0.77945E+02
         0.78523E+11
         0.78030E+11
        -0.74853E+02
        -0.75726E+02
         0.78638E+11
        -0.68781E+02
         0.79071E+11
        -0.67800E+02
         0.78680E+11
        -0.72581E+02
         0.78542E+11
         0.78937E+11
        -0.71176E+02
        -0.73264E+02
         0.76373E+11
         0.77412E+11
        -0.55261E+02
        -0.51976E+02
         0.76176E+11
        -0.52767E+02
         0.77376E+11
        -0.50595E+02
         0.76192E+11
        -0.49890E+02
         0.73573E+11
        -0.47147E+02
         0.71036E+11
        -0.41884E+02
         0.69520E+11
        -0.37715E+02
         0.69365E+11
        -0.37453E+02
         0.69413E+11
        -0.40615E+02
         0.71059E+11
        -0.42685E+02
         0.74137E+11
        -0.38976E+02
         0.77523E+11
        -0.35133E+02
         0.79508E+11
        -0.35093E+02
         0.81472E+11
        -0.39225E+02
         0.82770E+11
        -0.44726E+02
         0.82722E+11
        -0.48049E+02
         0.79571E+11
        -0.51893E+02
         0.77376E+11
        -0.55596E+02
         0.76623E+11
        -0.50929E+02
         0.77798E+11
        -0.44679E+02
         0.78412E+11
        -0.44541E+02
         0.77384E+11
        -0.48733E+02
         0.77399E+11
        -0.51953E+02
         0.78175E+11
        -0.49303E+02
         0.79187E+11
        -0.47664E+02
        -0.25337E+11
        -0.25650E+11
        -0.25608E+11
        -0.25199E+11
        -0.25943E+11
        -0.25573E+11
        -0.26030E+11
        -0.25794E+11
        -0.25265E+11
        -0.25598E+11
        -0.26276E+11
        -0.26349E+11
        -0.26152E+11
        -0.26138E+11
        -0.26266E+11
        -0.25219E+11
        -0.25296E+11
        -0.25078E+11
        -0.25684E+11
        -0.25576E+11
        -0.25729E+11
        -0.25628E+11
        -0.25814E+11
        -0.25766E+11
        -0.25585E+11
        -0.25598E+11
        -0.25905E+11
        -0.25878E+11
        -0.26100E+11
        -0.25762E+11
        -0.25257E+11
        -0.25655E+11
        -0.25260E+11
        -0.25522E+11
        -0.26400E+11
        -0.26128E+11
        -0.25996E+11
        -0.26151E+11
        -0.26171E+11
        -0.26419E+11
        -0.26595E+11
        -0.26160E+11
        -0.25723E+11
        -0.25784E+11
        -0.26009E+11
        -0.26390E+11
        -0.26066E+11
        -0.25704E+11
        -0.25730E+11
        -0.26010E+11
        -0.26287E+11
        -0.25911E+11
        -0.27006E+11
        -0.26699E+11
        -0.26751E+11
        -0.26678E+11
        -0.26696E+11
        -0.26864E+11
        -0.27032E+11
        -0.27085E+11
        -0.27062E+11
        -0.27079E+11
        -0.27149E+11
        -0.26713E+11
        -0.26543E+11
        -0.26476E+11
        -0.26362E+11
        -0.26274E+11
        -0.26278E+11
        -0.26427E+11
        -0.26905E+11
        -0.26794E+11
        -0.26630E+11
        -0.26632E+11
        -0.26660E+11
        -0.26817E+11
        -0.26585E+11
        -0.26498E+11
         0.45613E+06
         0.20213E+06
         0.25785E+06
         0.36514E+06
         0.26844E+05
         0.17214E+06
        -0.16456E+06
        -0.42021E+06
         0.56295E+06
        -0.45220E+06
        -0.47262E+06
        -0.28426E+05
        -0.17485E+06
        -0.15138E+07
        -0.53592E+06
        -0.21817E+06
         0.19562E+06
         0.37660E+06
        -0.48014E+04
         0.14471E+04
        -0.86318E+06
        -0.57938E+06
        -0.10783E+07
        -0.20962E+06
        -0.44479E+06
        -0.60261E+05
        -0.18596E+07
        -0.10996E+07
        -0.61230E+06
        -0.45130E+06
        -0.10362E+06
        -0.11153E+06
         0.32368E+06
         0.58082E+06
        -0.75789E+06
        -0.43279E+06
        -0.30359E+06
        -0.69182E+06
        -0.38464E+06
        -0.27037E+06
        -0.63694E+06
        -0.94947E+06
        -0.84019E+06
        -0.83597E+06
        -0.60177E+06
        -0.23986E+06
        -0.15509E+06
        -0.20387E+06
         0.23737E+06
         0.40865E+06
        -0.22111E+05
         0.36949E+04
        -0.18618E+07
        -0.77982E+06
        -0.11576E+07
        -0.76131E+05
         0.87754E+06
         0.15710E+07
         0.13165E+07
         0.14094E+07
         0.10975E+07
         0.49126E+06
        -0.22262E+06
        -0.73859E+06
        -0.10618E+07
        -0.63285E+06
        -0.13779E+07
        -0.18192E+07
        -0.14917E+07
        -0.12651E+07
        -0.59990E+06
         0.27550E+06
         0.24606E+06
        -0.10905E+05
        -0.52682E+06
        -0.99748E+06
        -0.93361E+06
        -0.52377E+06
         0.42647E+06
         0.17521E+06
         0.23121E+06
         0.34107E+06
        -0.82349E+04
         0.14292E+06
        -0.19441E+06
        -0.45349E+06
         0.53527E+06
        -0.48838E+06
        -0.50537E+06
        -0.78003E+05
        -0.21682E+06
        -0.15457E+07
        -0.58500E+06
        -0.24766E+06
         0.16418E+06
         0.35308E+06
        -0.36265E+05
        -0.31292E+05
        -0.90458E+06
        -0.61956E+06
        -0.11206E+07
        -0.24173E+06
        -0.48071E+06
        -0.90917E+05
        -0.18921E+07
        -0.11324E+07
        -0.64849E+06
        -0.48829E+06
        -0.13155E+06
        -0.14048E+06
         0.29992E+06
         0.55640E+06
        -0.80004E+06
        -0.46502E+06
        -0.33846E+06
        -0.74102E+06
        -0.42912E+06
        -0.31381E+06
        -0.68538E+06
        -0.99648E+06
        -0.88459E+06
        -0.87569E+06
        -0.63856E+06
        -0.28246E+06
        -0.19137E+06
        -0.23691E+06
         0.20951E+06
         0.37869E+06
        -0.60407E+05
        -0.28434E+05
        -0.19451E+07
        -0.86105E+06
        -0.12376E+07
        -0.15285E+06
         0.79637E+06
         0.14804E+07
         0.12261E+07
         0.13181E+07
         0.10054E+07
         0.39695E+06
        -0.31649E+06
        -0.82533E+06
        -0.11339E+07
        -0.70010E+06
        -0.14486E+07
        -0.18948E+07
        -0.15689E+07
        -0.13460E+07
        -0.68101E+06
         0.18961E+06
         0.16527E+06
        -0.83830E+05
        -0.59984E+06
        -0.10723E+07
        -0.10094E+07
        -0.60094E+06
         0.43332E+06
         0.18047E+06
         0.23681E+06
         0.34732E+06
         0.15462E+04
         0.15130E+06
        -0.18884E+06
        -0.44526E+06
         0.53977E+06
        -0.48671E+06
        -0.49843E+06
        -0.68639E+05
        -0.20907E+06
        -0.15352E+07
        -0.57264E+06
        -0.25398E+06
         0.16198E+06
         0.35974E+06
        -0.44002E+05
        -0.37335E+05
        -0.91122E+06
        -0.62207E+06
        -0.11483E+07
        -0.26490E+06
        -0.49626E+06
        -0.11241E+06
        -0.18860E+07
        -0.11365E+07
        -0.66351E+06
        -0.51419E+06
        -0.13225E+06
        -0.14704E+06
         0.30739E+06
         0.56436E+06
        -0.78944E+06
        -0.45654E+06
        -0.33054E+06
        -0.73293E+06
        -0.42242E+06
        -0.31189E+06
        -0.68676E+06
        -0.10138E+07
        -0.90849E+06
        -0.90223E+06
        -0.64468E+06
        -0.27650E+06
        -0.18470E+06
        -0.22974E+06
         0.21729E+06
         0.38778E+06
        -0.49281E+05
        -0.18774E+05
        -0.19202E+07
        -0.83869E+06
        -0.12128E+07
        -0.13384E+06
         0.81057E+06
         0.14945E+07
         0.12440E+07
         0.13360E+07
         0.10237E+07
         0.41589E+06
        -0.30539E+06
        -0.82571E+06
        -0.11327E+07
        -0.68768E+06
        -0.14404E+07
        -0.19101E+07
        -0.15855E+07
        -0.13417E+07
        -0.65863E+06
         0.21544E+06
         0.18839E+06
        -0.60519E+05
        -0.57352E+06
        -0.10503E+07
        -0.99149E+06
        -0.58374E+06
         0.42902E+06
         0.17816E+06
         0.23453E+06
         0.34339E+06
        -0.13314E+04
         0.14918E+06
        -0.19181E+06
        -0.44911E+06
         0.53173E+06
        -0.50214E+06
        -0.50159E+06
        -0.73856E+05
        -0.21262E+06
        -0.15370E+07
        -0.57852E+06
        -0.27761E+06
         0.14319E+06
         0.35573E+06
        -0.71499E+05
        -0.64854E+05
        -0.94259E+06
        -0.64981E+06
        -0.12130E+07
        -0.31672E+06
        -0.53891E+06
        -0.16132E+06
        -0.18950E+07
        -0.11630E+07
        -0.70784E+06
        -0.57606E+06
        -0.14627E+06
        -0.17317E+06
         0.30445E+06
         0.56035E+06
        -0.79513E+06
        -0.45953E+06
        -0.33318E+06
        -0.74231E+06
        -0.43366E+06
        -0.33188E+06
        -0.71425E+06
        -0.10670E+07
        -0.97343E+06
        -0.96498E+06
        -0.67502E+06
        -0.29360E+06
        -0.19632E+06
        -0.23606E+06
         0.21266E+06
         0.38205E+06
        -0.54876E+05
        -0.21881E+05
        -0.19318E+07
        -0.84662E+06
        -0.12253E+07
        -0.14491E+06
         0.80318E+06
         0.14859E+07
         0.12296E+07
         0.13203E+07
         0.10087E+07
         0.39767E+06
        -0.33431E+06
        -0.87235E+06
        -0.11764E+07
        -0.70835E+06
        -0.14638E+07
        -0.19744E+07
        -0.16536E+07
        -0.13737E+07
        -0.67375E+06
         0.20096E+06
         0.17746E+06
        -0.73464E+05
        -0.58692E+06
        -0.10595E+07
        -0.99851E+06
        -0.59077E+06
         0.42127E+06
         0.17350E+06
         0.23060E+06
         0.33933E+06
        -0.47297E+04
         0.14607E+06
        -0.19621E+06
        -0.45587E+06
         0.52213E+06
        -0.51820E+06
        -0.50498E+06
        -0.77142E+05
        -0.21656E+06
        -0.15392E+07
        -0.58119E+06
        -0.29382E+06
         0.12816E+06
         0.35203E+06
        -0.89589E+05
        -0.84608E+05
        -0.96271E+06
        -0.66974E+06
        -0.12527E+07
        -0.34882E+06
        -0.56972E+06
        -0.19266E+06
        -0.19028E+07
        -0.11820E+07
        -0.73865E+06
        -0.61719E+06
        -0.16093E+06
        -0.19217E+06
         0.29788E+06
         0.55478E+06
        -0.80101E+06
        -0.46342E+06
        -0.33723E+06
        -0.74938E+06
        -0.44306E+06
        -0.34717E+06
        -0.73367E+06
        -0.11030E+07
        -0.10161E+07
        -0.10048E+07
        -0.69488E+06
        -0.30484E+06
        -0.20663E+06
        -0.24607E+06
         0.20449E+06
         0.37361E+06
        -0.63733E+05
        -0.27203E+05
        -0.19422E+07
        -0.85353E+06
        -0.12359E+07
        -0.15352E+06
         0.79977E+06
         0.14833E+07
         0.12234E+07
         0.13100E+07
         0.99604E+06
         0.38641E+06
        -0.35190E+06
        -0.90461E+06
        -0.12062E+07
        -0.72433E+06
        -0.14803E+07
        -0.20161E+07
        -0.17013E+07
        -0.13965E+07
        -0.68058E+06
         0.18780E+06
         0.16296E+06
        -0.88321E+05
        -0.60422E+06
        -0.10744E+07
        -0.10078E+07
        -0.59779E+06
         0.40264E+06
         0.16460E+06
         0.22673E+06
         0.34250E+06
         0.54977E+03
         0.15203E+06
        -0.19942E+06
        -0.46813E+06
         0.50868E+06
        -0.53999E+06
        -0.50193E+06
        -0.66184E+05
        -0.21260E+06
        -0.15356E+07
        -0.56704E+06
        -0.29155E+06
         0.12416E+06
         0.35885E+06
        -0.85869E+05
        -0.81477E+05
        -0.95661E+06
        -0.66266E+06
        -0.12519E+07
        -0.34946E+06
        -0.58302E+06
        -0.19710E+06
        -0.19048E+07
        -0.11838E+07
        -0.73772E+06
        -0.61880E+06
        -0.17827E+06
        -0.20219E+06
         0.28630E+06
         0.55338E+06
        -0.79651E+06
        -0.46271E+06
        -0.33784E+06
        -0.74116E+06
        -0.43623E+06
        -0.33969E+06
        -0.72438E+06
        -0.10979E+07
        -0.10116E+07
        -0.10071E+07
        -0.69716E+06
        -0.30663E+06
        -0.21552E+06
        -0.26598E+06
         0.18429E+06
         0.36219E+06
        -0.66511E+05
        -0.24025E+05
        -0.19217E+07
        -0.83235E+06
        -0.12186E+07
        -0.14200E+06
         0.81196E+06
         0.14998E+07
         0.12420E+07
         0.13277E+07
         0.10166E+07
         0.41360E+06
        -0.32816E+06
        -0.89027E+06
        -0.11904E+07
        -0.70793E+06
        -0.14645E+07
        -0.20035E+07
        -0.16920E+07
        -0.13873E+07
        -0.66949E+06
         0.19541E+06
         0.16137E+06
        -0.98645E+05
        -0.61090E+06
        -0.10709E+07
        -0.99756E+06
        -0.58318E+06
         0.37432E+06
         0.14887E+06
         0.21753E+06
         0.34000E+06
        -0.28065E+04
         0.15212E+06
        -0.21177E+06
        -0.49259E+06
         0.48602E+06
        -0.57229E+06
        -0.50962E+06
        -0.70512E+05
        -0.21955E+06
        -0.15442E+07
        -0.56979E+06
        -0.29682E+06
         0.11172E+06
         0.35790E+06
        -0.89033E+05
        -0.85891E+05
        -0.95926E+06
        -0.66458E+06
        -0.12550E+07
        -0.35336E+06
        -0.60171E+06
        -0.20503E+06
        -0.19180E+07
        -0.11934E+07
        -0.74174E+06
        -0.62387E+06
        -0.20213E+06
        -0.21857E+06
         0.26820E+06
         0.54596E+06
        -0.80335E+06
        -0.46925E+06
        -0.34595E+06
        -0.74855E+06
        -0.44316E+06
        -0.34366E+06
        -0.72616E+06
        -0.10991E+07
        -0.10121E+07
        -0.10130E+07
        -0.70804E+06
        -0.32259E+06
        -0.23608E+06
        -0.29576E+06
         0.15543E+06
         0.34230E+06
        -0.78444E+05
        -0.27497E+05
        -0.19302E+07
        -0.83891E+06
        -0.12236E+07
        -0.14781E+06
         0.80361E+06
         0.14897E+07
         0.12337E+07
         0.13205E+07
         0.10095E+07
         0.40827E+06
        -0.33243E+06
        -0.89544E+06
        -0.11913E+07
        -0.70919E+06
        -0.14681E+07
        -0.20055E+07
        -0.16960E+07
        -0.14017E+07
        -0.69090E+06
         0.17169E+06
         0.13486E+06
        -0.13141E+06
        -0.63958E+06
        -0.10861E+07
        -0.10058E+07
        -0.58970E+06
         0.36599E+06
         0.14301E+06
         0.21373E+06
         0.33666E+06
        -0.64647E+04
         0.14912E+06
        -0.21830E+06
        -0.50064E+06
         0.47931E+06
        -0.58191E+06
        -0.51503E+06
        -0.76561E+05
        -0.22640E+06
        -0.15479E+07
        -0.57464E+06
        -0.30162E+06
         0.10632E+06
         0.35508E+06
        -0.91931E+05
        -0.89310E+05
        -0.96353E+06
        -0.66914E+06
        -0.12592E+07
        -0.35634E+06
        -0.60850E+06
        -0.20956E+06
        -0.19238E+07
        -0.11983E+07
        -0.74809E+06
        -0.62872E+06
        -0.21045E+06
        -0.22502E+06
         0.26298E+06
         0.54180E+06
        -0.80920E+06
        -0.47269E+06
        -0.35084E+06
        -0.75778E+06
        -0.45110E+06
        -0.35160E+06
        -0.73439E+06
        -0.11059E+07
        -0.10163E+07
        -0.10183E+07
        -0.71443E+06
        -0.33003E+06
        -0.24279E+06
        -0.30327E+06
         0.14837E+06
         0.33535E+06
        -0.85761E+05
        -0.31953E+05
        -0.19419E+07
        -0.85034E+06
        -0.12313E+07
        -0.15584E+06
         0.79394E+06
         0.14811E+07
         0.12249E+07
         0.13083E+07
         0.99358E+06
         0.39145E+06
        -0.34768E+06
        -0.90231E+06
        -0.11968E+07
        -0.72080E+06
        -0.14804E+07
        -0.20172E+07
        -0.17111E+07
        -0.14163E+07
        -0.70307E+06
         0.16177E+06
         0.12684E+06
        -0.14230E+06
        -0.65392E+06
        -0.10995E+07
        -0.10172E+07
        -0.60102E+06
         0.37113E+06
         0.14690E+06
         0.21658E+06
         0.33757E+06
        -0.15626E+04
         0.15058E+06
        -0.21474E+06
        -0.49370E+06
         0.48356E+06
        -0.57565E+06
        -0.51086E+06
        -0.70665E+05
        -0.22232E+06
        -0.15395E+07
        -0.56487E+06
        -0.29671E+06
         0.11025E+06
         0.35835E+06
        -0.86470E+05
        -0.84359E+05
        -0.95730E+06
        -0.66346E+06
        -0.12532E+07
        -0.35106E+06
        -0.60404E+06
        -0.20462E+06
        -0.19160E+07
        -0.11917E+07
        -0.74441E+06
        -0.62445E+06
        -0.20685E+06
        -0.22124E+06
         0.26693E+06
         0.54323E+06
        -0.80327E+06
        -0.46821E+06
        -0.34679E+06
        -0.75174E+06
        -0.44659E+06
        -0.34772E+06
        -0.72897E+06
        -0.11004E+07
        -0.10103E+07
        -0.10128E+07
        -0.70982E+06
        -0.32516E+06
        -0.23821E+06
        -0.29831E+06
         0.15323E+06
         0.33912E+06
        -0.82431E+05
        -0.30312E+05
        -0.19244E+07
        -0.83311E+06
        -0.12209E+07
        -0.15163E+06
         0.80257E+06
         0.14945E+07
         0.12397E+07
         0.13188E+07
         0.99773E+06
         0.39776E+06
        -0.33640E+06
        -0.88630E+06
        -0.11829E+07
        -0.71177E+06
        -0.14720E+07
        -0.20074E+07
        -0.17009E+07
        -0.14039E+07
        -0.69124E+06
         0.17557E+06
         0.14113E+06
        -0.12959E+06
        -0.64315E+06
        -0.10901E+07
        -0.10077E+07
        -0.59086E+06
         0.36969E+06
         0.14652E+06
         0.21579E+06
         0.33531E+06
        -0.19625E+04
         0.14916E+06
        -0.21601E+06
        -0.49541E+06
         0.48020E+06
        -0.57931E+06
        -0.51306E+06
        -0.74368E+05
        -0.22354E+06
        -0.15402E+07
        -0.56999E+06
        -0.29989E+06
         0.10654E+06
         0.35531E+06
        -0.88861E+05
        -0.86973E+05
        -0.95941E+06
        -0.66635E+06
        -0.12553E+07
        -0.35303E+06
        -0.60621E+06
        -0.20651E+06
        -0.19180E+07
        -0.11919E+07
        -0.74671E+06
        -0.62681E+06
        -0.20999E+06
        -0.22318E+06
         0.26449E+06
         0.54016E+06
        -0.80561E+06
        -0.46963E+06
        -0.34782E+06
        -0.75976E+06
        -0.45123E+06
        -0.35198E+06
        -0.73303E+06
        -0.11033E+07
        -0.10138E+07
        -0.10141E+07
        -0.71111E+06
        -0.32748E+06
        -0.24125E+06
        -0.30182E+06
         0.15053E+06
         0.33635E+06
        -0.85207E+05
        -0.32682E+05
        -0.19294E+07
        -0.83702E+06
        -0.12290E+07
        -0.15859E+06
         0.80168E+06
         0.14895E+07
         0.12283E+07
         0.13060E+07
         0.99037E+06
         0.38658E+06
        -0.34862E+06
        -0.89236E+06
        -0.11900E+07
        -0.71567E+06
        -0.14757E+07
        -0.20109E+07
        -0.17014E+07
        -0.14063E+07
        -0.69467E+06
         0.16622E+06
         0.12967E+06
        -0.13844E+06
        -0.64750E+06
        -0.10922E+07
        -0.10128E+07
        -0.59812E+06
         0.36581E+06
         0.14350E+06
         0.21359E+06
         0.33397E+06
        -0.44006E+04
         0.14840E+06
        -0.21901E+06
        -0.49824E+06
         0.47715E+06
        -0.58297E+06
        -0.51556E+06
        -0.79255E+05
        -0.22676E+06
        -0.15402E+07
        -0.57522E+06
        -0.30410E+06
         0.10347E+06
         0.35367E+06
        -0.91804E+05
        -0.88887E+05
        -0.96219E+06
        -0.66929E+06
        -0.12586E+07
        -0.35610E+06
        -0.60834E+06
        -0.21005E+06
        -0.19196E+07
        -0.11929E+07
        -0.74922E+06
        -0.62858E+06
        -0.21415E+06
        -0.22639E+06
         0.26349E+06
         0.53962E+06
        -0.81080E+06
        -0.47228E+06
        -0.35038E+06
        -0.76754E+06
        -0.45637E+06
        -0.35575E+06
        -0.73541E+06
        -0.11058E+07
        -0.10171E+07
        -0.10169E+07
        -0.71360E+06
        -0.33064E+06
        -0.24409E+06
        -0.30488E+06
         0.14796E+06
         0.33392E+06
        -0.87840E+05
        -0.33489E+05
        -0.19395E+07
        -0.84536E+06
        -0.12351E+07
        -0.16070E+06
         0.79900E+06
         0.14796E+07
         0.12139E+07
         0.12944E+07
         0.98274E+06
         0.37856E+06
        -0.35361E+06
        -0.89835E+06
        -0.11986E+07
        -0.72150E+06
        -0.14819E+07
        -0.20181E+07
        -0.17061E+07
        -0.14119E+07
        -0.70150E+06
         0.15852E+06
         0.12098E+06
        -0.14749E+06
        -0.65387E+06
        -0.10984E+07
        -0.10206E+07
        -0.60637E+06
         0.36820E+06
         0.14469E+06
         0.21462E+06
         0.33571E+06
        -0.94195E+03
         0.15138E+06
        -0.21691E+06
        -0.49323E+06
         0.47907E+06
        -0.58027E+06
        -0.51162E+06
        -0.75252E+05
        -0.22565E+06
        -0.15323E+07
        -0.56615E+06
        -0.30159E+06
         0.10465E+06
         0.35693E+06
        -0.88513E+05
        -0.84888E+05
        -0.95717E+06
        -0.66421E+06
        -0.12545E+07
        -0.35285E+06
        -0.60638E+06
        -0.20693E+06
        -0.19147E+07
        -0.11886E+07
        -0.74498E+06
        -0.62389E+06
        -0.21148E+06
        -0.22380E+06
         0.26807E+06
         0.54310E+06
        -0.80727E+06
        -0.46933E+06
        -0.34861E+06
        -0.76274E+06
        -0.45188E+06
        -0.34985E+06
        -0.72935E+06
        -0.11017E+07
        -0.10123E+07
        -0.10134E+07
        -0.71070E+06
        -0.32790E+06
        -0.24125E+06
        -0.30194E+06
         0.15120E+06
         0.33711E+06
        -0.84349E+05
        -0.29726E+05
        -0.19267E+07
        -0.83147E+06
        -0.12220E+07
        -0.15432E+06
         0.79699E+06
         0.14802E+07
         0.12242E+07
         0.13057E+07
         0.99049E+06
         0.39025E+06
        -0.34253E+06
        -0.89306E+06
        -0.11893E+07
        -0.71203E+06
        -0.14734E+07
        -0.20115E+07
        -0.17015E+07
        -0.14062E+07
        -0.69610E+06
         0.16682E+06
         0.13086E+06
        -0.13803E+06
        -0.64554E+06
        -0.10914E+07
        -0.10104E+07
        -0.59445E+06
         0.36635E+06
         0.14226E+06
         0.21249E+06
         0.33318E+06
        -0.34276E+04
         0.14919E+06
        -0.22056E+06
        -0.49573E+06
         0.47661E+06
        -0.58479E+06
        -0.51532E+06
        -0.81306E+05
        -0.23197E+06
        -0.15338E+07
        -0.56980E+06
        -0.30510E+06
         0.10088E+06
         0.35366E+06
        -0.92120E+05
        -0.88001E+05
        -0.96236E+06
        -0.66956E+06
        -0.12601E+07
        -0.35640E+06
        -0.61049E+06
        -0.21003E+06
        -0.19196E+07
        -0.11933E+07
        -0.74999E+06
        -0.62691E+06
        -0.21542E+06
        -0.22683E+06
         0.26493E+06
         0.54033E+06
        -0.81223E+06
        -0.47246E+06
        -0.35293E+06
        -0.77118E+06
        -0.45989E+06
        -0.35678E+06
        -0.73705E+06
        -0.11091E+07
        -0.10178E+07
        -0.10192E+07
        -0.71552E+06
        -0.33252E+06
        -0.24535E+06
        -0.30666E+06
         0.14784E+06
         0.33438E+06
        -0.87904E+05
        -0.32481E+05
        -0.19366E+07
        -0.84001E+06
        -0.12317E+07
        -0.16569E+06
         0.78380E+06
         0.14675E+07
         0.12164E+07
         0.12957E+07
         0.97751E+06
         0.37733E+06
        -0.35830E+06
        -0.90862E+06
        -0.11996E+07
        -0.72268E+06
        -0.14827E+07
        -0.20221E+07
        -0.17177E+07
        -0.14209E+07
        -0.70335E+06
         0.15664E+06
         0.12049E+06
        -0.14335E+06
        -0.64903E+06
        -0.10990E+07
        -0.10209E+07
        -0.60495E+06
         0.36594E+06
         0.14143E+06
         0.21182E+06
         0.33233E+06
        -0.33302E+04
         0.14887E+06
        -0.22163E+06
        -0.49535E+06
         0.47671E+06
        -0.58483E+06
        -0.51574E+06
        -0.82214E+05
        -0.23315E+06
        -0.15312E+07
        -0.56926E+06
        -0.30623E+06
         0.10039E+06
         0.35318E+06
        -0.92461E+05
        -0.88067E+05
        -0.96329E+06
        -0.67034E+06
        -0.12614E+07
        -0.35707E+06
        -0.61112E+06
        -0.21094E+06
        -0.19188E+07
        -0.11936E+07
        -0.75194E+06
        -0.62771E+06
        -0.21788E+06
        -0.22800E+06
         0.26418E+06
         0.53977E+06
        -0.81365E+06
        -0.47329E+06
        -0.35413E+06
        -0.77541E+06
        -0.46464E+06
        -0.35985E+06
        -0.73801E+06
        -0.11101E+07
        -0.10186E+07
        -0.10200E+07
        -0.71617E+06
        -0.33356E+06
        -0.24659E+06
        -0.30860E+06
         0.14660E+06
         0.33375E+06
        -0.88443E+05
        -0.32802E+05
        -0.19368E+07
        -0.83975E+06
        -0.12343E+07
        -0.17007E+06
         0.78361E+06
         0.14673E+07
         0.12132E+07
         0.12873E+07
         0.96817E+06
         0.37217E+06
        -0.35880E+06
        -0.91012E+06
        -0.12022E+07
        -0.72680E+06
        -0.14875E+07
        -0.20255E+07
        -0.17198E+07
        -0.14228E+07
        -0.70535E+06
         0.15296E+06
         0.11596E+06
        -0.14626E+06
        -0.64918E+06
        -0.10999E+07
        -0.10256E+07
        -0.60925E+06
         0.37365E+06
         0.14888E+06
         0.21806E+06
         0.33701E+06
         0.59330E+04
         0.15520E+06
        -0.21342E+06
        -0.48549E+06
         0.48180E+06
        -0.57761E+06
        -0.50659E+06
        -0.69351E+05
        -0.22236E+06
        -0.15193E+07
        -0.55586E+06
        -0.30014E+06
         0.10597E+06
         0.35903E+06
        -0.85267E+05
        -0.80049E+05
        -0.95242E+06
        -0.66034E+06
        -0.12514E+07
        -0.35004E+06
        -0.60361E+06
        -0.20397E+06
        -0.19090E+07
        -0.11828E+07
        -0.74284E+06
        -0.61889E+06
        -0.21169E+06
        -0.22081E+06
         0.27076E+06
         0.54441E+06
        -0.80361E+06
        -0.46522E+06
        -0.34540E+06
        -0.76764E+06
        -0.45533E+06
        -0.34994E+06
        -0.72778E+06
        -0.11003E+07
        -0.10095E+07
        -0.10098E+07
        -0.70604E+06
        -0.32294E+06
        -0.23778E+06
        -0.30089E+06
         0.15303E+06
         0.33957E+06
        -0.81338E+05
        -0.26590E+05
        -0.19136E+07
        -0.81658E+06
        -0.12147E+07
        -0.15597E+06
         0.80090E+06
         0.14891E+07
         0.12315E+07
         0.13010E+07
         0.98383E+06
         0.38928E+06
        -0.34339E+06
        -0.89206E+06
        -0.11880E+07
        -0.71098E+06
        -0.14696E+07
        -0.20067E+07
        -0.16985E+07
        -0.13998E+07
        -0.68561E+06
         0.17349E+06
         0.13352E+06
        -0.13323E+06
        -0.63466E+06
        -0.10828E+07
        -0.10070E+07
        -0.59060E+06
         0.37031E+06
         0.14670E+06
         0.21609E+06
         0.33391E+06
         0.26943E+04
         0.15292E+06
        -0.21673E+06
        -0.48892E+06
         0.47830E+06
        -0.58329E+06
        -0.51023E+06
        -0.74023E+05
        -0.22526E+06
        -0.15211E+07
        -0.56122E+06
        -0.30450E+06
         0.10138E+06
         0.35641E+06
        -0.90032E+05
        -0.83930E+05
        -0.95582E+06
        -0.66521E+06
        -0.12548E+07
        -0.35431E+06
        -0.60841E+06
        -0.20836E+06
        -0.19134E+07
        -0.11859E+07
        -0.74455E+06
        -0.62107E+06
        -0.21478E+06
        -0.22426E+06
         0.26886E+06
         0.54104E+06
        -0.80992E+06
        -0.46803E+06
        -0.34743E+06
        -0.77714E+06
        -0.46194E+06
        -0.35324E+06
        -0.73267E+06
        -0.11061E+07
        -0.10159E+07
        -0.10140E+07
        -0.71020E+06
        -0.32728E+06
        -0.24117E+06
        -0.30360E+06
         0.15023E+06
         0.33551E+06
        -0.85634E+05
        -0.29428E+05
        -0.19283E+07
        -0.82894E+06
        -0.12259E+07
        -0.16197E+06
         0.79893E+06
         0.14835E+07
         0.12190E+07
         0.12860E+07
         0.96944E+06
         0.37641E+06
        -0.35860E+06
        -0.90945E+06
        -0.12002E+07
        -0.71704E+06
        -0.14725E+07
        -0.20086E+07
        -0.17043E+07
        -0.14102E+07
        -0.69322E+06
         0.16434E+06
         0.12522E+06
        -0.14260E+06
        -0.64459E+06
        -0.10891E+07
        -0.10130E+07
        -0.60053E+06
         0.36477E+06
         0.14118E+06
         0.21072E+06
         0.32980E+06
        -0.27718E+04
         0.14825E+06
        -0.22189E+06
        -0.49313E+06
         0.47330E+06
        -0.59344E+06
        -0.51470E+06
        -0.81534E+05
        -0.23144E+06
        -0.15229E+07
        -0.56810E+06
        -0.30972E+06
         0.94720E+05
         0.35334E+06
        -0.93938E+05
        -0.85670E+05
        -0.96007E+06
        -0.67092E+06
        -0.12590E+07
        -0.35799E+06
        -0.61678E+06
        -0.21266E+06
        -0.19235E+07
        -0.11912E+07
        -0.73372E+06
        -0.61484E+06
        -0.21973E+06
        -0.22913E+06
         0.26697E+06
         0.53872E+06
        -0.81698E+06
        -0.47284E+06
        -0.35252E+06
        -0.79104E+06
        -0.46846E+06
        -0.34412E+06
        -0.73320E+06
        -0.11124E+07
        -0.10243E+07
        -0.10187E+07
        -0.71556E+06
        -0.33429E+06
        -0.24718E+06
        -0.30833E+06
         0.14696E+06
         0.33223E+06
        -0.89413E+05
        -0.33019E+05
        -0.19381E+07
        -0.83792E+06
        -0.12336E+07
        -0.16873E+06
         0.78956E+06
         0.14681E+07
         0.12014E+07
         0.12692E+07
         0.95493E+06
         0.37307E+06
        -0.38514E+06
        -0.95117E+06
        -0.12175E+07
        -0.72657E+06
        -0.14811E+07
        -0.20163E+07
        -0.17137E+07
        -0.14210E+07
        -0.70577E+06
         0.15002E+06
         0.11570E+06
        -0.15154E+06
        -0.65470E+06
        -0.10966E+07
        -0.10247E+07
        -0.61374E+06
         0.37210E+06
         0.14802E+06
         0.21750E+06
         0.33552E+06
         0.70371E+04
         0.15506E+06
        -0.21475E+06
        -0.48341E+06
         0.47680E+06
        -0.59502E+06
        -0.50647E+06
        -0.71947E+05
        -0.22350E+06
        -0.15116E+07
        -0.55609E+06
        -0.30355E+06
         0.98349E+05
         0.35884E+06
        -0.85639E+05
        -0.72655E+05
        -0.95099E+06
        -0.66218E+06
        -0.12510E+07
        -0.35040E+06
        -0.61509E+06
        -0.20508E+06
        -0.19252E+07
        -0.11843E+07
        -0.69823E+06
        -0.58729E+06
        -0.21457E+06
        -0.22182E+06
         0.27341E+06
         0.54487E+06
        -0.80619E+06
        -0.46387E+06
        -0.34427E+06
        -0.79062E+06
        -0.45771E+06
        -0.30845E+06
        -0.71339E+06
        -0.11023E+07
        -0.10190E+07
        -0.10099E+07
        -0.70564E+06
        -0.32248E+06
        -0.23800E+06
        -0.30129E+06
         0.15400E+06
         0.34017E+06
        -0.80012E+05
        -0.25742E+05
        -0.19142E+07
        -0.81438E+06
        -0.12094E+07
        -0.15194E+06
         0.80038E+06
         0.14805E+07
         0.12185E+07
         0.12864E+07
         0.97406E+06
         0.41028E+06
        -0.39372E+06
        -0.98474E+06
        -0.12162E+07
        -0.71345E+06
        -0.14702E+07
        -0.20072E+07
        -0.17022E+07
        -0.14018E+07
        -0.68221E+06
         0.17199E+06
         0.13473E+06
        -0.13200E+06
        -0.63251E+06
        -0.10762E+07
        -0.10082E+07
        -0.59647E+06
         0.34433E+06
         0.12268E+06
         0.19291E+06
         0.31188E+06
        -0.25790E+05
         0.12736E+06
        -0.24307E+06
        -0.51510E+06
         0.45011E+06
        -0.63470E+06
        -0.53749E+06
        -0.11804E+06
        -0.26542E+06
        -0.15423E+07
        -0.60291E+06
        -0.32948E+06
         0.69244E+05
         0.33540E+06
        -0.11348E+06
        -0.98771E+05
        -0.98991E+06
        -0.70020E+06
        -0.12885E+07
        -0.37724E+06
        -0.64876E+06
        -0.23055E+06
        -0.19643E+07
        -0.12159E+07
        -0.71349E+06
        -0.60626E+06
        -0.23969E+06
        -0.24818E+06
         0.24946E+06
         0.51872E+06
        -0.84732E+06
        -0.49565E+06
        -0.37999E+06
        -0.84421E+06
        -0.49880E+06
        -0.33253E+06
        -0.75244E+06
        -0.11443E+07
        -0.10609E+07
        -0.10453E+07
        -0.74183E+06
        -0.36643E+06
        -0.27307E+06
        -0.33189E+06
         0.12628E+06
         0.30831E+06
        -0.12120E+06
        -0.58491E+05
        -0.19973E+07
        -0.89502E+06
        -0.12934E+07
        -0.23749E+06
         0.71507E+06
         0.13981E+07
         0.11348E+07
         0.11968E+07
         0.89015E+06
         0.33372E+06
        -0.50036E+06
        -0.11008E+07
        -0.12980E+07
        -0.78123E+06
        -0.15415E+07
        -0.20814E+07
        -0.17787E+07
        -0.14877E+07
        -0.77035E+06
         0.87365E+05
         0.56504E+05
        -0.20684E+06
        -0.70911E+06
        -0.11550E+07
        -0.10840E+07
        -0.67177E+06
         0.36009E+06
         0.12439E+06
         0.19745E+06
         0.32072E+06
        -0.14189E+05
         0.13694E+06
        -0.23964E+06
        -0.49484E+06
         0.46742E+06
        -0.60590E+06
        -0.52880E+06
        -0.11726E+06
        -0.27627E+06
        -0.15186E+07
        -0.58137E+06
        -0.31029E+06
         0.87138E+05
         0.34849E+06
        -0.98440E+05
        -0.82927E+05
        -0.97197E+06
        -0.68707E+06
        -0.12616E+07
        -0.35715E+06
        -0.61971E+06
        -0.21185E+06
        -0.19309E+07
        -0.11789E+07
        -0.68402E+06
        -0.57841E+06
        -0.22550E+06
        -0.23649E+06
         0.25732E+06
         0.51490E+06
        -0.84146E+06
        -0.49785E+06
        -0.39002E+06
        -0.81985E+06
        -0.47023E+06
        -0.30792E+06
        -0.73491E+06
        -0.11210E+07
        -0.10359E+07
        -0.10209E+07
        -0.72829E+06
        -0.35961E+06
        -0.26765E+06
        -0.31904E+06
         0.13573E+06
         0.30879E+06
        -0.11838E+06
        -0.57391E+05
        -0.19652E+07
        -0.85334E+06
        -0.12827E+07
        -0.25595E+06
         0.67680E+06
         0.13747E+07
         0.11731E+07
         0.12359E+07
         0.92146E+06
         0.35232E+06
        -0.49514E+06
        -0.10849E+07
        -0.12671E+07
        -0.76591E+06
        -0.15092E+07
        -0.20351E+07
        -0.17391E+07
        -0.14574E+07
        -0.75717E+06
         0.85834E+05
         0.73986E+05
        -0.18194E+06
        -0.66943E+06
        -0.11070E+07
        -0.10462E+07
        -0.63269E+06
         0.10957E+09
         0.98908E+08
         0.97903E+08
         0.89481E+08
         0.13169E+09
         0.11219E+09
         0.10634E+09
         0.12428E+09
         0.95015E+08
         0.12390E+09
         0.11816E+09
         0.17626E+09
         0.15265E+09
         0.12957E+09
         0.18223E+09
         0.96448E+08
         0.97674E+08
         0.85621E+08
         0.10163E+09
         0.10633E+09
         0.14016E+09
         0.14020E+09
         0.13233E+09
         0.96983E+08
         0.11157E+09
         0.93038E+08
         0.12752E+09
         0.11648E+09
         0.11707E+09
         0.11695E+09
         0.92804E+08
         0.96211E+08
         0.90011E+08
         0.94208E+08
         0.15328E+09
         0.12348E+09
         0.13127E+09
         0.16895E+09
         0.15738E+09
         0.15285E+09
         0.16489E+09
         0.15331E+09
         0.14528E+09
         0.12531E+09
         0.12827E+09
         0.15645E+09
         0.13120E+09
         0.11722E+09
         0.10793E+09
         0.11793E+09
         0.14538E+09
         0.12203E+09
         0.30219E+09
         0.29625E+09
         0.30220E+09
         0.29281E+09
         0.30275E+09
         0.31823E+09
         0.31935E+09
         0.31510E+09
         0.31734E+09
         0.32641E+09
         0.31586E+09
         0.29736E+09
         0.26249E+09
         0.24745E+09
         0.25169E+09
         0.25804E+09
         0.26186E+09
         0.28606E+09
         0.30657E+09
         0.30830E+09
         0.28210E+09
         0.27175E+09
         0.28167E+09
         0.27808E+09
         0.27605E+09
         0.27657E+09
         0.13669E+10
         0.14300E+10
         0.14088E+10
         0.12817E+10
         0.15885E+10
         0.14886E+10
         0.15482E+10
         0.15641E+10
         0.13332E+10
         0.15631E+10
         0.17033E+10
         0.19191E+10
         0.17363E+10
         0.17544E+10
         0.19871E+10
         0.13065E+10
         0.14043E+10
         0.12204E+10
         0.14518E+10
         0.15283E+10
         0.15893E+10
         0.16237E+10
         0.15241E+10
         0.13945E+10
         0.15796E+10
         0.13439E+10
         0.17480E+10
         0.17164E+10
         0.17245E+10
         0.16365E+10
         0.13200E+10
         0.13882E+10
         0.12921E+10
         0.13527E+10
         0.17428E+10
         0.15945E+10
         0.16013E+10
         0.19220E+10
         0.18704E+10
         0.18472E+10
         0.18828E+10
         0.17865E+10
         0.16890E+10
         0.14860E+10
         0.15472E+10
         0.17429E+10
         0.16076E+10
         0.15094E+10
         0.14780E+10
         0.15341E+10
         0.16705E+10
         0.15392E+10
         0.27815E+10
         0.27113E+10
         0.27683E+10
         0.26826E+10
         0.27627E+10
         0.29040E+10
         0.29497E+10
         0.29416E+10
         0.29617E+10
         0.30294E+10
         0.29423E+10
         0.27679E+10
         0.24813E+10
         0.23455E+10
         0.23532E+10
         0.23842E+10
         0.24078E+10
         0.26104E+10
         0.27945E+10
         0.28062E+10
         0.25979E+10
         0.25176E+10
         0.26008E+10
         0.25818E+10
         0.25530E+10
         0.25457E+10
  
SCALARS                      stress_yy  double 1
LOOKUP_TABLE default
         0.80166E+11
         0.78346E+11
         0.79500E+11
         0.81571E+11
        -0.73591E+02
        -0.82520E+02
        -0.79016E+02
        -0.71783E+02
         0.78282E+11
         0.78898E+11
        -0.74206E+02
        -0.71813E+02
         0.75712E+11
         0.75615E+11
        -0.88173E+02
        -0.82905E+02
         0.81268E+11
         0.75757E+11
        -0.65150E+02
        -0.72262E+02
         0.73736E+11
         0.72168E+11
         0.74663E+11
        -0.87389E+02
        -0.76318E+02
        -0.78807E+02
         0.72229E+11
         0.69941E+11
        -0.83838E+02
        -0.70702E+02
         0.81168E+11
         0.78769E+11
         0.83496E+11
        -0.71543E+02
        -0.66510E+02
        -0.64665E+02
         0.79780E+11
         0.76726E+11
        -0.75690E+02
        -0.69067E+02
         0.78570E+11
         0.76214E+11
        -0.65417E+02
        -0.57913E+02
         0.80566E+11
         0.81451E+11
        -0.71689E+02
        -0.80101E+02
         0.74327E+11
        -0.70033E+02
         0.81278E+11
        -0.82292E+02
         0.71569E+11
        -0.73958E+02
         0.70850E+11
        -0.70941E+02
         0.70861E+11
         0.73418E+11
        -0.72280E+02
        -0.70393E+02
         0.81119E+11
         0.80196E+11
        -0.72478E+02
        -0.81936E+02
         0.81695E+11
        -0.69937E+02
         0.80599E+11
        -0.76327E+02
         0.77715E+11
         0.77427E+11
        -0.73473E+02
        -0.76986E+02
         0.76776E+11
        -0.77632E+02
         0.69129E+11
        -0.61335E+02
         0.68728E+11
        -0.59535E+02
         0.68928E+11
        -0.62774E+02
         0.70033E+11
         0.71183E+11
        -0.59809E+02
        -0.62354E+02
         0.73501E+11
        -0.58074E+02
         0.80519E+11
        -0.76157E+02
         0.79422E+11
        -0.77945E+02
         0.78523E+11
         0.78030E+11
        -0.74853E+02
        -0.75726E+02
         0.78638E+11
        -0.68781E+02
         0.79071E+11
        -0.67800E+02
         0.78680E+11
        -0.72581E+02
         0.78542E+11
         0.78937E+11
        -0.71176E+02
        -0.73264E+02
         0.76373E+11
         0.77412E+11
        -0.55261E+02
        -0.51976E+02
         0.76176E+11
        -0.52767E+02
         0.77376E+11
        -0.50595E+02
         0.76192E+11
        -0.49890E+02
         0.73573E+11
        -0.47147E+02
         0.71036E+11
        -0.41884E+02
         0.69520E+11
        -0.37715E+02
         0.69365E+11
        -0.37453E+02
         0.69413E+11
        -0.40615E+02
         0.71059E+11
        -0.42685E+02
         0.74137E+11
        -0.38976E+02
         0.77523E+11
        -0.35133E+02
         0.79508E+11
        -0.35093E+02
         0.81472E+11
        -0.39225E+02
         0.82770E+11
        -0.44726E+02
         0.82722E+11
        -0.48049E+02
         0.79571E+11
        -0.51893E+02
         0.77376E+11
        -0.55596E+02
         0.76623E+11
        -0.50929E+02
         0.77798E+11
        -0.44679E+02
         0.78412E+11
        -0.44541E+02
         0.77384E+11
        -0.48733E+02
         0.77399E+11
        -0.51953E+02
         0.78175E+11
        -0.49303E+02
         0.79187E+11
        -0.47664E+02
        -0.25337E+11
        -0.25650E+11
        -0.25608E+11
        -0.25199E+11
        -0.25943E+11
        -0.25573E+11
        -0.26030E+11
        -0.25794E+11
        -0.25265E+11
        -0.25598E+11
        -0.26276E+11
        -0.26349E+11
        -0.26152E+11
        -0.26138E+11
        -0.26266E+11
        -0.25219E+11
        -0.25296E+11
        -0.25078E+11
        -0.25684E+11
        -0.25576E+11
        -0.25729E+11
        -0.25628E+11
        -0.25814E+11
        -0.25766E+11
        -0.25585E+11
        -0.25598E+11
        -0.25905E+11
        -0.25878E+11
        -0.26100E+11
        -0.25762E+11
        -0.25257E+11
        -0.25655E+11
        -0.25260E+11
        -0.25522E+11
        -0.26400E+11
        -0.26128E+11
        -0.25996E+11
        -0.26151E+11
        -0.26171E+11
        -0.26419E+11
        -0.26595E+11
        -0.26160E+11
        -0.25723E+11
        -0.25784E+11
        -0.26009E+11
        -0.26390E+11
        -0.26066E+11
        -0.25704E+11
        -0.25730E+11
        -0.26010E+11
        -0.26287E+11
        -0.25911E+11
        -0.27006E+11
        -0.26699E+11
        -0.26751E+11
        -0.26678E+11
        -0.26697E+11
        -0.26864E+11
        -0.27032E+11
        -0.27085E+11
        -0.27062E+11
        -0.27079E+11
        -0.27149E+11
        -0.26713E+11
        -0.26543E+11
        -0.26476E+11
        -0.26362E+11
        -0.26274E+11
        -0.26278E+11
        -0.26427E+11
        -0.26905E+11
        -0.26794E+11
        -0.26630E+11
        -0.26632E+11
        -0.26660E+11
        -0.26817E+11
        -0.26585E+11
        -0.26498E+11
        -0.65323E+05
        -0.16059E+06
        -0.40337E+05
         0.48526E+06
         0.56905E+05
         0.46784E+06
        -0.19608E+06
        -0.84622E+06
         0.24451E+06
        -0.85559E+06
        -0.67019E+06
        -0.92501E+06
        -0.33403E+06
        -0.10533E+07
        -0.12329E+07
         0.38715E+05
         0.31074E+06
         0.41116E+06
        -0.20988E+06
         0.56803E+05
        -0.13367E+06
         0.17632E+06
        -0.29122E+06
        -0.11365E+06
        -0.73807E+06
        -0.63500E+05
        -0.13796E+07
        -0.10952E+07
        -0.56755E+06
        -0.67632E+06
        -0.15330E+05
        -0.20696E+05
         0.36127E+06
         0.60823E+06
         0.24919E+05
        -0.51849E+05
        -0.81841E+05
        -0.11351E+07
        -0.11377E+07
        -0.84081E+06
        -0.17093E+06
        -0.13159E+06
        -0.11520E+06
        -0.37981E+06
        -0.46299E+06
        -0.88555E+06
        -0.41114E+06
        -0.11928E+06
        -0.21228E+06
        -0.11897E+06
         0.14035E+06
         0.59880E+06
        -0.72952E+06
         0.28370E+06
        -0.68828E+06
        -0.13144E+06
         0.21887E+06
         0.42486E+06
         0.79197E+05
         0.28493E+06
         0.55094E+05
        -0.23258E+06
         0.20201E+06
         0.39208E+06
         0.95360E+05
         0.51701E+06
        -0.19412E+06
        -0.80159E+06
        -0.97315E+06
        -0.11768E+07
        -0.14540E+07
        -0.92828E+06
        -0.81785E+06
        -0.10454E+07
        -0.12898E+07
        -0.81342E+06
         0.13619E+05
         0.44492E+06
        -0.94959E+05
        -0.18761E+06
        -0.67234E+05
         0.46112E+06
         0.21090E+05
         0.43790E+06
        -0.22564E+06
        -0.88136E+06
         0.21563E+06
        -0.89431E+06
        -0.70344E+06
        -0.97438E+06
        -0.37575E+06
        -0.10865E+07
        -0.12830E+07
         0.97792E+04
         0.27964E+06
         0.38742E+06
        -0.24167E+06
         0.23934E+05
        -0.17560E+06
         0.13599E+06
        -0.33358E+06
        -0.14573E+06
        -0.77683E+06
        -0.94026E+05
        -0.14120E+07
        -0.11284E+07
        -0.60280E+06
        -0.71458E+06
        -0.42604E+05
        -0.49628E+05
         0.33637E+06
         0.58372E+06
        -0.16864E+05
        -0.84490E+05
        -0.11692E+06
        -0.11846E+07
        -0.11829E+07
        -0.88414E+06
        -0.21933E+06
        -0.17821E+06
        -0.15979E+06
        -0.41984E+06
        -0.50006E+06
        -0.92830E+06
        -0.44758E+06
        -0.15182E+06
        -0.23902E+06
        -0.14835E+06
         0.10184E+06
         0.56608E+06
        -0.81280E+06
         0.20233E+06
        -0.76857E+06
        -0.20816E+06
         0.13754E+06
         0.33433E+06
        -0.11123E+05
         0.19383E+06
        -0.37151E+05
        -0.32694E+06
         0.10819E+06
         0.30528E+06
         0.23232E+05
         0.44967E+06
        -0.26476E+06
        -0.87725E+06
        -0.10506E+07
        -0.12578E+07
        -0.15353E+07
        -0.10141E+07
        -0.89880E+06
        -0.11184E+07
        -0.13631E+07
        -0.88819E+06
        -0.61963E+05
         0.36802E+06
        -0.88093E+05
        -0.18247E+06
        -0.61893E+05
         0.46729E+06
         0.30118E+05
         0.44557E+06
        -0.21978E+06
        -0.87498E+06
         0.21893E+06
        -0.89518E+06
        -0.69699E+06
        -0.96481E+06
        -0.36775E+06
        -0.10772E+07
        -0.12717E+07
         0.40394E+04
         0.27778E+06
         0.39386E+06
        -0.24974E+06
         0.17770E+05
        -0.18278E+06
         0.13332E+06
        -0.36137E+06
        -0.16887E+06
        -0.79517E+06
        -0.11538E+06
        -0.14058E+07
        -0.11328E+07
        -0.61686E+06
        -0.74169E+06
        -0.42631E+05
        -0.56144E+05
         0.34270E+06
         0.59159E+06
        -0.58793E+04
        -0.76421E+05
        -0.10919E+06
        -0.11768E+07
        -0.11769E+07
        -0.88211E+06
        -0.22068E+06
        -0.19511E+06
        -0.18385E+06
        -0.44673E+06
        -0.50650E+06
        -0.92250E+06
        -0.44106E+06
        -0.14414E+06
        -0.23013E+06
        -0.13867E+06
         0.11276E+06
         0.57515E+06
        -0.78791E+06
         0.22456E+06
        -0.74402E+06
        -0.18915E+06
         0.15160E+06
         0.34847E+06
         0.69163E+04
         0.21192E+06
        -0.19034E+05
        -0.30806E+06
         0.11934E+06
         0.30482E+06
         0.24401E+05
         0.46202E+06
        -0.25651E+06
        -0.89263E+06
        -0.10674E+07
        -0.12535E+07
        -0.15130E+07
        -0.98827E+06
        -0.87583E+06
        -0.10952E+07
        -0.13371E+07
        -0.86606E+06
        -0.43900E+05
         0.38550E+06
        -0.92368E+05
        -0.18487E+06
        -0.64429E+05
         0.46327E+06
         0.26488E+05
         0.44272E+06
        -0.22247E+06
        -0.88068E+06
         0.20966E+06
        -0.91315E+06
        -0.70063E+06
        -0.96981E+06
        -0.37106E+06
        -0.10803E+07
        -0.12787E+07
        -0.18973E+05
         0.25936E+06
         0.38963E+06
        -0.27759E+06
        -0.98743E+04
        -0.21468E+06
         0.10544E+06
        -0.42605E+06
        -0.22063E+06
        -0.84050E+06
        -0.16410E+06
        -0.14147E+07
        -0.11597E+07
        -0.66019E+06
        -0.80466E+06
        -0.55885E+05
        -0.82175E+05
         0.33863E+06
         0.58749E+06
        -0.11208E+05
        -0.79818E+05
        -0.11202E+06
        -0.11864E+07
        -0.11888E+07
        -0.90205E+06
        -0.24822E+06
        -0.24789E+06
        -0.24888E+06
        -0.50994E+06
        -0.53731E+06
        -0.93979E+06
        -0.45286E+06
        -0.14996E+06
        -0.23366E+06
        -0.14383E+06
         0.10696E+06
         0.57145E+06
        -0.79948E+06
         0.21649E+06
        -0.75684E+06
        -0.20022E+06
         0.14407E+06
         0.33995E+06
        -0.73959E+04
         0.19648E+06
        -0.34147E+05
        -0.32634E+06
         0.90444E+05
         0.25809E+06
        -0.19319E+05
         0.44127E+06
        -0.27981E+06
        -0.95699E+06
        -0.11358E+07
        -0.12856E+07
        -0.15283E+07
        -0.10027E+07
        -0.88691E+06
        -0.11083E+07
        -0.13508E+07
        -0.87514E+06
        -0.50734E+05
         0.37874E+06
        -0.10009E+06
        -0.18963E+06
        -0.68608E+05
         0.45912E+06
         0.22352E+05
         0.43890E+06
        -0.22657E+06
        -0.88928E+06
         0.19882E+06
        -0.93177E+06
        -0.70451E+06
        -0.97289E+06
        -0.37474E+06
        -0.10838E+07
        -0.12824E+07
        -0.34512E+05
         0.24471E+06
         0.38571E+06
        -0.29605E+06
        -0.29752E+05
        -0.23533E+06
         0.85408E+05
        -0.46581E+06
        -0.25266E+06
        -0.87386E+06
        -0.19522E+06
        -0.14225E+07
        -0.11791E+07
        -0.68996E+06
        -0.84677E+06
        -0.69702E+05
        -0.10103E+06
         0.33092E+06
         0.58183E+06
        -0.16716E+05
        -0.84128E+05
        -0.11626E+06
        -0.11938E+07
        -0.11989E+07
        -0.91732E+06
        -0.26773E+06
        -0.28334E+06
        -0.29155E+06
        -0.55030E+06
        -0.55777E+06
        -0.95126E+06
        -0.46337E+06
        -0.15947E+06
        -0.24074E+06
        -0.15167E+06
         0.97903E+05
         0.56553E+06
        -0.80989E+06
         0.20944E+06
        -0.76778E+06
        -0.20884E+06
         0.14052E+06
         0.33748E+06
        -0.13452E+05
         0.18632E+06
        -0.46988E+05
        -0.33765E+06
         0.72849E+05
         0.22574E+06
        -0.49126E+05
         0.42523E+06
        -0.29626E+06
        -0.99872E+06
        -0.11839E+07
        -0.13086E+07
        -0.15353E+07
        -0.10158E+07
        -0.90157E+06
        -0.11232E+07
        -0.13684E+07
        -0.88998E+06
        -0.59832E+05
         0.37200E+06
        -0.11869E+06
        -0.19858E+06
        -0.72737E+05
         0.46220E+06
         0.26886E+05
         0.44414E+06
        -0.22945E+06
        -0.90335E+06
         0.18413E+06
        -0.95606E+06
        -0.70197E+06
        -0.96172E+06
        -0.37054E+06
        -0.10814E+07
        -0.12693E+07
        -0.31578E+05
         0.24109E+06
         0.39231E+06
        -0.29270E+06
        -0.26730E+05
        -0.22974E+06
         0.92386E+05
        -0.46498E+06
        -0.25322E+06
        -0.88966E+06
        -0.19941E+06
        -0.14245E+07
        -0.11813E+07
        -0.68797E+06
        -0.84928E+06
        -0.86189E+05
        -0.11090E+06
         0.31820E+06
         0.58033E+06
        -0.11843E+05
        -0.83820E+05
        -0.11709E+06
        -0.11858E+07
        -0.11929E+07
        -0.90984E+06
        -0.25855E+06
        -0.27762E+06
        -0.28706E+06
        -0.55325E+06
        -0.56069E+06
        -0.95330E+06
        -0.47251E+06
        -0.17894E+06
        -0.25992E+06
        -0.16252E+06
         0.94932E+05
         0.56812E+06
        -0.78942E+06
         0.23049E+06
        -0.75073E+06
        -0.19732E+06
         0.15255E+06
         0.35404E+06
         0.52906E+04
         0.20433E+06
        -0.26569E+05
        -0.31052E+06
         0.96565E+05
         0.23997E+06
        -0.33391E+05
         0.44156E+06
        -0.28039E+06
        -0.98613E+06
        -0.11750E+07
        -0.12995E+07
        -0.15244E+07
        -0.10082E+07
        -0.90331E+06
        -0.11336E+07
        -0.13754E+07
        -0.88635E+06
        -0.49430E+05
         0.38689E+06
        -0.14699E+06
        -0.21424E+06
        -0.82203E+05
         0.45958E+06
         0.22793E+05
         0.44352E+06
        -0.24144E+06
        -0.92954E+06
         0.16019E+06
        -0.99072E+06
        -0.71022E+06
        -0.96585E+06
        -0.37729E+06
        -0.10914E+07
        -0.12731E+07
        -0.36196E+05
         0.22901E+06
         0.39114E+06
        -0.29624E+06
        -0.31250E+05
        -0.23291E+06
         0.90375E+05
        -0.46816E+06
        -0.25703E+06
        -0.91082E+06
        -0.20713E+06
        -0.14377E+07
        -0.11912E+07
        -0.69091E+06
        -0.85522E+06
        -0.10923E+06
        -0.12715E+06
         0.29893E+06
         0.57277E+06
        -0.18309E+05
        -0.90750E+05
        -0.12539E+06
        -0.11935E+07
        -0.12005E+07
        -0.91380E+06
        -0.26045E+06
        -0.27829E+06
        -0.28754E+06
        -0.55977E+06
        -0.57221E+06
        -0.96951E+06
        -0.49345E+06
        -0.20843E+06
        -0.28795E+06
        -0.18183E+06
         0.82869E+05
         0.56407E+06
        -0.79789E+06
         0.22380E+06
        -0.75600E+06
        -0.20314E+06
         0.14406E+06
         0.34401E+06
        -0.29629E+04
         0.19733E+06
        -0.33805E+05
        -0.31590E+06
         0.92283E+05
         0.23469E+06
        -0.34308E+05
         0.44023E+06
        -0.28386E+06
        -0.98819E+06
        -0.11793E+07
        -0.13141E+07
        -0.15459E+07
        -0.10319E+07
        -0.92999E+06
        -0.11665E+07
        -0.14044E+07
        -0.90146E+06
        -0.57479E+05
         0.38065E+06
        -0.15529E+06
        -0.22002E+06
        -0.86272E+05
         0.45612E+06
         0.18418E+05
         0.43979E+06
        -0.24757E+06
        -0.93928E+06
         0.15220E+06
        -0.10027E+07
        -0.71623E+06
        -0.97170E+06
        -0.38394E+06
        -0.10965E+07
        -0.12790E+07
        -0.40354E+05
         0.22394E+06
         0.38810E+06
        -0.29951E+06
        -0.34763E+05
        -0.23770E+06
         0.85717E+05
        -0.47234E+06
        -0.25993E+06
        -0.92007E+06
        -0.21143E+06
        -0.14434E+07
        -0.11965E+07
        -0.69616E+06
        -0.86091E+06
        -0.11675E+06
        -0.13349E+06
         0.29252E+06
         0.56847E+06
        -0.23763E+05
        -0.94575E+05
        -0.13049E+06
        -0.12031E+07
        -0.12092E+07
        -0.92174E+06
        -0.26880E+06
        -0.28453E+06
        -0.29167E+06
        -0.56564E+06
        -0.57924E+06
        -0.97720E+06
        -0.50059E+06
        -0.21572E+06
        -0.29426E+06
        -0.18821E+06
         0.75417E+05
         0.55904E+06
        -0.80954E+06
         0.21223E+06
        -0.76399E+06
        -0.21117E+06
         0.13424E+06
         0.33552E+06
        -0.11653E+05
         0.18533E+06
        -0.49901E+05
        -0.33276E+06
         0.77021E+05
         0.22771E+06
        -0.39772E+05
         0.42855E+06
        -0.29609E+06
        -0.99997E+06
        -0.11948E+07
        -0.13288E+07
        -0.15583E+07
        -0.10418E+07
        -0.93819E+06
        -0.11775E+07
        -0.14190E+07
        -0.91479E+06
        -0.68674E+05
         0.36960E+06
        -0.15013E+06
        -0.21603E+06
        -0.83691E+05
         0.45690E+06
         0.22591E+05
         0.44053E+06
        -0.24360E+06
        -0.93402E+06
         0.15516E+06
        -0.99868E+06
        -0.71262E+06
        -0.96560E+06
        -0.37966E+06
        -0.10894E+07
        -0.12703E+07
        -0.34796E+05
         0.22820E+06
         0.39115E+06
        -0.29442E+06
        -0.29913E+05
        -0.23199E+06
         0.91294E+05
        -0.46634E+06
        -0.25456E+06
        -0.91808E+06
        -0.20627E+06
        -0.14356E+07
        -0.11903E+07
        -0.69138E+06
        -0.85747E+06
        -0.11234E+06
        -0.12961E+06
         0.29529E+06
         0.56975E+06
        -0.17449E+05
        -0.90486E+05
        -0.12665E+06
        -0.11974E+07
        -0.12054E+07
        -0.91785E+06
        -0.26350E+06
        -0.27845E+06
        -0.28563E+06
        -0.56074E+06
        -0.57527E+06
        -0.97258E+06
        -0.49642E+06
        -0.21054E+06
        -0.28866E+06
        -0.18387E+06
         0.78623E+05
         0.56009E+06
        -0.79204E+06
         0.22933E+06
        -0.75391E+06
        -0.20697E+06
         0.14272E+06
         0.34895E+06
         0.33095E+04
         0.19606E+06
        -0.45899E+05
        -0.32650E+06
         0.88285E+05
         0.24362E+06
        -0.25864E+05
         0.43751E+06
        -0.28756E+06
        -0.99021E+06
        -0.11850E+07
        -0.13166E+07
        -0.15466E+07
        -0.10279E+07
        -0.92407E+06
        -0.11649E+07
        -0.14085E+07
        -0.90521E+06
        -0.59063E+05
         0.38004E+06
        -0.15154E+06
        -0.21630E+06
        -0.84747E+05
         0.45452E+06
         0.21467E+05
         0.43839E+06
        -0.24447E+06
        -0.93740E+06
         0.15050E+06
        -0.10046E+07
        -0.71540E+06
        -0.96911E+06
        -0.38068E+06
        -0.10914E+07
        -0.12764E+07
        -0.37342E+05
         0.22481E+06
         0.38789E+06
        -0.29718E+06
        -0.32622E+05
        -0.23463E+06
         0.88307E+05
        -0.46851E+06
        -0.25644E+06
        -0.92273E+06
        -0.20794E+06
        -0.14376E+07
        -0.11909E+07
        -0.69259E+06
        -0.86067E+06
        -0.11467E+06
        -0.13144E+06
         0.29169E+06
         0.56654E+06
        -0.19409E+05
        -0.92286E+05
        -0.12789E+06
        -0.12057E+07
        -0.12108E+07
        -0.92209E+06
        -0.26768E+06
        -0.28079E+06
        -0.28916E+06
        -0.56270E+06
        -0.57719E+06
        -0.97515E+06
        -0.49990E+06
        -0.21385E+06
        -0.29061E+06
        -0.18606E+06
         0.75719E+05
         0.55714E+06
        -0.79703E+06
         0.22528E+06
        -0.76225E+06
        -0.21394E+06
         0.14168E+06
         0.34409E+06
        -0.80220E+04
         0.18347E+06
        -0.53418E+05
        -0.33772E+06
         0.76053E+05
         0.23746E+06
        -0.33046E+05
         0.43354E+06
        -0.29125E+06
        -0.99379E+06
        -0.11859E+07
        -0.13191E+07
        -0.15502E+07
        -0.10372E+07
        -0.93571E+06
        -0.11738E+07
        -0.14131E+07
        -0.90725E+06
        -0.63996E+05
         0.37306E+06
        -0.15538E+06
        -0.21920E+06
        -0.87208E+05
         0.45306E+06
         0.18318E+05
         0.43692E+06
        -0.24707E+06
        -0.94189E+06
         0.14615E+06
        -0.10105E+07
        -0.71848E+06
        -0.97379E+06
        -0.38370E+06
        -0.10928E+07
        -0.12827E+07
        -0.40920E+05
         0.22207E+06
         0.38604E+06
        -0.30049E+06
        -0.34638E+05
        -0.23793E+06
         0.85275E+05
        -0.47181E+06
        -0.25942E+06
        -0.92734E+06
        -0.21126E+06
        -0.14391E+07
        -0.11923E+07
        -0.69401E+06
        -0.86330E+06
        -0.11803E+06
        -0.13455E+06
         0.28952E+06
         0.56585E+06
        -0.24216E+05
        -0.95315E+05
        -0.13066E+06
        -0.12139E+07
        -0.12167E+07
        -0.92584E+06
        -0.27018E+06
        -0.28277E+06
        -0.29240E+06
        -0.56604E+06
        -0.58033E+06
        -0.97855E+06
        -0.50317E+06
        -0.21669E+06
        -0.29245E+06
        -0.18792E+06
         0.72961E+05
         0.55575E+06
        -0.80707E+06
         0.21680E+06
        -0.76864E+06
        -0.21606E+06
         0.13886E+06
         0.33421E+06
        -0.22277E+05
         0.17211E+06
        -0.61200E+05
        -0.34580E+06
         0.71055E+05
         0.23137E+06
        -0.41671E+05
         0.42764E+06
        -0.29740E+06
        -0.10010E+07
        -0.11909E+07
        -0.13249E+07
        -0.15572E+07
        -0.10449E+07
        -0.94457E+06
        -0.11830E+07
        -0.14197E+07
        -0.91328E+06
        -0.71597E+05
         0.36508E+06
        -0.15297E+06
        -0.21791E+06
        -0.86452E+05
         0.45466E+06
         0.21049E+05
         0.43918E+06
        -0.24456E+06
        -0.93854E+06
         0.14676E+06
        -0.10101E+07
        -0.71511E+06
        -0.96959E+06
        -0.38239E+06
        -0.10863E+07
        -0.12747E+07
        -0.37776E+05
         0.22358E+06
         0.38907E+06
        -0.29757E+06
        -0.30735E+05
        -0.23343E+06
         0.90257E+05
        -0.46777E+06
        -0.25608E+06
        -0.92786E+06
        -0.20793E+06
        -0.14341E+07
        -0.11883E+07
        -0.68868E+06
        -0.85944E+06
        -0.11455E+06
        -0.13186E+06
         0.29293E+06
         0.56919E+06
        -0.20297E+05
        -0.92750E+05
        -0.12909E+06
        -0.12094E+07
        -0.12129E+07
        -0.91992E+06
        -0.26424E+06
        -0.27812E+06
        -0.28754E+06
        -0.56319E+06
        -0.57806E+06
        -0.97606E+06
        -0.50075E+06
        -0.21354E+06
        -0.28846E+06
        -0.18416E+06
         0.76316E+05
         0.55892E+06
        -0.79427E+06
         0.23057E+06
        -0.75578E+06
        -0.20969E+06
         0.13670E+06
         0.33497E+06
        -0.11880E+05
         0.18361E+06
        -0.53592E+05
        -0.33415E+06
         0.82125E+05
         0.23654E+06
        -0.32373E+05
         0.43703E+06
        -0.28878E+06
        -0.99449E+06
        -0.11867E+07
        -0.13194E+07
        -0.15519E+07
        -0.10366E+07
        -0.93487E+06
        -0.11736E+07
        -0.14117E+07
        -0.90619E+06
        -0.61182E+05
         0.37728E+06
        -0.15478E+06
        -0.22023E+06
        -0.88847E+05
         0.45199E+06
         0.17838E+05
         0.43627E+06
        -0.24780E+06
        -0.94271E+06
         0.14299E+06
        -0.10169E+07
        -0.71938E+06
        -0.97544E+06
        -0.38851E+06
        -0.10892E+07
        -0.12794E+07
        -0.40653E+05
         0.22013E+06
         0.38560E+06
        -0.30155E+06
        -0.33950E+05
        -0.23915E+06
         0.84817E+05
        -0.47337E+06
        -0.25954E+06
        -0.93447E+06
        -0.21082E+06
        -0.14391E+07
        -0.11934E+07
        -0.69258E+06
        -0.86330E+06
        -0.11768E+06
        -0.13479E+06
         0.28862E+06
         0.56627E+06
        -0.24887E+05
        -0.96268E+05
        -0.13361E+06
        -0.12182E+07
        -0.12216E+07
        -0.92683E+06
        -0.27205E+06
        -0.28497E+06
        -0.29301E+06
        -0.56959E+06
        -0.58352E+06
        -0.98092E+06
        -0.50529E+06
        -0.21805E+06
        -0.29109E+06
        -0.18632E+06
         0.72633E+05
         0.55557E+06
        -0.80419E+06
         0.22189E+06
        -0.76580E+06
        -0.22106E+06
         0.12337E+06
         0.32234E+06
        -0.19553E+05
         0.17379E+06
        -0.66726E+05
        -0.34711E+06
         0.66342E+05
         0.22088E+06
        -0.42683E+05
         0.42632E+06
        -0.29796E+06
        -0.10051E+07
        -0.12033E+07
        -0.13342E+07
        -0.15593E+07
        -0.10467E+07
        -0.94541E+06
        -0.11790E+07
        -0.14155E+07
        -0.91368E+06
        -0.71497E+05
         0.36706E+06
        -0.15515E+06
        -0.22096E+06
        -0.89785E+05
         0.45100E+06
         0.17226E+05
         0.43522E+06
        -0.24848E+06
        -0.94397E+06
         0.14178E+06
        -0.10191E+07
        -0.72036E+06
        -0.97615E+06
        -0.38949E+06
        -0.10878E+07
        -0.12799E+07
        -0.41148E+05
         0.21995E+06
         0.38490E+06
        -0.30225E+06
        -0.34111E+05
        -0.24062E+06
         0.83940E+05
        -0.47464E+06
        -0.26012E+06
        -0.93760E+06
        -0.21151E+06
        -0.14382E+07
        -0.11941E+07
        -0.69343E+06
        -0.86494E+06
        -0.11933E+06
        -0.13585E+06
         0.28671E+06
         0.56557E+06
        -0.25925E+05
        -0.97476E+05
        -0.13501E+06
        -0.12228E+07
        -0.12271E+07
        -0.92986E+06
        -0.27314E+06
        -0.28547E+06
        -0.29381E+06
        -0.57101E+06
        -0.58482E+06
        -0.98221E+06
        -0.50697E+06
        -0.21977E+06
        -0.29157E+06
        -0.18637E+06
         0.71964E+05
         0.55466E+06
        -0.80438E+06
         0.22202E+06
        -0.76863E+06
        -0.22545E+06
         0.12303E+06
         0.32218E+06
        -0.22599E+05
         0.16561E+06
        -0.76223E+05
        -0.35231E+06
         0.65831E+05
         0.21927E+06
        -0.45274E+05
         0.42213E+06
        -0.30275E+06
        -0.10086E+07
        -0.12058E+07
        -0.13362E+07
        -0.15615E+07
        -0.10504E+07
        -0.95012E+06
        -0.11820E+07
        -0.14159E+07
        -0.91450E+06
        -0.76003E+05
         0.36304E+06
        -0.14740E+06
        -0.21341E+06
        -0.83808E+05
         0.45555E+06
         0.25767E+05
         0.44083E+06
        -0.23984E+06
        -0.93576E+06
         0.14554E+06
        -0.10142E+07
        -0.71177E+06
        -0.96308E+06
        -0.37850E+06
        -0.10773E+07
        -0.12676E+07
        -0.34421E+05
         0.22585E+06
         0.39053E+06
        -0.29543E+06
        -0.26198E+05
        -0.23028E+06
         0.93847E+05
        -0.46467E+06
        -0.25300E+06
        -0.93261E+06
        -0.20433E+06
        -0.14284E+07
        -0.11836E+07
        -0.68323E+06
        -0.85697E+06
        -0.11232E+06
        -0.12856E+06
         0.29212E+06
         0.57006E+06
        -0.15513E+05
        -0.89779E+05
        -0.12648E+06
        -0.12154E+07
        -0.12185E+07
        -0.91991E+06
        -0.26303E+06
        -0.27507E+06
        -0.28472E+06
        -0.56134E+06
        -0.57533E+06
        -0.97183E+06
        -0.49858E+06
        -0.21186E+06
        -0.28440E+06
        -0.17998E+06
         0.78927E+05
         0.56026E+06
        -0.78116E+06
         0.24506E+06
        -0.74931E+06
        -0.21136E+06
         0.14018E+06
         0.34411E+06
        -0.42034E+04
         0.17960E+06
        -0.60710E+05
        -0.33524E+06
         0.81223E+05
         0.23723E+06
        -0.31065E+05
         0.43787E+06
        -0.28470E+06
        -0.98990E+06
        -0.11848E+07
        -0.13134E+07
        -0.15419E+07
        -0.10298E+07
        -0.93274E+06
        -0.11691E+07
        -0.14016E+07
        -0.89726E+06
        -0.57314E+05
         0.38197E+06
        -0.15071E+06
        -0.21548E+06
        -0.86051E+05
         0.45231E+06
         0.21804E+05
         0.43784E+06
        -0.24274E+06
        -0.94083E+06
         0.14072E+06
        -0.10220E+07
        -0.71596E+06
        -0.96755E+06
        -0.38122E+06
        -0.10805E+07
        -0.12740E+07
        -0.38147E+05
         0.22157E+06
         0.38770E+06
        -0.30056E+06
        -0.30175E+05
        -0.23421E+06
         0.88882E+05
        -0.46814E+06
        -0.25719E+06
        -0.93995E+06
        -0.20850E+06
        -0.14328E+07
        -0.11870E+07
        -0.68385E+06
        -0.86000E+06
        -0.11460E+06
        -0.13191E+06
         0.28907E+06
         0.56654E+06
        -0.21440E+05
        -0.92972E+05
        -0.12871E+06
        -0.12252E+07
        -0.12258E+07
        -0.92318E+06
        -0.26805E+06
        -0.28036E+06
        -0.29102E+06
        -0.56621E+06
        -0.58013E+06
        -0.97643E+06
        -0.50241E+06
        -0.21436E+06
        -0.28647E+06
        -0.18346E+06
         0.74513E+05
         0.55682E+06
        -0.79583E+06
         0.23257E+06
        -0.76086E+06
        -0.21738E+06
         0.13805E+06
         0.33853E+06
        -0.16570E+05
         0.16477E+06
        -0.75255E+05
        -0.34815E+06
         0.66009E+05
         0.21974E+06
        -0.43337E+05
         0.43174E+06
        -0.28754E+06
        -0.99183E+06
        -0.11910E+07
        -0.13239E+07
        -0.15496E+07
        -0.10390E+07
        -0.94121E+06
        -0.11785E+07
        -0.14118E+07
        -0.90348E+06
        -0.63112E+05
         0.37231E+06
        -0.15620E+06
        -0.22089E+06
        -0.91685E+05
         0.44805E+06
         0.15629E+05
         0.43245E+06
        -0.24749E+06
        -0.94667E+06
         0.13439E+06
        -0.10344E+07
        -0.72098E+06
        -0.97486E+06
        -0.38719E+06
        -0.10837E+07
        -0.12819E+07
        -0.42739E+05
         0.21522E+06
         0.38442E+06
        -0.30484E+06
        -0.32020E+05
        -0.23899E+06
         0.83083E+05
        -0.47232E+06
        -0.26077E+06
        -0.95085E+06
        -0.21259E+06
        -0.14428E+07
        -0.11926E+07
        -0.67191E+06
        -0.85460E+06
        -0.11873E+06
        -0.13668E+06
         0.28604E+06
         0.56407E+06
        -0.28119E+05
        -0.98168E+05
        -0.13400E+06
        -0.12395E+07
        -0.12330E+07
        -0.91400E+06
        -0.26870E+06
        -0.28611E+06
        -0.29942E+06
        -0.57145E+06
        -0.58614E+06
        -0.98368E+06
        -0.50885E+06
        -0.21888E+06
        -0.28901E+06
        -0.18616E+06
         0.70596E+05
         0.55263E+06
        -0.80560E+06
         0.22346E+06
        -0.76877E+06
        -0.22415E+06
         0.12853E+06
         0.32319E+06
        -0.34038E+05
         0.14819E+06
        -0.89908E+05
        -0.35153E+06
         0.39451E+05
         0.17792E+06
        -0.60585E+05
         0.42214E+06
        -0.29610E+06
        -0.99961E+06
        -0.12008E+07
        -0.13349E+07
        -0.15624E+07
        -0.10532E+07
        -0.95091E+06
        -0.11876E+07
        -0.14222E+07
        -0.91091E+06
        -0.74676E+05
         0.35938E+06
        -0.14883E+06
        -0.21393E+06
        -0.85172E+05
         0.45361E+06
         0.24717E+05
         0.43854E+06
        -0.23993E+06
        -0.93857E+06
         0.13653E+06
        -0.10382E+07
        -0.71329E+06
        -0.96506E+06
        -0.37905E+06
        -0.10737E+07
        -0.12709E+07
        -0.35933E+05
         0.21915E+06
         0.38971E+06
        -0.29690E+06
        -0.19106E+05
        -0.23044E+06
         0.91738E+05
        -0.46431E+06
        -0.25309E+06
        -0.95172E+06
        -0.20478E+06
        -0.14446E+07
        -0.11861E+07
        -0.63532E+06
        -0.82781E+06
        -0.11275E+06
        -0.12928E+06
         0.29133E+06
         0.57007E+06
        -0.16965E+05
        -0.89576E+05
        -0.12596E+06
        -0.12395E+07
        -0.12230E+07
        -0.87825E+06
        -0.24906E+06
        -0.27557E+06
        -0.29415E+06
        -0.56321E+06
        -0.57687E+06
        -0.97213E+06
        -0.50010E+06
        -0.21162E+06
        -0.28121E+06
        -0.17765E+06
         0.79866E+05
         0.55929E+06
        -0.78169E+06
         0.24687E+06
        -0.74491E+06
        -0.20736E+06
         0.13921E+06
         0.33568E+06
        -0.16793E+05
         0.16566E+06
        -0.70923E+05
        -0.31435E+06
         0.30822E+05
         0.14426E+06
        -0.59335E+05
         0.43518E+06
        -0.28508E+06
        -0.99047E+06
        -0.11896E+07
        -0.13159E+07
        -0.15389E+07
        -0.10312E+07
        -0.93205E+06
        -0.11681E+07
        -0.14003E+07
        -0.89036E+06
        -0.57983E+05
         0.37693E+06
        -0.17656E+06
        -0.23918E+06
        -0.11004E+06
         0.42983E+06
        -0.88313E+04
         0.41013E+06
        -0.26783E+06
        -0.97188E+06
         0.10846E+06
        -0.10802E+07
        -0.74484E+06
        -0.10110E+07
        -0.42078E+06
        -0.11059E+07
        -0.13188E+07
        -0.61241E+05
         0.19033E+06
         0.36606E+06
        -0.32511E+06
        -0.45333E+05
        -0.26989E+06
         0.53621E+05
        -0.50184E+06
        -0.27984E+06
        -0.98799E+06
        -0.23004E+06
        -0.14838E+07
        -0.12180E+07
        -0.64948E+06
        -0.84749E+06
        -0.13705E+06
        -0.15554E+06
         0.26624E+06
         0.54377E+06
        -0.57715E+05
        -0.12174E+06
        -0.16187E+06
        -0.12936E+07
        -0.12647E+07
        -0.90221E+06
        -0.28830E+06
        -0.31706E+06
        -0.33599E+06
        -0.59925E+06
        -0.61370E+06
        -0.10163E+07
        -0.53560E+06
        -0.24201E+06
        -0.30820E+06
        -0.20892E+06
         0.38547E+05
         0.52592E+06
        -0.86477E+06
         0.16611E+06
        -0.82911E+06
        -0.29292E+06
         0.53761E+05
         0.25341E+06
        -0.10036E+06
         0.76211E+05
        -0.15498E+06
        -0.39093E+06
        -0.75879E+05
         0.28148E+05
        -0.14115E+06
         0.36734E+06
        -0.35631E+06
        -0.10647E+07
        -0.12666E+07
        -0.14019E+07
        -0.16272E+07
        -0.11158E+07
        -0.10104E+07
        -0.12431E+07
        -0.14771E+07
        -0.96903E+06
        -0.13359E+06
         0.30192E+06
        -0.16076E+06
        -0.23736E+06
        -0.10577E+06
         0.43851E+06
         0.20471E+04
         0.41899E+06
        -0.26398E+06
        -0.95322E+06
         0.12438E+06
        -0.10537E+07
        -0.73668E+06
        -0.10100E+07
        -0.43143E+06
        -0.10835E+07
        -0.12983E+07
        -0.41418E+05
         0.20851E+06
         0.37895E+06
        -0.31045E+06
        -0.29597E+05
        -0.25249E+06
         0.66656E+05
        -0.47496E+06
        -0.25967E+06
        -0.96155E+06
        -0.21114E+06
        -0.14505E+07
        -0.11813E+07
        -0.61890E+06
        -0.82034E+06
        -0.12204E+06
        -0.14376E+06
         0.27296E+06
         0.53980E+06
        -0.51479E+05
        -0.12430E+06
        -0.17208E+06
        -0.12697E+07
        -0.12368E+07
        -0.87749E+06
        -0.27096E+06
        -0.29334E+06
        -0.31109E+06
        -0.57542E+06
        -0.60080E+06
        -0.10098E+07
        -0.53060E+06
        -0.22893E+06
        -0.29802E+06
        -0.20787E+06
         0.41231E+05
         0.52642E+06
        -0.83274E+06
         0.20766E+06
        -0.81873E+06
        -0.31138E+06
         0.15339E+05
         0.23006E+06
        -0.61990E+05
         0.11560E+06
        -0.12381E+06
        -0.37236E+06
        -0.70727E+05
         0.43977E+05
        -0.11021E+06
         0.38259E+06
        -0.32395E+06
        -0.10185E+07
        -0.12273E+07
        -0.13717E+07
        -0.16142E+07
        -0.11173E+07
        -0.99314E+06
        -0.12183E+07
        -0.14377E+07
        -0.92090E+06
        -0.95623E+05
         0.34127E+06
         0.10907E+09
         0.98547E+08
         0.97597E+08
         0.89599E+08
         0.13170E+09
         0.11244E+09
         0.10631E+09
         0.12385E+09
         0.94683E+08
         0.12348E+09
         0.11795E+09
         0.17540E+09
         0.15250E+09
         0.12995E+09
         0.18154E+09
         0.96699E+08
         0.97796E+08
         0.85652E+08
         0.10142E+09
         0.10639E+09
         0.14085E+09
         0.14092E+09
         0.13308E+09
         0.97082E+08
         0.11125E+09
         0.93039E+08
         0.12795E+09
         0.11648E+09
         0.11714E+09
         0.11673E+09
         0.92905E+08
         0.96305E+08
         0.90026E+08
         0.94233E+08
         0.15403E+09
         0.12382E+09
         0.13148E+09
         0.16852E+09
         0.15666E+09
         0.15232E+09
         0.16534E+09
         0.15410E+09
         0.14598E+09
         0.12573E+09
         0.12839E+09
         0.15584E+09
         0.13096E+09
         0.11730E+09
         0.10753E+09
         0.11746E+09
         0.14553E+09
         0.12256E+09
         0.30331E+09
         0.29730E+09
         0.30266E+09
         0.29276E+09
         0.30209E+09
         0.31710E+09
         0.31813E+09
         0.31399E+09
         0.31631E+09
         0.32569E+09
         0.31628E+09
         0.29847E+09
         0.26363E+09
         0.24859E+09
         0.25286E+09
         0.25905E+09
         0.26237E+09
         0.28614E+09
         0.30572E+09
         0.30711E+09
         0.28105E+09
         0.27072E+09
         0.28091E+09
         0.27827E+09
         0.27699E+09
         0.27754E+09
         0.13668E+10
         0.14299E+10
         0.14087E+10
         0.12817E+10
         0.15885E+10
         0.14887E+10
         0.15482E+10
         0.15640E+10
         0.13331E+10
         0.15630E+10
         0.17033E+10
         0.19187E+10
         0.17362E+10
         0.17545E+10
         0.19868E+10
         0.13065E+10
         0.14043E+10
         0.12204E+10
         0.14518E+10
         0.15283E+10
         0.15896E+10
         0.16240E+10
         0.15243E+10
         0.13945E+10
         0.15795E+10
         0.13439E+10
         0.17480E+10
         0.17164E+10
         0.17245E+10
         0.16364E+10
         0.13201E+10
         0.13882E+10
         0.12921E+10
         0.13527E+10
         0.17430E+10
         0.15946E+10
         0.16014E+10
         0.19219E+10
         0.18702E+10
         0.18470E+10
         0.18830E+10
         0.17868E+10
         0.16892E+10
         0.14862E+10
         0.15472E+10
         0.17427E+10
         0.16075E+10
         0.15094E+10
         0.14780E+10
         0.15340E+10
         0.16706E+10
         0.15393E+10
         0.27822E+10
         0.27120E+10
         0.27686E+10
         0.26826E+10
         0.27623E+10
         0.29032E+10
         0.29488E+10
         0.29409E+10
         0.29610E+10
         0.30290E+10
         0.29426E+10
         0.27687E+10
         0.24820E+10
         0.23462E+10
         0.23540E+10
         0.23849E+10
         0.24082E+10
         0.26104E+10
         0.27939E+10
         0.28054E+10
         0.25972E+10
         0.25170E+10
         0.26003E+10
         0.25819E+10
         0.25536E+10
         0.25464E+10
  
SCALARS                      stress_zz  double 1
LOOKUP_TABLE default
         0.80654E+11
         0.78834E+11
         0.79989E+11
         0.82060E+11
        -0.17171E+03
        -0.19255E+03
        -0.18437E+03
        -0.16749E+03
         0.78770E+11
         0.79386E+11
        -0.17315E+03
        -0.16756E+03
         0.76199E+11
         0.76102E+11
        -0.20574E+03
        -0.19344E+03
         0.81757E+11
         0.76244E+11
        -0.15202E+03
        -0.16861E+03
         0.74222E+11
         0.72654E+11
         0.75150E+11
        -0.20391E+03
        -0.17808E+03
        -0.18388E+03
         0.72714E+11
         0.70426E+11
        -0.19562E+03
        -0.16497E+03
         0.81657E+11
         0.79257E+11
         0.83985E+11
        -0.16693E+03
        -0.15519E+03
        -0.15089E+03
         0.80268E+11
         0.77213E+11
        -0.17661E+03
        -0.16116E+03
         0.79058E+11
         0.76701E+11
        -0.15264E+03
        -0.13513E+03
         0.81054E+11
         0.81940E+11
        -0.16727E+03
        -0.18690E+03
         0.74813E+11
        -0.16341E+03
         0.81767E+11
        -0.19202E+03
         0.72054E+11
        -0.17257E+03
         0.71335E+11
        -0.16553E+03
         0.71346E+11
         0.73904E+11
        -0.16865E+03
        -0.16425E+03
         0.81608E+11
         0.80685E+11
        -0.16912E+03
        -0.19118E+03
         0.82184E+11
        -0.16319E+03
         0.81087E+11
        -0.17810E+03
         0.78203E+11
         0.77914E+11
        -0.17144E+03
        -0.17963E+03
         0.77263E+11
        -0.18114E+03
         0.69613E+11
        -0.14311E+03
         0.69213E+11
        -0.13891E+03
         0.69412E+11
        -0.14647E+03
         0.70518E+11
         0.71668E+11
        -0.13955E+03
        -0.14549E+03
         0.73987E+11
        -0.13551E+03
         0.81007E+11
        -0.17770E+03
         0.79910E+11
        -0.18187E+03
         0.79011E+11
         0.78518E+11
        -0.17466E+03
        -0.17669E+03
         0.79126E+11
        -0.16049E+03
         0.79559E+11
        -0.15820E+03
         0.79168E+11
        -0.16935E+03
         0.79029E+11
         0.79425E+11
        -0.16608E+03
        -0.17095E+03
         0.76860E+11
         0.77900E+11
        -0.12894E+03
        -0.12128E+03
         0.76663E+11
        -0.12312E+03
         0.77863E+11
        -0.11805E+03
         0.76678E+11
        -0.11641E+03
         0.74059E+11
        -0.11001E+03
         0.71521E+11
        -0.97730E+02
         0.70004E+11
        -0.88001E+02
         0.69849E+11
        -0.87390E+02
         0.69897E+11
        -0.94769E+02
         0.71543E+11
        -0.99599E+02
         0.74623E+11
        -0.90945E+02
         0.78010E+11
        -0.81977E+02
         0.79996E+11
        -0.81884E+02
         0.81960E+11
        -0.91526E+02
         0.83259E+11
        -0.10436E+03
         0.83211E+11
        -0.11212E+03
         0.80058E+11
        -0.12108E+03
         0.77864E+11
        -0.12972E+03
         0.77110E+11
        -0.11884E+03
         0.78286E+11
        -0.10425E+03
         0.78900E+11
        -0.10393E+03
         0.77871E+11
        -0.11371E+03
         0.77887E+11
        -0.12122E+03
         0.78663E+11
        -0.11504E+03
         0.79674E+11
        -0.11122E+03
        -0.25748E+11
        -0.26062E+11
        -0.26020E+11
        -0.25610E+11
        -0.26356E+11
        -0.25985E+11
        -0.26442E+11
        -0.26206E+11
        -0.25676E+11
        -0.26009E+11
        -0.26689E+11
        -0.26762E+11
        -0.26564E+11
        -0.26551E+11
        -0.26679E+11
        -0.25630E+11
        -0.25707E+11
        -0.25489E+11
        -0.26095E+11
        -0.25988E+11
        -0.26141E+11
        -0.26040E+11
        -0.26226E+11
        -0.26178E+11
        -0.25997E+11
        -0.26010E+11
        -0.26318E+11
        -0.26290E+11
        -0.26513E+11
        -0.26174E+11
        -0.25668E+11
        -0.26066E+11
        -0.25671E+11
        -0.25934E+11
        -0.26813E+11
        -0.26541E+11
        -0.26408E+11
        -0.26564E+11
        -0.26584E+11
        -0.26832E+11
        -0.27008E+11
        -0.26572E+11
        -0.26135E+11
        -0.26196E+11
        -0.26421E+11
        -0.26803E+11
        -0.26478E+11
        -0.26116E+11
        -0.26142E+11
        -0.26422E+11
        -0.26700E+11
        -0.26323E+11
        -0.27419E+11
        -0.27111E+11
        -0.27163E+11
        -0.27090E+11
        -0.27108E+11
        -0.27276E+11
        -0.27444E+11
        -0.27498E+11
        -0.27475E+11
        -0.27491E+11
        -0.27561E+11
        -0.27125E+11
        -0.26955E+11
        -0.26888E+11
        -0.26774E+11
        -0.26686E+11
        -0.26690E+11
        -0.26839E+11
        -0.27317E+11
        -0.27206E+11
        -0.27042E+11
        -0.27044E+11
        -0.27073E+11
        -0.27229E+11
        -0.26998E+11
        -0.26910E+11
         0.15997E+07
         0.85380E+06
         0.97029E+06
         0.13291E+07
         0.13444E+07
         0.17552E+07
        -0.19669E+06
         0.89765E+05
         0.17887E+07
        -0.23424E+05
        -0.87783E+06
         0.92562E+06
         0.10776E+07
        -0.17188E+07
         0.39719E+06
         0.85658E+06
         0.89302E+06
         0.10421E+07
         0.28351E+06
         0.22447E+06
         0.73580E+06
         0.11399E+07
         0.37863E+06
        -0.81492E+05
        -0.58212E+06
        -0.63717E+05
        -0.26378E+07
        -0.25320E+07
        -0.12308E+07
        -0.37684E+06
         0.72071E+06
         0.88907E+05
         0.11597E+07
         0.16571E+07
         0.83867E+06
         0.61931E+06
         0.93186E+06
         0.19399E+06
         0.17076E+06
         0.43192E+06
         0.94244E+06
         0.67398E+06
         0.77241E+06
         0.34900E+06
         0.36065E+06
         0.60185E+06
         0.70056E+06
         0.79521E+06
         0.10332E+07
         0.14064E+07
         0.14882E+07
         0.17567E+07
         0.42835E+06
         0.16197E+07
         0.87619E+06
         0.17933E+07
         0.25398E+07
         0.30550E+07
         0.27132E+07
         0.28569E+07
         0.25466E+07
         0.20600E+07
         0.18977E+07
         0.17106E+07
         0.12982E+07
         0.17735E+07
         0.96632E+06
         0.39709E+06
         0.50150E+06
         0.55200E+06
         0.75351E+06
         0.15494E+07
         0.15619E+07
         0.12697E+07
         0.86129E+06
         0.85572E+06
         0.13707E+07
         0.18441E+07
         0.15467E+07
         0.79122E+06
         0.90863E+06
         0.12738E+07
         0.12816E+07
         0.16896E+07
        -0.26463E+06
         0.28901E+05
         0.17256E+07
        -0.89696E+05
        -0.95485E+06
         0.85739E+06
         0.10147E+07
        -0.17956E+07
         0.33043E+06
         0.79306E+06
         0.82175E+06
         0.98633E+06
         0.21034E+06
         0.14723E+06
         0.67379E+06
         0.10785E+07
         0.31330E+06
        -0.15640E+06
        -0.66236E+06
        -0.13513E+06
        -0.27101E+07
        -0.26096E+07
        -0.13128E+07
        -0.46132E+06
         0.65796E+06
         0.21217E+05
         0.11017E+07
         0.16005E+07
         0.77325E+06
         0.55260E+06
         0.87007E+06
         0.12398E+06
         0.10151E+06
         0.36174E+06
         0.87314E+06
         0.60467E+06
         0.70639E+06
         0.28329E+06
         0.29624E+06
         0.53709E+06
         0.63362E+06
         0.72855E+06
         0.96666E+06
         0.13445E+07
         0.14268E+07
         0.16939E+07
         0.33405E+06
         0.15280E+07
         0.78625E+06
         0.17071E+07
         0.24491E+07
         0.29545E+07
         0.26126E+07
         0.27542E+07
         0.24425E+07
         0.19542E+07
         0.17923E+07
         0.16130E+07
         0.12152E+07
         0.16956E+07
         0.88553E+06
         0.31140E+06
         0.41422E+06
         0.46148E+06
         0.66224E+06
         0.14532E+07
         0.14702E+07
         0.11865E+07
         0.77833E+06
         0.77056E+06
         0.12849E+07
         0.17567E+07
         0.15593E+07
         0.80374E+06
         0.92222E+06
         0.12892E+07
         0.12979E+07
         0.17073E+07
        -0.24992E+06
         0.43347E+05
         0.17377E+07
        -0.85045E+05
        -0.93923E+06
         0.87043E+06
         0.10268E+07
        -0.17803E+07
         0.34729E+06
         0.78051E+06
         0.81875E+06
         0.10010E+07
         0.19253E+06
         0.13232E+06
         0.66356E+06
         0.10745E+07
         0.27045E+06
        -0.21046E+06
        -0.69505E+06
        -0.18517E+06
        -0.26951E+07
        -0.26200E+07
        -0.13453E+07
        -0.51995E+06
         0.65878E+06
         0.58089E+04
         0.11166E+07
         0.16194E+07
         0.79051E+06
         0.56930E+06
         0.88367E+06
         0.13691E+06
         0.11406E+06
         0.36638E+06
         0.87163E+06
         0.57962E+06
         0.67086E+06
         0.23932E+06
         0.28514E+06
         0.54598E+06
         0.64576E+06
         0.74358E+06
         0.98328E+06
         0.13633E+07
         0.14441E+07
         0.17115E+07
         0.36202E+06
         0.15531E+07
         0.81396E+06
         0.17284E+07
         0.24648E+07
         0.29701E+07
         0.26325E+07
         0.27744E+07
         0.24629E+07
         0.19753E+07
         0.18047E+07
         0.16125E+07
         0.12165E+07
         0.17099E+07
         0.89497E+06
         0.29410E+06
         0.39549E+06
         0.46636E+06
         0.68728E+06
         0.14821E+07
         0.14963E+07
         0.12130E+07
         0.80783E+06
         0.79536E+06
         0.13051E+07
         0.17762E+07
         0.15519E+07
         0.79860E+06
         0.91742E+06
         0.12809E+07
         0.12919E+07
         0.17017E+07
        -0.25515E+06
         0.35885E+05
         0.17204E+07
        -0.11240E+06
        -0.94716E+06
         0.86337E+06
         0.10219E+07
        -0.17920E+07
         0.33933E+06
         0.73011E+06
         0.77713E+06
         0.99076E+06
         0.12865E+06
         0.67256E+05
         0.61654E+06
         0.10320E+07
         0.17079E+06
        -0.33135E+06
        -0.79094E+06
        -0.29915E+06
        -0.27145E+07
        -0.26828E+07
        -0.14463E+07
        -0.66268E+06
         0.62871E+06
        -0.55165E+05
         0.11072E+07
         0.16105E+07
         0.78221E+06
         0.56249E+06
         0.87866E+06
         0.12456E+06
         0.98018E+05
         0.33497E+06
         0.83250E+06
         0.50114E+06
         0.57446E+06
         0.13570E+06
         0.23184E+06
         0.51989E+06
         0.62426E+06
         0.73119E+06
         0.97092E+06
         0.13514E+07
         0.14347E+07
         0.17045E+07
         0.34877E+06
         0.15440E+07
         0.79973E+06
         0.17160E+07
         0.24564E+07
         0.29605E+07
         0.26164E+07
         0.27568E+07
         0.24459E+07
         0.19547E+07
         0.17722E+07
         0.15600E+07
         0.11663E+07
         0.16860E+07
         0.86833E+06
         0.22125E+06
         0.31854E+06
         0.43064E+06
         0.67018E+06
         0.14659E+07
         0.14838E+07
         0.11981E+07
         0.79235E+06
         0.78474E+06
         0.12971E+07
         0.17682E+07
         0.15384E+07
         0.78799E+06
         0.90878E+06
         0.12723E+07
         0.12850E+07
         0.16939E+07
        -0.26368E+06
         0.23155E+05
         0.16995E+07
        -0.14097E+06
        -0.95563E+06
         0.85896E+06
         0.10164E+07
        -0.18045E+07
         0.33573E+06
         0.69616E+06
         0.74438E+06
         0.98124E+06
         0.86706E+05
         0.20298E+05
         0.58628E+06
         0.10015E+07
         0.10958E+06
        -0.40626E+06
        -0.85919E+06
        -0.37212E+06
        -0.27313E+07
        -0.27280E+07
        -0.15157E+07
        -0.75718E+06
         0.59732E+06
        -0.99441E+05
         0.10893E+07
         0.15978E+07
         0.77365E+06
         0.55380E+06
         0.87118E+06
         0.11556E+06
         0.84964E+05
         0.31138E+06
         0.80501E+06
         0.44847E+06
         0.51127E+06
         0.69934E+05
         0.19673E+06
         0.50271E+06
         0.60522E+06
         0.71135E+06
         0.95036E+06
         0.13339E+07
         0.14202E+07
         0.16932E+07
         0.33683E+06
         0.15360E+07
         0.78761E+06
         0.17063E+07
         0.24525E+07
         0.29577E+07
         0.26095E+07
         0.27452E+07
         0.24314E+07
         0.19420E+07
         0.17524E+07
         0.15237E+07
         0.11320E+07
         0.16674E+07
         0.84952E+06
         0.17409E+06
         0.26455E+06
         0.40512E+06
         0.66240E+06
         0.14512E+07
         0.14672E+07
         0.11811E+07
         0.77245E+06
         0.76758E+06
         0.12865E+07
         0.17603E+07
         0.15053E+07
         0.76743E+06
         0.90024E+06
         0.12806E+07
         0.12934E+07
         0.17063E+07
        -0.26943E+06
         0.43788E+03
         0.16696E+07
        -0.18016E+06
        -0.94900E+06
         0.87420E+06
         0.10229E+07
        -0.18044E+07
         0.35500E+06
         0.70272E+06
         0.73738E+06
         0.99627E+06
         0.95657E+05
         0.26778E+05
         0.59513E+06
         0.10122E+07
         0.11099E+06
        -0.40775E+06
        -0.88666E+06
        -0.38231E+06
        -0.27349E+07
        -0.27331E+07
        -0.15111E+07
        -0.75945E+06
         0.55963E+06
        -0.12278E+06
         0.10597E+07
         0.15950E+07
         0.78134E+06
         0.55462E+06
         0.86976E+06
         0.12865E+06
         0.97758E+05
         0.32528E+06
         0.81882E+06
         0.45706E+06
         0.51812E+06
         0.65867E+05
         0.19225E+06
         0.49988E+06
         0.58874E+06
         0.67137E+06
         0.90176E+06
         0.13101E+07
         0.14153E+07
         0.16983E+07
         0.35981E+06
         0.15598E+07
         0.80690E+06
         0.17193E+07
         0.24660E+07
         0.29759E+07
         0.26302E+07
         0.27653E+07
         0.24545E+07
         0.19724E+07
         0.17790E+07
         0.15398E+07
         0.11501E+07
         0.16864E+07
         0.86769E+06
         0.18856E+06
         0.27500E+06
         0.41543E+06
         0.67475E+06
         0.14597E+07
         0.14653E+07
         0.11693E+07
         0.76459E+06
         0.77139E+06
         0.12979E+07
         0.17768E+07
         0.14548E+07
         0.73086E+06
         0.87922E+06
         0.12756E+07
         0.12866E+07
         0.17056E+07
        -0.29652E+06
        -0.44428E+05
         0.16183E+07
        -0.23879E+06
        -0.96736E+06
         0.86837E+06
         0.10128E+07
        -0.18310E+07
         0.35130E+06
         0.69278E+06
         0.71063E+06
         0.99318E+06
         0.88566E+05
         0.15667E+05
         0.59094E+06
         0.10092E+07
         0.10621E+06
        -0.41683E+06
        -0.92684E+06
        -0.40072E+06
        -0.27639E+07
        -0.27562E+07
        -0.15180E+07
        -0.76975E+06
         0.50656E+06
        -0.16109E+06
         0.10149E+07
         0.15780E+07
         0.77128E+06
         0.54063E+06
         0.85516E+06
         0.11918E+06
         0.88689E+05
         0.32036E+06
         0.81671E+06
         0.45616E+06
         0.51760E+06
         0.55934E+05
         0.17285E+06
         0.47560E+06
         0.55074E+06
         0.61128E+06
         0.83311E+06
         0.12688E+07
         0.13960E+07
         0.16906E+07
         0.35006E+06
         0.15522E+07
         0.80114E+06
         0.17128E+07
         0.24566E+07
         0.29647E+07
         0.26208E+07
         0.27572E+07
         0.24464E+07
         0.19663E+07
         0.17741E+07
         0.15339E+07
         0.11490E+07
         0.16849E+07
         0.86374E+06
         0.18640E+06
         0.27049E+06
         0.39928E+06
         0.65057E+06
         0.14331E+07
         0.14351E+07
         0.11318E+07
         0.73182E+06
         0.75392E+06
         0.12885E+07
         0.17695E+07
         0.14402E+07
         0.71729E+06
         0.87078E+06
         0.12687E+07
         0.12793E+07
         0.16981E+07
        -0.31003E+06
        -0.59639E+05
         0.16042E+07
        -0.25523E+06
        -0.98038E+06
         0.86017E+06
         0.10029E+07
        -0.18470E+07
         0.34475E+06
         0.68386E+06
         0.70028E+06
         0.98571E+06
         0.82084E+05
         0.69231E+04
         0.58432E+06
         0.10022E+07
         0.99896E+05
        -0.42377E+06
        -0.93933E+06
        -0.41117E+06
        -0.27759E+07
        -0.27685E+07
        -0.15302E+07
        -0.77951E+06
         0.48969E+06
        -0.17631E+06
         0.10001E+07
         0.15686E+07
         0.76283E+06
         0.53303E+06
         0.84625E+06
         0.10707E+06
         0.78018E+05
         0.30894E+06
         0.80533E+06
         0.44698E+06
         0.51165E+06
         0.47074E+05
         0.16128E+06
         0.46427E+06
         0.53824E+06
         0.59640E+06
         0.81541E+06
         0.12543E+07
         0.13840E+07
         0.16810E+07
         0.33672E+06
         0.15392E+07
         0.79233E+06
         0.17037E+07
         0.24456E+07
         0.29552E+07
         0.26110E+07
         0.27436E+07
         0.24282E+07
         0.19473E+07
         0.17570E+07
         0.15262E+07
         0.11427E+07
         0.16714E+07
         0.84976E+06
         0.17323E+06
         0.25338E+06
         0.38299E+06
         0.63678E+06
         0.14220E+07
         0.14259E+07
         0.11193E+07
         0.71530E+06
         0.73846E+06
         0.12756E+07
         0.17567E+07
         0.14497E+07
         0.72649E+06
         0.87785E+06
         0.12716E+07
         0.12870E+07
         0.17005E+07
        -0.29997E+06
        -0.47727E+05
         0.16156E+07
        -0.24217E+06
        -0.97101E+06
         0.86844E+06
         0.10095E+07
        -0.18363E+07
         0.35804E+06
         0.69619E+06
         0.71168E+06
         0.99245E+06
         0.95102E+05
         0.17683E+05
         0.59335E+06
         0.10108E+07
         0.10928E+06
        -0.41139E+06
        -0.92555E+06
        -0.39955E+06
        -0.27574E+07
        -0.27540E+07
        -0.15190E+07
        -0.76796E+06
         0.50063E+06
        -0.16765E+06
         0.10067E+07
         0.15722E+07
         0.77279E+06
         0.54163E+06
         0.85309E+06
         0.11699E+06
         0.87136E+05
         0.31689E+06
         0.81357E+06
         0.45612E+06
         0.52082E+06
         0.55978E+05
         0.16887E+06
         0.47161E+06
         0.54652E+06
         0.60684E+06
         0.82553E+06
         0.12621E+07
         0.13889E+07
         0.16832E+07
         0.35633E+06
         0.15585E+07
         0.80380E+06
         0.17085E+07
         0.24551E+07
         0.29699E+07
         0.26275E+07
         0.27555E+07
         0.24328E+07
         0.19543E+07
         0.17696E+07
         0.15441E+07
         0.11587E+07
         0.16818E+07
         0.85953E+06
         0.18449E+06
         0.26475E+06
         0.39690E+06
         0.64996E+06
         0.14374E+07
         0.14420E+07
         0.11338E+07
         0.72719E+06
         0.74900E+06
         0.12862E+07
         0.17682E+07
         0.14475E+07
         0.72570E+06
         0.87641E+06
         0.12672E+07
         0.12854E+07
         0.16964E+07
        -0.30119E+06
        -0.51438E+05
         0.16094E+07
        -0.24754E+06
        -0.97648E+06
         0.86348E+06
         0.10082E+07
        -0.18458E+07
         0.35113E+06
         0.69080E+06
         0.70528E+06
         0.98449E+06
         0.89795E+05
         0.10813E+05
         0.58995E+06
         0.10063E+07
         0.10604E+06
        -0.41594E+06
        -0.92723E+06
        -0.40384E+06
        -0.27608E+07
        -0.27553E+07
        -0.15218E+07
        -0.77191E+06
         0.49584E+06
        -0.17234E+06
         0.99848E+06
         0.15653E+07
         0.76980E+06
         0.53819E+06
         0.85099E+06
         0.10662E+06
         0.81728E+05
         0.31154E+06
         0.80818E+06
         0.45274E+06
         0.51576E+06
         0.53559E+05
         0.16620E+06
         0.46803E+06
         0.54075E+06
         0.60008E+06
         0.81800E+06
         0.12562E+07
         0.13841E+07
         0.16775E+07
         0.35052E+06
         0.15539E+07
         0.79459E+06
         0.17006E+07
         0.24540E+07
         0.29644E+07
         0.26147E+07
         0.27411E+07
         0.24243E+07
         0.19416E+07
         0.17558E+07
         0.15373E+07
         0.11505E+07
         0.16772E+07
         0.85533E+06
         0.18062E+06
         0.26418E+06
         0.39420E+06
         0.64599E+06
         0.14270E+07
         0.14289E+07
         0.11236E+07
         0.72197E+06
         0.74637E+06
         0.12803E+07
         0.17599E+07
         0.14409E+07
         0.71876E+06
         0.87172E+06
         0.12650E+07
         0.12803E+07
         0.16939E+07
        -0.30642E+06
        -0.57177E+05
         0.16038E+07
        -0.25286E+06
        -0.98263E+06
         0.85688E+06
         0.10037E+07
        -0.18537E+07
         0.34406E+06
         0.68318E+06
         0.70038E+06
         0.97979E+06
         0.83219E+05
         0.55515E+04
         0.58556E+06
         0.10017E+07
         0.10109E+06
        -0.42305E+06
        -0.92882E+06
        -0.41199E+06
        -0.27632E+07
        -0.27584E+07
        -0.15250E+07
        -0.77451E+06
         0.48865E+06
        -0.18001E+06
         0.99359E+06
         0.15644E+07
         0.76237E+06
         0.53221E+06
         0.84618E+06
         0.96615E+05
         0.75536E+05
         0.30695E+06
         0.80521E+06
         0.44990E+06
         0.51115E+06
         0.48860E+05
         0.16141E+06
         0.46321E+06
         0.53538E+06
         0.59424E+06
         0.81078E+06
         0.12511E+07
         0.13796E+07
         0.16750E+07
         0.33900E+06
         0.15443E+07
         0.78757E+06
         0.16983E+07
         0.24509E+07
         0.29534E+07
         0.25987E+07
         0.27281E+07
         0.24156E+07
         0.19325E+07
         0.17501E+07
         0.15305E+07
         0.11405E+07
         0.16704E+07
         0.84831E+06
         0.17258E+06
         0.25886E+06
         0.38795E+06
         0.63820E+06
         0.14183E+07
         0.14189E+07
         0.11132E+07
         0.71446E+06
         0.73919E+06
         0.12714E+07
         0.17506E+07
         0.14455E+07
         0.72164E+06
         0.87452E+06
         0.12699E+07
         0.12855E+07
         0.16996E+07
        -0.29975E+06
        -0.48751E+05
         0.16098E+07
        -0.24645E+06
        -0.97375E+06
         0.86254E+06
         0.10059E+07
        -0.18442E+07
         0.35640E+06
         0.69022E+06
         0.70540E+06
         0.98651E+06
         0.91176E+05
         0.14117E+05
         0.59278E+06
         0.10094E+07
         0.10745E+06
        -0.41542E+06
        -0.92086E+06
        -0.40460E+06
        -0.27511E+07
        -0.27491E+07
        -0.15125E+07
        -0.76199E+06
         0.49744E+06
        -0.17413E+06
         0.10017E+07
         0.15728E+07
         0.76858E+06
         0.53771E+06
         0.84901E+06
         0.10472E+06
         0.84586E+05
         0.31822E+06
         0.81436E+06
         0.45691E+06
         0.51854E+06
         0.54356E+05
         0.16602E+06
         0.46731E+06
         0.54045E+06
         0.60059E+06
         0.81715E+06
         0.12577E+07
         0.13848E+07
         0.16812E+07
         0.35331E+06
         0.15599E+07
         0.80215E+06
         0.17054E+07
         0.24486E+07
         0.29541E+07
         0.26101E+07
         0.27409E+07
         0.24242E+07
         0.19455E+07
         0.17625E+07
         0.15364E+07
         0.11512E+07
         0.16813E+07
         0.85818E+06
         0.18020E+06
         0.26399E+06
         0.39433E+06
         0.64416E+06
         0.14276E+07
         0.14300E+07
         0.11239E+07
         0.72360E+06
         0.74692E+06
         0.12829E+07
         0.17641E+07
         0.14425E+07
         0.71609E+06
         0.86998E+06
         0.12648E+07
         0.12802E+07
         0.16939E+07
        -0.30649E+06
        -0.53891E+05
         0.16057E+07
        -0.25337E+06
        -0.98265E+06
         0.85434E+06
         0.99680E+06
        -0.18555E+07
         0.35149E+06
         0.68413E+06
         0.69887E+06
         0.97803E+06
         0.83042E+05
         0.60702E+04
         0.58479E+06
         0.10012E+07
         0.98934E+05
        -0.42364E+06
        -0.92708E+06
        -0.41175E+06
        -0.27613E+07
        -0.27607E+07
        -0.15215E+07
        -0.76749E+06
         0.49080E+06
        -0.18137E+06
         0.99182E+06
         0.15667E+07
         0.76149E+06
         0.53075E+06
         0.84111E+06
         0.93756E+05
         0.73871E+05
         0.30848E+06
         0.80376E+06
         0.44683E+06
         0.51061E+06
         0.44650E+05
         0.15722E+06
         0.46024E+06
         0.53274E+06
         0.59138E+06
         0.80809E+06
         0.12520E+07
         0.13788E+07
         0.16749E+07
         0.34192E+06
         0.15501E+07
         0.79106E+06
         0.16927E+07
         0.24337E+07
         0.29400E+07
         0.26014E+07
         0.27297E+07
         0.24094E+07
         0.19309E+07
         0.17447E+07
         0.15189E+07
         0.11394E+07
         0.16690E+07
         0.84769E+06
         0.16830E+06
         0.24561E+06
         0.37796E+06
         0.63589E+06
         0.14162E+07
         0.14181E+07
         0.11178E+07
         0.71935E+06
         0.73808E+06
         0.12709E+07
         0.17522E+07
         0.14421E+07
         0.71427E+06
         0.86884E+06
         0.12637E+07
         0.12795E+07
         0.16923E+07
        -0.30722E+06
        -0.53820E+05
         0.16075E+07
        -0.25202E+06
        -0.98390E+06
         0.85323E+06
         0.99547E+06
        -0.18576E+07
         0.35226E+06
         0.68324E+06
         0.69999E+06
         0.97604E+06
         0.82539E+05
         0.51577E+04
         0.58313E+06
         0.99992E+06
         0.97100E+05
        -0.42515E+06
        -0.92513E+06
        -0.41376E+06
        -0.27585E+07
        -0.27622E+07
        -0.15233E+07
        -0.76780E+06
         0.48759E+06
        -0.18425E+06
         0.98755E+06
         0.15657E+07
         0.75996E+06
         0.52850E+06
         0.83871E+06
         0.88861E+05
         0.68310E+05
         0.30505E+06
         0.80283E+06
         0.44618E+06
         0.50961E+06
         0.43133E+05
         0.15564E+06
         0.45862E+06
         0.53032E+06
         0.58782E+06
         0.80399E+06
         0.12506E+07
         0.13775E+07
         0.16732E+07
         0.34153E+06
         0.15502E+07
         0.78804E+06
         0.16877E+07
         0.24334E+07
         0.29397E+07
         0.25978E+07
         0.27203E+07
         0.23987E+07
         0.19250E+07
         0.17441E+07
         0.15171E+07
         0.11364E+07
         0.16642E+07
         0.84223E+06
         0.16452E+06
         0.24316E+06
         0.37584E+06
         0.63353E+06
         0.14121E+07
         0.14128E+07
         0.11144E+07
         0.71889E+06
         0.73683E+06
         0.12655E+07
         0.17473E+07
         0.14562E+07
         0.73177E+06
         0.88383E+06
         0.12755E+07
         0.12950E+07
         0.17055E+07
        -0.28624E+06
        -0.36645E+05
         0.16209E+07
        -0.23735E+06
        -0.96279E+06
         0.87111E+06
         0.10122E+07
        -0.18392E+07
         0.37045E+06
         0.69805E+06
         0.71530E+06
         0.98882E+06
         0.99603E+05
         0.23080E+05
         0.59907E+06
         0.10151E+07
         0.11258E+06
        -0.40867E+06
        -0.90421E+06
        -0.39739E+06
        -0.27352E+07
        -0.27376E+07
        -0.14994E+07
        -0.74567E+06
         0.50458E+06
        -0.16765E+06
         0.10004E+07
         0.15768E+07
         0.77631E+06
         0.54455E+06
         0.85382E+06
         0.10121E+06
         0.84950E+05
         0.32286E+06
         0.81794E+06
         0.46173E+06
         0.52329E+06
         0.59836E+05
         0.17281E+06
         0.47468E+06
         0.54636E+06
         0.60384E+06
         0.81779E+06
         0.12627E+07
         0.13885E+07
         0.16843E+07
         0.36763E+06
         0.15762E+07
         0.80986E+06
         0.17036E+07
         0.24526E+07
         0.29639E+07
         0.26181E+07
         0.27359E+07
         0.24162E+07
         0.19441E+07
         0.17614E+07
         0.15374E+07
         0.11527E+07
         0.16824E+07
         0.86289E+06
         0.18595E+06
         0.26720E+06
         0.40153E+06
         0.65560E+06
         0.14351E+07
         0.14326E+07
         0.11292E+07
         0.73503E+06
         0.75609E+06
         0.12864E+07
         0.17685E+07
         0.14506E+07
         0.72676E+06
         0.87963E+06
         0.12691E+07
         0.12884E+07
         0.16996E+07
        -0.29218E+06
        -0.43452E+05
         0.16143E+07
        -0.24636E+06
        -0.97152E+06
         0.86481E+06
         0.10082E+07
        -0.18512E+07
         0.36320E+06
         0.69013E+06
         0.70687E+06
         0.98186E+06
         0.88768E+05
         0.13266E+05
         0.59375E+06
         0.10076E+07
         0.10737E+06
        -0.41859E+06
        -0.91202E+06
        -0.40752E+06
        -0.27442E+07
        -0.27455E+07
        -0.15007E+07
        -0.74922E+06
         0.49992E+06
        -0.17586E+06
         0.99342E+06
         0.15692E+07
         0.76715E+06
         0.53823E+06
         0.84996E+06
         0.88725E+05
         0.76459E+05
         0.31903E+06
         0.81136E+06
         0.45398E+06
         0.51413E+06
         0.52629E+05
         0.16516E+06
         0.46804E+06
         0.53997E+06
         0.59871E+06
         0.81006E+06
         0.12542E+07
         0.13813E+07
         0.16777E+07
         0.35085E+06
         0.15621E+07
         0.79704E+06
         0.16968E+07
         0.24502E+07
         0.29576E+07
         0.26042E+07
         0.27190E+07
         0.23999E+07
         0.19295E+07
         0.17442E+07
         0.15178E+07
         0.11386E+07
         0.16754E+07
         0.85966E+06
         0.18395E+06
         0.26055E+06
         0.38998E+06
         0.64693E+06
         0.14248E+07
         0.14231E+07
         0.11184E+07
         0.72350E+06
         0.74870E+06
         0.12796E+07
         0.17572E+07
         0.14410E+07
         0.71400E+06
         0.86753E+06
         0.12603E+07
         0.12779E+07
         0.16883E+07
        -0.30240E+06
        -0.51633E+05
         0.16043E+07
        -0.26358E+06
        -0.98216E+06
         0.85460E+06
         0.99938E+06
        -0.18634E+07
         0.35392E+06
         0.68034E+06
         0.69363E+06
         0.97384E+06
         0.79942E+05
         0.84301E+04
         0.58716E+06
         0.99881E+06
         0.10105E+06
        -0.42709E+06
        -0.92815E+06
        -0.41746E+06
        -0.27660E+07
        -0.27585E+07
        -0.14727E+07
        -0.73317E+06
         0.49094E+06
        -0.18738E+06
         0.98654E+06
         0.15641E+07
         0.75681E+06
         0.52781E+06
         0.84069E+06
         0.69932E+05
         0.68129E+05
         0.33550E+06
         0.81103E+06
         0.44556E+06
         0.50185E+06
         0.44834E+05
         0.15540E+06
         0.45738E+06
         0.52876E+06
         0.58949E+06
         0.80126E+06
         0.12473E+07
         0.13749E+07
         0.16697E+07
         0.33964E+06
         0.15518E+07
         0.78832E+06
         0.16892E+07
         0.24397E+07
         0.29404E+07
         0.25846E+07
         0.27001E+07
         0.23833E+07
         0.19257E+07
         0.17144E+07
         0.14709E+07
         0.11188E+07
         0.16643E+07
         0.84989E+06
         0.17531E+06
         0.24988E+06
         0.37787E+06
         0.63271E+06
         0.14088E+07
         0.14121E+07
         0.11082E+07
         0.71175E+06
         0.73993E+06
         0.12662E+07
         0.17423E+07
         0.14544E+07
         0.73008E+06
         0.88377E+06
         0.12745E+07
         0.12943E+07
         0.17026E+07
        -0.28393E+06
        -0.34731E+05
         0.16140E+07
        -0.26511E+06
        -0.96316E+06
         0.86797E+06
         0.10118E+07
        -0.18462E+07
         0.37021E+06
         0.69530E+06
         0.70439E+06
         0.98581E+06
         0.99608E+05
         0.38059E+05
         0.60042E+06
         0.10121E+07
         0.11352E+06
        -0.40932E+06
        -0.92083E+06
        -0.39963E+06
        -0.27693E+07
        -0.27431E+07
        -0.13871E+07
        -0.66737E+06
         0.50554E+06
        -0.17051E+06
         0.99906E+06
         0.15788E+07
         0.77432E+06
         0.54570E+06
         0.85496E+06
         0.71675E+05
         0.86982E+05
         0.39519E+06
         0.83980E+06
         0.46127E+06
         0.50986E+06
         0.59187E+05
         0.17220E+06
         0.47522E+06
         0.54548E+06
         0.60415E+06
         0.81649E+06
         0.12639E+07
         0.13896E+07
         0.16828E+07
         0.36651E+06
         0.15782E+07
         0.81524E+06
         0.17081E+07
         0.24516E+07
         0.29542E+07
         0.26036E+07
         0.27196E+07
         0.24048E+07
         0.19673E+07
         0.17046E+07
         0.14331E+07
         0.11202E+07
         0.16794E+07
         0.86250E+06
         0.18586E+06
         0.26290E+06
         0.39938E+06
         0.65909E+06
         0.14334E+07
         0.14336E+07
         0.11304E+07
         0.73659E+06
         0.76296E+06
         0.12848E+07
         0.17618E+07
         0.14051E+07
         0.67105E+06
         0.82679E+06
         0.12202E+07
         0.12354E+07
         0.16399E+07
        -0.34818E+06
        -0.92418E+05
         0.15533E+07
        -0.33634E+06
        -0.10357E+07
         0.80456E+06
         0.94914E+06
        -0.19232E+07
         0.30684E+06
         0.64059E+06
         0.63876E+06
         0.93027E+06
         0.34940E+05
        -0.23634E+05
         0.54224E+06
         0.95398E+06
         0.55831E+05
        -0.47189E+06
        -0.99607E+06
        -0.45895E+06
        -0.28573E+07
        -0.28174E+07
        -0.14199E+07
        -0.71021E+06
         0.44947E+06
        -0.23218E+06
         0.94071E+06
         0.15181E+07
         0.71079E+06
         0.47991E+06
         0.79167E+06
        -0.40681E+04
         0.24349E+05
         0.35744E+06
         0.78414E+06
         0.39976E+06
         0.44796E+06
         0.73684E+03
         0.10889E+06
         0.40858E+06
         0.48087E+06
         0.54245E+06
         0.75065E+06
         0.11969E+07
         0.13235E+07
         0.16178E+07
         0.27236E+06
         0.14871E+07
         0.72090E+06
         0.16120E+07
         0.23563E+07
         0.28628E+07
         0.25104E+07
         0.26187E+07
         0.23099E+07
         0.18813E+07
         0.15848E+07
         0.13026E+07
         0.10261E+07
         0.16009E+07
         0.78108E+06
         0.10184E+06
         0.17637E+06
         0.30327E+06
         0.55989E+06
         0.13385E+07
         0.13448E+07
         0.10450E+07
         0.64953E+06
         0.67323E+06
         0.11989E+07
         0.16765E+07
         0.14336E+07
         0.67515E+06
         0.83784E+06
         0.12417E+07
         0.12550E+07
         0.16604E+07
        -0.33833E+06
        -0.56514E+05
         0.15953E+07
        -0.28240E+06
        -0.10156E+07
         0.80578E+06
         0.93326E+06
        -0.18784E+07
         0.33602E+06
         0.68377E+06
         0.68281E+06
         0.95999E+06
         0.70321E+05
         0.12604E+05
         0.56867E+06
         0.97392E+06
         0.97352E+05
        -0.42495E+06
        -0.92496E+06
        -0.41522E+06
        -0.27817E+07
        -0.27318E+07
        -0.13484E+07
        -0.64384E+06
         0.48517E+06
        -0.20507E+06
         0.95660E+06
         0.15095E+07
         0.72064E+06
         0.47489E+06
         0.77369E+06
         0.32007E+05
         0.71170E+05
         0.39896E+06
         0.80958E+06
         0.43500E+06
         0.48510E+06
         0.40718E+05
         0.13196E+06
         0.41887E+06
         0.49070E+06
         0.56893E+06
         0.77153E+06
         0.11978E+07
         0.13276E+07
         0.16189E+07
         0.30842E+06
         0.15340E+07
         0.73270E+06
         0.15913E+07
         0.23134E+07
         0.28368E+07
         0.25530E+07
         0.26629E+07
         0.23451E+07
         0.19021E+07
         0.15905E+07
         0.13205E+07
         0.10617E+07
         0.16186E+07
         0.81809E+06
         0.15443E+06
         0.22103E+06
         0.33722E+06
         0.57459E+06
         0.13368E+07
         0.13645E+07
         0.10733E+07
         0.69419E+06
         0.72760E+06
         0.12416E+07
         0.17208E+07
         0.19203E+09
         0.22978E+09
         0.22882E+09
         0.20929E+09
         0.22758E+09
         0.23470E+09
         0.24834E+09
         0.21801E+09
         0.21453E+09
         0.21968E+09
         0.27592E+09
         0.24211E+09
         0.22803E+09
         0.26704E+09
         0.24600E+09
         0.20022E+09
         0.22839E+09
         0.19993E+09
         0.23744E+09
         0.24832E+09
         0.20843E+09
         0.21323E+09
         0.20337E+09
         0.22671E+09
         0.24525E+09
         0.21717E+09
         0.26424E+09
         0.27180E+09
         0.27341E+09
         0.25103E+09
         0.21165E+09
         0.22484E+09
         0.21038E+09
         0.22013E+09
         0.23715E+09
         0.24082E+09
         0.22643E+09
         0.24083E+09
         0.24312E+09
         0.24414E+09
         0.23576E+09
         0.22680E+09
         0.21520E+09
         0.20412E+09
         0.21867E+09
         0.23471E+09
         0.23353E+09
         0.22741E+09
         0.23607E+09
         0.23446E+09
         0.22941E+09
         0.22997E+09
         0.34394E+09
         0.33627E+09
         0.34093E+09
         0.33036E+09
         0.33914E+09
         0.35390E+09
         0.35649E+09
         0.35578E+09
         0.35930E+09
         0.36718E+09
         0.35662E+09
         0.33659E+09
         0.30392E+09
         0.28847E+09
         0.28994E+09
         0.29469E+09
         0.29754E+09
         0.32173E+09
         0.34564E+09
         0.34646E+09
         0.32073E+09
         0.31080E+09
         0.32015E+09
         0.31763E+09
         0.31471E+09
         0.31558E+09
         0.16546E+10
         0.17375E+10
         0.17167E+10
         0.15916E+10
         0.18869E+10
         0.17950E+10
         0.18653E+10
         0.18614E+10
         0.16365E+10
         0.18614E+10
         0.20212E+10
         0.21968E+10
         0.20225E+10
         0.20678E+10
         0.22626E+10
         0.16045E+10
         0.17174E+10
         0.15331E+10
         0.17634E+10
         0.18463E+10
         0.18664E+10
         0.19063E+10
         0.18036E+10
         0.17080E+10
         0.18899E+10
         0.16594E+10
         0.20612E+10
         0.20386E+10
         0.20454E+10
         0.19476E+10
         0.16231E+10
         0.17023E+10
         0.16026E+10
         0.16654E+10
         0.20357E+10
         0.19011E+10
         0.18996E+10
         0.22069E+10
         0.21665E+10
         0.21464E+10
         0.21658E+10
         0.20713E+10
         0.19690E+10
         0.17725E+10
         0.18423E+10
         0.20319E+10
         0.19092E+10
         0.18126E+10
         0.17857E+10
         0.18397E+10
         0.19628E+10
         0.18419E+10
         0.30097E+10
         0.29330E+10
         0.29866E+10
         0.28970E+10
         0.29736E+10
         0.31129E+10
         0.31647E+10
         0.31692E+10
         0.31935E+10
         0.32572E+10
         0.31684E+10
         0.29871E+10
         0.27074E+10
         0.25697E+10
         0.25678E+10
         0.25931E+10
         0.26137E+10
         0.28173E+10
         0.30160E+10
         0.30248E+10
         0.28176E+10
         0.27386E+10
         0.28197E+10
         0.28031E+10
         0.27697E+10
         0.27635E+10
  
SCALARS                      stress_yz  double 1
LOOKUP_TABLE default
         0.30730E+06
        -0.10222E+06
        -0.26558E+06
        -0.13660E+06
        -0.37951E+01
        -0.10460E+01
        -0.47033E+01
        -0.35874E+01
        -0.99544E+06
         0.65472E+06
        -0.69995E+01
        -0.61622E+01
        -0.87320E+06
        -0.44401E+05
         0.50092E+01
        -0.32116E+00
         0.30023E+06
         0.11190E+07
         0.73698E-01
         0.75407E+00
        -0.58063E+06
        -0.21855E+07
        -0.22720E+07
         0.11483E+02
         0.19831E+02
         0.16576E+02
        -0.21542E+06
        -0.22157E+07
         0.82598E+01
         0.16024E+02
         0.34311E+06
         0.29908E+06
        -0.25404E+06
         0.42820E+01
         0.43713E+01
        -0.90752E-01
         0.10197E+07
         0.98260E+06
         0.78797E+01
         0.61307E+01
         0.10024E+07
         0.63803E+06
         0.59550E+01
         0.54421E+01
         0.90907E+06
         0.31342E+06
        -0.19754E+00
         0.30555E+01
         0.84405E+06
         0.14386E+01
         0.83190E+05
        -0.11652E+00
         0.49726E+05
         0.55648E+01
        -0.32955E+06
         0.32372E+01
        -0.10748E+07
         0.19085E+06
         0.87821E-01
        -0.17825E+00
         0.41609E+06
         0.15182E+07
        -0.11966E+01
        -0.44757E+01
         0.25126E+06
        -0.24153E+01
         0.10787E+07
        -0.29424E+01
        -0.87605E+06
        -0.46403E+06
        -0.36362E+00
         0.48011E+01
        -0.16225E+07
         0.10543E+02
        -0.28125E+07
         0.10208E+02
        -0.28384E+07
         0.77488E+01
        -0.23381E+07
         0.64948E+01
        -0.34292E+07
        -0.26319E+07
         0.41664E+01
        -0.92377E+00
        -0.36810E+06
        -0.10336E+00
         0.14207E+07
        -0.64751E+01
         0.33577E+07
        -0.11335E+02
         0.46919E+07
         0.29084E+07
        -0.16813E+02
        -0.13608E+02
         0.20455E+07
        -0.10564E+02
         0.18354E+07
        -0.10807E+02
         0.17860E+07
        -0.11620E+02
         0.29720E+07
         0.24699E+07
        -0.10806E+02
        -0.51777E+01
        -0.19937E+07
         0.75466E+06
         0.37996E+01
        -0.47217E+01
        -0.49013E+07
         0.12640E+02
        -0.70166E+07
         0.18490E+02
        -0.85905E+07
         0.22835E+02
        -0.10075E+08
         0.22651E+02
        -0.11860E+08
         0.17925E+02
        -0.12123E+08
         0.13872E+02
        -0.11415E+08
         0.12902E+02
        -0.10158E+08
         0.12275E+02
        -0.74081E+07
         0.78448E+01
        -0.50032E+07
         0.25900E+01
        -0.25100E+07
         0.16736E+01
         0.18056E+06
         0.25155E+01
         0.23951E+07
         0.12992E+01
         0.42968E+07
        -0.39291E+01
         0.66496E+07
        -0.11090E+02
         0.74819E+07
        -0.17318E+02
         0.81838E+07
        -0.22704E+02
         0.10455E+08
        -0.22684E+02
         0.10829E+08
        -0.19802E+02
         0.10007E+08
        -0.19299E+02
         0.81391E+07
        -0.19419E+02
         0.55336E+07
        -0.15356E+02
         0.39194E+07
        -0.90807E+01
         0.28186E+07
        -0.70213E+01
        -0.28133E+07
        -0.14553E+07
        -0.12704E+07
        -0.39449E+06
        -0.13012E+07
        -0.13841E+07
        -0.14586E+06
        -0.22424E+07
        -0.19247E+07
        -0.28232E+07
         0.14733E+07
         0.62842E+07
         0.42950E+07
         0.49817E+06
         0.63493E+07
         0.74522E+06
        -0.66023E+06
         0.42512E+06
         0.55471E+06
        -0.41935E+06
         0.38498E+06
         0.31748E+06
        -0.10665E+07
         0.89897E+05
        -0.19275E+07
         0.28496E+06
         0.14749E+05
         0.25789E+06
         0.31283E+06
        -0.15107E+07
         0.72740E+06
        -0.78878E+06
         0.52899E+06
        -0.12881E+06
         0.21229E+06
         0.11514E+07
         0.25828E+07
         0.55811E+07
         0.50995E+07
         0.43064E+07
         0.40529E+07
         0.10079E+07
        -0.82538E+06
        -0.22637E+07
        -0.37383E+07
        -0.60995E+07
        -0.40060E+07
        -0.28755E+07
        -0.30678E+07
        -0.32569E+07
        -0.38172E+07
        -0.17463E+07
         0.32784E+07
        -0.39442E+07
         0.10680E+08
         0.14759E+08
         0.18812E+08
         0.22326E+08
         0.22438E+08
         0.20312E+08
         0.19330E+08
         0.18267E+08
         0.11800E+08
         0.51866E+07
         0.22834E+07
         0.10069E+07
        -0.15424E+07
        -0.60983E+07
        -0.11207E+08
        -0.14620E+08
        -0.17674E+08
        -0.20270E+08
        -0.19103E+08
        -0.18059E+08
        -0.16800E+08
        -0.11680E+08
        -0.68260E+07
        -0.59945E+07
        -0.16132E+09
        -0.14901E+09
        -0.13789E+09
        -0.32706E+08
        -0.11797E+09
        -0.75480E+08
        -0.63872E+08
        -0.15490E+09
        -0.14643E+09
        -0.15418E+09
         0.11103E+09
         0.17506E+09
         0.13426E+09
         0.37269E+08
         0.16518E+09
         0.83006E+08
        -0.27152E+08
         0.25922E+08
         0.11684E+09
         0.22589E+08
         0.45957E+08
         0.34649E+08
        -0.20595E+08
         0.34988E+08
        -0.14142E+09
         0.34980E+08
         0.84555E+07
         0.16318E+08
        -0.26065E+08
        -0.14107E+09
         0.96560E+08
         0.25435E+08
         0.62412E+08
         0.54191E+08
        -0.13347E+08
         0.66281E+08
         0.98941E+08
         0.15194E+09
         0.17154E+09
         0.16179E+09
         0.85395E+08
        -0.23139E+08
        -0.47364E+08
        -0.75327E+08
        -0.10798E+09
        -0.16401E+09
        -0.14236E+09
        -0.10990E+09
        -0.16614E+09
        -0.16726E+09
        -0.10858E+09
        -0.11643E+08
         0.34293E+08
        -0.48005E+08
         0.10728E+09
         0.13957E+09
         0.16992E+09
         0.19109E+09
         0.19436E+09
         0.18895E+09
         0.18540E+09
         0.17240E+09
         0.11027E+09
         0.36803E+08
         0.17456E+08
         0.15668E+08
        -0.66575E+07
        -0.53033E+08
        -0.10270E+09
        -0.13188E+09
        -0.17784E+09
        -0.19245E+09
        -0.18600E+09
        -0.18439E+09
        -0.17333E+09
        -0.12460E+09
        -0.63053E+08
        -0.60167E+08
        -0.16130E+09
        -0.14904E+09
        -0.13796E+09
        -0.32946E+08
        -0.11804E+09
        -0.75581E+08
        -0.63953E+08
        -0.15502E+09
        -0.14669E+09
        -0.15432E+09
         0.11110E+09
         0.17505E+09
         0.13425E+09
         0.37354E+08
         0.16523E+09
         0.82947E+08
        -0.27399E+08
         0.25883E+08
         0.11692E+09
         0.22463E+08
         0.46067E+08
         0.34684E+08
        -0.20601E+08
         0.34971E+08
        -0.14206E+09
         0.34917E+08
         0.85524E+07
         0.16409E+08
        -0.25893E+08
        -0.14137E+09
         0.96577E+08
         0.25380E+08
         0.62550E+08
         0.54279E+08
        -0.13217E+08
         0.66342E+08
         0.98958E+08
         0.15195E+09
         0.17154E+09
         0.16177E+09
         0.85408E+08
        -0.23065E+08
        -0.47408E+08
        -0.75367E+08
        -0.10801E+09
        -0.16402E+09
        -0.14238E+09
        -0.10984E+09
        -0.16592E+09
        -0.16726E+09
        -0.10859E+09
        -0.11484E+08
         0.34272E+08
        -0.48018E+08
         0.10730E+09
         0.13957E+09
         0.16992E+09
         0.19108E+09
         0.19435E+09
         0.18893E+09
         0.18540E+09
         0.17240E+09
         0.11027E+09
         0.36819E+08
         0.17456E+08
         0.15701E+08
        -0.66026E+07
        -0.53050E+08
        -0.10273E+09
        -0.13189E+09
        -0.17785E+09
        -0.19245E+09
        -0.18600E+09
        -0.18440E+09
        -0.17334E+09
        -0.12458E+09
        -0.63016E+08
        -0.60116E+08
        -0.16129E+09
        -0.14907E+09
        -0.13803E+09
        -0.33189E+08
        -0.11810E+09
        -0.75684E+08
        -0.64032E+08
        -0.15514E+09
        -0.14696E+09
        -0.15446E+09
         0.11117E+09
         0.17504E+09
         0.13423E+09
         0.37434E+08
         0.16528E+09
         0.82888E+08
        -0.27649E+08
         0.25844E+08
         0.11700E+09
         0.22335E+08
         0.46177E+08
         0.34719E+08
        -0.20610E+08
         0.34950E+08
        -0.14270E+09
         0.34844E+08
         0.86562E+07
         0.16506E+08
        -0.25706E+08
        -0.14166E+09
         0.96592E+08
         0.25313E+08
         0.62689E+08
         0.54367E+08
        -0.13085E+08
         0.66404E+08
         0.98974E+08
         0.15196E+09
         0.17155E+09
         0.16174E+09
         0.85423E+08
        -0.22985E+08
        -0.47447E+08
        -0.75414E+08
        -0.10804E+09
        -0.16403E+09
        -0.14239E+09
        -0.10978E+09
        -0.16570E+09
        -0.16725E+09
        -0.10860E+09
        -0.11324E+08
         0.34252E+08
        -0.48031E+08
         0.10732E+09
         0.13957E+09
         0.16993E+09
         0.19108E+09
         0.19434E+09
         0.18892E+09
         0.18541E+09
         0.17240E+09
         0.11026E+09
         0.36836E+08
         0.17456E+08
         0.15734E+08
        -0.65473E+07
        -0.53066E+08
        -0.10275E+09
        -0.13189E+09
        -0.17785E+09
        -0.19244E+09
        -0.18601E+09
        -0.18440E+09
        -0.17335E+09
        -0.12457E+09
        -0.62979E+08
        -0.60066E+08
        -0.16127E+09
        -0.14909E+09
        -0.13810E+09
        -0.33432E+08
        -0.11817E+09
        -0.75786E+08
        -0.64117E+08
        -0.15526E+09
        -0.14722E+09
        -0.15460E+09
         0.11123E+09
         0.17503E+09
         0.13421E+09
         0.37519E+08
         0.16533E+09
         0.82823E+08
        -0.27902E+08
         0.25804E+08
         0.11709E+09
         0.22199E+08
         0.46289E+08
         0.34750E+08
        -0.20628E+08
         0.34915E+08
        -0.14331E+09
         0.34749E+08
         0.87638E+07
         0.16635E+08
        -0.25473E+08
        -0.14192E+09
         0.96599E+08
         0.25222E+08
         0.62826E+08
         0.54455E+08
        -0.12954E+08
         0.66465E+08
         0.98989E+08
         0.15197E+09
         0.17156E+09
         0.16172E+09
         0.85445E+08
        -0.22886E+08
        -0.47476E+08
        -0.75480E+08
        -0.10808E+09
        -0.16404E+09
        -0.14240E+09
        -0.10972E+09
        -0.16548E+09
        -0.16725E+09
        -0.10861E+09
        -0.11165E+08
         0.34231E+08
        -0.48045E+08
         0.10734E+09
         0.13957E+09
         0.16993E+09
         0.19107E+09
         0.19433E+09
         0.18891E+09
         0.18541E+09
         0.17240E+09
         0.11026E+09
         0.36856E+08
         0.17458E+08
         0.15766E+08
        -0.64916E+07
        -0.53084E+08
        -0.10278E+09
        -0.13190E+09
        -0.17786E+09
        -0.19244E+09
        -0.18602E+09
        -0.18440E+09
        -0.17336E+09
        -0.12456E+09
        -0.62942E+08
        -0.60017E+08
        -0.16126E+09
        -0.14912E+09
        -0.13817E+09
        -0.33674E+08
        -0.11823E+09
        -0.75888E+08
        -0.64196E+08
        -0.15537E+09
        -0.14749E+09
        -0.15475E+09
         0.11130E+09
         0.17502E+09
         0.13420E+09
         0.37607E+08
         0.16539E+09
         0.82755E+08
        -0.28160E+08
         0.25763E+08
         0.11718E+09
         0.22056E+08
         0.46401E+08
         0.34776E+08
        -0.20654E+08
         0.34866E+08
        -0.14390E+09
         0.34629E+08
         0.88841E+07
         0.16792E+08
        -0.25193E+08
        -0.14216E+09
         0.96599E+08
         0.25103E+08
         0.62964E+08
         0.54543E+08
        -0.12823E+08
         0.66526E+08
         0.99006E+08
         0.15199E+09
         0.17156E+09
         0.16170E+09
         0.85474E+08
        -0.22766E+08
        -0.47495E+08
        -0.75566E+08
        -0.10814E+09
        -0.16406E+09
        -0.14242E+09
        -0.10966E+09
        -0.16526E+09
        -0.16724E+09
        -0.10862E+09
        -0.11004E+08
         0.34210E+08
        -0.48058E+08
         0.10736E+09
         0.13957E+09
         0.16994E+09
         0.19107E+09
         0.19432E+09
         0.18890E+09
         0.18542E+09
         0.17240E+09
         0.11025E+09
         0.36879E+08
         0.17460E+08
         0.15798E+08
        -0.64357E+07
        -0.53102E+08
        -0.10281E+09
        -0.13191E+09
        -0.17787E+09
        -0.19244E+09
        -0.18602E+09
        -0.18441E+09
        -0.17337E+09
        -0.12454E+09
        -0.62906E+08
        -0.59967E+08
        -0.16124E+09
        -0.14914E+09
        -0.13823E+09
        -0.33920E+08
        -0.11830E+09
        -0.75990E+08
        -0.64267E+08
        -0.15549E+09
        -0.14775E+09
        -0.15489E+09
         0.11138E+09
         0.17501E+09
         0.13418E+09
         0.37698E+08
         0.16544E+09
         0.82687E+08
        -0.28424E+08
         0.25724E+08
         0.11727E+09
         0.21910E+08
         0.46513E+08
         0.34801E+08
        -0.20683E+08
         0.34812E+08
        -0.14447E+09
         0.34501E+08
         0.90136E+07
         0.16965E+08
        -0.24894E+08
        -0.14238E+09
         0.96594E+08
         0.24970E+08
         0.63104E+08
         0.54636E+08
        -0.12690E+08
         0.66589E+08
         0.99024E+08
         0.15200E+09
         0.17157E+09
         0.16168E+09
         0.85505E+08
        -0.22640E+08
        -0.47508E+08
        -0.75658E+08
        -0.10820E+09
        -0.16407E+09
        -0.14243E+09
        -0.10961E+09
        -0.16506E+09
        -0.16724E+09
        -0.10863E+09
        -0.10843E+08
         0.34189E+08
        -0.48071E+08
         0.10738E+09
         0.13957E+09
         0.16994E+09
         0.19106E+09
         0.19432E+09
         0.18889E+09
         0.18542E+09
         0.17240E+09
         0.11025E+09
         0.36904E+08
         0.17463E+08
         0.15829E+08
        -0.63798E+07
        -0.53121E+08
        -0.10284E+09
        -0.13192E+09
        -0.17787E+09
        -0.19244E+09
        -0.18603E+09
        -0.18441E+09
        -0.17338E+09
        -0.12453E+09
        -0.62869E+08
        -0.59916E+08
        -0.16123E+09
        -0.14913E+09
        -0.13830E+09
        -0.34171E+08
        -0.11836E+09
        -0.76093E+08
        -0.64322E+08
        -0.15560E+09
        -0.14803E+09
        -0.15502E+09
         0.11147E+09
         0.17500E+09
         0.13417E+09
         0.37812E+08
         0.16549E+09
         0.82622E+08
        -0.28693E+08
         0.25684E+08
         0.11736E+09
         0.21763E+08
         0.46625E+08
         0.34827E+08
        -0.20712E+08
         0.34760E+08
        -0.14504E+09
         0.34372E+08
         0.91663E+07
         0.17150E+08
        -0.24590E+08
        -0.14259E+09
         0.96585E+08
         0.24828E+08
         0.63249E+08
         0.54732E+08
        -0.12557E+08
         0.66652E+08
         0.99043E+08
         0.15202E+09
         0.17158E+09
         0.16166E+09
         0.85537E+08
        -0.22512E+08
        -0.47520E+08
        -0.75749E+08
        -0.10826E+09
        -0.16408E+09
        -0.14246E+09
        -0.10958E+09
        -0.16489E+09
        -0.16723E+09
        -0.10863E+09
        -0.10679E+08
         0.34168E+08
        -0.48084E+08
         0.10740E+09
         0.13957E+09
         0.16995E+09
         0.19105E+09
         0.19431E+09
         0.18888E+09
         0.18542E+09
         0.17240E+09
         0.11025E+09
         0.36929E+08
         0.17466E+08
         0.15860E+08
        -0.63239E+07
        -0.53139E+08
        -0.10287E+09
        -0.13194E+09
        -0.17788E+09
        -0.19244E+09
        -0.18603E+09
        -0.18441E+09
        -0.17339E+09
        -0.12451E+09
        -0.62832E+08
        -0.59866E+08
        -0.16122E+09
        -0.14912E+09
        -0.13837E+09
        -0.34426E+08
        -0.11842E+09
        -0.76196E+08
        -0.64365E+08
        -0.15571E+09
        -0.14830E+09
        -0.15515E+09
         0.11157E+09
         0.17499E+09
         0.13416E+09
         0.37931E+08
         0.16554E+09
         0.82559E+08
        -0.28967E+08
         0.25643E+08
         0.11745E+09
         0.21617E+08
         0.46737E+08
         0.34853E+08
        -0.20741E+08
         0.34709E+08
        -0.14559E+09
         0.34244E+08
         0.93249E+07
         0.17340E+08
        -0.24284E+08
        -0.14280E+09
         0.96576E+08
         0.24680E+08
         0.63396E+08
         0.54833E+08
        -0.12423E+08
         0.66716E+08
         0.99062E+08
         0.15203E+09
         0.17159E+09
         0.16164E+09
         0.85570E+08
        -0.22383E+08
        -0.47532E+08
        -0.75839E+08
        -0.10833E+09
        -0.16409E+09
        -0.14250E+09
        -0.10956E+09
        -0.16473E+09
        -0.16723E+09
        -0.10864E+09
        -0.10514E+08
         0.34148E+08
        -0.48097E+08
         0.10742E+09
         0.13957E+09
         0.16995E+09
         0.19105E+09
         0.19430E+09
         0.18887E+09
         0.18543E+09
         0.17240E+09
         0.11025E+09
         0.36954E+08
         0.17469E+08
         0.15892E+08
        -0.62679E+07
        -0.53157E+08
        -0.10291E+09
        -0.13195E+09
        -0.17788E+09
        -0.19243E+09
        -0.18604E+09
        -0.18442E+09
        -0.17340E+09
        -0.12450E+09
        -0.62795E+08
        -0.59816E+08
        -0.16120E+09
        -0.14911E+09
        -0.13843E+09
        -0.34681E+08
        -0.11849E+09
        -0.76298E+08
        -0.64409E+08
        -0.15582E+09
        -0.14858E+09
        -0.15528E+09
         0.11166E+09
         0.17498E+09
         0.13415E+09
         0.38055E+08
         0.16559E+09
         0.82496E+08
        -0.29241E+08
         0.25602E+08
         0.11754E+09
         0.21470E+08
         0.46849E+08
         0.34879E+08
        -0.20770E+08
         0.34658E+08
        -0.14615E+09
         0.34117E+08
         0.94873E+07
         0.17527E+08
        -0.23979E+08
        -0.14302E+09
         0.96564E+08
         0.24534E+08
         0.63543E+08
         0.54932E+08
        -0.12288E+08
         0.66779E+08
         0.99081E+08
         0.15205E+09
         0.17159E+09
         0.16162E+09
         0.85602E+08
        -0.22255E+08
        -0.47543E+08
        -0.75930E+08
        -0.10839E+09
        -0.16411E+09
        -0.14253E+09
        -0.10954E+09
        -0.16457E+09
        -0.16722E+09
        -0.10864E+09
        -0.10348E+08
         0.34127E+08
        -0.48110E+08
         0.10744E+09
         0.13957E+09
         0.16996E+09
         0.19104E+09
         0.19429E+09
         0.18886E+09
         0.18543E+09
         0.17240E+09
         0.11025E+09
         0.36979E+08
         0.17473E+08
         0.15925E+08
        -0.62121E+07
        -0.53176E+08
        -0.10294E+09
        -0.13196E+09
        -0.17789E+09
        -0.19243E+09
        -0.18605E+09
        -0.18442E+09
        -0.17341E+09
        -0.12448E+09
        -0.62758E+08
        -0.59766E+08
        -0.16119E+09
        -0.14910E+09
        -0.13850E+09
        -0.34935E+08
        -0.11855E+09
        -0.76400E+08
        -0.64452E+08
        -0.15593E+09
        -0.14885E+09
        -0.15541E+09
         0.11176E+09
         0.17497E+09
         0.13413E+09
         0.38173E+08
         0.16564E+09
         0.82434E+08
        -0.29517E+08
         0.25561E+08
         0.11763E+09
         0.21322E+08
         0.46960E+08
         0.34904E+08
        -0.20798E+08
         0.34608E+08
        -0.14670E+09
         0.33990E+08
         0.96452E+07
         0.17713E+08
        -0.23675E+08
        -0.14323E+09
         0.96553E+08
         0.24387E+08
         0.63688E+08
         0.55032E+08
        -0.12154E+08
         0.66843E+08
         0.99101E+08
         0.15207E+09
         0.17160E+09
         0.16159E+09
         0.85634E+08
        -0.22128E+08
        -0.47555E+08
        -0.76019E+08
        -0.10846E+09
        -0.16412E+09
        -0.14256E+09
        -0.10951E+09
        -0.16441E+09
        -0.16721E+09
        -0.10865E+09
        -0.10182E+08
         0.34106E+08
        -0.48123E+08
         0.10746E+09
         0.13957E+09
         0.16996E+09
         0.19104E+09
         0.19428E+09
         0.18885E+09
         0.18544E+09
         0.17240E+09
         0.11025E+09
         0.37003E+08
         0.17476E+08
         0.15957E+08
        -0.61564E+07
        -0.53194E+08
        -0.10297E+09
        -0.13197E+09
        -0.17790E+09
        -0.19243E+09
        -0.18605E+09
        -0.18442E+09
        -0.17341E+09
        -0.12447E+09
        -0.62722E+08
        -0.59715E+08
        -0.16118E+09
        -0.14909E+09
        -0.13857E+09
        -0.35188E+08
        -0.11861E+09
        -0.76501E+08
        -0.64500E+08
        -0.15604E+09
        -0.14913E+09
        -0.15553E+09
         0.11186E+09
         0.17496E+09
         0.13412E+09
         0.38296E+08
         0.16569E+09
         0.82372E+08
        -0.29793E+08
         0.25521E+08
         0.11772E+09
         0.21172E+08
         0.47072E+08
         0.34929E+08
        -0.20827E+08
         0.34558E+08
        -0.14725E+09
         0.33863E+08
         0.98057E+07
         0.17896E+08
        -0.23371E+08
        -0.14344E+09
         0.96543E+08
         0.24241E+08
         0.63835E+08
         0.55132E+08
        -0.12020E+08
         0.66907E+08
         0.99122E+08
         0.15208E+09
         0.17161E+09
         0.16157E+09
         0.85666E+08
        -0.22001E+08
        -0.47567E+08
        -0.76109E+08
        -0.10852E+09
        -0.16413E+09
        -0.14259E+09
        -0.10949E+09
        -0.16426E+09
        -0.16721E+09
        -0.10865E+09
        -0.10015E+08
         0.34085E+08
        -0.48135E+08
         0.10748E+09
         0.13957E+09
         0.16997E+09
         0.19103E+09
         0.19428E+09
         0.18883E+09
         0.18544E+09
         0.17240E+09
         0.11025E+09
         0.37028E+08
         0.17479E+08
         0.15989E+08
        -0.61005E+07
        -0.53213E+08
        -0.10301E+09
        -0.13198E+09
        -0.17790E+09
        -0.19243E+09
        -0.18606E+09
        -0.18443E+09
        -0.17342E+09
        -0.12445E+09
        -0.62686E+08
        -0.59665E+08
        -0.16117E+09
        -0.14908E+09
        -0.13863E+09
        -0.35444E+08
        -0.11867E+09
        -0.76604E+08
        -0.64543E+08
        -0.15614E+09
        -0.14941E+09
        -0.15566E+09
         0.11196E+09
         0.17495E+09
         0.13411E+09
         0.38419E+08
         0.16574E+09
         0.82311E+08
        -0.30070E+08
         0.25479E+08
         0.11781E+09
         0.21024E+08
         0.47184E+08
         0.34954E+08
        -0.20855E+08
         0.34509E+08
        -0.14781E+09
         0.33737E+08
         0.99625E+07
         0.18078E+08
        -0.23067E+08
        -0.14366E+09
         0.96531E+08
         0.24094E+08
         0.63980E+08
         0.55233E+08
        -0.11884E+08
         0.66970E+08
         0.99140E+08
         0.15210E+09
         0.17162E+09
         0.16155E+09
         0.85698E+08
        -0.21875E+08
        -0.47578E+08
        -0.76198E+08
        -0.10858E+09
        -0.16414E+09
        -0.14262E+09
        -0.10947E+09
        -0.16410E+09
        -0.16720E+09
        -0.10866E+09
        -0.98477E+07
         0.34064E+08
        -0.48148E+08
         0.10750E+09
         0.13957E+09
         0.16997E+09
         0.19102E+09
         0.19427E+09
         0.18882E+09
         0.18545E+09
         0.17239E+09
         0.11024E+09
         0.37052E+08
         0.17483E+08
         0.16021E+08
        -0.60444E+07
        -0.53231E+08
        -0.10304E+09
        -0.13199E+09
        -0.17791E+09
        -0.19243E+09
        -0.18607E+09
        -0.18443E+09
        -0.17343E+09
        -0.12444E+09
        -0.62649E+08
        -0.59614E+08
        -0.16115E+09
        -0.14907E+09
        -0.13870E+09
        -0.35700E+08
        -0.11874E+09
        -0.76707E+08
        -0.64587E+08
        -0.15625E+09
        -0.14968E+09
        -0.15578E+09
         0.11206E+09
         0.17494E+09
         0.13410E+09
         0.38538E+08
         0.16580E+09
         0.82248E+08
        -0.30347E+08
         0.25437E+08
         0.11790E+09
         0.20877E+08
         0.47296E+08
         0.34978E+08
        -0.20884E+08
         0.34459E+08
        -0.14836E+09
         0.33609E+08
         0.10124E+08
         0.18258E+08
        -0.22764E+08
        -0.14387E+09
         0.96520E+08
         0.23946E+08
         0.64125E+08
         0.55332E+08
        -0.11749E+08
         0.67034E+08
         0.99160E+08
         0.15212E+09
         0.17162E+09
         0.16153E+09
         0.85730E+08
        -0.21748E+08
        -0.47589E+08
        -0.76288E+08
        -0.10865E+09
        -0.16416E+09
        -0.14266E+09
        -0.10945E+09
        -0.16395E+09
        -0.16719E+09
        -0.10866E+09
        -0.96807E+07
         0.34042E+08
        -0.48161E+08
         0.10752E+09
         0.13957E+09
         0.16998E+09
         0.19102E+09
         0.19426E+09
         0.18881E+09
         0.18545E+09
         0.17239E+09
         0.11024E+09
         0.37077E+08
         0.17486E+08
         0.16053E+08
        -0.59885E+07
        -0.53249E+08
        -0.10307E+09
        -0.13201E+09
        -0.17791E+09
        -0.19243E+09
        -0.18607E+09
        -0.18443E+09
        -0.17344E+09
        -0.12442E+09
        -0.62613E+08
        -0.59564E+08
        -0.16114E+09
        -0.14906E+09
        -0.13876E+09
        -0.35956E+08
        -0.11880E+09
        -0.76810E+08
        -0.64636E+08
        -0.15636E+09
        -0.14996E+09
        -0.15590E+09
         0.11216E+09
         0.17493E+09
         0.13409E+09
         0.38661E+08
         0.16585E+09
         0.82186E+08
        -0.30625E+08
         0.25395E+08
         0.11798E+09
         0.20730E+08
         0.47408E+08
         0.35003E+08
        -0.20912E+08
         0.34410E+08
        -0.14891E+09
         0.33482E+08
         0.10281E+08
         0.18435E+08
        -0.22463E+08
        -0.14408E+09
         0.96508E+08
         0.23799E+08
         0.64271E+08
         0.55433E+08
        -0.11613E+08
         0.67097E+08
         0.99178E+08
         0.15214E+09
         0.17163E+09
         0.16151E+09
         0.85762E+08
        -0.21621E+08
        -0.47601E+08
        -0.76377E+08
        -0.10871E+09
        -0.16417E+09
        -0.14269E+09
        -0.10942E+09
        -0.16379E+09
        -0.16719E+09
        -0.10867E+09
        -0.95140E+07
         0.34021E+08
        -0.48173E+08
         0.10754E+09
         0.13957E+09
         0.16998E+09
         0.19101E+09
         0.19425E+09
         0.18880E+09
         0.18545E+09
         0.17239E+09
         0.11024E+09
         0.37102E+08
         0.17489E+08
         0.16085E+08
        -0.59328E+07
        -0.53267E+08
        -0.10311E+09
        -0.13202E+09
        -0.17792E+09
        -0.19242E+09
        -0.18608E+09
        -0.18444E+09
        -0.17345E+09
        -0.12441E+09
        -0.62577E+08
        -0.59513E+08
        -0.16113E+09
        -0.14905E+09
        -0.13883E+09
        -0.36212E+08
        -0.11886E+09
        -0.76912E+08
        -0.64680E+08
        -0.15646E+09
        -0.15024E+09
        -0.15602E+09
         0.11226E+09
         0.17492E+09
         0.13407E+09
         0.38780E+08
         0.16590E+09
         0.82125E+08
        -0.30904E+08
         0.25354E+08
         0.11807E+09
         0.20581E+08
         0.47519E+08
         0.35028E+08
        -0.20940E+08
         0.34363E+08
        -0.14946E+09
         0.33355E+08
         0.10441E+08
         0.18609E+08
        -0.22162E+08
        -0.14429E+09
         0.96496E+08
         0.23651E+08
         0.64416E+08
         0.55534E+08
        -0.11478E+08
         0.67161E+08
         0.99197E+08
         0.15216E+09
         0.17164E+09
         0.16149E+09
         0.85794E+08
        -0.21495E+08
        -0.47613E+08
        -0.76466E+08
        -0.10878E+09
        -0.16418E+09
        -0.14272E+09
        -0.10940E+09
        -0.16363E+09
        -0.16718E+09
        -0.10867E+09
        -0.93459E+07
         0.34000E+08
        -0.48185E+08
         0.10756E+09
         0.13957E+09
         0.16999E+09
         0.19101E+09
         0.19424E+09
         0.18879E+09
         0.18546E+09
         0.17239E+09
         0.11024E+09
         0.37126E+08
         0.17493E+08
         0.16117E+08
        -0.58770E+07
        -0.53285E+08
        -0.10314E+09
        -0.13203E+09
        -0.17793E+09
        -0.19242E+09
        -0.18609E+09
        -0.18444E+09
        -0.17346E+09
        -0.12439E+09
        -0.62541E+08
        -0.59462E+08
        -0.16111E+09
        -0.14903E+09
        -0.13890E+09
        -0.36466E+08
        -0.11892E+09
        -0.77013E+08
        -0.64726E+08
        -0.15657E+09
        -0.15052E+09
        -0.15614E+09
         0.11236E+09
         0.17491E+09
         0.13406E+09
         0.38904E+08
         0.16595E+09
         0.82064E+08
        -0.31185E+08
         0.25313E+08
         0.11816E+09
         0.20433E+08
         0.47631E+08
         0.35051E+08
        -0.20968E+08
         0.34315E+08
        -0.15001E+09
         0.33227E+08
         0.10596E+08
         0.18782E+08
        -0.21862E+08
        -0.14450E+09
         0.96485E+08
         0.23505E+08
         0.64561E+08
         0.55636E+08
        -0.11341E+08
         0.67224E+08
         0.99216E+08
         0.15217E+09
         0.17164E+09
         0.16147E+09
         0.85827E+08
        -0.21369E+08
        -0.47625E+08
        -0.76554E+08
        -0.10884E+09
        -0.16419E+09
        -0.14275E+09
        -0.10938E+09
        -0.16348E+09
        -0.16717E+09
        -0.10868E+09
        -0.91772E+07
         0.33978E+08
        -0.48198E+08
         0.10758E+09
         0.13957E+09
         0.16999E+09
         0.19100E+09
         0.19423E+09
         0.18878E+09
         0.18546E+09
         0.17239E+09
         0.11024E+09
         0.37151E+08
         0.17496E+08
         0.16149E+08
        -0.58212E+07
        -0.53303E+08
        -0.10317E+09
        -0.13204E+09
        -0.17793E+09
        -0.19242E+09
        -0.18609E+09
        -0.18445E+09
        -0.17347E+09
        -0.12438E+09
        -0.62506E+08
        -0.59411E+08
        -0.16110E+09
        -0.14902E+09
        -0.13896E+09
        -0.36722E+08
        -0.11899E+09
        -0.77116E+08
        -0.64773E+08
        -0.15667E+09
        -0.15080E+09
        -0.15627E+09
         0.11246E+09
         0.17490E+09
         0.13405E+09
         0.39023E+08
         0.16600E+09
         0.82002E+08
        -0.31467E+08
         0.25270E+08
         0.11825E+09
         0.20287E+08
         0.47742E+08
         0.35074E+08
        -0.20996E+08
         0.34267E+08
        -0.15056E+09
         0.33099E+08
         0.10756E+08
         0.18952E+08
        -0.21562E+08
        -0.14471E+09
         0.96472E+08
         0.23357E+08
         0.64705E+08
         0.55737E+08
        -0.11205E+08
         0.67287E+08
         0.99235E+08
         0.15219E+09
         0.17165E+09
         0.16145E+09
         0.85859E+08
        -0.21245E+08
        -0.47637E+08
        -0.76643E+08
        -0.10891E+09
        -0.16421E+09
        -0.14278E+09
        -0.10936E+09
        -0.16332E+09
        -0.16717E+09
        -0.10868E+09
        -0.90094E+07
         0.33957E+08
        -0.48210E+08
         0.10760E+09
         0.13957E+09
         0.17000E+09
         0.19099E+09
         0.19423E+09
         0.18877E+09
         0.18547E+09
         0.17239E+09
         0.11024E+09
         0.37175E+08
         0.17498E+08
         0.16181E+08
        -0.57656E+07
        -0.53321E+08
        -0.10320E+09
        -0.13205E+09
        -0.17794E+09
        -0.19242E+09
        -0.18610E+09
        -0.18445E+09
        -0.17348E+09
        -0.12436E+09
        -0.62470E+08
        -0.59361E+08
        -0.16109E+09
        -0.14901E+09
        -0.13903E+09
        -0.36979E+08
        -0.11905E+09
        -0.77218E+08
        -0.64818E+08
        -0.15678E+09
        -0.15108E+09
        -0.15639E+09
         0.11256E+09
         0.17489E+09
         0.13404E+09
         0.39146E+08
         0.16605E+09
         0.81941E+08
        -0.31752E+08
         0.25227E+08
         0.11834E+09
         0.20148E+08
         0.47853E+08
         0.35096E+08
        -0.21025E+08
         0.34219E+08
        -0.15111E+09
         0.32973E+08
         0.10915E+08
         0.19122E+08
        -0.21263E+08
        -0.14490E+09
         0.96460E+08
         0.23208E+08
         0.64849E+08
         0.55838E+08
        -0.11068E+08
         0.67351E+08
         0.99254E+08
         0.15222E+09
         0.17166E+09
         0.16142E+09
         0.85894E+08
        -0.21120E+08
        -0.47652E+08
        -0.76732E+08
        -0.10897E+09
        -0.16422E+09
        -0.14282E+09
        -0.10933E+09
        -0.16316E+09
        -0.16716E+09
        -0.10869E+09
        -0.88411E+07
         0.33935E+08
        -0.48222E+08
         0.10762E+09
         0.13957E+09
         0.17000E+09
         0.19099E+09
         0.19422E+09
         0.18876E+09
         0.18547E+09
         0.17239E+09
         0.11024E+09
         0.37199E+08
         0.17499E+08
         0.16212E+08
        -0.57102E+07
        -0.53339E+08
        -0.10324E+09
        -0.13206E+09
        -0.17795E+09
        -0.19242E+09
        -0.18610E+09
        -0.18445E+09
        -0.17349E+09
        -0.12435E+09
        -0.62435E+08
        -0.59310E+08
        -0.16107E+09
        -0.14900E+09
        -0.13909E+09
        -0.37236E+08
        -0.11911E+09
        -0.77319E+08
        -0.64863E+08
        -0.15688E+09
        -0.15136E+09
        -0.15651E+09
         0.11266E+09
         0.17488E+09
         0.13402E+09
         0.39271E+08
         0.16610E+09
         0.81880E+08
        -0.32042E+08
         0.25184E+08
         0.11843E+09
         0.20014E+08
         0.47965E+08
         0.35119E+08
        -0.21053E+08
         0.34172E+08
        -0.15167E+09
         0.32845E+08
         0.11082E+08
         0.19289E+08
        -0.20965E+08
        -0.14508E+09
         0.96447E+08
         0.23060E+08
         0.64992E+08
         0.55939E+08
        -0.10931E+08
         0.67414E+08
         0.99272E+08
         0.15224E+09
         0.17166E+09
         0.16140E+09
         0.85930E+08
        -0.20997E+08
        -0.47669E+08
        -0.76820E+08
        -0.10904E+09
        -0.16423E+09
        -0.14285E+09
        -0.10931E+09
        -0.16301E+09
        -0.16715E+09
        -0.10869E+09
        -0.86710E+07
         0.33914E+08
        -0.48234E+08
         0.10764E+09
         0.13957E+09
         0.17001E+09
         0.19098E+09
         0.19421E+09
         0.18875E+09
         0.18547E+09
         0.17239E+09
         0.11024E+09
         0.37223E+08
         0.17498E+08
         0.16244E+08
        -0.56544E+07
        -0.53357E+08
        -0.10327E+09
        -0.13208E+09
        -0.17795E+09
        -0.19242E+09
        -0.18611E+09
        -0.18446E+09
        -0.17349E+09
        -0.12433E+09
        -0.62401E+08
        -0.59259E+08
        -0.16106E+09
        -0.14899E+09
        -0.13916E+09
        -0.37491E+08
        -0.11917E+09
        -0.77421E+08
        -0.64913E+08
        -0.15698E+09
        -0.15165E+09
        -0.15664E+09
         0.11276E+09
         0.17487E+09
         0.13401E+09
         0.39392E+08
         0.16615E+09
         0.81820E+08
        -0.32333E+08
         0.25142E+08
         0.11852E+09
         0.19884E+08
         0.48077E+08
         0.35141E+08
        -0.21079E+08
         0.34128E+08
        -0.15222E+09
         0.32721E+08
         0.11244E+08
         0.19449E+08
        -0.20671E+08
        -0.14526E+09
         0.96436E+08
         0.22916E+08
         0.65136E+08
         0.56043E+08
        -0.10795E+08
         0.67475E+08
         0.99289E+08
         0.15226E+09
         0.17167E+09
         0.16138E+09
         0.85967E+08
        -0.20876E+08
        -0.47688E+08
        -0.76906E+08
        -0.10910E+09
        -0.16424E+09
        -0.14288E+09
        -0.10929E+09
        -0.16285E+09
        -0.16715E+09
        -0.10870E+09
        -0.85013E+07
         0.33892E+08
        -0.48247E+08
         0.10765E+09
         0.13957E+09
         0.17001E+09
         0.19098E+09
         0.19420E+09
         0.18874E+09
         0.18548E+09
         0.17238E+09
         0.11024E+09
         0.37245E+08
         0.17496E+08
         0.16275E+08
        -0.55987E+07
        -0.53374E+08
        -0.10330E+09
        -0.13209E+09
        -0.17796E+09
        -0.19241E+09
        -0.18612E+09
        -0.18446E+09
        -0.17350E+09
        -0.12432E+09
        -0.62366E+08
        -0.59208E+08
        -0.15496E+09
        -0.14833E+09
        -0.13966E+09
        -0.37850E+08
        -0.11317E+09
        -0.70666E+08
        -0.65153E+08
        -0.14936E+09
        -0.14587E+09
        -0.14867E+09
         0.11315E+09
         0.17105E+09
         0.13003E+09
         0.35054E+08
         0.16284E+09
         0.76677E+08
        -0.32701E+08
         0.25176E+08
         0.11894E+09
         0.19823E+08
         0.47036E+08
         0.34192E+08
        -0.20539E+08
         0.34205E+08
        -0.14171E+09
         0.32734E+08
         0.10122E+08
         0.19624E+08
        -0.20487E+08
        -0.13063E+09
         0.93507E+08
         0.22881E+08
         0.65468E+08
         0.56308E+08
        -0.10278E+08
         0.62137E+08
         0.94325E+08
         0.14825E+09
         0.16490E+09
         0.15404E+09
         0.83813E+08
        -0.20208E+08
        -0.46526E+08
        -0.74407E+08
        -0.10424E+09
        -0.15894E+09
        -0.13446E+09
        -0.10160E+09
        -0.14998E+09
        -0.15387E+09
        -0.10461E+09
        -0.77814E+07
         0.33636E+08
        -0.47968E+08
         0.10705E+09
         0.13881E+09
         0.16914E+09
         0.19003E+09
         0.19314E+09
         0.18746E+09
         0.18415E+09
         0.17125E+09
         0.10953E+09
         0.37042E+08
         0.17371E+08
         0.16193E+08
        -0.55143E+07
        -0.53110E+08
        -0.10282E+09
        -0.13145E+09
        -0.17688E+09
        -0.19129E+09
        -0.18498E+09
        -0.18330E+09
        -0.17247E+09
        -0.12353E+09
        -0.61973E+08
        -0.58812E+08
        -0.75739E+08
        -0.48436E+08
        -0.45711E+08
        -0.13718E+08
        -0.49334E+08
        -0.24744E+08
        -0.20137E+08
        -0.65935E+08
        -0.51752E+08
        -0.64451E+08
         0.31512E+08
         0.10112E+09
         0.69317E+08
         0.11062E+08
         0.98792E+08
         0.30769E+08
        -0.10962E+08
         0.95599E+07
         0.37858E+08
         0.61283E+07
         0.27019E+08
         0.18693E+08
        -0.11386E+08
         0.11450E+08
        -0.45601E+08
         0.11502E+08
         0.32327E+07
         0.56019E+07
        -0.57710E+07
        -0.42036E+08
         0.33214E+08
         0.77257E+07
         0.23530E+08
         0.19501E+08
        -0.49896E+07
         0.22641E+08
         0.41348E+08
         0.82298E+08
         0.79420E+08
         0.70445E+08
         0.47264E+08
        -0.11035E+08
        -0.26347E+08
        -0.37929E+08
        -0.47529E+08
        -0.81987E+08
        -0.55234E+08
        -0.38961E+08
        -0.50024E+08
        -0.56151E+08
        -0.51143E+08
        -0.30136E+07
         0.26729E+08
        -0.38867E+08
         0.87626E+08
         0.11468E+09
         0.14123E+09
         0.15985E+09
         0.16015E+09
         0.14988E+09
         0.14529E+09
         0.13709E+09
         0.88091E+08
         0.30308E+08
         0.13815E+08
         0.12934E+08
        -0.44992E+07
        -0.44296E+08
        -0.86437E+08
        -0.11057E+09
        -0.14327E+09
        -0.15630E+09
        -0.15012E+09
        -0.14790E+09
        -0.14033E+09
        -0.99852E+08
        -0.50763E+08
        -0.48001E+08
  
SCALARS                      stress_xz  double 1
LOOKUP_TABLE default
         0.50710E+05
        -0.35763E+06
        -0.11806E+07
         0.81108E+05
        -0.39281E+01
         0.13928E+01
         0.46573E+01
         0.93013E+00
        -0.33220E+07
        -0.22195E+07
         0.13930E+02
         0.12547E+02
         0.14164E+06
        -0.57794E+06
        -0.17181E+01
        -0.80483E+01
        -0.11859E+06
        -0.55463E+06
        -0.58136E+01
        -0.86584E+01
        -0.81280E+06
        -0.13695E+07
        -0.12970E+07
        -0.57816E+01
        -0.26661E+01
         0.46578E+01
        -0.14466E+07
        -0.11746E+07
        -0.10823E+02
        -0.85850E+01
         0.27747E+06
        -0.61634E+06
         0.58988E+05
         0.11019E+01
        -0.42581E+01
        -0.26233E+01
         0.82321E+06
         0.39677E+06
        -0.63219E+01
        -0.67311E+01
         0.16408E+07
         0.23248E+07
        -0.14260E+02
        -0.10516E+02
         0.17555E+07
         0.93495E+06
        -0.15660E+02
        -0.75377E+01
        -0.50389E+06
        -0.47314E+01
         0.12001E+07
        -0.13170E+01
        -0.52560E+06
        -0.92452E+01
         0.39264E+06
        -0.24456E+01
         0.17179E+07
         0.47128E+06
        -0.20950E+01
        -0.50639E+01
        -0.29628E+05
         0.81734E+06
         0.41902E+01
         0.28734E+01
        -0.21228E+06
        -0.42148E+00
        -0.71058E+06
         0.27723E+01
        -0.46748E+07
        -0.32035E+07
         0.17328E+02
         0.12567E+02
        -0.20603E+07
         0.91506E+01
         0.48554E+06
        -0.63300E+01
         0.15194E+07
        -0.12423E+01
         0.32211E+07
        -0.19274E+01
         0.42620E+07
         0.30265E+07
        -0.70636E+01
        -0.80784E+01
         0.26734E+07
        -0.86879E+01
         0.21289E+07
        -0.12508E+02
         0.13258E+07
        -0.79782E+01
         0.20870E+07
         0.15349E+07
        -0.34050E+01
         0.46695E+01
        -0.35087E+06
         0.54772E+01
        -0.96315E+06
         0.22998E+01
        -0.23126E+07
         0.56792E+01
        -0.34186E+07
        -0.23462E+07
         0.13095E+02
         0.13664E+02
        -0.83723E+07
        -0.92706E+07
         0.24196E+02
         0.23845E+02
        -0.82921E+07
         0.20671E+02
        -0.75575E+07
         0.15447E+02
        -0.54219E+07
         0.84890E+01
        -0.39393E+07
         0.90776E+00
        -0.14616E+07
        -0.32332E+01
         0.18831E+07
        -0.25867E+01
         0.44938E+07
        -0.25425E+01
         0.66770E+07
        -0.57334E+01
         0.89817E+07
        -0.10908E+02
         0.10915E+08
        -0.13017E+02
         0.11603E+08
        -0.12281E+02
         0.11052E+08
        -0.13355E+02
         0.10129E+08
        -0.17333E+02
         0.91099E+07
        -0.20439E+02
         0.80347E+07
        -0.19000E+02
         0.63892E+07
        -0.15442E+02
         0.37487E+07
        -0.72897E+01
         0.32136E+06
         0.13920E+01
        -0.20964E+07
         0.33795E+01
        -0.32812E+07
         0.55263E+01
        -0.49348E+07
         0.10815E+02
        -0.65064E+07
         0.17747E+02
        -0.85518E+07
         0.21322E+02
        -0.98251E+07
         0.21809E+02
        -0.87121E+06
         0.45365E+06
         0.53219E+06
        -0.10714E+07
         0.41487E+07
         0.32089E+07
         0.48453E+06
        -0.71172E+06
        -0.36711E+06
        -0.65330E+06
         0.35862E+06
         0.15527E+07
         0.32434E+07
        -0.10375E+07
        -0.12481E+07
         0.14259E+07
         0.11966E+07
        -0.55480E+06
        -0.86330E+06
        -0.92864E+06
        -0.50765E+07
        -0.54050E+07
        -0.48819E+07
        -0.15172E+07
         0.60830E+06
        -0.45330E+06
        -0.14564E+07
        -0.16331E+06
        -0.16710E+07
        -0.11489E+07
         0.12731E+07
         0.24987E+06
        -0.59990E+06
        -0.19399E+06
         0.61359E+07
         0.39095E+07
         0.35381E+07
        -0.24766E+07
        -0.14108E+07
        -0.30178E+07
        -0.62094E+07
        -0.57879E+07
        -0.57146E+07
        -0.42008E+07
        -0.30134E+07
        -0.23574E+07
         0.44275E+06
         0.18493E+07
         0.53478E+06
         0.16953E+07
         0.45285E+07
         0.38145E+07
         0.17911E+08
         0.18806E+08
         0.16808E+08
         0.14300E+08
         0.10647E+08
         0.54225E+07
        -0.32170E+06
        -0.38623E+07
        -0.58850E+07
        -0.10103E+08
        -0.16468E+08
        -0.20046E+08
        -0.18366E+08
        -0.17615E+08
        -0.18608E+08
        -0.18604E+08
        -0.16900E+08
        -0.14797E+08
        -0.74940E+07
         0.11847E+07
         0.45538E+07
         0.50765E+07
         0.85961E+07
         0.13726E+08
         0.17808E+08
         0.18718E+08
        -0.54777E+08
         0.16468E+08
        -0.31351E+08
        -0.91285E+08
         0.12335E+09
         0.14995E+09
         0.46621E+08
        -0.70602E+08
        -0.46763E+08
        -0.71031E+08
        -0.19547E+08
         0.25980E+08
         0.11064E+09
        -0.16390E+09
        -0.65018E+08
         0.14601E+09
         0.87740E+08
        -0.52552E+08
        -0.35366E+08
        -0.62109E+08
        -0.16817E+09
        -0.17020E+09
        -0.17220E+09
        -0.83827E+08
         0.47612E+08
         0.32058E+08
        -0.16747E+09
         0.23084E+08
        -0.58184E+08
        -0.79345E+08
         0.12109E+09
         0.78354E+08
        -0.78535E+08
        -0.67780E+08
         0.17250E+09
         0.15510E+09
         0.13909E+09
        -0.87265E+08
        -0.18705E+08
        -0.58042E+08
        -0.15320E+09
        -0.17281E+09
        -0.16787E+09
        -0.15454E+09
        -0.13248E+09
        -0.57638E+08
         0.92922E+08
         0.12806E+09
        -0.20362E+08
         0.20907E+08
         0.13426E+09
         0.16903E+09
         0.18897E+09
         0.18636E+09
         0.16065E+09
         0.13339E+09
         0.93888E+08
         0.40526E+08
        -0.10448E+08
        -0.37684E+08
        -0.50829E+08
        -0.87570E+08
        -0.15843E+09
        -0.18926E+09
        -0.18891E+09
        -0.18827E+09
        -0.19029E+09
        -0.18403E+09
        -0.16237E+09
        -0.14171E+09
        -0.74810E+08
         0.18975E+08
         0.46190E+08
         0.49070E+08
         0.82254E+08
         0.14540E+09
         0.18130E+09
         0.18213E+09
        -0.54842E+08
         0.16529E+08
        -0.31410E+08
        -0.91347E+08
         0.12328E+09
         0.14990E+09
         0.46918E+08
        -0.70358E+08
        -0.46815E+08
        -0.70776E+08
        -0.19151E+08
         0.26044E+08
         0.11067E+09
        -0.16386E+09
        -0.64920E+08
         0.14605E+09
         0.87933E+08
        -0.52407E+08
        -0.35349E+08
        -0.62000E+08
        -0.16814E+09
        -0.17019E+09
        -0.17219E+09
        -0.83831E+08
         0.47720E+08
         0.32112E+08
        -0.16747E+09
         0.22651E+08
        -0.58593E+08
        -0.79395E+08
         0.12126E+09
         0.78344E+08
        -0.78208E+08
        -0.67811E+08
         0.17252E+09
         0.15507E+09
         0.13908E+09
        -0.87277E+08
        -0.18845E+08
        -0.58148E+08
        -0.15320E+09
        -0.17282E+09
        -0.16786E+09
        -0.15452E+09
        -0.13246E+09
        -0.57611E+08
         0.92903E+08
         0.12811E+09
        -0.20213E+08
         0.20863E+08
         0.13425E+09
         0.16902E+09
         0.18897E+09
         0.18636E+09
         0.16064E+09
         0.13339E+09
         0.93873E+08
         0.40526E+08
        -0.10463E+08
        -0.37717E+08
        -0.50798E+08
        -0.87559E+08
        -0.15843E+09
        -0.18925E+09
        -0.18891E+09
        -0.18827E+09
        -0.19030E+09
        -0.18403E+09
        -0.16236E+09
        -0.14171E+09
        -0.74793E+08
         0.18985E+08
         0.46161E+08
         0.49054E+08
         0.82219E+08
         0.14540E+09
         0.18130E+09
         0.18214E+09
        -0.54906E+08
         0.16589E+08
        -0.31469E+08
        -0.91408E+08
         0.12321E+09
         0.14984E+09
         0.47216E+08
        -0.70115E+08
        -0.46863E+08
        -0.70521E+08
        -0.18756E+08
         0.26108E+08
         0.11070E+09
        -0.16383E+09
        -0.64824E+08
         0.14609E+09
         0.88129E+08
        -0.52260E+08
        -0.35331E+08
        -0.61894E+08
        -0.16811E+09
        -0.17018E+09
        -0.17219E+09
        -0.83835E+08
         0.47834E+08
         0.32170E+08
        -0.16747E+09
         0.22222E+08
        -0.59005E+08
        -0.79445E+08
         0.12145E+09
         0.78338E+08
        -0.77879E+08
        -0.67841E+08
         0.17253E+09
         0.15504E+09
         0.13907E+09
        -0.87289E+08
        -0.18983E+08
        -0.58255E+08
        -0.15320E+09
        -0.17284E+09
        -0.16785E+09
        -0.15449E+09
        -0.13243E+09
        -0.57585E+08
         0.92885E+08
         0.12817E+09
        -0.20061E+08
         0.20817E+08
         0.13423E+09
         0.16902E+09
         0.18897E+09
         0.18635E+09
         0.16063E+09
         0.13339E+09
         0.93858E+08
         0.40526E+08
        -0.10479E+08
        -0.37749E+08
        -0.50767E+08
        -0.87548E+08
        -0.15843E+09
        -0.18925E+09
        -0.18891E+09
        -0.18827E+09
        -0.19030E+09
        -0.18403E+09
        -0.16235E+09
        -0.14171E+09
        -0.74776E+08
         0.18995E+08
         0.46132E+08
         0.49037E+08
         0.82184E+08
         0.14540E+09
         0.18131E+09
         0.18215E+09
        -0.54970E+08
         0.16651E+08
        -0.31527E+08
        -0.91468E+08
         0.12315E+09
         0.14978E+09
         0.47510E+08
        -0.69873E+08
        -0.46905E+08
        -0.70261E+08
        -0.18362E+08
         0.26173E+08
         0.11072E+09
        -0.16379E+09
        -0.64726E+08
         0.14614E+09
         0.88334E+08
        -0.52112E+08
        -0.35316E+08
        -0.61784E+08
        -0.16809E+09
        -0.17017E+09
        -0.17219E+09
        -0.83840E+08
         0.47971E+08
         0.32241E+08
        -0.16746E+09
         0.21807E+08
        -0.59415E+08
        -0.79492E+08
         0.12164E+09
         0.78345E+08
        -0.77548E+08
        -0.67872E+08
         0.17254E+09
         0.15501E+09
         0.13905E+09
        -0.87300E+08
        -0.19120E+08
        -0.58357E+08
        -0.15320E+09
        -0.17286E+09
        -0.16784E+09
        -0.15446E+09
        -0.13240E+09
        -0.57555E+08
         0.92865E+08
         0.12822E+09
        -0.19908E+08
         0.20770E+08
         0.13422E+09
         0.16902E+09
         0.18897E+09
         0.18634E+09
         0.16061E+09
         0.13339E+09
         0.93843E+08
         0.40526E+08
        -0.10495E+08
        -0.37782E+08
        -0.50736E+08
        -0.87538E+08
        -0.15843E+09
        -0.18925E+09
        -0.18891E+09
        -0.18826E+09
        -0.19030E+09
        -0.18403E+09
        -0.16234E+09
        -0.14171E+09
        -0.74759E+08
         0.19004E+08
         0.46103E+08
         0.49021E+08
         0.82150E+08
         0.14540E+09
         0.18131E+09
         0.18215E+09
        -0.55033E+08
         0.16714E+08
        -0.31586E+08
        -0.91527E+08
         0.12308E+09
         0.14973E+09
         0.47808E+08
        -0.69630E+08
        -0.46941E+08
        -0.69995E+08
        -0.17968E+08
         0.26237E+08
         0.11075E+09
        -0.16375E+09
        -0.64629E+08
         0.14618E+09
         0.88548E+08
        -0.51964E+08
        -0.35297E+08
        -0.61673E+08
        -0.16806E+09
        -0.17017E+09
        -0.17219E+09
        -0.83845E+08
         0.48128E+08
         0.32323E+08
        -0.16746E+09
         0.21404E+08
        -0.59824E+08
        -0.79536E+08
         0.12185E+09
         0.78365E+08
        -0.77217E+08
        -0.67902E+08
         0.17256E+09
         0.15498E+09
         0.13904E+09
        -0.87311E+08
        -0.19254E+08
        -0.58457E+08
        -0.15319E+09
        -0.17288E+09
        -0.16784E+09
        -0.15442E+09
        -0.13235E+09
        -0.57519E+08
         0.92844E+08
         0.12827E+09
        -0.19757E+08
         0.20725E+08
         0.13420E+09
         0.16902E+09
         0.18896E+09
         0.18633E+09
         0.16060E+09
         0.13339E+09
         0.93829E+08
         0.40526E+08
        -0.10511E+08
        -0.37814E+08
        -0.50705E+08
        -0.87527E+08
        -0.15843E+09
        -0.18925E+09
        -0.18891E+09
        -0.18826E+09
        -0.19031E+09
        -0.18403E+09
        -0.16232E+09
        -0.14170E+09
        -0.74741E+08
         0.19014E+08
         0.46074E+08
         0.49005E+08
         0.82115E+08
         0.14539E+09
         0.18131E+09
         0.18216E+09
        -0.55095E+08
         0.16781E+08
        -0.31637E+08
        -0.91586E+08
         0.12301E+09
         0.14967E+09
         0.48106E+08
        -0.69388E+08
        -0.46976E+08
        -0.69734E+08
        -0.17573E+08
         0.26301E+08
         0.11077E+09
        -0.16371E+09
        -0.64532E+08
         0.14623E+09
         0.88762E+08
        -0.51816E+08
        -0.35277E+08
        -0.61566E+08
        -0.16803E+09
        -0.17016E+09
        -0.17219E+09
        -0.83852E+08
         0.48285E+08
         0.32407E+08
        -0.16745E+09
         0.21005E+08
        -0.60235E+08
        -0.79587E+08
         0.12206E+09
         0.78382E+08
        -0.76881E+08
        -0.67929E+08
         0.17257E+09
         0.15495E+09
         0.13902E+09
        -0.87320E+08
        -0.19388E+08
        -0.58554E+08
        -0.15319E+09
        -0.17290E+09
        -0.16784E+09
        -0.15438E+09
        -0.13230E+09
        -0.57485E+08
         0.92818E+08
         0.12831E+09
        -0.19600E+08
         0.20685E+08
         0.13419E+09
         0.16902E+09
         0.18896E+09
         0.18633E+09
         0.16059E+09
         0.13339E+09
         0.93814E+08
         0.40527E+08
        -0.10527E+08
        -0.37847E+08
        -0.50674E+08
        -0.87516E+08
        -0.15843E+09
        -0.18924E+09
        -0.18891E+09
        -0.18826E+09
        -0.19031E+09
        -0.18403E+09
        -0.16231E+09
        -0.14170E+09
        -0.74724E+08
         0.19023E+08
         0.46044E+08
         0.48988E+08
         0.82080E+08
         0.14539E+09
         0.18131E+09
         0.18217E+09
        -0.55151E+08
         0.16862E+08
        -0.31678E+08
        -0.91643E+08
         0.12294E+09
         0.14962E+09
         0.48409E+08
        -0.69152E+08
        -0.47013E+08
        -0.69487E+08
        -0.17176E+08
         0.26364E+08
         0.11079E+09
        -0.16367E+09
        -0.64433E+08
         0.14627E+09
         0.88968E+08
        -0.51667E+08
        -0.35261E+08
        -0.61462E+08
        -0.16800E+09
        -0.17016E+09
        -0.17218E+09
        -0.83862E+08
         0.48424E+08
         0.32481E+08
        -0.16745E+09
         0.20596E+08
        -0.60650E+08
        -0.79646E+08
         0.12225E+09
         0.78385E+08
        -0.76539E+08
        -0.67948E+08
         0.17259E+09
         0.15493E+09
         0.13901E+09
        -0.87327E+08
        -0.19522E+08
        -0.58654E+08
        -0.15318E+09
        -0.17293E+09
        -0.16784E+09
        -0.15434E+09
        -0.13225E+09
        -0.57452E+08
         0.92778E+08
         0.12834E+09
        -0.19431E+08
         0.20658E+08
         0.13418E+09
         0.16902E+09
         0.18896E+09
         0.18632E+09
         0.16057E+09
         0.13339E+09
         0.93799E+08
         0.40527E+08
        -0.10543E+08
        -0.37879E+08
        -0.50643E+08
        -0.87506E+08
        -0.15843E+09
        -0.18924E+09
        -0.18891E+09
        -0.18825E+09
        -0.19032E+09
        -0.18403E+09
        -0.16229E+09
        -0.14169E+09
        -0.74707E+08
         0.19030E+08
         0.46012E+08
         0.48971E+08
         0.82048E+08
         0.14539E+09
         0.18132E+09
         0.18218E+09
        -0.55205E+08
         0.16947E+08
        -0.31712E+08
        -0.91698E+08
         0.12288E+09
         0.14956E+09
         0.48716E+08
        -0.68918E+08
        -0.47051E+08
        -0.69247E+08
        -0.16778E+08
         0.26428E+08
         0.11082E+09
        -0.16363E+09
        -0.64335E+08
         0.14632E+09
         0.89169E+08
        -0.51516E+08
        -0.35242E+08
        -0.61364E+08
        -0.16797E+09
        -0.17015E+09
        -0.17218E+09
        -0.83870E+08
         0.48554E+08
         0.32550E+08
        -0.16744E+09
         0.20185E+08
        -0.61071E+08
        -0.79710E+08
         0.12244E+09
         0.78380E+08
        -0.76193E+08
        -0.67964E+08
         0.17260E+09
         0.15490E+09
         0.13899E+09
        -0.87333E+08
        -0.19656E+08
        -0.58752E+08
        -0.15317E+09
        -0.17295E+09
        -0.16783E+09
        -0.15430E+09
        -0.13219E+09
        -0.57422E+08
         0.92732E+08
         0.12836E+09
        -0.19256E+08
         0.20638E+08
         0.13417E+09
         0.16902E+09
         0.18896E+09
         0.18631E+09
         0.16056E+09
         0.13339E+09
         0.93784E+08
         0.40527E+08
        -0.10558E+08
        -0.37912E+08
        -0.50612E+08
        -0.87496E+08
        -0.15842E+09
        -0.18923E+09
        -0.18891E+09
        -0.18825E+09
        -0.19032E+09
        -0.18403E+09
        -0.16228E+09
        -0.14169E+09
        -0.74690E+08
         0.19037E+08
         0.45980E+08
         0.48955E+08
         0.82015E+08
         0.14539E+09
         0.18132E+09
         0.18218E+09
        -0.55258E+08
         0.17034E+08
        -0.31746E+08
        -0.91753E+08
         0.12281E+09
         0.14950E+09
         0.49021E+08
        -0.68685E+08
        -0.47090E+08
        -0.69010E+08
        -0.16382E+08
         0.26491E+08
         0.11084E+09
        -0.16358E+09
        -0.64236E+08
         0.14636E+09
         0.89370E+08
        -0.51367E+08
        -0.35223E+08
        -0.61263E+08
        -0.16794E+09
        -0.17015E+09
        -0.17218E+09
        -0.83882E+08
         0.48683E+08
         0.32619E+08
        -0.16743E+09
         0.19774E+08
        -0.61492E+08
        -0.79773E+08
         0.12263E+09
         0.78375E+08
        -0.75847E+08
        -0.67981E+08
         0.17262E+09
         0.15487E+09
         0.13898E+09
        -0.87339E+08
        -0.19789E+08
        -0.58851E+08
        -0.15316E+09
        -0.17297E+09
        -0.16783E+09
        -0.15426E+09
        -0.13214E+09
        -0.57392E+08
         0.92688E+08
         0.12838E+09
        -0.19081E+08
         0.20620E+08
         0.13416E+09
         0.16902E+09
         0.18895E+09
         0.18630E+09
         0.16055E+09
         0.13339E+09
         0.93769E+08
         0.40527E+08
        -0.10574E+08
        -0.37944E+08
        -0.50580E+08
        -0.87486E+08
        -0.15842E+09
        -0.18923E+09
        -0.18891E+09
        -0.18825E+09
        -0.19033E+09
        -0.18403E+09
        -0.16227E+09
        -0.14168E+09
        -0.74672E+08
         0.19045E+08
         0.45947E+08
         0.48938E+08
         0.81983E+08
         0.14539E+09
         0.18132E+09
         0.18219E+09
        -0.55313E+08
         0.17121E+08
        -0.31779E+08
        -0.91809E+08
         0.12275E+09
         0.14945E+09
         0.49328E+08
        -0.68451E+08
        -0.47129E+08
        -0.68774E+08
        -0.15985E+08
         0.26555E+08
         0.11086E+09
        -0.16354E+09
        -0.64138E+08
         0.14640E+09
         0.89571E+08
        -0.51219E+08
        -0.35204E+08
        -0.61164E+08
        -0.16791E+09
        -0.17014E+09
        -0.17218E+09
        -0.83894E+08
         0.48813E+08
         0.32688E+08
        -0.16742E+09
         0.19366E+08
        -0.61911E+08
        -0.79836E+08
         0.12282E+09
         0.78369E+08
        -0.75502E+08
        -0.67998E+08
         0.17263E+09
         0.15484E+09
         0.13896E+09
        -0.87344E+08
        -0.19922E+08
        -0.58950E+08
        -0.15315E+09
        -0.17300E+09
        -0.16783E+09
        -0.15421E+09
        -0.13209E+09
        -0.57360E+08
         0.92641E+08
         0.12840E+09
        -0.18908E+08
         0.20598E+08
         0.13415E+09
         0.16901E+09
         0.18895E+09
         0.18630E+09
         0.16053E+09
         0.13339E+09
         0.93754E+08
         0.40527E+08
        -0.10590E+08
        -0.37976E+08
        -0.50549E+08
        -0.87476E+08
        -0.15842E+09
        -0.18923E+09
        -0.18891E+09
        -0.18824E+09
        -0.19033E+09
        -0.18403E+09
        -0.16225E+09
        -0.14167E+09
        -0.74655E+08
         0.19051E+08
         0.45915E+08
         0.48921E+08
         0.81950E+08
         0.14539E+09
         0.18133E+09
         0.18220E+09
        -0.55366E+08
         0.17207E+08
        -0.31815E+08
        -0.91863E+08
         0.12268E+09
         0.14939E+09
         0.49632E+08
        -0.68219E+08
        -0.47168E+08
        -0.68539E+08
        -0.15588E+08
         0.26619E+08
         0.11088E+09
        -0.16349E+09
        -0.64039E+08
         0.14645E+09
         0.89772E+08
        -0.51071E+08
        -0.35189E+08
        -0.61062E+08
        -0.16788E+09
        -0.17014E+09
        -0.17217E+09
        -0.83905E+08
         0.48941E+08
         0.32756E+08
        -0.16742E+09
         0.18957E+08
        -0.62329E+08
        -0.79897E+08
         0.12301E+09
         0.78364E+08
        -0.75157E+08
        -0.68014E+08
         0.17264E+09
         0.15481E+09
         0.13895E+09
        -0.87350E+08
        -0.20054E+08
        -0.59048E+08
        -0.15314E+09
        -0.17302E+09
        -0.16783E+09
        -0.15417E+09
        -0.13204E+09
        -0.57330E+08
         0.92595E+08
         0.12842E+09
        -0.18733E+08
         0.20578E+08
         0.13414E+09
         0.16901E+09
         0.18895E+09
         0.18629E+09
         0.16052E+09
         0.13339E+09
         0.93739E+08
         0.40528E+08
        -0.10605E+08
        -0.38009E+08
        -0.50518E+08
        -0.87466E+08
        -0.15842E+09
        -0.18922E+09
        -0.18890E+09
        -0.18824E+09
        -0.19033E+09
        -0.18403E+09
        -0.16224E+09
        -0.14167E+09
        -0.74638E+08
         0.19058E+08
         0.45882E+08
         0.48904E+08
         0.81918E+08
         0.14539E+09
         0.18133E+09
         0.18221E+09
        -0.55420E+08
         0.17293E+08
        -0.31847E+08
        -0.91918E+08
         0.12262E+09
         0.14933E+09
         0.49938E+08
        -0.67986E+08
        -0.47206E+08
        -0.68306E+08
        -0.15192E+08
         0.26683E+08
         0.11091E+09
        -0.16345E+09
        -0.63941E+08
         0.14649E+09
         0.89973E+08
        -0.50922E+08
        -0.35171E+08
        -0.60963E+08
        -0.16785E+09
        -0.17013E+09
        -0.17217E+09
        -0.83918E+08
         0.49068E+08
         0.32826E+08
        -0.16741E+09
         0.18550E+08
        -0.62743E+08
        -0.79962E+08
         0.12320E+09
         0.78358E+08
        -0.74809E+08
        -0.68030E+08
         0.17266E+09
         0.15478E+09
         0.13893E+09
        -0.87354E+08
        -0.20187E+08
        -0.59148E+08
        -0.15314E+09
        -0.17304E+09
        -0.16783E+09
        -0.15413E+09
        -0.13199E+09
        -0.57301E+08
         0.92551E+08
         0.12844E+09
        -0.18557E+08
         0.20559E+08
         0.13413E+09
         0.16901E+09
         0.18895E+09
         0.18628E+09
         0.16051E+09
         0.13339E+09
         0.93724E+08
         0.40528E+08
        -0.10621E+08
        -0.38041E+08
        -0.50487E+08
        -0.87456E+08
        -0.15842E+09
        -0.18922E+09
        -0.18890E+09
        -0.18824E+09
        -0.19034E+09
        -0.18403E+09
        -0.16222E+09
        -0.14166E+09
        -0.74621E+08
         0.19065E+08
         0.45850E+08
         0.48887E+08
         0.81885E+08
         0.14538E+09
         0.18133E+09
         0.18221E+09
        -0.55474E+08
         0.17380E+08
        -0.31880E+08
        -0.91972E+08
         0.12255E+09
         0.14928E+09
         0.50243E+08
        -0.67754E+08
        -0.47243E+08
        -0.68073E+08
        -0.14797E+08
         0.26746E+08
         0.11093E+09
        -0.16340E+09
        -0.63842E+08
         0.14653E+09
         0.90173E+08
        -0.50773E+08
        -0.35153E+08
        -0.60862E+08
        -0.16782E+09
        -0.17013E+09
        -0.17217E+09
        -0.83930E+08
         0.49194E+08
         0.32894E+08
        -0.16740E+09
         0.18143E+08
        -0.63161E+08
        -0.80024E+08
         0.12339E+09
         0.78352E+08
        -0.74462E+08
        -0.68047E+08
         0.17267E+09
         0.15475E+09
         0.13892E+09
        -0.87359E+08
        -0.20319E+08
        -0.59246E+08
        -0.15313E+09
        -0.17306E+09
        -0.16783E+09
        -0.15409E+09
        -0.13194E+09
        -0.57269E+08
         0.92504E+08
         0.12846E+09
        -0.18381E+08
         0.20538E+08
         0.13412E+09
         0.16901E+09
         0.18894E+09
         0.18627E+09
         0.16049E+09
         0.13339E+09
         0.93709E+08
         0.40528E+08
        -0.10636E+08
        -0.38073E+08
        -0.50456E+08
        -0.87446E+08
        -0.15841E+09
        -0.18922E+09
        -0.18890E+09
        -0.18824E+09
        -0.19034E+09
        -0.18403E+09
        -0.16221E+09
        -0.14166E+09
        -0.74604E+08
         0.19072E+08
         0.45818E+08
         0.48870E+08
         0.81853E+08
         0.14538E+09
         0.18134E+09
         0.18222E+09
        -0.55528E+08
         0.17466E+08
        -0.31913E+08
        -0.92026E+08
         0.12249E+09
         0.14922E+09
         0.50545E+08
        -0.67522E+08
        -0.47281E+08
        -0.67841E+08
        -0.14403E+08
         0.26809E+08
         0.11095E+09
        -0.16336E+09
        -0.63744E+08
         0.14657E+09
         0.90373E+08
        -0.50624E+08
        -0.35139E+08
        -0.60764E+08
        -0.16779E+09
        -0.17012E+09
        -0.17217E+09
        -0.83942E+08
         0.49320E+08
         0.32963E+08
        -0.16739E+09
         0.17738E+08
        -0.63579E+08
        -0.80085E+08
         0.12358E+09
         0.78347E+08
        -0.74115E+08
        -0.68063E+08
         0.17269E+09
         0.15472E+09
         0.13890E+09
        -0.87361E+08
        -0.20450E+08
        -0.59347E+08
        -0.15312E+09
        -0.17309E+09
        -0.16783E+09
        -0.15405E+09
        -0.13189E+09
        -0.57239E+08
         0.92457E+08
         0.12848E+09
        -0.18205E+08
         0.20518E+08
         0.13411E+09
         0.16901E+09
         0.18894E+09
         0.18627E+09
         0.16048E+09
         0.13339E+09
         0.93694E+08
         0.40528E+08
        -0.10652E+08
        -0.38104E+08
        -0.50424E+08
        -0.87437E+08
        -0.15841E+09
        -0.18921E+09
        -0.18890E+09
        -0.18823E+09
        -0.19035E+09
        -0.18403E+09
        -0.16220E+09
        -0.14165E+09
        -0.74586E+08
         0.19079E+08
         0.45785E+08
         0.48854E+08
         0.81820E+08
         0.14538E+09
         0.18134E+09
         0.18223E+09
        -0.55583E+08
         0.17551E+08
        -0.31946E+08
        -0.92081E+08
         0.12242E+09
         0.14916E+09
         0.50850E+08
        -0.67291E+08
        -0.47319E+08
        -0.67611E+08
        -0.14009E+08
         0.26874E+08
         0.11097E+09
        -0.16331E+09
        -0.63645E+08
         0.14662E+09
         0.90573E+08
        -0.50476E+08
        -0.35121E+08
        -0.60662E+08
        -0.16776E+09
        -0.17012E+09
        -0.17216E+09
        -0.83955E+08
         0.49445E+08
         0.33031E+08
        -0.16739E+09
         0.17333E+08
        -0.63995E+08
        -0.80145E+08
         0.12377E+09
         0.78340E+08
        -0.73767E+08
        -0.68079E+08
         0.17270E+09
         0.15470E+09
         0.13889E+09
        -0.87364E+08
        -0.20581E+08
        -0.59446E+08
        -0.15311E+09
        -0.17311E+09
        -0.16783E+09
        -0.15401E+09
        -0.13183E+09
        -0.57209E+08
         0.92412E+08
         0.12850E+09
        -0.18027E+08
         0.20498E+08
         0.13410E+09
         0.16901E+09
         0.18894E+09
         0.18626E+09
         0.16047E+09
         0.13339E+09
         0.93679E+08
         0.40528E+08
        -0.10667E+08
        -0.38136E+08
        -0.50393E+08
        -0.87427E+08
        -0.15841E+09
        -0.18921E+09
        -0.18890E+09
        -0.18823E+09
        -0.19035E+09
        -0.18403E+09
        -0.16218E+09
        -0.14165E+09
        -0.74569E+08
         0.19085E+08
         0.45753E+08
         0.48837E+08
         0.81788E+08
         0.14538E+09
         0.18134E+09
         0.18223E+09
        -0.55637E+08
         0.17638E+08
        -0.31979E+08
        -0.92134E+08
         0.12235E+09
         0.14911E+09
         0.51152E+08
        -0.67059E+08
        -0.47356E+08
        -0.67382E+08
        -0.13614E+08
         0.26938E+08
         0.11099E+09
        -0.16327E+09
        -0.63547E+08
         0.14666E+09
         0.90773E+08
        -0.50329E+08
        -0.35104E+08
        -0.60563E+08
        -0.16773E+09
        -0.17011E+09
        -0.17216E+09
        -0.83967E+08
         0.49567E+08
         0.33100E+08
        -0.16738E+09
         0.16928E+08
        -0.64412E+08
        -0.80206E+08
         0.12396E+09
         0.78334E+08
        -0.73420E+08
        -0.68095E+08
         0.17271E+09
         0.15467E+09
         0.13887E+09
        -0.87366E+08
        -0.20713E+08
        -0.59545E+08
        -0.15310E+09
        -0.17313E+09
        -0.16783E+09
        -0.15397E+09
        -0.13178E+09
        -0.57177E+08
         0.92366E+08
         0.12853E+09
        -0.17850E+08
         0.20477E+08
         0.13409E+09
         0.16900E+09
         0.18894E+09
         0.18625E+09
         0.16045E+09
         0.13339E+09
         0.93664E+08
         0.40528E+08
        -0.10683E+08
        -0.38167E+08
        -0.50362E+08
        -0.87418E+08
        -0.15841E+09
        -0.18920E+09
        -0.18890E+09
        -0.18823E+09
        -0.19036E+09
        -0.18403E+09
        -0.16217E+09
        -0.14164E+09
        -0.74552E+08
         0.19092E+08
         0.45720E+08
         0.48821E+08
         0.81756E+08
         0.14538E+09
         0.18134E+09
         0.18224E+09
        -0.55691E+08
         0.17724E+08
        -0.32012E+08
        -0.92187E+08
         0.12229E+09
         0.14905E+09
         0.51456E+08
        -0.66828E+08
        -0.47392E+08
        -0.67151E+08
        -0.13220E+08
         0.27002E+08
         0.11102E+09
        -0.16322E+09
        -0.63448E+08
         0.14670E+09
         0.90974E+08
        -0.50182E+08
        -0.35088E+08
        -0.60461E+08
        -0.16770E+09
        -0.17011E+09
        -0.17216E+09
        -0.83981E+08
         0.49688E+08
         0.33167E+08
        -0.16737E+09
         0.16519E+08
        -0.64824E+08
        -0.80266E+08
         0.12415E+09
         0.78329E+08
        -0.73073E+08
        -0.68114E+08
         0.17273E+09
         0.15464E+09
         0.13886E+09
        -0.87366E+08
        -0.20846E+08
        -0.59646E+08
        -0.15310E+09
        -0.17315E+09
        -0.16783E+09
        -0.15392E+09
        -0.13173E+09
        -0.57147E+08
         0.92320E+08
         0.12855E+09
        -0.17674E+08
         0.20456E+08
         0.13408E+09
         0.16900E+09
         0.18894E+09
         0.18625E+09
         0.16044E+09
         0.13339E+09
         0.93649E+08
         0.40529E+08
        -0.10698E+08
        -0.38199E+08
        -0.50331E+08
        -0.87408E+08
        -0.15840E+09
        -0.18920E+09
        -0.18890E+09
        -0.18822E+09
        -0.19036E+09
        -0.18403E+09
        -0.16215E+09
        -0.14164E+09
        -0.74534E+08
         0.19099E+08
         0.45688E+08
         0.48804E+08
         0.81723E+08
         0.14538E+09
         0.18135E+09
         0.18225E+09
        -0.55746E+08
         0.17809E+08
        -0.32044E+08
        -0.92241E+08
         0.12222E+09
         0.14899E+09
         0.51757E+08
        -0.66599E+08
        -0.47425E+08
        -0.66914E+08
        -0.12827E+08
         0.27066E+08
         0.11104E+09
        -0.16318E+09
        -0.63349E+08
         0.14674E+09
         0.91172E+08
        -0.50034E+08
        -0.35076E+08
        -0.60364E+08
        -0.16767E+09
        -0.17010E+09
        -0.17216E+09
        -0.83992E+08
         0.49800E+08
         0.33238E+08
        -0.16736E+09
         0.16101E+08
        -0.65239E+08
        -0.80331E+08
         0.12434E+09
         0.78322E+08
        -0.72725E+08
        -0.68130E+08
         0.17274E+09
         0.15461E+09
         0.13884E+09
        -0.87364E+08
        -0.20983E+08
        -0.59746E+08
        -0.15309E+09
        -0.17317E+09
        -0.16783E+09
        -0.15388E+09
        -0.13168E+09
        -0.57116E+08
         0.92275E+08
         0.12857E+09
        -0.17499E+08
         0.20435E+08
         0.13407E+09
         0.16900E+09
         0.18893E+09
         0.18624E+09
         0.16043E+09
         0.13339E+09
         0.93635E+08
         0.40529E+08
        -0.10713E+08
        -0.38231E+08
        -0.50300E+08
        -0.87399E+08
        -0.15840E+09
        -0.18920E+09
        -0.18890E+09
        -0.18822E+09
        -0.19036E+09
        -0.18403E+09
        -0.16214E+09
        -0.14163E+09
        -0.74517E+08
         0.19105E+08
         0.45655E+08
         0.48787E+08
         0.81691E+08
         0.14538E+09
         0.18135E+09
         0.18226E+09
        -0.55800E+08
         0.17895E+08
        -0.32076E+08
        -0.92293E+08
         0.12216E+09
         0.14893E+09
         0.52060E+08
        -0.66368E+08
        -0.47454E+08
        -0.66672E+08
        -0.12434E+08
         0.27130E+08
         0.11106E+09
        -0.16313E+09
        -0.63248E+08
         0.14678E+09
         0.91369E+08
        -0.49886E+08
        -0.35060E+08
        -0.60264E+08
        -0.16764E+09
        -0.17010E+09
        -0.17215E+09
        -0.84006E+08
         0.49904E+08
         0.33306E+08
        -0.16735E+09
         0.15669E+08
        -0.65654E+08
        -0.80392E+08
         0.12453E+09
         0.78316E+08
        -0.72376E+08
        -0.68147E+08
         0.17276E+09
         0.15458E+09
         0.13883E+09
        -0.87358E+08
        -0.21124E+08
        -0.59849E+08
        -0.15307E+09
        -0.17319E+09
        -0.16783E+09
        -0.15384E+09
        -0.13163E+09
        -0.57086E+08
         0.92228E+08
         0.12859E+09
        -0.17321E+08
         0.20415E+08
         0.13406E+09
         0.16900E+09
         0.18893E+09
         0.18623E+09
         0.16041E+09
         0.13339E+09
         0.93620E+08
         0.40530E+08
        -0.10728E+08
        -0.38262E+08
        -0.50270E+08
        -0.87390E+08
        -0.15840E+09
        -0.18920E+09
        -0.18890E+09
        -0.18822E+09
        -0.19037E+09
        -0.18403E+09
        -0.16212E+09
        -0.14162E+09
        -0.74500E+08
         0.19112E+08
         0.45623E+08
         0.48770E+08
         0.81659E+08
         0.14538E+09
         0.18135E+09
         0.18226E+09
        -0.55854E+08
         0.17980E+08
        -0.32109E+08
        -0.92347E+08
         0.12209E+09
         0.14888E+09
         0.52359E+08
        -0.66140E+08
        -0.47482E+08
        -0.66430E+08
        -0.12045E+08
         0.27192E+08
         0.11108E+09
        -0.16309E+09
        -0.63148E+08
         0.14683E+09
         0.91566E+08
        -0.49740E+08
        -0.35043E+08
        -0.60167E+08
        -0.16761E+09
        -0.17009E+09
        -0.17215E+09
        -0.84019E+08
         0.50004E+08
         0.33373E+08
        -0.16734E+09
         0.15237E+08
        -0.66065E+08
        -0.80453E+08
         0.12472E+09
         0.78309E+08
        -0.72031E+08
        -0.68165E+08
         0.17277E+09
         0.15455E+09
         0.13881E+09
        -0.87350E+08
        -0.21268E+08
        -0.59950E+08
        -0.15306E+09
        -0.17321E+09
        -0.16782E+09
        -0.15380E+09
        -0.13157E+09
        -0.57056E+08
         0.92184E+08
         0.12861E+09
        -0.17146E+08
         0.20392E+08
         0.13405E+09
         0.16899E+09
         0.18893E+09
         0.18622E+09
         0.16040E+09
         0.13339E+09
         0.93605E+08
         0.40529E+08
        -0.10743E+08
        -0.38292E+08
        -0.50240E+08
        -0.87381E+08
        -0.15839E+09
        -0.18919E+09
        -0.18890E+09
        -0.18822E+09
        -0.19037E+09
        -0.18403E+09
        -0.16211E+09
        -0.14162E+09
        -0.74482E+08
         0.19119E+08
         0.45591E+08
         0.48754E+08
         0.81627E+08
         0.14538E+09
         0.18135E+09
         0.18227E+09
        -0.53793E+08
         0.17967E+08
        -0.32237E+08
        -0.92665E+08
         0.11579E+09
         0.13566E+09
         0.52769E+08
        -0.62697E+08
        -0.45612E+08
        -0.62806E+08
        -0.11737E+08
         0.26645E+08
         0.10780E+09
        -0.14468E+09
        -0.61786E+08
         0.13770E+09
         0.92012E+08
        -0.49751E+08
        -0.35115E+08
        -0.60220E+08
        -0.16359E+09
        -0.16539E+09
        -0.16764E+09
        -0.84262E+08
         0.46475E+08
         0.33528E+08
        -0.14870E+09
         0.14872E+08
        -0.66619E+08
        -0.72297E+08
         0.12109E+09
         0.78518E+08
        -0.71924E+08
        -0.68382E+08
         0.16639E+09
         0.14222E+09
         0.13186E+09
        -0.85040E+08
        -0.20552E+08
        -0.57318E+08
        -0.14917E+09
        -0.16844E+09
        -0.16362E+09
        -0.14865E+09
        -0.12562E+09
        -0.55184E+08
         0.86720E+08
         0.11966E+09
        -0.15662E+08
         0.18750E+08
         0.12899E+09
         0.15779E+09
         0.18765E+09
         0.18507E+09
         0.15946E+09
         0.13265E+09
         0.93107E+08
         0.40323E+08
        -0.10702E+08
        -0.38059E+08
        -0.49851E+08
        -0.86791E+08
        -0.15737E+09
        -0.18809E+09
        -0.18761E+09
        -0.18694E+09
        -0.18929E+09
        -0.18308E+09
        -0.16130E+09
        -0.14092E+09
        -0.74010E+08
         0.19018E+08
         0.45290E+08
         0.48431E+08
         0.81112E+08
         0.14447E+09
         0.18031E+09
         0.18120E+09
        -0.26305E+08
         0.58853E+07
        -0.10552E+08
        -0.33415E+08
         0.50421E+08
         0.47423E+08
         0.16347E+08
        -0.27627E+08
        -0.16164E+08
        -0.27184E+08
        -0.32209E+07
         0.15758E+08
         0.57466E+08
        -0.45575E+08
        -0.37451E+08
         0.55270E+08
         0.30672E+08
        -0.18888E+08
        -0.11171E+08
        -0.18654E+08
        -0.93797E+08
        -0.90369E+08
        -0.92974E+08
        -0.28208E+08
         0.14933E+08
         0.11792E+08
        -0.47039E+08
         0.41621E+07
        -0.18934E+08
        -0.23244E+08
         0.43039E+08
         0.26537E+08
        -0.25726E+08
        -0.23660E+08
         0.81841E+08
         0.51801E+08
         0.57801E+08
        -0.47230E+08
        -0.99329E+07
        -0.26235E+08
        -0.84103E+08
        -0.92147E+08
        -0.92571E+08
        -0.75752E+08
        -0.57267E+08
        -0.28460E+08
         0.35614E+08
         0.45940E+08
        -0.51946E+07
         0.68394E+07
         0.63045E+08
         0.62010E+08
         0.14923E+09
         0.14989E+09
         0.13052E+09
         0.10960E+09
         0.77732E+08
         0.33910E+08
        -0.88873E+07
        -0.30437E+08
        -0.39310E+08
        -0.69470E+08
        -0.12656E+09
        -0.15388E+09
        -0.14928E+09
        -0.14915E+09
        -0.15545E+09
        -0.15269E+09
        -0.13558E+09
        -0.11853E+09
        -0.59938E+08
         0.15551E+08
         0.36749E+08
         0.39072E+08
         0.65988E+08
         0.11680E+09
         0.14774E+09
         0.14797E+09
  
SCALARS                      stress_xy  double 1
LOOKUP_TABLE default
        -0.51431E+00
        -0.12067E+01
        -0.10349E+02
         0.36560E+00
        -0.24654E-09
         0.24094E-10
         0.36226E-09
         0.55183E-10
        -0.10916E+03
         0.47964E+02
         0.16125E-08
         0.12787E-08
         0.40835E+01
        -0.84729E+00
         0.14233E-09
        -0.42747E-10
         0.11749E+01
         0.20491E+02
         0.70857E-11
         0.10798E-09
        -0.15585E+02
        -0.98860E+02
        -0.97305E+02
         0.10979E-08
         0.87436E-09
        -0.12768E-08
        -0.10293E+02
        -0.85979E+02
         0.14784E-08
         0.22751E-08
        -0.31418E+01
         0.60845E+01
         0.49440E+00
        -0.78030E-10
         0.30782E-09
        -0.39371E-11
        -0.27705E+02
        -0.12871E+02
         0.82383E-09
         0.68247E-09
        -0.54288E+02
        -0.48972E+02
         0.14044E-08
         0.94648E-09
        -0.52668E+02
        -0.96699E+01
        -0.51161E-10
         0.38090E-09
         0.14045E+02
         0.11257E-09
        -0.32947E+01
        -0.25379E-11
         0.86330E+00
         0.85084E-09
         0.42743E+01
         0.13093E-09
         0.60990E+02
        -0.29705E+01
         0.30427E-11
        -0.14927E-10
         0.40683E+00
        -0.40954E+02
         0.82918E-10
         0.21269E-09
         0.17601E+01
        -0.16835E-10
         0.25296E+02
         0.13490E-09
        -0.13520E+03
        -0.49073E+02
         0.10420E-09
        -0.99783E-09
        -0.11036E+03
        -0.15954E-08
         0.45117E+02
         0.10686E-08
         0.14249E+03
         0.15920E-09
         0.24883E+03
         0.20703E-09
         0.48282E+03
         0.26312E+03
         0.48671E-09
        -0.12341E-09
         0.32499E+02
        -0.14851E-10
        -0.99815E+02
        -0.13395E-08
        -0.14693E+03
        -0.14956E-08
        -0.32323E+03
        -0.14736E+03
        -0.94675E-09
         0.10509E-08
         0.23691E+02
         0.95686E-09
         0.58348E+02
         0.41104E-09
         0.13634E+03
         0.10914E-08
         0.33537E+03
         0.19127E+03
         0.23401E-08
         0.11701E-08
        -0.55110E+03
         0.23096E+03
        -0.15204E-08
         0.18620E-08
        -0.13419E+04
        -0.43211E-08
        -0.17506E+04
        -0.47235E-08
        -0.15378E+04
        -0.32058E-08
        -0.13107E+04
        -0.34004E-09
        -0.57261E+03
         0.95844E-09
         0.75419E+03
         0.59342E-09
         0.16948E+04
         0.54248E-09
         0.22407E+04
         0.11639E-08
         0.21979E+04
         0.14151E-08
         0.18033E+04
         0.55754E-09
         0.96145E+03
         0.33992E-09
        -0.65864E+02
         0.55559E-09
        -0.80057E+03
         0.37242E-09
        -0.12915E+04
        -0.13281E-08
        -0.17629E+04
        -0.34849E-08
        -0.15777E+04
        -0.44225E-08
        -0.10128E+04
        -0.27371E-08
        -0.11092E+03
         0.52220E-09
         0.74944E+03
         0.11068E-08
         0.10839E+04
         0.17638E-08
         0.13259E+04
         0.34734E-08
         0.11886E+04
         0.45070E-08
         0.11064E+04
         0.32021E-08
         0.91404E+03
         0.25324E-08
        -0.80820E+02
         0.21770E+02
         0.22295E+02
        -0.13938E+02
         0.17802E+03
         0.14645E+03
         0.23306E+01
        -0.52628E+02
        -0.23299E+02
        -0.60820E+02
        -0.17423E+02
        -0.32177E+03
        -0.45937E+03
         0.17044E+02
         0.26133E+03
        -0.35040E+02
         0.26051E+02
         0.77772E+01
         0.15791E+02
        -0.12841E+02
         0.64447E+02
         0.56584E+02
        -0.17169E+03
         0.44977E+01
         0.38665E+02
         0.42596E+01
         0.70834E+00
         0.13888E+01
         0.17238E+02
        -0.57234E+02
        -0.30535E+02
         0.64993E+01
         0.10464E+02
        -0.82400E+00
        -0.42955E+02
        -0.14844E+03
        -0.30134E+03
         0.45581E+03
         0.23724E+03
         0.42855E+03
         0.82990E+03
         0.19237E+03
        -0.15554E+03
        -0.31357E+03
        -0.37146E+03
        -0.47416E+03
         0.58489E+02
         0.17535E+03
         0.54100E+02
         0.18207E+03
         0.57003E+03
         0.21966E+03
        -0.19365E+04
         0.24461E+04
        -0.59201E+04
        -0.69598E+04
        -0.66052E+04
        -0.39925E+04
         0.23805E+03
         0.25872E+04
         0.37514E+04
         0.60864E+04
         0.64082E+04
         0.34286E+04
         0.13830E+04
         0.58489E+03
        -0.94648E+03
        -0.37414E+04
        -0.62461E+04
        -0.71339E+04
        -0.43679E+04
         0.79192E+03
         0.28687E+04
         0.30233E+04
         0.47624E+04
         0.52870E+04
         0.40087E+04
         0.37002E+04
        -0.20014E+06
         0.40582E+05
        -0.71494E+05
        -0.49376E+05
         0.33734E+06
         0.19935E+06
         0.49247E+05
        -0.24509E+06
        -0.11325E+06
        -0.23593E+06
         0.35893E+05
        -0.13606E+06
        -0.40883E+06
         0.11043E+06
         0.32465E+06
        -0.21576E+06
         0.39399E+05
         0.22529E+05
         0.68338E+05
         0.23203E+05
         0.21544E+06
         0.16050E+06
        -0.95502E+05
         0.48504E+05
         0.11136E+06
        -0.18546E+05
         0.24296E+05
        -0.62296E+04
        -0.25081E+05
        -0.18512E+06
        -0.19337E+06
        -0.32960E+05
         0.81061E+05
         0.60745E+05
         0.60935E+05
        -0.19917E+06
        -0.31928E+06
         0.37995E+06
         0.83102E+05
         0.23487E+06
         0.37684E+06
        -0.11151E+06
        -0.22225E+06
        -0.29164E+06
        -0.33698E+06
        -0.25888E+06
         0.29118E+06
         0.27545E+06
        -0.55948E+05
         0.66997E+05
         0.37974E+06
         0.41188E+05
        -0.21247E+06
         0.29342E+06
        -0.56561E+06
        -0.61090E+06
        -0.52390E+06
        -0.25452E+06
         0.66707E+05
         0.23357E+06
         0.30902E+06
         0.49552E+06
         0.57327E+06
         0.22851E+06
         0.10784E+06
         0.96359E+05
        -0.41466E+05
        -0.31982E+06
        -0.54677E+06
        -0.61351E+06
        -0.43653E+06
         0.11986E+06
         0.28157E+06
         0.29629E+06
         0.46734E+06
         0.59366E+06
         0.37476E+06
         0.35920E+06
        -0.20045E+06
         0.40740E+05
        -0.71665E+05
        -0.49772E+05
         0.33725E+06
         0.19944E+06
         0.49622E+05
        -0.24458E+06
        -0.11357E+06
        -0.23577E+06
         0.35187E+05
        -0.13638E+06
        -0.40894E+06
         0.11043E+06
         0.32433E+06
        -0.21582E+06
         0.39845E+05
         0.22433E+05
         0.68350E+05
         0.23033E+05
         0.21593E+06
         0.16065E+06
        -0.95527E+05
         0.48483E+05
         0.11212E+06
        -0.18543E+05
         0.24582E+05
        -0.61466E+04
        -0.25091E+05
        -0.18563E+06
        -0.19368E+06
        -0.32883E+05
         0.80903E+05
         0.60872E+05
         0.60354E+05
        -0.19927E+06
        -0.31926E+06
         0.38022E+06
         0.83811E+05
         0.23543E+06
         0.37697E+06
        -0.11119E+06
        -0.22245E+06
        -0.29176E+06
        -0.33696E+06
        -0.25877E+06
         0.29115E+06
         0.27539E+06
        -0.55465E+05
         0.66780E+05
         0.37964E+06
         0.40579E+05
        -0.21234E+06
         0.29349E+06
        -0.56567E+06
        -0.61090E+06
        -0.52384E+06
        -0.25451E+06
         0.66805E+05
         0.23376E+06
         0.30884E+06
         0.49545E+06
         0.57324E+06
         0.22861E+06
         0.10784E+06
         0.96559E+05
        -0.41124E+05
        -0.31992E+06
        -0.54686E+06
        -0.61354E+06
        -0.43644E+06
         0.11992E+06
         0.28140E+06
         0.29619E+06
         0.46717E+06
         0.59358E+06
         0.37454E+06
         0.35891E+06
        -0.20076E+06
         0.40897E+05
        -0.71835E+05
        -0.50171E+05
         0.33716E+06
         0.19954E+06
         0.50000E+05
        -0.24407E+06
        -0.11389E+06
        -0.23560E+06
         0.34482E+05
        -0.13671E+06
        -0.40904E+06
         0.11042E+06
         0.32402E+06
        -0.21588E+06
         0.40297E+05
         0.22336E+05
         0.68364E+05
         0.22862E+05
         0.21641E+06
         0.16080E+06
        -0.95565E+05
         0.48456E+05
         0.11289E+06
        -0.18538E+05
         0.24887E+05
        -0.60660E+04
        -0.25084E+05
        -0.18612E+06
        -0.19400E+06
        -0.32794E+05
         0.80741E+05
         0.60997E+05
         0.59770E+05
        -0.19938E+06
        -0.31923E+06
         0.38048E+06
         0.84517E+05
         0.23600E+06
         0.37711E+06
        -0.11083E+06
        -0.22263E+06
        -0.29190E+06
        -0.33695E+06
        -0.25866E+06
         0.29112E+06
         0.27534E+06
        -0.54974E+05
         0.66555E+05
         0.37954E+06
         0.39972E+05
        -0.21221E+06
         0.29356E+06
        -0.56573E+06
        -0.61090E+06
        -0.52377E+06
        -0.25450E+06
         0.66904E+05
         0.23395E+06
         0.30865E+06
         0.49539E+06
         0.57321E+06
         0.22871E+06
         0.10784E+06
         0.96759E+05
        -0.40781E+05
        -0.32002E+06
        -0.54695E+06
        -0.61356E+06
        -0.43636E+06
         0.11998E+06
         0.28123E+06
         0.29610E+06
         0.46700E+06
         0.59349E+06
         0.37433E+06
         0.35863E+06
        -0.20107E+06
         0.41058E+05
        -0.72004E+05
        -0.50573E+05
         0.33706E+06
         0.19963E+06
         0.50378E+05
        -0.24356E+06
        -0.11420E+06
        -0.23541E+06
         0.33779E+05
        -0.13704E+06
        -0.40915E+06
         0.11042E+06
         0.32371E+06
        -0.21595E+06
         0.40762E+05
         0.22239E+05
         0.68385E+05
         0.22683E+05
         0.21691E+06
         0.16093E+06
        -0.95646E+05
         0.48411E+05
         0.11369E+06
        -0.18528E+05
         0.25202E+05
        -0.59989E+04
        -0.25029E+05
        -0.18658E+06
        -0.19433E+06
        -0.32679E+05
         0.80575E+05
         0.61124E+05
         0.59189E+05
        -0.19948E+06
        -0.31921E+06
         0.38075E+06
         0.85219E+05
         0.23655E+06
         0.37729E+06
        -0.11039E+06
        -0.22278E+06
        -0.29211E+06
        -0.33697E+06
        -0.25854E+06
         0.29110E+06
         0.27528E+06
        -0.54483E+05
         0.66331E+05
         0.37943E+06
         0.39365E+05
        -0.21208E+06
         0.29362E+06
        -0.56579E+06
        -0.61090E+06
        -0.52370E+06
        -0.25449E+06
         0.67003E+05
         0.23413E+06
         0.30847E+06
         0.49533E+06
         0.57319E+06
         0.22883E+06
         0.10785E+06
         0.96956E+05
        -0.40435E+05
        -0.32013E+06
        -0.54706E+06
        -0.61359E+06
        -0.43627E+06
         0.12004E+06
         0.28106E+06
         0.29601E+06
         0.46682E+06
         0.59341E+06
         0.37411E+06
         0.35834E+06
        -0.20138E+06
         0.41219E+05
        -0.72174E+05
        -0.50972E+05
         0.33697E+06
         0.19972E+06
         0.50756E+05
        -0.24304E+06
        -0.11450E+06
        -0.23518E+06
         0.33072E+05
        -0.13737E+06
        -0.40926E+06
         0.11042E+06
         0.32339E+06
        -0.21602E+06
         0.41238E+05
         0.22141E+05
         0.68400E+05
         0.22496E+05
         0.21741E+06
         0.16105E+06
        -0.95767E+05
         0.48346E+05
         0.11454E+06
        -0.18511E+05
         0.25553E+05
        -0.59439E+04
        -0.24925E+05
        -0.18698E+06
        -0.19466E+06
        -0.32533E+05
         0.80406E+05
         0.61250E+05
         0.58603E+05
        -0.19959E+06
        -0.31919E+06
         0.38101E+06
         0.85913E+05
         0.23711E+06
         0.37749E+06
        -0.10985E+06
        -0.22288E+06
        -0.29240E+06
        -0.33702E+06
        -0.25841E+06
         0.29109E+06
         0.27524E+06
        -0.53998E+05
         0.66108E+05
         0.37933E+06
         0.38755E+05
        -0.21194E+06
         0.29369E+06
        -0.56585E+06
        -0.61090E+06
        -0.52363E+06
        -0.25449E+06
         0.67101E+05
         0.23432E+06
         0.30829E+06
         0.49526E+06
         0.57317E+06
         0.22897E+06
         0.10786E+06
         0.97148E+05
        -0.40088E+05
        -0.32024E+06
        -0.54719E+06
        -0.61362E+06
        -0.43619E+06
         0.12010E+06
         0.28089E+06
         0.29591E+06
         0.46665E+06
         0.59333E+06
         0.37390E+06
         0.35805E+06
        -0.20168E+06
         0.41390E+05
        -0.72327E+05
        -0.51376E+05
         0.33688E+06
         0.19981E+06
         0.51129E+05
        -0.24252E+06
        -0.11479E+06
        -0.23494E+06
         0.32368E+05
        -0.13769E+06
        -0.40937E+06
         0.11043E+06
         0.32308E+06
        -0.21610E+06
         0.41724E+05
         0.22044E+05
         0.68413E+05
         0.22308E+05
         0.21791E+06
         0.16116E+06
        -0.95906E+05
         0.48276E+05
         0.11537E+06
        -0.18490E+05
         0.25930E+05
        -0.58933E+04
        -0.24798E+05
        -0.18740E+06
        -0.19498E+06
        -0.32368E+05
         0.80235E+05
         0.61378E+05
         0.58014E+05
        -0.19970E+06
        -0.31917E+06
         0.38127E+06
         0.86606E+05
         0.23766E+06
         0.37769E+06
        -0.10928E+06
        -0.22296E+06
        -0.29271E+06
        -0.33709E+06
        -0.25828E+06
         0.29107E+06
         0.27521E+06
        -0.53504E+05
         0.65905E+05
         0.37923E+06
         0.38144E+05
        -0.21181E+06
         0.29376E+06
        -0.56590E+06
        -0.61090E+06
        -0.52356E+06
        -0.25448E+06
         0.67198E+05
         0.23451E+06
         0.30810E+06
         0.49520E+06
         0.57315E+06
         0.22912E+06
         0.10788E+06
         0.97339E+05
        -0.39741E+05
        -0.32035E+06
        -0.54732E+06
        -0.61366E+06
        -0.43610E+06
         0.12015E+06
         0.28072E+06
         0.29582E+06
         0.46648E+06
         0.59325E+06
         0.37368E+06
         0.35776E+06
        -0.20195E+06
         0.41588E+05
        -0.72454E+05
        -0.51790E+05
         0.33679E+06
         0.19991E+06
         0.51495E+05
        -0.24198E+06
        -0.11509E+06
        -0.23472E+06
         0.31663E+05
        -0.13802E+06
        -0.40948E+06
         0.11051E+06
         0.32275E+06
        -0.21618E+06
         0.42218E+05
         0.21946E+05
         0.68435E+05
         0.22122E+05
         0.21841E+06
         0.16127E+06
        -0.96045E+05
         0.48209E+05
         0.11615E+06
        -0.18463E+05
         0.26375E+05
        -0.58415E+04
        -0.24664E+05
        -0.18782E+06
        -0.19528E+06
        -0.32186E+05
         0.80061E+05
         0.61504E+05
         0.57424E+05
        -0.19982E+06
        -0.31916E+06
         0.38153E+06
         0.87302E+05
         0.23823E+06
         0.37791E+06
        -0.10869E+06
        -0.22304E+06
        -0.29303E+06
        -0.33717E+06
        -0.25817E+06
         0.29104E+06
         0.27522E+06
        -0.52986E+05
         0.65748E+05
         0.37913E+06
         0.37525E+05
        -0.21168E+06
         0.29383E+06
        -0.56596E+06
        -0.61090E+06
        -0.52350E+06
        -0.25447E+06
         0.67295E+05
         0.23469E+06
         0.30792E+06
         0.49514E+06
         0.57314E+06
         0.22927E+06
         0.10790E+06
         0.97532E+05
        -0.39394E+05
        -0.32047E+06
        -0.54745E+06
        -0.61369E+06
        -0.43602E+06
         0.12020E+06
         0.28053E+06
         0.29572E+06
         0.46632E+06
         0.59317E+06
         0.37347E+06
         0.35748E+06
        -0.20221E+06
         0.41796E+05
        -0.72568E+05
        -0.52207E+05
         0.33671E+06
         0.20000E+06
         0.51857E+05
        -0.24144E+06
        -0.11540E+06
        -0.23450E+06
         0.30957E+05
        -0.13834E+06
        -0.40959E+06
         0.11060E+06
         0.32243E+06
        -0.21627E+06
         0.42716E+05
         0.21848E+05
         0.68452E+05
         0.21938E+05
         0.21891E+06
         0.16139E+06
        -0.96181E+05
         0.48143E+05
         0.11691E+06
        -0.18434E+05
         0.26837E+05
        -0.57881E+04
        -0.24526E+05
        -0.18825E+06
        -0.19556E+06
        -0.31992E+05
         0.79884E+05
         0.61632E+05
         0.56827E+05
        -0.19996E+06
        -0.31917E+06
         0.38178E+06
         0.87996E+05
         0.23878E+06
         0.37812E+06
        -0.10811E+06
        -0.22311E+06
        -0.29334E+06
        -0.33726E+06
        -0.25807E+06
         0.29101E+06
         0.27524E+06
        -0.52460E+05
         0.65614E+05
         0.37904E+06
         0.36905E+05
        -0.21154E+06
         0.29389E+06
        -0.56602E+06
        -0.61091E+06
        -0.52343E+06
        -0.25447E+06
         0.67392E+05
         0.23488E+06
         0.30774E+06
         0.49508E+06
         0.57312E+06
         0.22942E+06
         0.10792E+06
         0.97727E+05
        -0.39046E+05
        -0.32058E+06
        -0.54758E+06
        -0.61372E+06
        -0.43593E+06
         0.12024E+06
         0.28035E+06
         0.29563E+06
         0.46615E+06
         0.59309E+06
         0.37325E+06
         0.35719E+06
        -0.20247E+06
         0.42006E+05
        -0.72680E+05
        -0.52625E+05
         0.33662E+06
         0.20009E+06
         0.52217E+05
        -0.24089E+06
        -0.11571E+06
        -0.23428E+06
         0.30251E+05
        -0.13867E+06
        -0.40971E+06
         0.11070E+06
         0.32211E+06
        -0.21636E+06
         0.43219E+05
         0.21749E+05
         0.68468E+05
         0.21752E+05
         0.21941E+06
         0.16151E+06
        -0.96317E+05
         0.48079E+05
         0.11767E+06
        -0.18404E+05
         0.27310E+05
        -0.57317E+04
        -0.24385E+05
        -0.18868E+06
        -0.19585E+06
        -0.31800E+05
         0.79706E+05
         0.61758E+05
         0.56228E+05
        -0.20008E+06
        -0.31917E+06
         0.38203E+06
         0.88691E+05
         0.23934E+06
         0.37833E+06
        -0.10753E+06
        -0.22318E+06
        -0.29365E+06
        -0.33735E+06
        -0.25797E+06
         0.29098E+06
         0.27526E+06
        -0.51934E+05
         0.65485E+05
         0.37895E+06
         0.36282E+05
        -0.21141E+06
         0.29396E+06
        -0.56608E+06
        -0.61091E+06
        -0.52336E+06
        -0.25446E+06
         0.67489E+05
         0.23507E+06
         0.30755E+06
         0.49502E+06
         0.57310E+06
         0.22957E+06
         0.10794E+06
         0.97925E+05
        -0.38699E+05
        -0.32069E+06
        -0.54771E+06
        -0.61375E+06
        -0.43584E+06
         0.12029E+06
         0.28016E+06
         0.29553E+06
         0.46599E+06
         0.59300E+06
         0.37303E+06
         0.35690E+06
        -0.20273E+06
         0.42217E+05
        -0.72791E+05
        -0.53043E+05
         0.33653E+06
         0.20018E+06
         0.52579E+05
        -0.24035E+06
        -0.11602E+06
        -0.23405E+06
         0.29545E+05
        -0.13899E+06
        -0.40982E+06
         0.11078E+06
         0.32179E+06
        -0.21645E+06
         0.43724E+05
         0.21652E+05
         0.68482E+05
         0.21567E+05
         0.21991E+06
         0.16162E+06
        -0.96448E+05
         0.48015E+05
         0.11843E+06
        -0.18374E+05
         0.27771E+05
        -0.56728E+04
        -0.24240E+05
        -0.18911E+06
        -0.19613E+06
        -0.31607E+05
         0.79525E+05
         0.61886E+05
         0.55630E+05
        -0.20021E+06
        -0.31917E+06
         0.38228E+06
         0.89385E+05
         0.23991E+06
         0.37855E+06
        -0.10695E+06
        -0.22326E+06
        -0.29396E+06
        -0.33744E+06
        -0.25786E+06
         0.29095E+06
         0.27529E+06
        -0.51412E+05
         0.65345E+05
         0.37885E+06
         0.35661E+05
        -0.21128E+06
         0.29402E+06
        -0.56613E+06
        -0.61091E+06
        -0.52329E+06
        -0.25445E+06
         0.67586E+05
         0.23525E+06
         0.30737E+06
         0.49496E+06
         0.57308E+06
         0.22972E+06
         0.10796E+06
         0.98122E+05
        -0.38353E+05
        -0.32080E+06
        -0.54784E+06
        -0.61379E+06
        -0.43576E+06
         0.12033E+06
         0.27997E+06
         0.29543E+06
         0.46583E+06
         0.59292E+06
         0.37282E+06
         0.35661E+06
        -0.20299E+06
         0.42426E+05
        -0.72907E+05
        -0.53459E+05
         0.33644E+06
         0.20027E+06
         0.52943E+05
        -0.23980E+06
        -0.11633E+06
        -0.23383E+06
         0.28837E+05
        -0.13932E+06
        -0.40994E+06
         0.11088E+06
         0.32146E+06
        -0.21654E+06
         0.44232E+05
         0.21555E+05
         0.68505E+05
         0.21381E+05
         0.22040E+06
         0.16173E+06
        -0.96585E+05
         0.47953E+05
         0.11918E+06
        -0.18344E+05
         0.28240E+05
        -0.56104E+04
        -0.24090E+05
        -0.18954E+06
        -0.19641E+06
        -0.31415E+05
         0.79343E+05
         0.62013E+05
         0.55029E+05
        -0.20034E+06
        -0.31918E+06
         0.38253E+06
         0.90079E+05
         0.24046E+06
         0.37876E+06
        -0.10637E+06
        -0.22333E+06
        -0.29427E+06
        -0.33753E+06
        -0.25776E+06
         0.29092E+06
         0.27531E+06
        -0.50887E+05
         0.65209E+05
         0.37876E+06
         0.35038E+05
        -0.21114E+06
         0.29409E+06
        -0.56619E+06
        -0.61091E+06
        -0.52322E+06
        -0.25444E+06
         0.67681E+05
         0.23544E+06
         0.30719E+06
         0.49490E+06
         0.57307E+06
         0.22987E+06
         0.10798E+06
         0.98316E+05
        -0.38006E+05
        -0.32092E+06
        -0.54797E+06
        -0.61382E+06
        -0.43567E+06
         0.12037E+06
         0.27978E+06
         0.29534E+06
         0.46567E+06
         0.59284E+06
         0.37261E+06
         0.35632E+06
        -0.20324E+06
         0.42635E+05
        -0.73016E+05
        -0.53880E+05
         0.33635E+06
         0.20036E+06
         0.53305E+05
        -0.23925E+06
        -0.11664E+06
        -0.23360E+06
         0.28130E+05
        -0.13965E+06
        -0.41005E+06
         0.11097E+06
         0.32114E+06
        -0.21663E+06
         0.44743E+05
         0.21457E+05
         0.68522E+05
         0.21197E+05
         0.22090E+06
         0.16184E+06
        -0.96721E+05
         0.47892E+05
         0.11994E+06
        -0.18315E+05
         0.28698E+05
        -0.55458E+04
        -0.23935E+05
        -0.18997E+06
        -0.19669E+06
        -0.31223E+05
         0.79157E+05
         0.62142E+05
         0.54425E+05
        -0.20046E+06
        -0.31917E+06
         0.38278E+06
         0.90773E+05
         0.24103E+06
         0.37897E+06
        -0.10580E+06
        -0.22340E+06
        -0.29458E+06
        -0.33761E+06
        -0.25766E+06
         0.29089E+06
         0.27533E+06
        -0.50362E+05
         0.65080E+05
         0.37867E+06
         0.34415E+05
        -0.21101E+06
         0.29415E+06
        -0.56624E+06
        -0.61091E+06
        -0.52315E+06
        -0.25444E+06
         0.67777E+05
         0.23562E+06
         0.30700E+06
         0.49484E+06
         0.57305E+06
         0.23002E+06
         0.10800E+06
         0.98511E+05
        -0.37657E+05
        -0.32103E+06
        -0.54810E+06
        -0.61385E+06
        -0.43558E+06
         0.12041E+06
         0.27959E+06
         0.29524E+06
         0.46550E+06
         0.59276E+06
         0.37239E+06
         0.35603E+06
        -0.20350E+06
         0.42847E+05
        -0.73127E+05
        -0.54301E+05
         0.33626E+06
         0.20044E+06
         0.53667E+05
        -0.23870E+06
        -0.11695E+06
        -0.23337E+06
         0.27423E+05
        -0.13997E+06
        -0.41016E+06
         0.11105E+06
         0.32081E+06
        -0.21671E+06
         0.45255E+05
         0.21359E+05
         0.68540E+05
         0.21014E+05
         0.22140E+06
         0.16195E+06
        -0.96855E+05
         0.47831E+05
         0.12070E+06
        -0.18284E+05
         0.29169E+05
        -0.54779E+04
        -0.23778E+05
        -0.19040E+06
        -0.19697E+06
        -0.31029E+05
         0.78967E+05
         0.62269E+05
         0.53822E+05
        -0.20060E+06
        -0.31918E+06
         0.38303E+06
         0.91466E+05
         0.24158E+06
         0.37918E+06
        -0.10522E+06
        -0.22348E+06
        -0.29489E+06
        -0.33770E+06
        -0.25755E+06
         0.29086E+06
         0.27536E+06
        -0.49837E+05
         0.64943E+05
         0.37857E+06
         0.33794E+05
        -0.21087E+06
         0.29422E+06
        -0.56630E+06
        -0.61091E+06
        -0.52308E+06
        -0.25443E+06
         0.67874E+05
         0.23580E+06
         0.30682E+06
         0.49478E+06
         0.57303E+06
         0.23016E+06
         0.10802E+06
         0.98707E+05
        -0.37310E+05
        -0.32114E+06
        -0.54823E+06
        -0.61388E+06
        -0.43550E+06
         0.12046E+06
         0.27940E+06
         0.29514E+06
         0.46534E+06
         0.59267E+06
         0.37218E+06
         0.35574E+06
        -0.20376E+06
         0.43055E+05
        -0.73237E+05
        -0.54723E+05
         0.33618E+06
         0.20053E+06
         0.54030E+05
        -0.23815E+06
        -0.11726E+06
        -0.23314E+06
         0.26716E+05
        -0.14030E+06
        -0.41028E+06
         0.11114E+06
         0.32049E+06
        -0.21680E+06
         0.45771E+05
         0.21262E+05
         0.68564E+05
         0.20832E+05
         0.22190E+06
         0.16206E+06
        -0.96990E+05
         0.47770E+05
         0.12146E+06
        -0.18252E+05
         0.29628E+05
        -0.54077E+04
        -0.23618E+05
        -0.19082E+06
        -0.19725E+06
        -0.30836E+05
         0.78777E+05
         0.62397E+05
         0.53215E+05
        -0.20072E+06
        -0.31917E+06
         0.38327E+06
         0.92158E+05
         0.24214E+06
         0.37939E+06
        -0.10465E+06
        -0.22355E+06
        -0.29519E+06
        -0.33779E+06
        -0.25746E+06
         0.29082E+06
         0.27538E+06
        -0.49313E+05
         0.64807E+05
         0.37848E+06
         0.33175E+05
        -0.21074E+06
         0.29428E+06
        -0.56635E+06
        -0.61091E+06
        -0.52301E+06
        -0.25442E+06
         0.67971E+05
         0.23598E+06
         0.30663E+06
         0.49472E+06
         0.57301E+06
         0.23031E+06
         0.10804E+06
         0.98903E+05
        -0.36964E+05
        -0.32125E+06
        -0.54836E+06
        -0.61391E+06
        -0.43541E+06
         0.12050E+06
         0.27922E+06
         0.29505E+06
         0.46518E+06
         0.59259E+06
         0.37197E+06
         0.35545E+06
        -0.20402E+06
         0.43261E+05
        -0.73347E+05
        -0.55144E+05
         0.33609E+06
         0.20062E+06
         0.54393E+05
        -0.23759E+06
        -0.11757E+06
        -0.23290E+06
         0.26008E+05
        -0.14063E+06
        -0.41039E+06
         0.11122E+06
         0.32016E+06
        -0.21689E+06
         0.46291E+05
         0.21165E+05
         0.68581E+05
         0.20648E+05
         0.22239E+06
         0.16217E+06
        -0.97123E+05
         0.47710E+05
         0.12222E+06
        -0.18220E+05
         0.30094E+05
        -0.53342E+04
        -0.23455E+05
        -0.19125E+06
        -0.19752E+06
        -0.30642E+05
         0.78585E+05
         0.62525E+05
         0.52610E+05
        -0.20085E+06
        -0.31918E+06
         0.38351E+06
         0.92849E+05
         0.24270E+06
         0.37960E+06
        -0.10407E+06
        -0.22363E+06
        -0.29550E+06
        -0.33788E+06
        -0.25736E+06
         0.29079E+06
         0.27541E+06
        -0.48782E+05
         0.64674E+05
         0.37838E+06
         0.32552E+05
        -0.21060E+06
         0.29435E+06
        -0.56641E+06
        -0.61091E+06
        -0.52295E+06
        -0.25441E+06
         0.68066E+05
         0.23617E+06
         0.30645E+06
         0.49466E+06
         0.57300E+06
         0.23046E+06
         0.10806E+06
         0.99099E+05
        -0.36617E+05
        -0.32136E+06
        -0.54849E+06
        -0.61395E+06
        -0.43532E+06
         0.12054E+06
         0.27903E+06
         0.29496E+06
         0.46502E+06
         0.59251E+06
         0.37176E+06
         0.35516E+06
        -0.20428E+06
         0.43472E+05
        -0.73457E+05
        -0.55564E+05
         0.33600E+06
         0.20071E+06
         0.54754E+05
        -0.23704E+06
        -0.11788E+06
        -0.23267E+06
         0.25299E+05
        -0.14095E+06
        -0.41050E+06
         0.11130E+06
         0.31983E+06
        -0.21697E+06
         0.46815E+05
         0.21069E+05
         0.68599E+05
         0.20466E+05
         0.22289E+06
         0.16227E+06
        -0.97256E+05
         0.47651E+05
         0.12297E+06
        -0.18188E+05
         0.30549E+05
        -0.52579E+04
        -0.23288E+05
        -0.19167E+06
        -0.19780E+06
        -0.30450E+05
         0.78391E+05
         0.62655E+05
         0.51999E+05
        -0.20098E+06
        -0.31918E+06
         0.38375E+06
         0.93542E+05
         0.24326E+06
         0.37981E+06
        -0.10350E+06
        -0.22370E+06
        -0.29580E+06
        -0.33797E+06
        -0.25725E+06
         0.29076E+06
         0.27543E+06
        -0.48259E+05
         0.64536E+05
         0.37829E+06
         0.31929E+05
        -0.21046E+06
         0.29441E+06
        -0.56646E+06
        -0.61091E+06
        -0.52288E+06
        -0.25440E+06
         0.68159E+05
         0.23635E+06
         0.30627E+06
         0.49460E+06
         0.57298E+06
         0.23061E+06
         0.10808E+06
         0.99291E+05
        -0.36270E+05
        -0.32148E+06
        -0.54862E+06
        -0.61398E+06
        -0.43524E+06
         0.12058E+06
         0.27884E+06
         0.29486E+06
         0.46485E+06
         0.59243E+06
         0.37155E+06
         0.35486E+06
        -0.20454E+06
         0.43680E+05
        -0.73569E+05
        -0.55987E+05
         0.33591E+06
         0.20079E+06
         0.55120E+05
        -0.23648E+06
        -0.11819E+06
        -0.23242E+06
         0.24588E+05
        -0.14128E+06
        -0.41062E+06
         0.11138E+06
         0.31950E+06
        -0.21706E+06
         0.47343E+05
         0.20972E+05
         0.68619E+05
         0.20285E+05
         0.22339E+06
         0.16237E+06
        -0.97389E+05
         0.47593E+05
         0.12372E+06
        -0.18156E+05
         0.31015E+05
        -0.51776E+04
        -0.23116E+05
        -0.19209E+06
        -0.19808E+06
        -0.30257E+05
         0.78196E+05
         0.62786E+05
         0.51388E+05
        -0.20111E+06
        -0.31918E+06
         0.38398E+06
         0.94242E+05
         0.24382E+06
         0.38002E+06
        -0.10293E+06
        -0.22378E+06
        -0.29611E+06
        -0.33805E+06
        -0.25715E+06
         0.29073E+06
         0.27546E+06
        -0.47738E+05
         0.64398E+05
         0.37820E+06
         0.31310E+05
        -0.21033E+06
         0.29447E+06
        -0.56652E+06
        -0.61091E+06
        -0.52281E+06
        -0.25440E+06
         0.68252E+05
         0.23653E+06
         0.30608E+06
         0.49454E+06
         0.57296E+06
         0.23076E+06
         0.10809E+06
         0.99484E+05
        -0.35925E+05
        -0.32159E+06
        -0.54875E+06
        -0.61401E+06
        -0.43515E+06
         0.12062E+06
         0.27865E+06
         0.29477E+06
         0.46469E+06
         0.59234E+06
         0.37134E+06
         0.35457E+06
        -0.20480E+06
         0.43888E+05
        -0.73677E+05
        -0.56411E+05
         0.33582E+06
         0.20088E+06
         0.55481E+05
        -0.23592E+06
        -0.11849E+06
        -0.23214E+06
         0.23878E+05
        -0.14161E+06
        -0.41073E+06
         0.11146E+06
         0.31917E+06
        -0.21714E+06
         0.47876E+05
         0.20875E+05
         0.68648E+05
         0.20113E+05
         0.22388E+06
         0.16247E+06
        -0.97524E+05
         0.47532E+05
         0.12446E+06
        -0.18125E+05
         0.31477E+05
        -0.50915E+04
        -0.22941E+05
        -0.19250E+06
        -0.19836E+06
        -0.30061E+05
         0.77995E+05
         0.62916E+05
         0.50777E+05
        -0.20124E+06
        -0.31918E+06
         0.38420E+06
         0.94962E+05
         0.24437E+06
         0.38023E+06
        -0.10235E+06
        -0.22386E+06
        -0.29642E+06
        -0.33814E+06
        -0.25704E+06
         0.29070E+06
         0.27548E+06
        -0.47218E+05
         0.64261E+05
         0.37811E+06
         0.30690E+05
        -0.21019E+06
         0.29453E+06
        -0.56657E+06
        -0.61091E+06
        -0.52274E+06
        -0.25439E+06
         0.68346E+05
         0.23671E+06
         0.30590E+06
         0.49448E+06
         0.57295E+06
         0.23090E+06
         0.10810E+06
         0.99675E+05
        -0.35580E+05
        -0.32170E+06
        -0.54888E+06
        -0.61404E+06
        -0.43506E+06
         0.12066E+06
         0.27846E+06
         0.29467E+06
         0.46453E+06
         0.59226E+06
         0.37114E+06
         0.35428E+06
        -0.20506E+06
         0.44095E+05
        -0.73786E+05
        -0.56835E+05
         0.33573E+06
         0.20096E+06
         0.55845E+05
        -0.23536E+06
        -0.11879E+06
        -0.23185E+06
         0.23168E+05
        -0.14193E+06
        -0.41084E+06
         0.11154E+06
         0.31883E+06
        -0.21723E+06
         0.48417E+05
         0.20778E+05
         0.68669E+05
         0.19947E+05
         0.22437E+06
         0.16256E+06
        -0.97657E+05
         0.47475E+05
         0.12517E+06
        -0.18091E+05
         0.31959E+05
        -0.49984E+04
        -0.22763E+05
        -0.19289E+06
        -0.19863E+06
        -0.29867E+05
         0.77793E+05
         0.63045E+05
         0.50161E+05
        -0.20137E+06
        -0.31918E+06
         0.38442E+06
         0.95702E+05
         0.24493E+06
         0.38044E+06
        -0.10179E+06
        -0.22395E+06
        -0.29672E+06
        -0.33823E+06
        -0.25694E+06
         0.29067E+06
         0.27550E+06
        -0.46695E+05
         0.64126E+05
         0.37801E+06
         0.30065E+05
        -0.21006E+06
         0.29459E+06
        -0.56663E+06
        -0.61091E+06
        -0.52267E+06
        -0.25438E+06
         0.68439E+05
         0.23689E+06
         0.30573E+06
         0.49442E+06
         0.57294E+06
         0.23105E+06
         0.10809E+06
         0.99867E+05
        -0.35234E+05
        -0.32181E+06
        -0.54901E+06
        -0.61407E+06
        -0.43498E+06
         0.12070E+06
         0.27827E+06
         0.29457E+06
         0.46437E+06
         0.59218E+06
         0.37093E+06
         0.35399E+06
        -0.20532E+06
         0.44303E+05
        -0.73899E+05
        -0.57258E+05
         0.33564E+06
         0.20105E+06
         0.56209E+05
        -0.23480E+06
        -0.11908E+06
        -0.23154E+06
         0.22462E+05
        -0.14225E+06
        -0.41095E+06
         0.11160E+06
         0.31849E+06
        -0.21731E+06
         0.48963E+05
         0.20682E+05
         0.68688E+05
         0.19785E+05
         0.22487E+06
         0.16266E+06
        -0.97782E+05
         0.47421E+05
         0.12588E+06
        -0.18059E+05
         0.32428E+05
        -0.49008E+04
        -0.22584E+05
        -0.19328E+06
        -0.19892E+06
        -0.29678E+05
         0.77594E+05
         0.63178E+05
         0.49552E+05
        -0.20149E+06
        -0.31917E+06
         0.38463E+06
         0.96450E+05
         0.24547E+06
         0.38065E+06
        -0.10123E+06
        -0.22405E+06
        -0.29702E+06
        -0.33831E+06
        -0.25684E+06
         0.29064E+06
         0.27553E+06
        -0.46178E+05
         0.63985E+05
         0.37792E+06
         0.29444E+05
        -0.20992E+06
         0.29466E+06
        -0.56668E+06
        -0.61091E+06
        -0.52260E+06
        -0.25437E+06
         0.68531E+05
         0.23706E+06
         0.30555E+06
         0.49436E+06
         0.57294E+06
         0.23118E+06
         0.10808E+06
         0.10006E+06
        -0.34887E+05
        -0.32191E+06
        -0.54913E+06
        -0.61410E+06
        -0.43489E+06
         0.12074E+06
         0.27809E+06
         0.29448E+06
         0.46421E+06
         0.59210E+06
         0.37073E+06
         0.35370E+06
        -0.19566E+06
         0.44465E+05
        -0.74564E+05
        -0.58081E+05
         0.31313E+06
         0.18241E+06
         0.56948E+05
        -0.21953E+06
        -0.11499E+06
        -0.21617E+06
         0.22002E+05
        -0.13733E+06
        -0.39243E+06
         0.98257E+05
         0.30734E+06
        -0.20303E+06
         0.49833E+05
         0.20741E+05
         0.69176E+05
         0.19773E+05
         0.21712E+06
         0.15602E+06
        -0.94045E+05
         0.47734E+05
         0.11757E+06
        -0.18176E+05
         0.28978E+05
        -0.48347E+04
        -0.22610E+05
        -0.17366E+06
        -0.19387E+06
        -0.29753E+05
         0.77976E+05
         0.63767E+05
         0.46325E+05
        -0.18314E+06
        -0.29814E+06
         0.36854E+06
         0.91480E+05
         0.23009E+06
         0.36536E+06
        -0.96497E+05
        -0.21559E+06
        -0.28344E+06
        -0.31813E+06
        -0.24412E+06
         0.26885E+06
         0.25331E+06
        -0.42176E+05
         0.58181E+05
         0.35726E+06
         0.26550E+05
        -0.20709E+06
         0.29136E+06
        -0.56060E+06
        -0.60464E+06
        -0.51750E+06
        -0.25199E+06
         0.67943E+05
         0.23421E+06
         0.30126E+06
         0.48816E+06
         0.56601E+06
         0.22874E+06
         0.10666E+06
         0.98968E+05
        -0.34191E+05
        -0.31889E+06
        -0.54421E+06
        -0.60855E+06
        -0.42983E+06
         0.11949E+06
         0.27478E+06
         0.29092E+06
         0.45886E+06
         0.58512E+06
         0.36653E+06
         0.34953E+06
        -0.64652E+05
         0.92415E+04
        -0.15621E+05
        -0.14735E+05
         0.81188E+05
         0.38139E+05
         0.10703E+05
        -0.59425E+05
        -0.27015E+05
        -0.57146E+05
         0.33147E+04
        -0.52388E+05
        -0.13057E+06
         0.16491E+05
         0.12173E+06
        -0.54909E+05
         0.10876E+05
         0.57740E+04
         0.13713E+05
         0.37140E+04
         0.82921E+05
         0.55280E+05
        -0.34576E+05
         0.10442E+05
         0.22186E+05
        -0.43708E+04
         0.49734E+04
        -0.76130E+03
        -0.35690E+04
        -0.31881E+05
        -0.46136E+05
        -0.66251E+04
         0.19470E+05
         0.14886E+05
         0.13380E+05
        -0.38247E+05
        -0.78034E+05
         0.12774E+06
         0.25890E+05
         0.60621E+05
         0.13059E+06
        -0.33362E+05
        -0.79930E+05
        -0.93660E+05
        -0.88777E+05
        -0.76478E+05
         0.64211E+05
         0.58245E+05
        -0.84406E+04
         0.12503E+05
         0.10551E+06
         0.60874E+04
        -0.13192E+06
         0.19266E+06
        -0.37833E+06
        -0.41566E+06
        -0.36317E+06
        -0.17939E+06
         0.47104E+05
         0.15094E+06
         0.18897E+06
         0.31518E+06
         0.36890E+06
         0.15427E+06
         0.68142E+05
         0.63715E+05
        -0.23106E+05
        -0.22351E+06
        -0.38733E+06
        -0.43342E+06
        -0.28406E+06
         0.80409E+05
         0.18239E+06
         0.19099E+06
         0.30615E+06
         0.38553E+06
         0.24793E+06
         0.23479E+06
  
SCALARS                      strain_xx  double 1
LOOKUP_TABLE default
        -0.25972E-07
        -0.12437E-05
        -0.13886E-04
        -0.68365E-07
        -0.84844E-20
        -0.10667E-20
        -0.11926E-19
        -0.47570E-21
        -0.10718E-03
        -0.48464E-04
        -0.10670E-18
        -0.86569E-19
        -0.18430E-06
        -0.30621E-05
        -0.16230E-20
        -0.35617E-19
        -0.14525E-06
        -0.28289E-05
        -0.18584E-19
        -0.41221E-19
        -0.58067E-05
        -0.15901E-04
        -0.15099E-04
        -0.18380E-19
        -0.39083E-20
        -0.11929E-19
        -0.17766E-04
        -0.11093E-04
        -0.64402E-19
        -0.40526E-19
        -0.79362E-06
        -0.37271E-05
        -0.37566E-07
        -0.66758E-21
        -0.99695E-20
        -0.37839E-20
        -0.67903E-05
        -0.14787E-05
        -0.21975E-19
        -0.24913E-19
        -0.26304E-04
        -0.50205E-04
        -0.11182E-18
        -0.60810E-19
        -0.31383E-04
        -0.90625E-05
        -0.13485E-18
        -0.31241E-19
        -0.22618E-05
        -0.12309E-19
        -0.14880E-04
        -0.95379E-21
        -0.23093E-05
        -0.46998E-19
        -0.12669E-05
        -0.32886E-20
        -0.24259E-04
        -0.19381E-05
        -0.24133E-20
        -0.14100E-19
        -0.90395E-08
        -0.67515E-05
        -0.96541E-20
        -0.45398E-20
        -0.46947E-06
        -0.97678E-22
        -0.51452E-05
        -0.42260E-20
        -0.20973E-03
        -0.97870E-04
        -0.16509E-18
        -0.86841E-19
        -0.39918E-04
        -0.46041E-19
        -0.18584E-05
        -0.22032E-19
        -0.18019E-04
        -0.84865E-21
        -0.81390E-04
        -0.20427E-20
        -0.14641E-03
        -0.75884E-04
        -0.27435E-19
        -0.35884E-19
        -0.62487E-04
        -0.41503E-19
        -0.46110E-04
        -0.86031E-19
        -0.17484E-04
        -0.34999E-19
        -0.42524E-04
        -0.22759E-04
        -0.63750E-20
        -0.11989E-19
        -0.12046E-05
        -0.16495E-19
        -0.91595E-05
        -0.29082E-20
        -0.52377E-04
        -0.17734E-19
        -0.11414E-03
        -0.54202E-04
        -0.94284E-19
        -0.10267E-18
        -0.65383E-03
        -0.81996E-03
        -0.32191E-18
        -0.31263E-18
        -0.63871E-03
        -0.23494E-18
        -0.54459E-03
        -0.13121E-18
        -0.27320E-03
        -0.39624E-19
        -0.13604E-03
        -0.45310E-21
        -0.17658E-04
        -0.57478E-20
        -0.28260E-04
        -0.36792E-20
        -0.16033E-03
        -0.35543E-20
        -0.35438E-03
        -0.18075E-19
        -0.66713E-03
        -0.65422E-19
        -0.10581E-02
        -0.93162E-19
        -0.12882E-02
        -0.82936E-19
        -0.12184E-02
        -0.98072E-19
        -0.10651E-02
        -0.16519E-18
        -0.88409E-03
        -0.22971E-18
        -0.68712E-03
        -0.19850E-18
        -0.40762E-03
        -0.13111E-18
        -0.13396E-03
        -0.29219E-19
        -0.96886E-06
        -0.10654E-20
        -0.42292E-04
        -0.62801E-20
        -0.10495E-03
        -0.16793E-19
        -0.23220E-03
        -0.64317E-19
        -0.40372E-03
        -0.17318E-18
        -0.70919E-03
        -0.24998E-18
        -0.95634E-03
        -0.26152E-18
        -0.14322E-05
        -0.39724E-06
        -0.54505E-06
        -0.21442E-05
        -0.33939E-04
        -0.19768E-04
        -0.46567E-06
        -0.98800E-06
        -0.25295E-06
        -0.82078E-06
        -0.25959E-06
        -0.48946E-05
        -0.21056E-04
        -0.21516E-05
        -0.31443E-05
        -0.38033E-05
        -0.26935E-05
        -0.56978E-06
        -0.14420E-05
        -0.16556E-05
        -0.50048E-04
        -0.56323E-04
        -0.46567E-04
        -0.44808E-05
        -0.71090E-06
        -0.39512E-06
        -0.41699E-05
        -0.52325E-07
        -0.55663E-05
        -0.25686E-05
        -0.30401E-05
        -0.12055E-06
        -0.67518E-06
        -0.71971E-07
        -0.76702E-04
        -0.30536E-04
        -0.24776E-04
        -0.12278E-04
        -0.39891E-05
        -0.18575E-04
        -0.79649E-04
        -0.67097E-04
        -0.63397E-04
        -0.34402E-04
        -0.17990E-04
        -0.11314E-04
        -0.38991E-06
        -0.66277E-05
        -0.55527E-06
        -0.56938E-05
        -0.41447E-04
        -0.28624E-04
        -0.68475E-03
        -0.73949E-03
        -0.59309E-03
        -0.42728E-03
        -0.23735E-03
        -0.62336E-04
        -0.22186E-06
        -0.32061E-04
        -0.74296E-04
        -0.21931E-03
        -0.58523E-03
        -0.84175E-03
        -0.69738E-03
        -0.63823E-03
        -0.70694E-03
        -0.70262E-03
        -0.58023E-03
        -0.44962E-03
        -0.11911E-03
        -0.29557E-05
        -0.43162E-04
        -0.53618E-04
        -0.15406E-03
        -0.39690E-03
        -0.65782E-03
        -0.72256E-03
        -0.35388E-05
        -0.14912E-06
        -0.54046E-06
        -0.45820E-05
        -0.19280E-04
        -0.14080E-04
        -0.11951E-05
        -0.56955E-05
        -0.12024E-05
        -0.51477E-05
        -0.21008E-06
        -0.27967E-05
        -0.30266E-04
        -0.17798E-04
        -0.19097E-04
        -0.13659E-04
        -0.42330E-05
        -0.15186E-05
        -0.68775E-06
        -0.21211E-05
        -0.74679E-04
        -0.67828E-04
        -0.66049E-04
        -0.38638E-05
        -0.12465E-05
        -0.56511E-06
        -0.16620E-04
        -0.29301E-06
        -0.18615E-05
        -0.34617E-05
        -0.80622E-05
        -0.33758E-05
        -0.33914E-05
        -0.25261E-05
        -0.61321E-04
        -0.18679E-04
        -0.24577E-04
        -0.23485E-04
        -0.65829E-06
        -0.55335E-05
        -0.74689E-04
        -0.79030E-04
        -0.75510E-04
        -0.39476E-04
        -0.23410E-04
        -0.80147E-05
        -0.93612E-05
        -0.13047E-04
        -0.22798E-06
        -0.33050E-06
        -0.34725E-04
        -0.26945E-04
        -0.10722E-02
        -0.10889E-02
        -0.87752E-03
        -0.59696E-03
        -0.33238E-03
        -0.70512E-04
        -0.43464E-05
        -0.45624E-04
        -0.79174E-04
        -0.26606E-03
        -0.83938E-03
        -0.11681E-02
        -0.82131E-03
        -0.74336E-03
        -0.90231E-03
        -0.95706E-03
        -0.79731E-03
        -0.71345E-03
        -0.18520E-03
        -0.12512E-04
        -0.61196E-04
        -0.62811E-04
        -0.19855E-03
        -0.59522E-03
        -0.97520E-03
        -0.96905E-03
        -0.35521E-05
        -0.15023E-06
        -0.54250E-06
        -0.45882E-05
        -0.19243E-04
        -0.14054E-04
        -0.12104E-05
        -0.56667E-05
        -0.12051E-05
        -0.51396E-05
        -0.20166E-06
        -0.28103E-05
        -0.30303E-04
        -0.17711E-04
        -0.19077E-04
        -0.13687E-04
        -0.42516E-05
        -0.15102E-05
        -0.68707E-06
        -0.21136E-05
        -0.74664E-04
        -0.67813E-04
        -0.66040E-04
        -0.38642E-05
        -0.12521E-05
        -0.56699E-06
        -0.16630E-04
        -0.28210E-06
        -0.18877E-05
        -0.34661E-05
        -0.80857E-05
        -0.33749E-05
        -0.33632E-05
        -0.25284E-05
        -0.61383E-04
        -0.18662E-04
        -0.24562E-04
        -0.23560E-04
        -0.67096E-06
        -0.55685E-05
        -0.74783E-04
        -0.79121E-04
        -0.75517E-04
        -0.39464E-04
        -0.23393E-04
        -0.80064E-05
        -0.93576E-05
        -0.13056E-04
        -0.22466E-06
        -0.32824E-06
        -0.34680E-04
        -0.26866E-04
        -0.10715E-02
        -0.10884E-02
        -0.87737E-03
        -0.59696E-03
        -0.33218E-03
        -0.70470E-04
        -0.43563E-05
        -0.45681E-04
        -0.79041E-04
        -0.26585E-03
        -0.83912E-03
        -0.11682E-02
        -0.82115E-03
        -0.74327E-03
        -0.90253E-03
        -0.95747E-03
        -0.79759E-03
        -0.71373E-03
        -0.18510E-03
        -0.12523E-04
        -0.61107E-04
        -0.62761E-04
        -0.19826E-03
        -0.59449E-03
        -0.97423E-03
        -0.96819E-03
        -0.35656E-05
        -0.15132E-06
        -0.54454E-06
        -0.45943E-05
        -0.19204E-04
        -0.14028E-04
        -0.12258E-05
        -0.56380E-05
        -0.12076E-05
        -0.51309E-05
        -0.19343E-06
        -0.28239E-05
        -0.30339E-04
        -0.17624E-04
        -0.19056E-04
        -0.13716E-04
        -0.42706E-05
        -0.15017E-05
        -0.68639E-06
        -0.21064E-05
        -0.74652E-04
        -0.67797E-04
        -0.66031E-04
        -0.38646E-05
        -0.12581E-05
        -0.56904E-06
        -0.16640E-04
        -0.27152E-06
        -0.19143E-05
        -0.34704E-05
        -0.81099E-05
        -0.33743E-05
        -0.33350E-05
        -0.25307E-05
        -0.61445E-04
        -0.18646E-04
        -0.24546E-04
        -0.23635E-04
        -0.68376E-06
        -0.56038E-05
        -0.74878E-04
        -0.79215E-04
        -0.75528E-04
        -0.39455E-04
        -0.23377E-04
        -0.79986E-05
        -0.93542E-05
        -0.13064E-04
        -0.22129E-06
        -0.32592E-06
        -0.34637E-04
        -0.26787E-04
        -0.10708E-02
        -0.10878E-02
        -0.87721E-03
        -0.59697E-03
        -0.33197E-03
        -0.70427E-04
        -0.43663E-05
        -0.45737E-04
        -0.78907E-04
        -0.26564E-03
        -0.83887E-03
        -0.11682E-02
        -0.82101E-03
        -0.74319E-03
        -0.90277E-03
        -0.95791E-03
        -0.79788E-03
        -0.71401E-03
        -0.18500E-03
        -0.12535E-04
        -0.61017E-04
        -0.62712E-04
        -0.19797E-03
        -0.59376E-03
        -0.97326E-03
        -0.96732E-03
        -0.35791E-05
        -0.15246E-06
        -0.54654E-06
        -0.46003E-05
        -0.19167E-04
        -0.14002E-04
        -0.12411E-05
        -0.56092E-05
        -0.12097E-05
        -0.51208E-05
        -0.18540E-06
        -0.28379E-05
        -0.30376E-04
        -0.17537E-04
        -0.19036E-04
        -0.13748E-04
        -0.42905E-05
        -0.14932E-05
        -0.68580E-06
        -0.20989E-05
        -0.74643E-04
        -0.67787E-04
        -0.66032E-04
        -0.38650E-05
        -0.12653E-05
        -0.57156E-06
        -0.16648E-04
        -0.26146E-06
        -0.19410E-05
        -0.34745E-05
        -0.81361E-05
        -0.33750E-05
        -0.33067E-05
        -0.25330E-05
        -0.61505E-04
        -0.18629E-04
        -0.24530E-04
        -0.23711E-04
        -0.69663E-06
        -0.56390E-05
        -0.74976E-04
        -0.79315E-04
        -0.75548E-04
        -0.39447E-04
        -0.23359E-04
        -0.79900E-05
        -0.93515E-05
        -0.13073E-04
        -0.21793E-06
        -0.32361E-06
        -0.34591E-04
        -0.26707E-04
        -0.10700E-02
        -0.10872E-02
        -0.87706E-03
        -0.59698E-03
        -0.33177E-03
        -0.70384E-04
        -0.43763E-05
        -0.45794E-04
        -0.78774E-04
        -0.26542E-03
        -0.83861E-03
        -0.11683E-02
        -0.82089E-03
        -0.74312E-03
        -0.90303E-03
        -0.95840E-03
        -0.79820E-03
        -0.71429E-03
        -0.18490E-03
        -0.12546E-04
        -0.60928E-04
        -0.62663E-04
        -0.19768E-03
        -0.59303E-03
        -0.97229E-03
        -0.96646E-03
        -0.35925E-05
        -0.15360E-06
        -0.54857E-06
        -0.46063E-05
        -0.19130E-04
        -0.13976E-04
        -0.12568E-05
        -0.55802E-05
        -0.12116E-05
        -0.51091E-05
        -0.17751E-06
        -0.28516E-05
        -0.30413E-04
        -0.17450E-04
        -0.19015E-04
        -0.13782E-04
        -0.43113E-05
        -0.14848E-05
        -0.68505E-06
        -0.20914E-05
        -0.74639E-04
        -0.67780E-04
        -0.66037E-04
        -0.38655E-05
        -0.12736E-05
        -0.57446E-06
        -0.16654E-04
        -0.25191E-06
        -0.19678E-05
        -0.34783E-05
        -0.81640E-05
        -0.33767E-05
        -0.32785E-05
        -0.25352E-05
        -0.61567E-04
        -0.18612E-04
        -0.24515E-04
        -0.23786E-04
        -0.70957E-06
        -0.56747E-05
        -0.75077E-04
        -0.79421E-04
        -0.75578E-04
        -0.39443E-04
        -0.23340E-04
        -0.79808E-05
        -0.93494E-05
        -0.13083E-04
        -0.21462E-06
        -0.32134E-06
        -0.34549E-04
        -0.26628E-04
        -0.10693E-02
        -0.10867E-02
        -0.87690E-03
        -0.59698E-03
        -0.33156E-03
        -0.70342E-04
        -0.43862E-05
        -0.45851E-04
        -0.78641E-04
        -0.26521E-03
        -0.83834E-03
        -0.11684E-02
        -0.82082E-03
        -0.74307E-03
        -0.90332E-03
        -0.95897E-03
        -0.79855E-03
        -0.71456E-03
        -0.18479E-03
        -0.12557E-04
        -0.60839E-04
        -0.62613E-04
        -0.19739E-03
        -0.59231E-03
        -0.97133E-03
        -0.96560E-03
        -0.36054E-05
        -0.15484E-06
        -0.55037E-06
        -0.46122E-05
        -0.19092E-04
        -0.13951E-04
        -0.12725E-05
        -0.55509E-05
        -0.12134E-05
        -0.50971E-05
        -0.16979E-06
        -0.28654E-05
        -0.30450E-04
        -0.17363E-04
        -0.18995E-04
        -0.13817E-04
        -0.43322E-05
        -0.14763E-05
        -0.68427E-06
        -0.20842E-05
        -0.74638E-04
        -0.67775E-04
        -0.66048E-04
        -0.38661E-05
        -0.12820E-05
        -0.57745E-06
        -0.16661E-04
        -0.24259E-06
        -0.19950E-05
        -0.34828E-05
        -0.81918E-05
        -0.33782E-05
        -0.32501E-05
        -0.25372E-05
        -0.61631E-04
        -0.18597E-04
        -0.24500E-04
        -0.23861E-04
        -0.72264E-06
        -0.57105E-05
        -0.75179E-04
        -0.79530E-04
        -0.75612E-04
        -0.39439E-04
        -0.23323E-04
        -0.79728E-05
        -0.93467E-05
        -0.13092E-04
        -0.21124E-06
        -0.31926E-06
        -0.34506E-04
        -0.26551E-04
        -0.10686E-02
        -0.10861E-02
        -0.87674E-03
        -0.59699E-03
        -0.33136E-03
        -0.70300E-04
        -0.43958E-05
        -0.45907E-04
        -0.78508E-04
        -0.26500E-03
        -0.83807E-03
        -0.11685E-02
        -0.82076E-03
        -0.74302E-03
        -0.90361E-03
        -0.95955E-03
        -0.79891E-03
        -0.71482E-03
        -0.18469E-03
        -0.12568E-04
        -0.60748E-04
        -0.62564E-04
        -0.19710E-03
        -0.59158E-03
        -0.97036E-03
        -0.96473E-03
        -0.36172E-05
        -0.15634E-06
        -0.55177E-06
        -0.46180E-05
        -0.19056E-04
        -0.13926E-04
        -0.12886E-05
        -0.55209E-05
        -0.12153E-05
        -0.50858E-05
        -0.16221E-06
        -0.28793E-05
        -0.30488E-04
        -0.17276E-04
        -0.18974E-04
        -0.13852E-04
        -0.43522E-05
        -0.14678E-05
        -0.68365E-06
        -0.20771E-05
        -0.74636E-04
        -0.67772E-04
        -0.66060E-04
        -0.38670E-05
        -0.12894E-05
        -0.58009E-06
        -0.16668E-04
        -0.23324E-06
        -0.20226E-05
        -0.34880E-05
        -0.82181E-05
        -0.33784E-05
        -0.32212E-05
        -0.25387E-05
        -0.61695E-04
        -0.18584E-04
        -0.24487E-04
        -0.23936E-04
        -0.73594E-06
        -0.57472E-05
        -0.75283E-04
        -0.79641E-04
        -0.75648E-04
        -0.39437E-04
        -0.23308E-04
        -0.79656E-05
        -0.93425E-05
        -0.13101E-04
        -0.20761E-06
        -0.31766E-06
        -0.34469E-04
        -0.26474E-04
        -0.10678E-02
        -0.10856E-02
        -0.87657E-03
        -0.59699E-03
        -0.33115E-03
        -0.70257E-04
        -0.44056E-05
        -0.45963E-04
        -0.78376E-04
        -0.26479E-03
        -0.83780E-03
        -0.11686E-02
        -0.82070E-03
        -0.74297E-03
        -0.90390E-03
        -0.96014E-03
        -0.79928E-03
        -0.71508E-03
        -0.18458E-03
        -0.12576E-04
        -0.60654E-04
        -0.62516E-04
        -0.19682E-03
        -0.59087E-03
        -0.96940E-03
        -0.96387E-03
        -0.36286E-05
        -0.15793E-06
        -0.55297E-06
        -0.46235E-05
        -0.19021E-04
        -0.13900E-04
        -0.13050E-05
        -0.54908E-05
        -0.12173E-05
        -0.50749E-05
        -0.15479E-06
        -0.28932E-05
        -0.30526E-04
        -0.17189E-04
        -0.18953E-04
        -0.13886E-04
        -0.43720E-05
        -0.14593E-05
        -0.68293E-06
        -0.20705E-05
        -0.74634E-04
        -0.67767E-04
        -0.66071E-04
        -0.38678E-05
        -0.12963E-05
        -0.58257E-06
        -0.16675E-04
        -0.22402E-06
        -0.20508E-05
        -0.34936E-05
        -0.82437E-05
        -0.33780E-05
        -0.31921E-05
        -0.25399E-05
        -0.61763E-04
        -0.18571E-04
        -0.24475E-04
        -0.24011E-04
        -0.74935E-06
        -0.57838E-05
        -0.75387E-04
        -0.79755E-04
        -0.75685E-04
        -0.39436E-04
        -0.23294E-04
        -0.79597E-05
        -0.93376E-05
        -0.13109E-04
        -0.20389E-06
        -0.31627E-06
        -0.34432E-04
        -0.26399E-04
        -0.10671E-02
        -0.10850E-02
        -0.87641E-03
        -0.59700E-03
        -0.33095E-03
        -0.70214E-04
        -0.44153E-05
        -0.46019E-04
        -0.78244E-04
        -0.26458E-03
        -0.83752E-03
        -0.11687E-02
        -0.82064E-03
        -0.74292E-03
        -0.90419E-03
        -0.96073E-03
        -0.79964E-03
        -0.71533E-03
        -0.18447E-03
        -0.12584E-04
        -0.60560E-04
        -0.62468E-04
        -0.19654E-03
        -0.59015E-03
        -0.96844E-03
        -0.96301E-03
        -0.36400E-05
        -0.15954E-06
        -0.55414E-06
        -0.46290E-05
        -0.18985E-04
        -0.13874E-04
        -0.13213E-05
        -0.54608E-05
        -0.12193E-05
        -0.50642E-05
        -0.14756E-06
        -0.29072E-05
        -0.30564E-04
        -0.17103E-04
        -0.18931E-04
        -0.13921E-04
        -0.43917E-05
        -0.14508E-05
        -0.68219E-06
        -0.20637E-05
        -0.74631E-04
        -0.67764E-04
        -0.66084E-04
        -0.38689E-05
        -0.13032E-05
        -0.58504E-06
        -0.16683E-04
        -0.21499E-06
        -0.20791E-05
        -0.34991E-05
        -0.82695E-05
        -0.33776E-05
        -0.31632E-05
        -0.25411E-05
        -0.61831E-04
        -0.18558E-04
        -0.24463E-04
        -0.24085E-04
        -0.76294E-06
        -0.58203E-05
        -0.75492E-04
        -0.79867E-04
        -0.75722E-04
        -0.39437E-04
        -0.23281E-04
        -0.79537E-05
        -0.93328E-05
        -0.13118E-04
        -0.20020E-06
        -0.31495E-06
        -0.34398E-04
        -0.26322E-04
        -0.10664E-02
        -0.10845E-02
        -0.87624E-03
        -0.59700E-03
        -0.33074E-03
        -0.70170E-04
        -0.44250E-05
        -0.46075E-04
        -0.78112E-04
        -0.26437E-03
        -0.83725E-03
        -0.11688E-02
        -0.82057E-03
        -0.74287E-03
        -0.90448E-03
        -0.96132E-03
        -0.80000E-03
        -0.71557E-03
        -0.18436E-03
        -0.12592E-04
        -0.60464E-04
        -0.62419E-04
        -0.19626E-03
        -0.58943E-03
        -0.96748E-03
        -0.96215E-03
        -0.36513E-05
        -0.16117E-06
        -0.55532E-06
        -0.46347E-05
        -0.18949E-04
        -0.13848E-04
        -0.13379E-05
        -0.54308E-05
        -0.12213E-05
        -0.50534E-05
        -0.14050E-06
        -0.29211E-05
        -0.30603E-04
        -0.17018E-04
        -0.18910E-04
        -0.13955E-04
        -0.44115E-05
        -0.14425E-05
        -0.68144E-06
        -0.20570E-05
        -0.74630E-04
        -0.67759E-04
        -0.66094E-04
        -0.38699E-05
        -0.13101E-05
        -0.58751E-06
        -0.16690E-04
        -0.20621E-06
        -0.21075E-05
        -0.35046E-05
        -0.82950E-05
        -0.33771E-05
        -0.31345E-05
        -0.25424E-05
        -0.61896E-04
        -0.18546E-04
        -0.24452E-04
        -0.24160E-04
        -0.77665E-06
        -0.58575E-05
        -0.75596E-04
        -0.79979E-04
        -0.75757E-04
        -0.39437E-04
        -0.23267E-04
        -0.79473E-05
        -0.93280E-05
        -0.13126E-04
        -0.19658E-06
        -0.31351E-06
        -0.34361E-04
        -0.26246E-04
        -0.10656E-02
        -0.10839E-02
        -0.87607E-03
        -0.59700E-03
        -0.33054E-03
        -0.70127E-04
        -0.44347E-05
        -0.46130E-04
        -0.77980E-04
        -0.26416E-03
        -0.83698E-03
        -0.11689E-02
        -0.82051E-03
        -0.74282E-03
        -0.90477E-03
        -0.96191E-03
        -0.80037E-03
        -0.71582E-03
        -0.18426E-03
        -0.12600E-04
        -0.60369E-04
        -0.62371E-04
        -0.19598E-03
        -0.58872E-03
        -0.96653E-03
        -0.96130E-03
        -0.36627E-05
        -0.16280E-06
        -0.55655E-06
        -0.46402E-05
        -0.18914E-04
        -0.13823E-04
        -0.13545E-05
        -0.54009E-05
        -0.12233E-05
        -0.50428E-05
        -0.13361E-06
        -0.29353E-05
        -0.30641E-04
        -0.16933E-04
        -0.18889E-04
        -0.13990E-04
        -0.44313E-05
        -0.14342E-05
        -0.68086E-06
        -0.20502E-05
        -0.74627E-04
        -0.67755E-04
        -0.66106E-04
        -0.38710E-05
        -0.13170E-05
        -0.58996E-06
        -0.16699E-04
        -0.19760E-06
        -0.21361E-05
        -0.35100E-05
        -0.83207E-05
        -0.33766E-05
        -0.31059E-05
        -0.25436E-05
        -0.61965E-04
        -0.18534E-04
        -0.24440E-04
        -0.24235E-04
        -0.79052E-06
        -0.58943E-05
        -0.75700E-04
        -0.80091E-04
        -0.75794E-04
        -0.39436E-04
        -0.23253E-04
        -0.79415E-05
        -0.93230E-05
        -0.13134E-04
        -0.19295E-06
        -0.31213E-06
        -0.34327E-04
        -0.26171E-04
        -0.10649E-02
        -0.10834E-02
        -0.87590E-03
        -0.59700E-03
        -0.33033E-03
        -0.70084E-04
        -0.44440E-05
        -0.46186E-04
        -0.77848E-04
        -0.26395E-03
        -0.83670E-03
        -0.11690E-02
        -0.82044E-03
        -0.74277E-03
        -0.90506E-03
        -0.96250E-03
        -0.80073E-03
        -0.71607E-03
        -0.18415E-03
        -0.12608E-04
        -0.60274E-04
        -0.62322E-04
        -0.19570E-03
        -0.58801E-03
        -0.96557E-03
        -0.96044E-03
        -0.36741E-05
        -0.16443E-06
        -0.55769E-06
        -0.46457E-05
        -0.18879E-04
        -0.13797E-04
        -0.13712E-05
        -0.53712E-05
        -0.12253E-05
        -0.50322E-05
        -0.12690E-06
        -0.29494E-05
        -0.30679E-04
        -0.16848E-04
        -0.18868E-04
        -0.14025E-04
        -0.44511E-05
        -0.14258E-05
        -0.68016E-06
        -0.20435E-05
        -0.74625E-04
        -0.67750E-04
        -0.66118E-04
        -0.38722E-05
        -0.13239E-05
        -0.59250E-06
        -0.16706E-04
        -0.18921E-06
        -0.21646E-05
        -0.35157E-05
        -0.83465E-05
        -0.33761E-05
        -0.30772E-05
        -0.25448E-05
        -0.62033E-04
        -0.18521E-04
        -0.24428E-04
        -0.24310E-04
        -0.80455E-06
        -0.59319E-05
        -0.75805E-04
        -0.80202E-04
        -0.75831E-04
        -0.39436E-04
        -0.23240E-04
        -0.79358E-05
        -0.93182E-05
        -0.13143E-04
        -0.18935E-06
        -0.31082E-06
        -0.34290E-04
        -0.26096E-04
        -0.10641E-02
        -0.10828E-02
        -0.87573E-03
        -0.59700E-03
        -0.33013E-03
        -0.70043E-04
        -0.44536E-05
        -0.46242E-04
        -0.77717E-04
        -0.26374E-03
        -0.83643E-03
        -0.11690E-02
        -0.82037E-03
        -0.74272E-03
        -0.90535E-03
        -0.96308E-03
        -0.80109E-03
        -0.71632E-03
        -0.18404E-03
        -0.12615E-04
        -0.60179E-04
        -0.62274E-04
        -0.19542E-03
        -0.58730E-03
        -0.96462E-03
        -0.95958E-03
        -0.36856E-05
        -0.16609E-06
        -0.55884E-06
        -0.46512E-05
        -0.18843E-04
        -0.13772E-04
        -0.13880E-05
        -0.53414E-05
        -0.12272E-05
        -0.50213E-05
        -0.12039E-06
        -0.29635E-05
        -0.30718E-04
        -0.16763E-04
        -0.18846E-04
        -0.14059E-04
        -0.44710E-05
        -0.14175E-05
        -0.67949E-06
        -0.20368E-05
        -0.74622E-04
        -0.67747E-04
        -0.66129E-04
        -0.38733E-05
        -0.13307E-05
        -0.59496E-06
        -0.16714E-04
        -0.18098E-06
        -0.21935E-05
        -0.35211E-05
        -0.83723E-05
        -0.33756E-05
        -0.30487E-05
        -0.25461E-05
        -0.62099E-04
        -0.18509E-04
        -0.24417E-04
        -0.24385E-04
        -0.81873E-06
        -0.59691E-05
        -0.75911E-04
        -0.80313E-04
        -0.75867E-04
        -0.39436E-04
        -0.23227E-04
        -0.79290E-05
        -0.93134E-05
        -0.13151E-04
        -0.18577E-06
        -0.30943E-06
        -0.34254E-04
        -0.26020E-04
        -0.10634E-02
        -0.10823E-02
        -0.87556E-03
        -0.59700E-03
        -0.32992E-03
        -0.69999E-04
        -0.44633E-05
        -0.46296E-04
        -0.77584E-04
        -0.26353E-03
        -0.83616E-03
        -0.11691E-02
        -0.82030E-03
        -0.74268E-03
        -0.90565E-03
        -0.96367E-03
        -0.80146E-03
        -0.71657E-03
        -0.18394E-03
        -0.12623E-04
        -0.60084E-04
        -0.62226E-04
        -0.19514E-03
        -0.58659E-03
        -0.96367E-03
        -0.95873E-03
        -0.36971E-05
        -0.16773E-06
        -0.56000E-06
        -0.46566E-05
        -0.18809E-04
        -0.13746E-04
        -0.14048E-05
        -0.53118E-05
        -0.12292E-05
        -0.50105E-05
        -0.11406E-06
        -0.29776E-05
        -0.30756E-04
        -0.16679E-04
        -0.18825E-04
        -0.14094E-04
        -0.44909E-05
        -0.14092E-05
        -0.67894E-06
        -0.20302E-05
        -0.74619E-04
        -0.67742E-04
        -0.66141E-04
        -0.38744E-05
        -0.13375E-05
        -0.59744E-06
        -0.16721E-04
        -0.17299E-06
        -0.22226E-05
        -0.35265E-05
        -0.83979E-05
        -0.33751E-05
        -0.30204E-05
        -0.25473E-05
        -0.62168E-04
        -0.18497E-04
        -0.24405E-04
        -0.24459E-04
        -0.83304E-06
        -0.60070E-05
        -0.76016E-04
        -0.80424E-04
        -0.75904E-04
        -0.39436E-04
        -0.23213E-04
        -0.79232E-05
        -0.93084E-05
        -0.13160E-04
        -0.18224E-06
        -0.30806E-06
        -0.34219E-04
        -0.25945E-04
        -0.10627E-02
        -0.10817E-02
        -0.87539E-03
        -0.59700E-03
        -0.32972E-03
        -0.69955E-04
        -0.44729E-05
        -0.46350E-04
        -0.77452E-04
        -0.26332E-03
        -0.83588E-03
        -0.11692E-02
        -0.82024E-03
        -0.74263E-03
        -0.90594E-03
        -0.96427E-03
        -0.80182E-03
        -0.71681E-03
        -0.18383E-03
        -0.12630E-04
        -0.59989E-04
        -0.62179E-04
        -0.19486E-03
        -0.58587E-03
        -0.96272E-03
        -0.95787E-03
        -0.37086E-05
        -0.16937E-06
        -0.56115E-06
        -0.46622E-05
        -0.18773E-04
        -0.13720E-04
        -0.14217E-05
        -0.52822E-05
        -0.12312E-05
        -0.49998E-05
        -0.10790E-06
        -0.29920E-05
        -0.30794E-04
        -0.16595E-04
        -0.18803E-04
        -0.14128E-04
        -0.45108E-05
        -0.14009E-05
        -0.67825E-06
        -0.20234E-05
        -0.74618E-04
        -0.67738E-04
        -0.66151E-04
        -0.38756E-05
        -0.13443E-05
        -0.59991E-06
        -0.16729E-04
        -0.16518E-06
        -0.22519E-05
        -0.35319E-05
        -0.84237E-05
        -0.33745E-05
        -0.29921E-05
        -0.25485E-05
        -0.62235E-04
        -0.18485E-04
        -0.24394E-04
        -0.24533E-04
        -0.84748E-06
        -0.60446E-05
        -0.76120E-04
        -0.80536E-04
        -0.75940E-04
        -0.39436E-04
        -0.23199E-04
        -0.79174E-05
        -0.93034E-05
        -0.13168E-04
        -0.17868E-06
        -0.30672E-06
        -0.34182E-04
        -0.25869E-04
        -0.10619E-02
        -0.10812E-02
        -0.87523E-03
        -0.59700E-03
        -0.32952E-03
        -0.69912E-04
        -0.44823E-05
        -0.46403E-04
        -0.77321E-04
        -0.26311E-03
        -0.83561E-03
        -0.11693E-02
        -0.82017E-03
        -0.74258E-03
        -0.90623E-03
        -0.96486E-03
        -0.80219E-03
        -0.71706E-03
        -0.18372E-03
        -0.12638E-04
        -0.59895E-04
        -0.62132E-04
        -0.19458E-03
        -0.58516E-03
        -0.96177E-03
        -0.95702E-03
        -0.37201E-05
        -0.17106E-06
        -0.56231E-06
        -0.46676E-05
        -0.18738E-04
        -0.13696E-04
        -0.14387E-05
        -0.52526E-05
        -0.12331E-05
        -0.49890E-05
        -0.10191E-06
        -0.30062E-05
        -0.30833E-04
        -0.16511E-04
        -0.18781E-04
        -0.14163E-04
        -0.45307E-05
        -0.13928E-05
        -0.67758E-06
        -0.20168E-05
        -0.74615E-04
        -0.67734E-04
        -0.66164E-04
        -0.38767E-05
        -0.13509E-05
        -0.60241E-06
        -0.16736E-04
        -0.15756E-06
        -0.22812E-05
        -0.35372E-05
        -0.84494E-05
        -0.33740E-05
        -0.29640E-05
        -0.25497E-05
        -0.62304E-04
        -0.18473E-04
        -0.24383E-04
        -0.24606E-04
        -0.86213E-06
        -0.60822E-05
        -0.76224E-04
        -0.80646E-04
        -0.75976E-04
        -0.39434E-04
        -0.23186E-04
        -0.79109E-05
        -0.92986E-05
        -0.13176E-04
        -0.17520E-06
        -0.30533E-06
        -0.34147E-04
        -0.25794E-04
        -0.10612E-02
        -0.10806E-02
        -0.87506E-03
        -0.59700E-03
        -0.32931E-03
        -0.69868E-04
        -0.44915E-05
        -0.46457E-04
        -0.77190E-04
        -0.26290E-03
        -0.83535E-03
        -0.11694E-02
        -0.82011E-03
        -0.74253E-03
        -0.90652E-03
        -0.96545E-03
        -0.80255E-03
        -0.71730E-03
        -0.18361E-03
        -0.12645E-04
        -0.59799E-04
        -0.62085E-04
        -0.19430E-03
        -0.58445E-03
        -0.96082E-03
        -0.95616E-03
        -0.37317E-05
        -0.17273E-06
        -0.56349E-06
        -0.46730E-05
        -0.18703E-04
        -0.13670E-04
        -0.14558E-05
        -0.52232E-05
        -0.12350E-05
        -0.49778E-05
        -0.96101E-07
        -0.30206E-05
        -0.30872E-04
        -0.16427E-04
        -0.18759E-04
        -0.14198E-04
        -0.45507E-05
        -0.13847E-05
        -0.67695E-06
        -0.20100E-05
        -0.74613E-04
        -0.67728E-04
        -0.66175E-04
        -0.38780E-05
        -0.13575E-05
        -0.60488E-06
        -0.16743E-04
        -0.15005E-06
        -0.23105E-05
        -0.35425E-05
        -0.84754E-05
        -0.33736E-05
        -0.29361E-05
        -0.25511E-05
        -0.62373E-04
        -0.18461E-04
        -0.24371E-04
        -0.24680E-04
        -0.87705E-06
        -0.61205E-05
        -0.76325E-04
        -0.80756E-04
        -0.76010E-04
        -0.39435E-04
        -0.23172E-04
        -0.79052E-05
        -0.92938E-05
        -0.13185E-04
        -0.17176E-06
        -0.30396E-06
        -0.34111E-04
        -0.25720E-04
        -0.10605E-02
        -0.10801E-02
        -0.87489E-03
        -0.59700E-03
        -0.32911E-03
        -0.69826E-04
        -0.45006E-05
        -0.46510E-04
        -0.77060E-04
        -0.26269E-03
        -0.83507E-03
        -0.11696E-02
        -0.82005E-03
        -0.74248E-03
        -0.90681E-03
        -0.96603E-03
        -0.80292E-03
        -0.71755E-03
        -0.18351E-03
        -0.12652E-04
        -0.59705E-04
        -0.62036E-04
        -0.19402E-03
        -0.58373E-03
        -0.95986E-03
        -0.95530E-03
        -0.37433E-05
        -0.17440E-06
        -0.56461E-06
        -0.46784E-05
        -0.18668E-04
        -0.13645E-04
        -0.14730E-05
        -0.51939E-05
        -0.12367E-05
        -0.49654E-05
        -0.90465E-07
        -0.30350E-05
        -0.30910E-04
        -0.16343E-04
        -0.18736E-04
        -0.14233E-04
        -0.45706E-05
        -0.13765E-05
        -0.67649E-06
        -0.20036E-05
        -0.74610E-04
        -0.67724E-04
        -0.66188E-04
        -0.38791E-05
        -0.13637E-05
        -0.60746E-06
        -0.16747E-04
        -0.14254E-06
        -0.23402E-05
        -0.35482E-05
        -0.85014E-05
        -0.33730E-05
        -0.29081E-05
        -0.25523E-05
        -0.62440E-04
        -0.18449E-04
        -0.24360E-04
        -0.24752E-04
        -0.89253E-06
        -0.61581E-05
        -0.76419E-04
        -0.80856E-04
        -0.76041E-04
        -0.39435E-04
        -0.23159E-04
        -0.78988E-05
        -0.92890E-05
        -0.13194E-04
        -0.16837E-06
        -0.30259E-06
        -0.34077E-04
        -0.25644E-04
        -0.10597E-02
        -0.10795E-02
        -0.87472E-03
        -0.59700E-03
        -0.32890E-03
        -0.69783E-04
        -0.45098E-05
        -0.46564E-04
        -0.76931E-04
        -0.26247E-03
        -0.83479E-03
        -0.11697E-02
        -0.82003E-03
        -0.74243E-03
        -0.90710E-03
        -0.96662E-03
        -0.80328E-03
        -0.71779E-03
        -0.18340E-03
        -0.12660E-04
        -0.59611E-04
        -0.61988E-04
        -0.19375E-03
        -0.58303E-03
        -0.95891E-03
        -0.95445E-03
        -0.37548E-05
        -0.17607E-06
        -0.56574E-06
        -0.46837E-05
        -0.18633E-04
        -0.13619E-04
        -0.14902E-05
        -0.51646E-05
        -0.12382E-05
        -0.49519E-05
        -0.85015E-07
        -0.30494E-05
        -0.30948E-04
        -0.16259E-04
        -0.18713E-04
        -0.14267E-04
        -0.45903E-05
        -0.13684E-05
        -0.67587E-06
        -0.19970E-05
        -0.74609E-04
        -0.67716E-04
        -0.66200E-04
        -0.38803E-05
        -0.13694E-05
        -0.60993E-06
        -0.16748E-04
        -0.13500E-06
        -0.23701E-05
        -0.35537E-05
        -0.85273E-05
        -0.33724E-05
        -0.28803E-05
        -0.25536E-05
        -0.62509E-04
        -0.18437E-04
        -0.24348E-04
        -0.24822E-04
        -0.90856E-06
        -0.61961E-05
        -0.76506E-04
        -0.80949E-04
        -0.76068E-04
        -0.39435E-04
        -0.23146E-04
        -0.78931E-05
        -0.92841E-05
        -0.13202E-04
        -0.16497E-06
        -0.30125E-06
        -0.34040E-04
        -0.25568E-04
        -0.10590E-02
        -0.10790E-02
        -0.87455E-03
        -0.59700E-03
        -0.32870E-03
        -0.69741E-04
        -0.45190E-05
        -0.46617E-04
        -0.76804E-04
        -0.26224E-03
        -0.83450E-03
        -0.11700E-02
        -0.82004E-03
        -0.74239E-03
        -0.90739E-03
        -0.96721E-03
        -0.80365E-03
        -0.71803E-03
        -0.18329E-03
        -0.12667E-04
        -0.59517E-04
        -0.61940E-04
        -0.19347E-03
        -0.58232E-03
        -0.95796E-03
        -0.95360E-03
        -0.37665E-05
        -0.17777E-06
        -0.56692E-06
        -0.46892E-05
        -0.18599E-04
        -0.13595E-04
        -0.15074E-05
        -0.51355E-05
        -0.12397E-05
        -0.49381E-05
        -0.79771E-07
        -0.30635E-05
        -0.30986E-04
        -0.16175E-04
        -0.18689E-04
        -0.14302E-04
        -0.46102E-05
        -0.13604E-05
        -0.67522E-06
        -0.19905E-05
        -0.74605E-04
        -0.67710E-04
        -0.66210E-04
        -0.38815E-05
        -0.13749E-05
        -0.61241E-06
        -0.16749E-04
        -0.12765E-06
        -0.23999E-05
        -0.35590E-05
        -0.85534E-05
        -0.33719E-05
        -0.28529E-05
        -0.25549E-05
        -0.62579E-04
        -0.18426E-04
        -0.24337E-04
        -0.24892E-04
        -0.92490E-06
        -0.62331E-05
        -0.76589E-04
        -0.81037E-04
        -0.76093E-04
        -0.39435E-04
        -0.23132E-04
        -0.78872E-05
        -0.92796E-05
        -0.13211E-04
        -0.16164E-06
        -0.29985E-06
        -0.34006E-04
        -0.25495E-04
        -0.10583E-02
        -0.10784E-02
        -0.87438E-03
        -0.59701E-03
        -0.32850E-03
        -0.69696E-04
        -0.45279E-05
        -0.46668E-04
        -0.76677E-04
        -0.26202E-03
        -0.83421E-03
        -0.11702E-02
        -0.82005E-03
        -0.74235E-03
        -0.90768E-03
        -0.96779E-03
        -0.80401E-03
        -0.71827E-03
        -0.18318E-03
        -0.12675E-04
        -0.59424E-04
        -0.61892E-04
        -0.19319E-03
        -0.58161E-03
        -0.95702E-03
        -0.95275E-03
        -0.38062E-05
        -0.18047E-06
        -0.57247E-06
        -0.47293E-05
        -0.18697E-04
        -0.13669E-04
        -0.15341E-05
        -0.51484E-05
        -0.12502E-05
        -0.49639E-05
        -0.75910E-07
        -0.30962E-05
        -0.31240E-04
        -0.16220E-04
        -0.18808E-04
        -0.14441E-04
        -0.46636E-05
        -0.13631E-05
        -0.67927E-06
        -0.19979E-05
        -0.75118E-04
        -0.68184E-04
        -0.66674E-04
        -0.39110E-05
        -0.13902E-05
        -0.61918E-06
        -0.16879E-04
        -0.12187E-06
        -0.24455E-05
        -0.35904E-05
        -0.86419E-05
        -0.33959E-05
        -0.28491E-05
        -0.25757E-05
        -0.63088E-04
        -0.18548E-04
        -0.24500E-04
        -0.25145E-04
        -0.94689E-06
        -0.63134E-05
        -0.77232E-04
        -0.81720E-04
        -0.76670E-04
        -0.39706E-04
        -0.23280E-04
        -0.79345E-05
        -0.93424E-05
        -0.13318E-04
        -0.15988E-06
        -0.30062E-06
        -0.34216E-04
        -0.25609E-04
        -0.10648E-02
        -0.10851E-02
        -0.88018E-03
        -0.60103E-03
        -0.33055E-03
        -0.70120E-04
        -0.45718E-05
        -0.47040E-04
        -0.77104E-04
        -0.26368E-03
        -0.83993E-03
        -0.11786E-02
        -0.82550E-03
        -0.74713E-03
        -0.91371E-03
        -0.97437E-03
        -0.80937E-03
        -0.72315E-03
        -0.18432E-03
        -0.12775E-04
        -0.59746E-04
        -0.62250E-04
        -0.19422E-03
        -0.58482E-03
        -0.96240E-03
        -0.95814E-03
        -0.84416E-05
        -0.40560E-06
        -0.12645E-05
        -0.10522E-04
        -0.38382E-04
        -0.28599E-04
        -0.34287E-05
        -0.11265E-04
        -0.27550E-05
        -0.10825E-04
        -0.15839E-06
        -0.61419E-05
        -0.63825E-04
        -0.34447E-04
        -0.37657E-04
        -0.32079E-04
        -0.10305E-04
        -0.30209E-05
        -0.14668E-05
        -0.43336E-05
        -0.15324E-03
        -0.14269E-03
        -0.13677E-03
        -0.85807E-05
        -0.30930E-05
        -0.13830E-05
        -0.36487E-04
        -0.26155E-06
        -0.55051E-05
        -0.79666E-05
        -0.19215E-04
        -0.75029E-05
        -0.63088E-05
        -0.57311E-05
        -0.12486E-03
        -0.38766E-04
        -0.51254E-04
        -0.52741E-04
        -0.20561E-05
        -0.13732E-04
        -0.16307E-03
        -0.17509E-03
        -0.16402E-03
        -0.82627E-04
        -0.48117E-04
        -0.15476E-04
        -0.19178E-04
        -0.28081E-04
        -0.33584E-06
        -0.63234E-06
        -0.68631E-04
        -0.53251E-04
        -0.16588E-02
        -0.16848E-02
        -0.13681E-02
        -0.93962E-03
        -0.51594E-03
        -0.10997E-03
        -0.73565E-05
        -0.76772E-04
        -0.12519E-03
        -0.42340E-03
        -0.13524E-02
        -0.18907E-02
        -0.13531E-02
        -0.12322E-02
        -0.14689E-02
        -0.15312E-02
        -0.12642E-02
        -0.11174E-02
        -0.28431E-03
        -0.19788E-04
        -0.94292E-04
        -0.99106E-04
        -0.30699E-03
        -0.93086E-03
        -0.15225E-02
        -0.15049E-02
  
SCALARS                      strain_yy  double 1
LOOKUP_TABLE default
        -0.95379E-06
        -0.10160E-06
        -0.70266E-06
        -0.19390E-06
        -0.79196E-20
        -0.60162E-21
        -0.12163E-19
        -0.70763E-20
        -0.96238E-05
        -0.42172E-05
        -0.26939E-19
        -0.20879E-19
        -0.70051E-05
        -0.18074E-07
        -0.13797E-19
        -0.56714E-22
        -0.93102E-06
        -0.11514E-04
        -0.29865E-23
        -0.31266E-21
        -0.29632E-05
        -0.40496E-04
        -0.46336E-04
        -0.72501E-19
        -0.21623E-18
        -0.15108E-18
        -0.39398E-06
        -0.39474E-04
        -0.37514E-19
        -0.14118E-18
        -0.12135E-05
        -0.87758E-06
        -0.69671E-06
        -0.10082E-19
        -0.10507E-19
        -0.45285E-23
        -0.10418E-04
        -0.90688E-05
        -0.34141E-19
        -0.20667E-19
        -0.98168E-05
        -0.37815E-05
        -0.19499E-19
        -0.16285E-19
        -0.84155E-05
        -0.10184E-05
        -0.21457E-22
        -0.51336E-20
        -0.63462E-05
        -0.11380E-20
        -0.71498E-07
        -0.74652E-23
        -0.20669E-07
        -0.17027E-19
        -0.89247E-06
        -0.57620E-20
        -0.94958E-05
        -0.31785E-06
        -0.42408E-23
        -0.17470E-22
        -0.17829E-05
        -0.23295E-04
        -0.78725E-21
        -0.11015E-19
        -0.65772E-06
        -0.32076E-20
        -0.11857E-04
        -0.47604E-20
        -0.73652E-05
        -0.20535E-05
        -0.72702E-22
        -0.12674E-19
        -0.24754E-04
        -0.61113E-19
        -0.62354E-04
        -0.57294E-19
        -0.62882E-04
        -0.33015E-19
        -0.42883E-04
        -0.23194E-19
        -0.94783E-04
        -0.57387E-04
        -0.95450E-20
        -0.46921E-21
        -0.11847E-05
        -0.58747E-23
        -0.20534E-04
        -0.23054E-19
        -0.11214E-03
        -0.70652E-19
        -0.21493E-03
        -0.81712E-04
        -0.15542E-18
        -0.10182E-18
        -0.40940E-04
        -0.61358E-19
        -0.33261E-04
        -0.64220E-19
        -0.31241E-04
        -0.74244E-19
        -0.86265E-04
        -0.60070E-04
        -0.64207E-19
        -0.14741E-19
        -0.37076E-04
        -0.54336E-05
        -0.79382E-20
        -0.12259E-19
        -0.22316E-03
        -0.87855E-19
        -0.46942E-03
        -0.18798E-18
        -0.68582E-03
        -0.28671E-18
        -0.88982E-03
        -0.28210E-18
        -0.11627E-02
        -0.17667E-18
        -0.11713E-02
        -0.10580E-18
        -0.10346E-02
        -0.91528E-19
        -0.82016E-03
        -0.82852E-19
        -0.45385E-03
        -0.33838E-19
        -0.22234E-03
        -0.36885E-20
        -0.60282E-04
        -0.15401E-20
        -0.32520E-06
        -0.34793E-20
        -0.59555E-04
        -0.92814E-21
        -0.19668E-03
        -0.84885E-20
        -0.47063E-03
        -0.67630E-19
        -0.55897E-03
        -0.16491E-18
        -0.63845E-03
        -0.28342E-18
        -0.10255E-02
        -0.28293E-18
        -0.11285E-02
        -0.21561E-18
        -0.97623E-03
        -0.20480E-18
        -0.63165E-03
        -0.20735E-18
        -0.29202E-03
        -0.12966E-18
        -0.14896E-03
        -0.45340E-19
        -0.78702E-04
        -0.27107E-19
        -0.14934E-04
        -0.40880E-05
        -0.31058E-05
        -0.29067E-06
        -0.33388E-05
        -0.36776E-05
        -0.42200E-07
        -0.98077E-05
        -0.69530E-05
        -0.15328E-04
        -0.43811E-05
        -0.80174E-04
        -0.36923E-04
        -0.49605E-06
        -0.81366E-04
        -0.10388E-05
        -0.82000E-06
        -0.33455E-06
        -0.59537E-06
        -0.33762E-06
        -0.28783E-06
        -0.19432E-06
        -0.22224E-05
        -0.15731E-07
        -0.71381E-05
        -0.15615E-06
        -0.42769E-09
        -0.13049E-06
        -0.19509E-06
        -0.44411E-05
        -0.99250E-06
        -0.12013E-05
        -0.52500E-06
        -0.31731E-07
        -0.91814E-07
        -0.26488E-05
        -0.13203E-04
        -0.62353E-04
        -0.52122E-04
        -0.37826E-04
        -0.33933E-04
        -0.20346E-05
        -0.13226E-05
        -0.99896E-05
        -0.27686E-04
        -0.75747E-04
        -0.31921E-04
        -0.16025E-04
        -0.18273E-04
        -0.21014E-04
        -0.29449E-04
        -0.59993E-05
        -0.22941E-04
        -0.32527E-04
        -0.23946E-03
        -0.45513E-03
        -0.74090E-03
        -0.10567E-02
        -0.10794E-02
        -0.88677E-03
        -0.80153E-03
        -0.71698E-03
        -0.30047E-03
        -0.56351E-04
        -0.10779E-04
        -0.20852E-05
        -0.48567E-05
        -0.75497E-04
        -0.25517E-03
        -0.43894E-03
        -0.66250E-03
        -0.86534E-03
        -0.75953E-03
        -0.67855E-03
        -0.58842E-03
        -0.28736E-03
        -0.96647E-04
        -0.74108E-04
        -0.30692E-04
        -0.12209E-04
        -0.10455E-04
        -0.58818E-06
        -0.17636E-04
        -0.35675E-05
        -0.22432E-05
        -0.27416E-04
        -0.11790E-04
        -0.24252E-04
        -0.67789E-05
        -0.12698E-03
        -0.44566E-04
        -0.92031E-06
        -0.12326E-03
        -0.44140E-05
        -0.40537E-06
        -0.36948E-06
        -0.75063E-05
        -0.28058E-06
        -0.55768E-05
        -0.28112E-05
        -0.94484E-06
        -0.67309E-06
        -0.10997E-04
        -0.67281E-06
        -0.42366E-07
        -0.14641E-06
        -0.37356E-06
        -0.10943E-04
        -0.51268E-05
        -0.35574E-06
        -0.21418E-05
        -0.16147E-05
        -0.36713E-06
        -0.34113E-05
        -0.12436E-04
        -0.71193E-04
        -0.55362E-04
        -0.42996E-04
        -0.23206E-04
        -0.14169E-05
        -0.60114E-05
        -0.93794E-05
        -0.15552E-04
        -0.64898E-04
        -0.21973E-04
        -0.96088E-05
        -0.15178E-04
        -0.21153E-04
        -0.22711E-04
        -0.12785E-06
        -0.35311E-04
        -0.72253E-04
        -0.39130E-03
        -0.65350E-03
        -0.10887E-02
        -0.15678E-02
        -0.15041E-02
        -0.11470E-02
        -0.10534E-02
        -0.10312E-02
        -0.40663E-03
        -0.44172E-04
        -0.70122E-05
        -0.51483E-05
        -0.11044E-05
        -0.79482E-04
        -0.31900E-03
        -0.61796E-03
        -0.10466E-02
        -0.12870E-02
        -0.99231E-03
        -0.88691E-03
        -0.88165E-03
        -0.43708E-03
        -0.11795E-03
        -0.10575E-03
        -0.30730E-04
        -0.12213E-04
        -0.10465E-04
        -0.59684E-06
        -0.17641E-04
        -0.35730E-05
        -0.22489E-05
        -0.27509E-04
        -0.11832E-04
        -0.24434E-04
        -0.67870E-05
        -0.12696E-03
        -0.44588E-04
        -0.92036E-06
        -0.12358E-03
        -0.44145E-05
        -0.41278E-06
        -0.36838E-06
        -0.75165E-05
        -0.27746E-06
        -0.56043E-05
        -0.28165E-05
        -0.94529E-06
        -0.67245E-06
        -0.11097E-04
        -0.67037E-06
        -0.43371E-07
        -0.14805E-06
        -0.36865E-06
        -0.10990E-04
        -0.51286E-05
        -0.35418E-06
        -0.21513E-05
        -0.16200E-05
        -0.36027E-06
        -0.34158E-05
        -0.12435E-04
        -0.71412E-04
        -0.55601E-04
        -0.43096E-04
        -0.23242E-04
        -0.14093E-05
        -0.60238E-05
        -0.93890E-05
        -0.15553E-04
        -0.64898E-04
        -0.21977E-04
        -0.95973E-05
        -0.15137E-04
        -0.21096E-04
        -0.22691E-04
        -0.12401E-06
        -0.35245E-04
        -0.72261E-04
        -0.39145E-03
        -0.65352E-03
        -0.10884E-02
        -0.15667E-02
        -0.15029E-02
        -0.11463E-02
        -0.10529E-02
        -0.10306E-02
        -0.40646E-03
        -0.44213E-04
        -0.70111E-05
        -0.51695E-05
        -0.10865E-05
        -0.79566E-04
        -0.31929E-03
        -0.61824E-03
        -0.10466E-02
        -0.12868E-02
        -0.99217E-03
        -0.88684E-03
        -0.88120E-03
        -0.43646E-03
        -0.11769E-03
        -0.10547E-03
        -0.30769E-04
        -0.12218E-04
        -0.10476E-04
        -0.60566E-06
        -0.17644E-04
        -0.35789E-05
        -0.22545E-05
        -0.27602E-04
        -0.11875E-04
        -0.24615E-04
        -0.67951E-05
        -0.12694E-03
        -0.44611E-04
        -0.92017E-06
        -0.12389E-03
        -0.44151E-05
        -0.42033E-06
        -0.36726E-06
        -0.75269E-05
        -0.27430E-06
        -0.56323E-05
        -0.28218E-05
        -0.94601E-06
        -0.67163E-06
        -0.11196E-04
        -0.66758E-06
        -0.44457E-07
        -0.14981E-06
        -0.36332E-06
        -0.11034E-04
        -0.51302E-05
        -0.35231E-06
        -0.21609E-05
        -0.16252E-05
        -0.35343E-06
        -0.34205E-05
        -0.12433E-04
        -0.71633E-04
        -0.55841E-04
        -0.43197E-04
        -0.23279E-04
        -0.14009E-05
        -0.60354E-05
        -0.94011E-05
        -0.15557E-04
        -0.64902E-04
        -0.21982E-04
        -0.95853E-05
        -0.15097E-04
        -0.21040E-04
        -0.22672E-04
        -0.12024E-06
        -0.35180E-04
        -0.72269E-04
        -0.39160E-03
        -0.65353E-03
        -0.10881E-02
        -0.15657E-02
        -0.15016E-02
        -0.11456E-02
        -0.10525E-02
        -0.10301E-02
        -0.40629E-03
        -0.44257E-04
        -0.70103E-05
        -0.51908E-05
        -0.10686E-05
        -0.79653E-04
        -0.31959E-03
        -0.61853E-03
        -0.10466E-02
        -0.12866E-02
        -0.99203E-03
        -0.88677E-03
        -0.88075E-03
        -0.43584E-03
        -0.11743E-03
        -0.10519E-03
        -0.30807E-04
        -0.12223E-04
        -0.10486E-04
        -0.61458E-06
        -0.17649E-04
        -0.35847E-05
        -0.22605E-05
        -0.27694E-04
        -0.11918E-04
        -0.24794E-04
        -0.68032E-05
        -0.12691E-03
        -0.44635E-04
        -0.92021E-06
        -0.12420E-03
        -0.44158E-05
        -0.42809E-06
        -0.36612E-06
        -0.75380E-05
        -0.27097E-06
        -0.56610E-05
        -0.28266E-05
        -0.94764E-06
        -0.67030E-06
        -0.11293E-04
        -0.66394E-06
        -0.45594E-07
        -0.15215E-06
        -0.35677E-06
        -0.11075E-04
        -0.51309E-05
        -0.34978E-06
        -0.21704E-05
        -0.16305E-05
        -0.34669E-06
        -0.34249E-05
        -0.12431E-04
        -0.71855E-04
        -0.56087E-04
        -0.43305E-04
        -0.23322E-04
        -0.13903E-05
        -0.60449E-05
        -0.94196E-05
        -0.15566E-04
        -0.64908E-04
        -0.21989E-04
        -0.95738E-05
        -0.15057E-04
        -0.20983E-04
        -0.22652E-04
        -0.11654E-06
        -0.35114E-04
        -0.72277E-04
        -0.39174E-03
        -0.65354E-03
        -0.10879E-02
        -0.15646E-02
        -0.15003E-02
        -0.11449E-02
        -0.10520E-02
        -0.10295E-02
        -0.40614E-03
        -0.44309E-04
        -0.70105E-05
        -0.52117E-05
        -0.10508E-05
        -0.79747E-04
        -0.31994E-03
        -0.61887E-03
        -0.10465E-02
        -0.12865E-02
        -0.99189E-03
        -0.88669E-03
        -0.88030E-03
        -0.43522E-03
        -0.11718E-03
        -0.10492E-03
        -0.30845E-04
        -0.12227E-04
        -0.10497E-04
        -0.62352E-06
        -0.17653E-04
        -0.35904E-05
        -0.22660E-05
        -0.27785E-04
        -0.11961E-04
        -0.24972E-04
        -0.68114E-05
        -0.12689E-03
        -0.44657E-04
        -0.92032E-06
        -0.12452E-03
        -0.44167E-05
        -0.43604E-06
        -0.36497E-06
        -0.75495E-05
        -0.26749E-06
        -0.56901E-05
        -0.28308E-05
        -0.95014E-06
        -0.66843E-06
        -0.11386E-04
        -0.65936E-06
        -0.46875E-07
        -0.15503E-06
        -0.34899E-06
        -0.11112E-04
        -0.51310E-05
        -0.34648E-06
        -0.21799E-05
        -0.16358E-05
        -0.33996E-06
        -0.34294E-05
        -0.12430E-04
        -0.72078E-04
        -0.56337E-04
        -0.43419E-04
        -0.23372E-04
        -0.13773E-05
        -0.60522E-05
        -0.94448E-05
        -0.15581E-04
        -0.64924E-04
        -0.21999E-04
        -0.95634E-05
        -0.15018E-04
        -0.20926E-04
        -0.22633E-04
        -0.11287E-06
        -0.35048E-04
        -0.72286E-04
        -0.39188E-03
        -0.65355E-03
        -0.10876E-02
        -0.15635E-02
        -0.14991E-02
        -0.11442E-02
        -0.10516E-02
        -0.10289E-02
        -0.40601E-03
        -0.44371E-04
        -0.70119E-05
        -0.52323E-05
        -0.10330E-05
        -0.79848E-04
        -0.32033E-03
        -0.61925E-03
        -0.10465E-02
        -0.12863E-02
        -0.99175E-03
        -0.88662E-03
        -0.87986E-03
        -0.43460E-03
        -0.11692E-03
        -0.10464E-03
        -0.30881E-04
        -0.12230E-04
        -0.10507E-04
        -0.63264E-06
        -0.17657E-04
        -0.35961E-05
        -0.22710E-05
        -0.27873E-04
        -0.12004E-04
        -0.25146E-04
        -0.68207E-05
        -0.12687E-03
        -0.44681E-04
        -0.92064E-06
        -0.12484E-03
        -0.44177E-05
        -0.44423E-06
        -0.36385E-06
        -0.75611E-05
        -0.26395E-06
        -0.57193E-05
        -0.28349E-05
        -0.95302E-06
        -0.66637E-06
        -0.11477E-04
        -0.65450E-06
        -0.48274E-07
        -0.15826E-06
        -0.34075E-06
        -0.11146E-04
        -0.51304E-05
        -0.34284E-06
        -0.21896E-05
        -0.16414E-05
        -0.33326E-06
        -0.34344E-05
        -0.12430E-04
        -0.72304E-04
        -0.56591E-04
        -0.43538E-04
        -0.23423E-04
        -0.13636E-05
        -0.60585E-05
        -0.94721E-05
        -0.15601E-04
        -0.64946E-04
        -0.22010E-04
        -0.95549E-05
        -0.14980E-04
        -0.20870E-04
        -0.22614E-04
        -0.10927E-06
        -0.34982E-04
        -0.72294E-04
        -0.39203E-03
        -0.65356E-03
        -0.10873E-02
        -0.15625E-02
        -0.14978E-02
        -0.11435E-02
        -0.10511E-02
        -0.10283E-02
        -0.40588E-03
        -0.44436E-04
        -0.70138E-05
        -0.52529E-05
        -0.10155E-05
        -0.79952E-04
        -0.32074E-03
        -0.61963E-03
        -0.10465E-02
        -0.12862E-02
        -0.99162E-03
        -0.88656E-03
        -0.87941E-03
        -0.43398E-03
        -0.11666E-03
        -0.10436E-03
        -0.30915E-04
        -0.12229E-04
        -0.10517E-04
        -0.64205E-06
        -0.17661E-04
        -0.36020E-05
        -0.22749E-05
        -0.27953E-04
        -0.12048E-04
        -0.25313E-04
        -0.68318E-05
        -0.12686E-03
        -0.44710E-04
        -0.92206E-06
        -0.12516E-03
        -0.44192E-05
        -0.45271E-06
        -0.36273E-06
        -0.75729E-05
        -0.26044E-06
        -0.57488E-05
        -0.28390E-05
        -0.95593E-06
        -0.66436E-06
        -0.11566E-04
        -0.64963E-06
        -0.49948E-07
        -0.16173E-06
        -0.33246E-06
        -0.11180E-04
        -0.51295E-05
        -0.33896E-06
        -0.21997E-05
        -0.16472E-05
        -0.32661E-06
        -0.34396E-05
        -0.12431E-04
        -0.72533E-04
        -0.56848E-04
        -0.43656E-04
        -0.23476E-04
        -0.13497E-05
        -0.60645E-05
        -0.94996E-05
        -0.15621E-04
        -0.64972E-04
        -0.22028E-04
        -0.95517E-05
        -0.14949E-04
        -0.20817E-04
        -0.22595E-04
        -0.10568E-06
        -0.34916E-04
        -0.72302E-04
        -0.39217E-03
        -0.65357E-03
        -0.10871E-02
        -0.15614E-02
        -0.14965E-02
        -0.11428E-02
        -0.10507E-02
        -0.10278E-02
        -0.40575E-03
        -0.44502E-04
        -0.70158E-05
        -0.52737E-05
        -0.99801E-06
        -0.80057E-04
        -0.32115E-03
        -0.62001E-03
        -0.10464E-02
        -0.12860E-02
        -0.99152E-03
        -0.88652E-03
        -0.87895E-03
        -0.43335E-03
        -0.11641E-03
        -0.10409E-03
        -0.30947E-04
        -0.12228E-04
        -0.10528E-04
        -0.65167E-06
        -0.17666E-04
        -0.36078E-05
        -0.22780E-05
        -0.28029E-04
        -0.12093E-04
        -0.25476E-04
        -0.68441E-05
        -0.12685E-03
        -0.44740E-04
        -0.92371E-06
        -0.12548E-03
        -0.44209E-05
        -0.46137E-06
        -0.36158E-06
        -0.75846E-05
        -0.25695E-06
        -0.57783E-05
        -0.28433E-05
        -0.95877E-06
        -0.66241E-06
        -0.11655E-04
        -0.64479E-06
        -0.51718E-07
        -0.16532E-06
        -0.32425E-06
        -0.11213E-04
        -0.51284E-05
        -0.33493E-06
        -0.22099E-05
        -0.16532E-05
        -0.31997E-06
        -0.34453E-05
        -0.12433E-04
        -0.72766E-04
        -0.57106E-04
        -0.43777E-04
        -0.23529E-04
        -0.13358E-05
        -0.60704E-05
        -0.95274E-05
        -0.15642E-04
        -0.65001E-04
        -0.22049E-04
        -0.95503E-05
        -0.14921E-04
        -0.20765E-04
        -0.22576E-04
        -0.10215E-06
        -0.34850E-04
        -0.72310E-04
        -0.39230E-03
        -0.65358E-03
        -0.10868E-02
        -0.15603E-02
        -0.14952E-02
        -0.11421E-02
        -0.10503E-02
        -0.10272E-02
        -0.40562E-03
        -0.44567E-04
        -0.70178E-05
        -0.52948E-05
        -0.98067E-06
        -0.80161E-04
        -0.32156E-03
        -0.62038E-03
        -0.10464E-02
        -0.12858E-02
        -0.99143E-03
        -0.88648E-03
        -0.87849E-03
        -0.43273E-03
        -0.11615E-03
        -0.10381E-03
        -0.30978E-04
        -0.12226E-04
        -0.10538E-04
        -0.66136E-06
        -0.17671E-04
        -0.36135E-05
        -0.22811E-05
        -0.28105E-04
        -0.12138E-04
        -0.25640E-04
        -0.68558E-05
        -0.12684E-03
        -0.44769E-04
        -0.92560E-06
        -0.12580E-03
        -0.44226E-05
        -0.47015E-06
        -0.36042E-06
        -0.75962E-05
        -0.25346E-06
        -0.58079E-05
        -0.28476E-05
        -0.96164E-06
        -0.66048E-06
        -0.11744E-04
        -0.64001E-06
        -0.53565E-07
        -0.16892E-06
        -0.31615E-06
        -0.11247E-04
        -0.51272E-05
        -0.33097E-06
        -0.22202E-05
        -0.16592E-05
        -0.31336E-06
        -0.34506E-05
        -0.12434E-04
        -0.72999E-04
        -0.57366E-04
        -0.43895E-04
        -0.23582E-04
        -0.13221E-05
        -0.60763E-05
        -0.95554E-05
        -0.15664E-04
        -0.65031E-04
        -0.22068E-04
        -0.95491E-05
        -0.14892E-04
        -0.20713E-04
        -0.22559E-04
        -0.98662E-07
        -0.34785E-04
        -0.72317E-04
        -0.39244E-03
        -0.65359E-03
        -0.10866E-02
        -0.15593E-02
        -0.14940E-02
        -0.11414E-02
        -0.10498E-02
        -0.10266E-02
        -0.40548E-03
        -0.44632E-04
        -0.70201E-05
        -0.53163E-05
        -0.96355E-06
        -0.80265E-04
        -0.32196E-03
        -0.62075E-03
        -0.10463E-02
        -0.12856E-02
        -0.99134E-03
        -0.88644E-03
        -0.87802E-03
        -0.43211E-03
        -0.11590E-03
        -0.10354E-03
        -0.31009E-04
        -0.12224E-04
        -0.10548E-04
        -0.67106E-06
        -0.17675E-04
        -0.36192E-05
        -0.22841E-05
        -0.28181E-04
        -0.12183E-04
        -0.25804E-04
        -0.68681E-05
        -0.12682E-03
        -0.44801E-04
        -0.92723E-06
        -0.12613E-03
        -0.44243E-05
        -0.47906E-06
        -0.35927E-06
        -0.76078E-05
        -0.24997E-06
        -0.58375E-05
        -0.28517E-05
        -0.96438E-06
        -0.65855E-06
        -0.11834E-04
        -0.63525E-06
        -0.55393E-07
        -0.17251E-06
        -0.30819E-06
        -0.11280E-04
        -0.51260E-05
        -0.32702E-06
        -0.22303E-05
        -0.16653E-05
        -0.30683E-06
        -0.34563E-05
        -0.12436E-04
        -0.73233E-04
        -0.57626E-04
        -0.44015E-04
        -0.23634E-04
        -0.13085E-05
        -0.60823E-05
        -0.95831E-05
        -0.15685E-04
        -0.65060E-04
        -0.22088E-04
        -0.95485E-05
        -0.14864E-04
        -0.20661E-04
        -0.22540E-04
        -0.95251E-07
        -0.34718E-04
        -0.72324E-04
        -0.39257E-03
        -0.65360E-03
        -0.10863E-02
        -0.15582E-02
        -0.14927E-02
        -0.11407E-02
        -0.10494E-02
        -0.10260E-02
        -0.40535E-03
        -0.44697E-04
        -0.70224E-05
        -0.53377E-05
        -0.94661E-06
        -0.80370E-04
        -0.32237E-03
        -0.62113E-03
        -0.10463E-02
        -0.12855E-02
        -0.99124E-03
        -0.88640E-03
        -0.87756E-03
        -0.43149E-03
        -0.11565E-03
        -0.10326E-03
        -0.31040E-04
        -0.12222E-04
        -0.10558E-04
        -0.68083E-06
        -0.17679E-04
        -0.36249E-05
        -0.22876E-05
        -0.28256E-04
        -0.12228E-04
        -0.25968E-04
        -0.68804E-05
        -0.12681E-03
        -0.44830E-04
        -0.92903E-06
        -0.12645E-03
        -0.44261E-05
        -0.48807E-06
        -0.35812E-06
        -0.76194E-05
        -0.24648E-06
        -0.58672E-05
        -0.28557E-05
        -0.96726E-06
        -0.65666E-06
        -0.11923E-04
        -0.63051E-06
        -0.57284E-07
        -0.17609E-06
        -0.30033E-06
        -0.11314E-04
        -0.51249E-05
        -0.32310E-06
        -0.22406E-05
        -0.16713E-05
        -0.30034E-06
        -0.34618E-05
        -0.12438E-04
        -0.73467E-04
        -0.57887E-04
        -0.44133E-04
        -0.23687E-04
        -0.12950E-05
        -0.60882E-05
        -0.96105E-05
        -0.15707E-04
        -0.65090E-04
        -0.22109E-04
        -0.95472E-05
        -0.14835E-04
        -0.20609E-04
        -0.22522E-04
        -0.91890E-07
        -0.34652E-04
        -0.72331E-04
        -0.39270E-03
        -0.65361E-03
        -0.10860E-02
        -0.15571E-02
        -0.14914E-02
        -0.11400E-02
        -0.10490E-02
        -0.10254E-02
        -0.40522E-03
        -0.44761E-04
        -0.70246E-05
        -0.53589E-05
        -0.92976E-06
        -0.80475E-04
        -0.32278E-03
        -0.62150E-03
        -0.10462E-02
        -0.12853E-02
        -0.99114E-03
        -0.88636E-03
        -0.87709E-03
        -0.43087E-03
        -0.11539E-03
        -0.10299E-03
        -0.31072E-04
        -0.12220E-04
        -0.10568E-04
        -0.69076E-06
        -0.17684E-04
        -0.36307E-05
        -0.22906E-05
        -0.28332E-04
        -0.12274E-04
        -0.26132E-04
        -0.68927E-05
        -0.12680E-03
        -0.44859E-04
        -0.93082E-06
        -0.12677E-03
        -0.44278E-05
        -0.49718E-06
        -0.35695E-06
        -0.76310E-05
        -0.24305E-06
        -0.58970E-05
        -0.28597E-05
        -0.97013E-06
        -0.65479E-06
        -0.12013E-04
        -0.62582E-06
        -0.59164E-07
        -0.17969E-06
        -0.29257E-06
        -0.11347E-04
        -0.51237E-05
        -0.31920E-06
        -0.22508E-05
        -0.16774E-05
        -0.29389E-06
        -0.34673E-05
        -0.12439E-04
        -0.73703E-04
        -0.58148E-04
        -0.44252E-04
        -0.23740E-04
        -0.12817E-05
        -0.60940E-05
        -0.96382E-05
        -0.15728E-04
        -0.65120E-04
        -0.22128E-04
        -0.95467E-05
        -0.14807E-04
        -0.20558E-04
        -0.22504E-04
        -0.88595E-07
        -0.34586E-04
        -0.72338E-04
        -0.39284E-03
        -0.65362E-03
        -0.10858E-02
        -0.15561E-02
        -0.14901E-02
        -0.11393E-02
        -0.10486E-02
        -0.10248E-02
        -0.40508E-03
        -0.44826E-04
        -0.70267E-05
        -0.53801E-05
        -0.91300E-06
        -0.80579E-04
        -0.32319E-03
        -0.62187E-03
        -0.10461E-02
        -0.12851E-02
        -0.99105E-03
        -0.88632E-03
        -0.87662E-03
        -0.43025E-03
        -0.11514E-03
        -0.10271E-03
        -0.31103E-04
        -0.12218E-04
        -0.10578E-04
        -0.70079E-06
        -0.17688E-04
        -0.36365E-05
        -0.22937E-05
        -0.28408E-04
        -0.12319E-04
        -0.26296E-04
        -0.69050E-05
        -0.12678E-03
        -0.44891E-04
        -0.93239E-06
        -0.12710E-03
        -0.44295E-05
        -0.50638E-06
        -0.35577E-06
        -0.76426E-05
        -0.23966E-06
        -0.59269E-05
        -0.28638E-05
        -0.97295E-06
        -0.65292E-06
        -0.12102E-04
        -0.62110E-06
        -0.61130E-07
        -0.18328E-06
        -0.28494E-06
        -0.11381E-04
        -0.51225E-05
        -0.31529E-06
        -0.22610E-05
        -0.16835E-05
        -0.28750E-06
        -0.34730E-05
        -0.12441E-04
        -0.73938E-04
        -0.58411E-04
        -0.44372E-04
        -0.23793E-04
        -0.12683E-05
        -0.60999E-05
        -0.96663E-05
        -0.15751E-04
        -0.65147E-04
        -0.22149E-04
        -0.95456E-05
        -0.14779E-04
        -0.20506E-04
        -0.22485E-04
        -0.85367E-07
        -0.34520E-04
        -0.72345E-04
        -0.39297E-03
        -0.65363E-03
        -0.10855E-02
        -0.15550E-02
        -0.14888E-02
        -0.11386E-02
        -0.10481E-02
        -0.10242E-02
        -0.40495E-03
        -0.44891E-04
        -0.70288E-05
        -0.54015E-05
        -0.89643E-06
        -0.80682E-04
        -0.32360E-03
        -0.62224E-03
        -0.10461E-02
        -0.12850E-02
        -0.99096E-03
        -0.88628E-03
        -0.87615E-03
        -0.42963E-03
        -0.11489E-03
        -0.10244E-03
        -0.31134E-04
        -0.12217E-04
        -0.10588E-04
        -0.71088E-06
        -0.17693E-04
        -0.36422E-05
        -0.22972E-05
        -0.28483E-04
        -0.12365E-04
        -0.26461E-04
        -0.69173E-05
        -0.12677E-03
        -0.44920E-04
        -0.93418E-06
        -0.12743E-03
        -0.44311E-05
        -0.51569E-06
        -0.35462E-06
        -0.76541E-05
        -0.23629E-06
        -0.59568E-05
        -0.28679E-05
        -0.97581E-06
        -0.65107E-06
        -0.12192E-04
        -0.61640E-06
        -0.63075E-07
        -0.18687E-06
        -0.27743E-06
        -0.11414E-04
        -0.51212E-05
        -0.31144E-06
        -0.22713E-05
        -0.16896E-05
        -0.28116E-06
        -0.34785E-05
        -0.12442E-04
        -0.74176E-04
        -0.58675E-04
        -0.44489E-04
        -0.23847E-04
        -0.12550E-05
        -0.61058E-05
        -0.96939E-05
        -0.15772E-04
        -0.65177E-04
        -0.22170E-04
        -0.95446E-05
        -0.14751E-04
        -0.20454E-04
        -0.22467E-04
        -0.82219E-07
        -0.34454E-04
        -0.72351E-04
        -0.39310E-03
        -0.65364E-03
        -0.10852E-02
        -0.15539E-02
        -0.14875E-02
        -0.11379E-02
        -0.10477E-02
        -0.10236E-02
        -0.40482E-03
        -0.44956E-04
        -0.70309E-05
        -0.54230E-05
        -0.88009E-06
        -0.80787E-04
        -0.32401E-03
        -0.62262E-03
        -0.10460E-02
        -0.12848E-02
        -0.99087E-03
        -0.88624E-03
        -0.87568E-03
        -0.42901E-03
        -0.11464E-03
        -0.10217E-03
        -0.31165E-04
        -0.12215E-04
        -0.10598E-04
        -0.72102E-06
        -0.17697E-04
        -0.36479E-05
        -0.23003E-05
        -0.28558E-04
        -0.12411E-04
        -0.26625E-04
        -0.69297E-05
        -0.12676E-03
        -0.44950E-04
        -0.93571E-06
        -0.12775E-03
        -0.44328E-05
        -0.52514E-06
        -0.35347E-06
        -0.76657E-05
        -0.23291E-06
        -0.59869E-05
        -0.28718E-05
        -0.97861E-06
        -0.64926E-06
        -0.12283E-04
        -0.61173E-06
        -0.65086E-07
        -0.19042E-06
        -0.27006E-06
        -0.11448E-04
        -0.51200E-05
        -0.30758E-06
        -0.22816E-05
        -0.16958E-05
        -0.27489E-06
        -0.34842E-05
        -0.12444E-04
        -0.74415E-04
        -0.58939E-04
        -0.44608E-04
        -0.23900E-04
        -0.12418E-05
        -0.61118E-05
        -0.97216E-05
        -0.15794E-04
        -0.65207E-04
        -0.22190E-04
        -0.95441E-05
        -0.14722E-04
        -0.20402E-04
        -0.22449E-04
        -0.79110E-07
        -0.34388E-04
        -0.72357E-04
        -0.39323E-03
        -0.65365E-03
        -0.10850E-02
        -0.15529E-02
        -0.14862E-02
        -0.11372E-02
        -0.10473E-02
        -0.10230E-02
        -0.40468E-03
        -0.45021E-04
        -0.70330E-05
        -0.54445E-05
        -0.86386E-06
        -0.80891E-04
        -0.32443E-03
        -0.62299E-03
        -0.10460E-02
        -0.12846E-02
        -0.99078E-03
        -0.88620E-03
        -0.87521E-03
        -0.42839E-03
        -0.11440E-03
        -0.10189E-03
        -0.31195E-04
        -0.12213E-04
        -0.10608E-04
        -0.73120E-06
        -0.17702E-04
        -0.36537E-05
        -0.23036E-05
        -0.28633E-04
        -0.12457E-04
        -0.26791E-04
        -0.69421E-05
        -0.12675E-03
        -0.44981E-04
        -0.93744E-06
        -0.12808E-03
        -0.44345E-05
        -0.53473E-06
        -0.35231E-06
        -0.76774E-05
        -0.22958E-06
        -0.60170E-05
        -0.28757E-05
        -0.98144E-06
        -0.64747E-06
        -0.12374E-04
        -0.60706E-06
        -0.67074E-07
        -0.19396E-06
        -0.26281E-06
        -0.11481E-04
        -0.51188E-05
        -0.30378E-06
        -0.22919E-05
        -0.17020E-05
        -0.26864E-06
        -0.34897E-05
        -0.12446E-04
        -0.74654E-04
        -0.59203E-04
        -0.44725E-04
        -0.23953E-04
        -0.12286E-05
        -0.61178E-05
        -0.97490E-05
        -0.15816E-04
        -0.65237E-04
        -0.22210E-04
        -0.95430E-05
        -0.14695E-04
        -0.20351E-04
        -0.22431E-04
        -0.76059E-07
        -0.34321E-04
        -0.72362E-04
        -0.39336E-03
        -0.65366E-03
        -0.10847E-02
        -0.15518E-02
        -0.14849E-02
        -0.11365E-02
        -0.10468E-02
        -0.10224E-02
        -0.40455E-03
        -0.45086E-04
        -0.70350E-05
        -0.54657E-05
        -0.84775E-06
        -0.80994E-04
        -0.32484E-03
        -0.62336E-03
        -0.10459E-02
        -0.12845E-02
        -0.99069E-03
        -0.88616E-03
        -0.87474E-03
        -0.42778E-03
        -0.11415E-03
        -0.10162E-03
        -0.31226E-04
        -0.12211E-04
        -0.10618E-04
        -0.74149E-06
        -0.17706E-04
        -0.36594E-05
        -0.23069E-05
        -0.28708E-04
        -0.12503E-04
        -0.26956E-04
        -0.69545E-05
        -0.12673E-03
        -0.45011E-04
        -0.93892E-06
        -0.12841E-03
        -0.44363E-05
        -0.54445E-06
        -0.35113E-06
        -0.76890E-05
        -0.22630E-06
        -0.60471E-05
        -0.28794E-05
        -0.98426E-06
        -0.64567E-06
        -0.12465E-04
        -0.60239E-06
        -0.69146E-07
        -0.19750E-06
        -0.25565E-06
        -0.11514E-04
        -0.51174E-05
        -0.29998E-06
        -0.23021E-05
        -0.17082E-05
        -0.26246E-06
        -0.34953E-05
        -0.12447E-04
        -0.74895E-04
        -0.59468E-04
        -0.44842E-04
        -0.24006E-04
        -0.12157E-05
        -0.61239E-05
        -0.97771E-05
        -0.15838E-04
        -0.65267E-04
        -0.22231E-04
        -0.95425E-05
        -0.14667E-04
        -0.20300E-04
        -0.22413E-04
        -0.73093E-07
        -0.34255E-04
        -0.72368E-04
        -0.39349E-03
        -0.65367E-03
        -0.10845E-02
        -0.15507E-02
        -0.14836E-02
        -0.11358E-02
        -0.10464E-02
        -0.10218E-02
        -0.40442E-03
        -0.45152E-04
        -0.70365E-05
        -0.54869E-05
        -0.83188E-06
        -0.81097E-04
        -0.32525E-03
        -0.62373E-03
        -0.10459E-02
        -0.12843E-02
        -0.99059E-03
        -0.88612E-03
        -0.87427E-03
        -0.42716E-03
        -0.11390E-03
        -0.10135E-03
        -0.31256E-04
        -0.12209E-04
        -0.10628E-04
        -0.75191E-06
        -0.17711E-04
        -0.36650E-05
        -0.23101E-05
        -0.28783E-04
        -0.12550E-04
        -0.27122E-04
        -0.69669E-05
        -0.12672E-03
        -0.45040E-04
        -0.94058E-06
        -0.12873E-03
        -0.44380E-05
        -0.55437E-06
        -0.34994E-06
        -0.77006E-05
        -0.22320E-06
        -0.60772E-05
        -0.28830E-05
        -0.98714E-06
        -0.64384E-06
        -0.12556E-04
        -0.59779E-06
        -0.71229E-07
        -0.20104E-06
        -0.24860E-06
        -0.11545E-04
        -0.51162E-05
        -0.29615E-06
        -0.23124E-05
        -0.17144E-05
        -0.25634E-06
        -0.35011E-05
        -0.12449E-04
        -0.75139E-04
        -0.59733E-04
        -0.44953E-04
        -0.24058E-04
        -0.12027E-05
        -0.61302E-05
        -0.98050E-05
        -0.15860E-04
        -0.65297E-04
        -0.22251E-04
        -0.95416E-05
        -0.14638E-04
        -0.20248E-04
        -0.22396E-04
        -0.70183E-07
        -0.34189E-04
        -0.72374E-04
        -0.39362E-03
        -0.65368E-03
        -0.10842E-02
        -0.15496E-02
        -0.14823E-02
        -0.11351E-02
        -0.10460E-02
        -0.10211E-02
        -0.40431E-03
        -0.45219E-04
        -0.70371E-05
        -0.55081E-05
        -0.81619E-06
        -0.81200E-04
        -0.32566E-03
        -0.62411E-03
        -0.10458E-02
        -0.12841E-02
        -0.99050E-03
        -0.88608E-03
        -0.87379E-03
        -0.42654E-03
        -0.11366E-03
        -0.10107E-03
        -0.31287E-04
        -0.12207E-04
        -0.10638E-04
        -0.76238E-06
        -0.17715E-04
        -0.36706E-05
        -0.23133E-05
        -0.28857E-04
        -0.12597E-04
        -0.27288E-04
        -0.69792E-05
        -0.12671E-03
        -0.45072E-04
        -0.94226E-06
        -0.12906E-03
        -0.44396E-05
        -0.56453E-06
        -0.34875E-06
        -0.77123E-05
        -0.22025E-06
        -0.61075E-05
        -0.28865E-05
        -0.98998E-06
        -0.64209E-06
        -0.12648E-04
        -0.59316E-06
        -0.73436E-07
        -0.20458E-06
        -0.24168E-06
        -0.11574E-04
        -0.51148E-05
        -0.29240E-06
        -0.23226E-05
        -0.17206E-05
        -0.25025E-06
        -0.35066E-05
        -0.12450E-04
        -0.75386E-04
        -0.59996E-04
        -0.45061E-04
        -0.24109E-04
        -0.11898E-05
        -0.61369E-05
        -0.98327E-05
        -0.15883E-04
        -0.65328E-04
        -0.22272E-04
        -0.95406E-05
        -0.14611E-04
        -0.20196E-04
        -0.22377E-04
        -0.67311E-07
        -0.34123E-04
        -0.72379E-04
        -0.39374E-03
        -0.65368E-03
        -0.10839E-02
        -0.15485E-02
        -0.14810E-02
        -0.11344E-02
        -0.10455E-02
        -0.10204E-02
        -0.40421E-03
        -0.45286E-04
        -0.70366E-05
        -0.55293E-05
        -0.80055E-06
        -0.81304E-04
        -0.32607E-03
        -0.62448E-03
        -0.10458E-02
        -0.12840E-02
        -0.99041E-03
        -0.88604E-03
        -0.87331E-03
        -0.42593E-03
        -0.11342E-03
        -0.10080E-03
        -0.31318E-04
        -0.12205E-04
        -0.10649E-04
        -0.77288E-06
        -0.17721E-04
        -0.36764E-05
        -0.23169E-05
        -0.28931E-04
        -0.12645E-04
        -0.27455E-04
        -0.69916E-05
        -0.12670E-03
        -0.45101E-04
        -0.94370E-06
        -0.12939E-03
        -0.44414E-05
        -0.57484E-06
        -0.34758E-06
        -0.77241E-05
        -0.21739E-06
        -0.61380E-05
        -0.28900E-05
        -0.99265E-06
        -0.64044E-06
        -0.12740E-04
        -0.58871E-06
        -0.75617E-07
        -0.20799E-06
        -0.23494E-06
        -0.11603E-04
        -0.51136E-05
        -0.28875E-06
        -0.23329E-05
        -0.17270E-05
        -0.24430E-06
        -0.35120E-05
        -0.12451E-04
        -0.75634E-04
        -0.60259E-04
        -0.45165E-04
        -0.24160E-04
        -0.11772E-05
        -0.61441E-05
        -0.98600E-05
        -0.15904E-04
        -0.65358E-04
        -0.22292E-04
        -0.95398E-05
        -0.14583E-04
        -0.20145E-04
        -0.22360E-04
        -0.64519E-07
        -0.34055E-04
        -0.72386E-04
        -0.39387E-03
        -0.65370E-03
        -0.10837E-02
        -0.15475E-02
        -0.14797E-02
        -0.11337E-02
        -0.10451E-02
        -0.10197E-02
        -0.40411E-03
        -0.45351E-04
        -0.70352E-05
        -0.55505E-05
        -0.78507E-06
        -0.81406E-04
        -0.32648E-03
        -0.62485E-03
        -0.10457E-02
        -0.12838E-02
        -0.99031E-03
        -0.88599E-03
        -0.87283E-03
        -0.42532E-03
        -0.11318E-03
        -0.10053E-03
        -0.31586E-04
        -0.12300E-04
        -0.10744E-04
        -0.78903E-06
        -0.17859E-04
        -0.37092E-05
        -0.23386E-05
        -0.29217E-04
        -0.12786E-04
        -0.27816E-04
        -0.70556E-05
        -0.12759E-03
        -0.45451E-04
        -0.95216E-06
        -0.13065E-03
        -0.44777E-05
        -0.58906E-06
        -0.34907E-06
        -0.77935E-05
        -0.21649E-06
        -0.62103E-05
        -0.29143E-05
        -0.10008E-05
        -0.64449E-06
        -0.12925E-04
        -0.59019E-06
        -0.78219E-07
        -0.21220E-06
        -0.23128E-06
        -0.11721E-04
        -0.51532E-05
        -0.28837E-06
        -0.23606E-05
        -0.17464E-05
        -0.24073E-06
        -0.35403E-05
        -0.12538E-04
        -0.76420E-04
        -0.60954E-04
        -0.45601E-04
        -0.24382E-04
        -0.11762E-05
        -0.61992E-05
        -0.99481E-05
        -0.16029E-04
        -0.65824E-04
        -0.22461E-04
        -0.96021E-05
        -0.14660E-04
        -0.20243E-04
        -0.22504E-04
        -0.62277E-07
        -0.34211E-04
        -0.72898E-04
        -0.39664E-03
        -0.65809E-03
        -0.10908E-02
        -0.15573E-02
        -0.14890E-02
        -0.11413E-02
        -0.10522E-02
        -0.10265E-02
        -0.40691E-03
        -0.45710E-04
        -0.70770E-05
        -0.56061E-05
        -0.77545E-06
        -0.81996E-04
        -0.32887E-03
        -0.62923E-03
        -0.10528E-02
        -0.12924E-02
        -0.99673E-03
        -0.89168E-03
        -0.87810E-03
        -0.42755E-03
        -0.11369E-03
        -0.10093E-03
        -0.69984E-04
        -0.27472E-04
        -0.23730E-04
        -0.17733E-05
        -0.36745E-04
        -0.77857E-05
        -0.52029E-05
        -0.64164E-04
        -0.28242E-04
        -0.60852E-04
        -0.15161E-04
        -0.25293E-03
        -0.92864E-04
        -0.20294E-05
        -0.26204E-03
        -0.99421E-05
        -0.13162E-05
        -0.77391E-06
        -0.16847E-04
        -0.46770E-06
        -0.12715E-04
        -0.61053E-05
        -0.20513E-05
        -0.14139E-05
        -0.28841E-04
        -0.13158E-05
        -0.17232E-06
        -0.47381E-06
        -0.51142E-06
        -0.26056E-04
        -0.11443E-04
        -0.63590E-06
        -0.52778E-05
        -0.38933E-05
        -0.46410E-06
        -0.74059E-05
        -0.26228E-04
        -0.16014E-03
        -0.13145E-03
        -0.99006E-04
        -0.51499E-04
        -0.25111E-05
        -0.13287E-04
        -0.20715E-04
        -0.33143E-04
        -0.12843E-03
        -0.46129E-04
        -0.20197E-04
        -0.31145E-04
        -0.42622E-04
        -0.45164E-04
        -0.12577E-06
        -0.53216E-04
        -0.11329E-03
        -0.61662E-03
        -0.10288E-02
        -0.17031E-02
        -0.24437E-02
        -0.23887E-02
        -0.18616E-02
        -0.17100E-02
        -0.16489E-02
        -0.65518E-03
        -0.73340E-04
        -0.11588E-04
        -0.92668E-05
        -0.12306E-05
        -0.12887E-03
        -0.51383E-03
        -0.97238E-03
        -0.16245E-02
        -0.19990E-02
        -0.15735E-02
        -0.14201E-02
        -0.13884E-02
        -0.68037E-03
        -0.17974E-03
        -0.15836E-03
  
SCALARS                      strain_zz  double 1
LOOKUP_TABLE default
         0.12327E+01
         0.12047E+01
         0.12225E+01
         0.12542E+01
        -0.16312E-08
        -0.18291E-08
        -0.17514E-08
        -0.15911E-08
         0.12039E+01
         0.12133E+01
        -0.16448E-08
        -0.15918E-08
         0.11643E+01
         0.11628E+01
        -0.19544E-08
        -0.18376E-08
         0.12496E+01
         0.11650E+01
        -0.14441E-08
        -0.16017E-08
         0.11340E+01
         0.11100E+01
         0.11483E+01
        -0.19370E-08
        -0.16916E-08
        -0.17468E-08
         0.11109E+01
         0.10758E+01
        -0.18583E-08
        -0.15671E-08
         0.12480E+01
         0.12112E+01
         0.12838E+01
        -0.15858E-08
        -0.14742E-08
        -0.14333E-08
         0.12268E+01
         0.11799E+01
        -0.16777E-08
        -0.15309E-08
         0.12082E+01
         0.11721E+01
        -0.14500E-08
        -0.12837E-08
         0.12388E+01
         0.12524E+01
        -0.15890E-08
        -0.17755E-08
         0.11431E+01
        -0.15523E-08
         0.12498E+01
        -0.18240E-08
         0.11007E+01
        -0.16393E-08
         0.10897E+01
        -0.15724E-08
         0.10899E+01
         0.11291E+01
        -0.16021E-08
        -0.15603E-08
         0.12473E+01
         0.12332E+01
        -0.16065E-08
        -0.18161E-08
         0.12561E+01
        -0.15502E-08
         0.12393E+01
        -0.16918E-08
         0.11953E+01
         0.11907E+01
        -0.16286E-08
        -0.17064E-08
         0.11807E+01
        -0.17207E-08
         0.10633E+01
        -0.13595E-08
         0.10572E+01
        -0.13196E-08
         0.10603E+01
        -0.13914E-08
         0.10774E+01
         0.10949E+01
        -0.13257E-08
        -0.13821E-08
         0.11304E+01
        -0.12872E-08
         0.12381E+01
        -0.16880E-08
         0.12214E+01
        -0.17277E-08
         0.12077E+01
         0.12000E+01
        -0.16591E-08
        -0.16785E-08
         0.12093E+01
        -0.15246E-08
         0.12159E+01
        -0.15028E-08
         0.12099E+01
        -0.16088E-08
         0.12079E+01
         0.12139E+01
        -0.15776E-08
        -0.16239E-08
         0.11751E+01
         0.11912E+01
        -0.12249E-08
        -0.11521E-08
         0.11723E+01
        -0.11696E-08
         0.11909E+01
        -0.11215E-08
         0.11726E+01
        -0.11058E-08
         0.11325E+01
        -0.10450E-08
         0.10937E+01
        -0.92838E-09
         0.10705E+01
        -0.83596E-09
         0.10681E+01
        -0.83015E-09
         0.10688E+01
        -0.90026E-09
         0.10940E+01
        -0.94614E-09
         0.11414E+01
        -0.86393E-09
         0.11935E+01
        -0.77874E-09
         0.12238E+01
        -0.77785E-09
         0.12538E+01
        -0.86944E-09
         0.12737E+01
        -0.99137E-09
         0.12731E+01
        -0.10650E-08
         0.12245E+01
        -0.11502E-08
         0.11906E+01
        -0.12323E-08
         0.11793E+01
        -0.11289E-08
         0.11975E+01
        -0.99032E-09
         0.12068E+01
        -0.98726E-09
         0.11908E+01
        -0.10802E-08
         0.11909E+01
        -0.11516E-08
         0.12030E+01
        -0.10928E-08
         0.12187E+01
        -0.10565E-08
        -0.39088E+00
        -0.39571E+00
        -0.39507E+00
        -0.38878E+00
        -0.40018E+00
        -0.39451E+00
        -0.40155E+00
        -0.39792E+00
        -0.38979E+00
        -0.39489E+00
        -0.40532E+00
        -0.40636E+00
        -0.40336E+00
        -0.40320E+00
        -0.40509E+00
        -0.38909E+00
        -0.39028E+00
        -0.38692E+00
        -0.39623E+00
        -0.39457E+00
        -0.39688E+00
        -0.39532E+00
        -0.39819E+00
        -0.39750E+00
        -0.39471E+00
        -0.39491E+00
        -0.39963E+00
        -0.39921E+00
        -0.40262E+00
        -0.39743E+00
        -0.38967E+00
        -0.39578E+00
        -0.38972E+00
        -0.39375E+00
        -0.40715E+00
        -0.40302E+00
        -0.40098E+00
        -0.40333E+00
        -0.40366E+00
        -0.40746E+00
        -0.41010E+00
        -0.40347E+00
        -0.39677E+00
        -0.39772E+00
        -0.40117E+00
        -0.40699E+00
        -0.40206E+00
        -0.39652E+00
        -0.39692E+00
        -0.40121E+00
        -0.40543E+00
        -0.39969E+00
        -0.41582E+00
        -0.41104E+00
        -0.41177E+00
        -0.41060E+00
        -0.41079E+00
        -0.41322E+00
        -0.41584E+00
        -0.41682E+00
        -0.41651E+00
        -0.41671E+00
        -0.41783E+00
        -0.41112E+00
        -0.40871E+00
        -0.40775E+00
        -0.40592E+00
        -0.40451E+00
        -0.40451E+00
        -0.40675E+00
        -0.41419E+00
        -0.41239E+00
        -0.40995E+00
        -0.41005E+00
        -0.41048E+00
        -0.41293E+00
        -0.40931E+00
        -0.40793E+00
         0.44412E-04
         0.16938E-04
         0.17071E-04
         0.16318E-04
         0.44221E-04
         0.29899E-04
         0.58756E-06
         0.27093E-04
         0.26272E-04
         0.22591E-04
        -0.33467E-05
         0.12963E-03
         0.77741E-04
        -0.32045E-05
         0.13534E-03
         0.21536E-04
         0.11796E-04
         0.11248E-04
         0.85461E-05
         0.38478E-05
         0.78920E-04
         0.74408E-04
         0.61925E-04
         0.24665E-05
         0.32158E-05
         0.27895E-06
        -0.13398E-04
        -0.23739E-04
        -0.10096E-04
         0.67094E-05
         0.16267E-04
         0.35099E-05
         0.14969E-04
         0.18699E-04
         0.62229E-04
         0.22779E-04
         0.39808E-04
         0.86325E-04
         0.49107E-04
         0.45055E-04
         0.98583E-04
         0.78364E-04
         0.80585E-04
         0.44422E-04
         0.35361E-04
         0.70234E-04
         0.32021E-04
         0.25070E-04
         0.20819E-04
         0.30159E-04
         0.65652E-04
         0.39140E-04
         0.10965E-02
         0.11669E-02
         0.12639E-02
         0.12586E-02
         0.14396E-02
         0.16641E-02
         0.15295E-02
         0.12159E-02
         0.11514E-02
         0.13091E-02
         0.12556E-02
         0.12193E-02
         0.83002E-03
         0.75699E-03
         0.90031E-03
         0.10252E-02
         0.11063E-02
         0.13217E-02
         0.12252E-02
         0.13041E-02
         0.10586E-02
         0.95081E-03
         0.10753E-02
         0.10274E-02
         0.10955E-02
         0.10838E-02
         0.43889E-04
         0.16347E-04
         0.16494E-04
         0.15804E-04
         0.43504E-04
         0.29240E-04
        -0.42923E-07
         0.26495E-04
         0.25705E-04
         0.22042E-04
        -0.40786E-05
         0.12877E-03
         0.77050E-04
        -0.40177E-05
         0.13479E-03
         0.20941E-04
         0.11138E-04
         0.10711E-04
         0.78578E-05
         0.31065E-05
         0.78190E-04
         0.73672E-04
         0.61149E-04
         0.17547E-05
         0.25290E-05
        -0.39985E-06
        -0.14089E-04
        -0.24483E-04
        -0.10859E-04
         0.59432E-05
         0.15689E-04
         0.28652E-05
         0.14404E-04
         0.18167E-04
         0.61520E-04
         0.22093E-04
         0.39118E-04
         0.85757E-04
         0.48545E-04
         0.44387E-04
         0.97863E-04
         0.77615E-04
         0.79812E-04
         0.43676E-04
         0.34637E-04
         0.69458E-04
         0.31308E-04
         0.24391E-04
         0.20156E-04
         0.29480E-04
         0.64881E-04
         0.38404E-04
         0.10944E-02
         0.11651E-02
         0.12626E-02
         0.12574E-02
         0.14379E-02
         0.16616E-02
         0.15268E-02
         0.12138E-02
         0.11494E-02
         0.13068E-02
         0.12537E-02
         0.12180E-02
         0.82870E-03
         0.75583E-03
         0.89939E-03
         0.10245E-02
         0.11056E-02
         0.13210E-02
         0.12238E-02
         0.13025E-02
         0.10570E-02
         0.94952E-03
         0.10734E-02
         0.10249E-02
         0.10930E-02
         0.10815E-02
         0.44076E-04
         0.16470E-04
         0.16632E-04
         0.15961E-04
         0.43650E-04
         0.29393E-04
         0.11184E-06
         0.26708E-04
         0.25852E-04
         0.22242E-04
        -0.39304E-05
         0.12893E-03
         0.77252E-04
        -0.39253E-05
         0.13529E-03
         0.20845E-04
         0.11128E-04
         0.10844E-04
         0.76956E-05
         0.29575E-05
         0.78082E-04
         0.73615E-04
         0.60638E-04
         0.12409E-05
         0.22935E-05
        -0.87572E-06
        -0.13940E-04
        -0.24588E-04
        -0.11153E-04
         0.54213E-05
         0.15715E-04
         0.27171E-05
         0.14533E-04
         0.18352E-04
         0.61774E-04
         0.22252E-04
         0.39249E-04
         0.86200E-04
         0.48928E-04
         0.44567E-04
         0.97974E-04
         0.77397E-04
         0.79407E-04
         0.43180E-04
         0.34504E-04
         0.69560E-04
         0.31438E-04
         0.24541E-04
         0.20283E-04
         0.29613E-04
         0.65021E-04
         0.38507E-04
         0.10940E-02
         0.11649E-02
         0.12630E-02
         0.12577E-02
         0.14376E-02
         0.16607E-02
         0.15258E-02
         0.12134E-02
         0.11491E-02
         0.13064E-02
         0.12534E-02
         0.12181E-02
         0.82857E-03
         0.75598E-03
         0.89974E-03
         0.10247E-02
         0.11059E-02
         0.13217E-02
         0.12240E-02
         0.13028E-02
         0.10572E-02
         0.94977E-03
         0.10731E-02
         0.10239E-02
         0.10921E-02
         0.10806E-02
         0.44047E-04
         0.16426E-04
         0.16596E-04
         0.15893E-04
         0.43552E-04
         0.29319E-04
         0.77363E-07
         0.26684E-04
         0.25720E-04
         0.22101E-04
        -0.40057E-05
         0.12883E-03
         0.77253E-04
        -0.40970E-05
         0.13548E-03
         0.20381E-04
         0.10753E-04
         0.10740E-04
         0.70962E-05
         0.23317E-05
         0.77538E-04
         0.73108E-04
         0.59469E-04
         0.91844E-07
         0.14565E-05
        -0.19592E-05
        -0.14121E-04
        -0.25190E-04
        -0.12098E-04
         0.40975E-05
         0.15449E-04
         0.21365E-05
         0.14430E-04
         0.18273E-04
         0.61728E-04
         0.22172E-04
         0.39178E-04
         0.86337E-04
         0.48986E-04
         0.44346E-04
         0.97634E-04
         0.76542E-04
         0.78279E-04
         0.42017E-04
         0.33910E-04
         0.69249E-04
         0.31213E-04
         0.24413E-04
         0.20134E-04
         0.29438E-04
         0.64849E-04
         0.38353E-04
         0.10930E-02
         0.11642E-02
         0.12627E-02
         0.12575E-02
         0.14371E-02
         0.16595E-02
         0.15244E-02
         0.12125E-02
         0.11483E-02
         0.13053E-02
         0.12526E-02
         0.12174E-02
         0.82775E-03
         0.75559E-03
         0.89961E-03
         0.10243E-02
         0.11055E-02
         0.13218E-02
         0.12236E-02
         0.13024E-02
         0.10568E-02
         0.94944E-03
         0.10721E-02
         0.10224E-02
         0.10907E-02
         0.10793E-02
         0.43950E-04
         0.16329E-04
         0.16523E-04
         0.15822E-04
         0.43446E-04
         0.29224E-04
         0.11486E-07
         0.26604E-04
         0.25553E-04
         0.21943E-04
        -0.40859E-05
         0.12877E-03
         0.77245E-04
        -0.42773E-05
         0.13572E-03
         0.20080E-04
         0.10462E-04
         0.10642E-04
         0.67055E-05
         0.18777E-05
         0.77200E-04
         0.72745E-04
         0.58758E-04
        -0.62074E-06
         0.88057E-06
        -0.26536E-05
        -0.14279E-04
        -0.25624E-04
        -0.12744E-04
         0.32285E-05
         0.15171E-04
         0.17148E-05
         0.14247E-04
         0.18158E-04
         0.61682E-04
         0.22074E-04
         0.39081E-04
         0.86516E-04
         0.49082E-04
         0.44218E-04
         0.97444E-04
         0.76001E-04
         0.77557E-04
         0.41291E-04
         0.33520E-04
         0.69051E-04
         0.31017E-04
         0.24211E-04
         0.19908E-04
         0.29205E-04
         0.64621E-04
         0.38155E-04
         0.10920E-02
         0.11635E-02
         0.12626E-02
         0.12574E-02
         0.14365E-02
         0.16583E-02
         0.15230E-02
         0.12117E-02
         0.11475E-02
         0.13043E-02
         0.12519E-02
         0.12171E-02
         0.82720E-03
         0.75530E-03
         0.89961E-03
         0.10243E-02
         0.11055E-02
         0.13220E-02
         0.12234E-02
         0.13021E-02
         0.10563E-02
         0.94908E-03
         0.10711E-02
         0.10208E-02
         0.10894E-02
         0.10781E-02
         0.43639E-04
         0.16136E-04
         0.16450E-04
         0.15911E-04
         0.43506E-04
         0.29324E-04
        -0.28367E-07
         0.26411E-04
         0.25302E-04
         0.21669E-04
        -0.40218E-05
         0.12895E-03
         0.77380E-04
        -0.43327E-05
         0.13625E-03
         0.20176E-04
         0.10416E-04
         0.10778E-04
         0.67983E-05
         0.19316E-05
         0.77333E-04
         0.72871E-04
         0.58787E-04
        -0.63593E-06
         0.69079E-06
        -0.27518E-05
        -0.14310E-04
        -0.25677E-04
        -0.12686E-04
         0.32349E-05
         0.14832E-04
         0.14915E-05
         0.13952E-04
         0.18136E-04
         0.61826E-04
         0.22073E-04
         0.39052E-04
         0.86966E-04
         0.49481E-04
         0.44521E-04
         0.97763E-04
         0.76196E-04
         0.77678E-04
         0.41267E-04
         0.33473E-04
         0.69031E-04
         0.30849E-04
         0.23806E-04
         0.19417E-04
         0.28912E-04
         0.64505E-04
         0.38130E-04
         0.10915E-02
         0.11633E-02
         0.12628E-02
         0.12576E-02
         0.14363E-02
         0.16575E-02
         0.15220E-02
         0.12114E-02
         0.11473E-02
         0.13040E-02
         0.12519E-02
         0.12175E-02
         0.82740E-03
         0.75554E-03
         0.90013E-03
         0.10252E-02
         0.11064E-02
         0.13228E-02
         0.12234E-02
         0.13020E-02
         0.10561E-02
         0.94880E-03
         0.10703E-02
         0.10195E-02
         0.10883E-02
         0.10772E-02
         0.43136E-04
         0.15790E-04
         0.16259E-04
         0.15875E-04
         0.43401E-04
         0.29299E-04
        -0.27148E-06
         0.25973E-04
         0.24847E-04
         0.21182E-04
        -0.41937E-05
         0.12888E-03
         0.77326E-04
        -0.46492E-05
         0.13650E-03
         0.20111E-04
         0.10183E-04
         0.10742E-04
         0.67388E-05
         0.18185E-05
         0.77309E-04
         0.72836E-04
         0.58745E-04
        -0.72294E-06
         0.37828E-06
        -0.29282E-05
        -0.14584E-04
        -0.25901E-04
        -0.12738E-04
         0.31647E-05
         0.14346E-04
         0.11250E-05
         0.13513E-04
         0.17980E-04
         0.61764E-04
         0.21924E-04
         0.38881E-04
         0.87145E-04
         0.49630E-04
         0.44610E-04
         0.97890E-04
         0.76279E-04
         0.77712E-04
         0.41178E-04
         0.33265E-04
         0.68761E-04
         0.30456E-04
         0.23201E-04
         0.18740E-04
         0.28445E-04
         0.64227E-04
         0.37972E-04
         0.10906E-02
         0.11627E-02
         0.12627E-02
         0.12575E-02
         0.14356E-02
         0.16562E-02
         0.15206E-02
         0.12106E-02
         0.11466E-02
         0.13031E-02
         0.12514E-02
         0.12175E-02
         0.82732E-03
         0.75549E-03
         0.90035E-03
         0.10258E-02
         0.11071E-02
         0.13232E-02
         0.12229E-02
         0.13015E-02
         0.10554E-02
         0.94818E-03
         0.10691E-02
         0.10179E-02
         0.10870E-02
         0.10759E-02
         0.43020E-04
         0.15661E-04
         0.16187E-04
         0.15820E-04
         0.43292E-04
         0.29206E-04
        -0.38587E-06
         0.25849E-04
         0.24746E-04
         0.21141E-04
        -0.43139E-05
         0.12878E-03
         0.77274E-04
        -0.48608E-05
         0.13671E-03
         0.20056E-04
         0.10105E-04
         0.10664E-04
         0.66851E-05
         0.17283E-05
         0.77257E-04
         0.72753E-04
         0.58684E-04
        -0.78972E-06
         0.32804E-06
        -0.30292E-05
        -0.14696E-04
        -0.26021E-04
        -0.12840E-04
         0.30998E-05
         0.14203E-04
         0.97726E-06
         0.13359E-04
         0.17896E-04
         0.61724E-04
         0.21842E-04
         0.38774E-04
         0.87294E-04
         0.49761E-04
         0.44627E-04
         0.97904E-04
         0.76265E-04
         0.77682E-04
         0.41103E-04
         0.33144E-04
         0.68649E-04
         0.30337E-04
         0.23056E-04
         0.18549E-04
         0.28249E-04
         0.64035E-04
         0.37795E-04
         0.10896E-02
         0.11619E-02
         0.12626E-02
         0.12574E-02
         0.14350E-02
         0.16550E-02
         0.15192E-02
         0.12098E-02
         0.11458E-02
         0.13020E-02
         0.12507E-02
         0.12176E-02
         0.82718E-03
         0.75527E-03
         0.90043E-03
         0.10263E-02
         0.11076E-02
         0.13236E-02
         0.12225E-02
         0.13012E-02
         0.10551E-02
         0.94792E-03
         0.10681E-02
         0.10164E-02
         0.10856E-02
         0.10746E-02
         0.43164E-04
         0.15748E-04
         0.16262E-04
         0.15859E-04
         0.43346E-04
         0.29209E-04
        -0.27639E-06
         0.26019E-04
         0.24889E-04
         0.21412E-04
        -0.42217E-05
         0.12888E-03
         0.77418E-04
        -0.48109E-05
         0.13718E-03
         0.20209E-04
         0.10233E-04
         0.10722E-04
         0.68166E-05
         0.18231E-05
         0.77391E-04
         0.72855E-04
         0.58809E-04
        -0.67273E-06
         0.52743E-06
        -0.29204E-05
        -0.14512E-04
        -0.25887E-04
        -0.12719E-04
         0.32375E-05
         0.14325E-04
         0.10563E-05
         0.13409E-04
         0.17935E-04
         0.61899E-04
         0.21921E-04
         0.38839E-04
         0.87713E-04
         0.50124E-04
         0.44863E-04
         0.98158E-04
         0.76469E-04
         0.77834E-04
         0.41230E-04
         0.33235E-04
         0.68759E-04
         0.30438E-04
         0.23168E-04
         0.18623E-04
         0.28278E-04
         0.64042E-04
         0.37740E-04
         0.10891E-02
         0.11617E-02
         0.12627E-02
         0.12575E-02
         0.14347E-02
         0.16541E-02
         0.15182E-02
         0.12093E-02
         0.11453E-02
         0.13013E-02
         0.12505E-02
         0.12180E-02
         0.82734E-03
         0.75539E-03
         0.90084E-03
         0.10272E-02
         0.11086E-02
         0.13244E-02
         0.12226E-02
         0.13012E-02
         0.10552E-02
         0.94804E-03
         0.10675E-02
         0.10152E-02
         0.10845E-02
         0.10737E-02
         0.43181E-04
         0.15740E-04
         0.16256E-04
         0.15828E-04
         0.43299E-04
         0.29150E-04
        -0.27394E-06
         0.26020E-04
         0.24863E-04
         0.21489E-04
        -0.42699E-05
         0.12882E-03
         0.77470E-04
        -0.49573E-05
         0.13739E-03
         0.20188E-04
         0.10193E-04
         0.10639E-04
         0.67739E-05
         0.17506E-05
         0.77378E-04
         0.72801E-04
         0.58783E-04
        -0.71655E-06
         0.58022E-06
        -0.29628E-05
        -0.14540E-04
        -0.25904E-04
        -0.12730E-04
         0.32279E-05
         0.14297E-04
         0.10086E-05
         0.13317E-04
         0.17875E-04
         0.61921E-04
         0.21881E-04
         0.38807E-04
         0.87885E-04
         0.50319E-04
         0.44949E-04
         0.98246E-04
         0.76523E-04
         0.77813E-04
         0.41228E-04
         0.33213E-04
         0.68738E-04
         0.30391E-04
         0.23106E-04
         0.18528E-04
         0.28169E-04
         0.63932E-04
         0.37605E-04
         0.10882E-02
         0.11611E-02
         0.12625E-02
         0.12574E-02
         0.14342E-02
         0.16529E-02
         0.15167E-02
         0.12085E-02
         0.11446E-02
         0.13003E-02
         0.12499E-02
         0.12181E-02
         0.82716E-03
         0.75530E-03
         0.90105E-03
         0.10278E-02
         0.11093E-02
         0.13250E-02
         0.12223E-02
         0.13009E-02
         0.10548E-02
         0.94781E-03
         0.10667E-02
         0.10138E-02
         0.10832E-02
         0.10724E-02
         0.43150E-04
         0.15674E-04
         0.16220E-04
         0.15817E-04
         0.43214E-04
         0.29106E-04
        -0.30932E-06
         0.25998E-04
         0.24844E-04
         0.21566E-04
        -0.43245E-05
         0.12874E-03
         0.77483E-04
        -0.50886E-05
         0.13760E-03
         0.20146E-04
         0.10167E-04
         0.10588E-04
         0.67193E-05
         0.16932E-05
         0.77351E-04
         0.72748E-04
         0.58739E-04
        -0.78463E-06
         0.63378E-06
        -0.30420E-05
        -0.14558E-04
        -0.25936E-04
        -0.12746E-04
         0.32310E-05
         0.14246E-04
         0.93269E-06
         0.13257E-04
         0.17871E-04
         0.61893E-04
         0.21814E-04
         0.38746E-04
         0.88062E-04
         0.50506E-04
         0.45042E-04
         0.98363E-04
         0.76584E-04
         0.77799E-04
         0.41199E-04
         0.33167E-04
         0.68704E-04
         0.30348E-04
         0.23053E-04
         0.18437E-04
         0.28067E-04
         0.63829E-04
         0.37502E-04
         0.10872E-02
         0.11604E-02
         0.12624E-02
         0.12574E-02
         0.14337E-02
         0.16516E-02
         0.15152E-02
         0.12077E-02
         0.11439E-02
         0.12994E-02
         0.12494E-02
         0.12181E-02
         0.82695E-03
         0.75517E-03
         0.90123E-03
         0.10284E-02
         0.11100E-02
         0.13256E-02
         0.12221E-02
         0.13006E-02
         0.10545E-02
         0.94757E-03
         0.10658E-02
         0.10124E-02
         0.10819E-02
         0.10711E-02
         0.43240E-04
         0.15701E-04
         0.16254E-04
         0.15875E-04
         0.43241E-04
         0.29143E-04
        -0.23187E-06
         0.26130E-04
         0.24935E-04
         0.21768E-04
        -0.42361E-05
         0.12881E-03
         0.77573E-04
        -0.50486E-05
         0.13805E-03
         0.20247E-04
         0.10235E-04
         0.10645E-04
         0.68027E-05
         0.17674E-05
         0.77464E-04
         0.72837E-04
         0.58828E-04
        -0.71271E-06
         0.77832E-06
        -0.29733E-05
        -0.14436E-04
        -0.25851E-04
        -0.12613E-04
         0.33779E-05
         0.14347E-04
         0.98542E-06
         0.13321E-04
         0.17957E-04
         0.62025E-04
         0.21864E-04
         0.38767E-04
         0.88461E-04
         0.50870E-04
         0.45317E-04
         0.98628E-04
         0.76763E-04
         0.77928E-04
         0.41287E-04
         0.33225E-04
         0.68776E-04
         0.30416E-04
         0.23125E-04
         0.18474E-04
         0.28084E-04
         0.63837E-04
         0.37491E-04
         0.10866E-02
         0.11600E-02
         0.12626E-02
         0.12575E-02
         0.14332E-02
         0.16505E-02
         0.15141E-02
         0.12072E-02
         0.11435E-02
         0.12988E-02
         0.12492E-02
         0.12184E-02
         0.82704E-03
         0.75530E-03
         0.90164E-03
         0.10292E-02
         0.11109E-02
         0.13263E-02
         0.12220E-02
         0.13006E-02
         0.10544E-02
         0.94763E-03
         0.10652E-02
         0.10111E-02
         0.10808E-02
         0.10702E-02
         0.43249E-04
         0.15649E-04
         0.16219E-04
         0.15838E-04
         0.43154E-04
         0.29067E-04
        -0.28164E-06
         0.26116E-04
         0.24929E-04
         0.21829E-04
        -0.43165E-05
         0.12871E-03
         0.77534E-04
        -0.52128E-05
         0.13829E-03
         0.20219E-04
         0.10194E-04
         0.10557E-04
         0.67332E-05
         0.16837E-05
         0.77394E-04
         0.72741E-04
         0.58741E-04
        -0.79127E-06
         0.78815E-06
        -0.30427E-05
        -0.14529E-04
        -0.25965E-04
        -0.12683E-04
         0.33534E-05
         0.14301E-04
         0.91344E-06
         0.13214E-04
         0.17904E-04
         0.62000E-04
         0.21788E-04
         0.38672E-04
         0.88626E-04
         0.51007E-04
         0.45353E-04
         0.98654E-04
         0.76736E-04
         0.77874E-04
         0.41204E-04
         0.33137E-04
         0.68711E-04
         0.30348E-04
         0.23038E-04
         0.18366E-04
         0.27977E-04
         0.63713E-04
         0.37348E-04
         0.10857E-02
         0.11594E-02
         0.12624E-02
         0.12573E-02
         0.14325E-02
         0.16492E-02
         0.15127E-02
         0.12064E-02
         0.11427E-02
         0.12978E-02
         0.12485E-02
         0.12183E-02
         0.82681E-03
         0.75510E-03
         0.90177E-03
         0.10297E-02
         0.11114E-02
         0.13267E-02
         0.12217E-02
         0.13003E-02
         0.10541E-02
         0.94746E-03
         0.10644E-02
         0.10097E-02
         0.10795E-02
         0.10689E-02
         0.43286E-04
         0.15631E-04
         0.16216E-04
         0.15838E-04
         0.43118E-04
         0.29032E-04
        -0.27415E-06
         0.26157E-04
         0.24980E-04
         0.21978E-04
        -0.43241E-05
         0.12870E-03
         0.77584E-04
        -0.52851E-05
         0.13859E-03
         0.20243E-04
         0.10226E-04
         0.10532E-04
         0.67363E-05
         0.16679E-05
         0.77401E-04
         0.72725E-04
         0.58734E-04
        -0.80616E-06
         0.87593E-06
        -0.30635E-05
        -0.14497E-04
        -0.25982E-04
        -0.12685E-04
         0.33782E-05
         0.14288E-04
         0.88295E-06
         0.13161E-04
         0.17899E-04
         0.62042E-04
         0.21759E-04
         0.38636E-04
         0.88868E-04
         0.51204E-04
         0.45460E-04
         0.98797E-04
         0.76823E-04
         0.77903E-04
         0.41212E-04
         0.33127E-04
         0.68716E-04
         0.30337E-04
         0.23008E-04
         0.18304E-04
         0.27913E-04
         0.63648E-04
         0.37255E-04
         0.10849E-02
         0.11588E-02
         0.12623E-02
         0.12572E-02
         0.14321E-02
         0.16481E-02
         0.15113E-02
         0.12056E-02
         0.11420E-02
         0.12969E-02
         0.12481E-02
         0.12184E-02
         0.82670E-03
         0.75500E-03
         0.90197E-03
         0.10304E-02
         0.11121E-02
         0.13272E-02
         0.12215E-02
         0.13001E-02
         0.10538E-02
         0.94733E-03
         0.10637E-02
         0.10083E-02
         0.10782E-02
         0.10677E-02
         0.43479E-04
         0.15797E-04
         0.16367E-04
         0.15961E-04
         0.43257E-04
         0.29141E-04
        -0.60535E-07
         0.26383E-04
         0.25142E-04
         0.22269E-04
        -0.41192E-05
         0.12893E-03
         0.77848E-04
        -0.51595E-05
         0.13912E-03
         0.20421E-04
         0.10392E-04
         0.10646E-04
         0.69062E-05
         0.18309E-05
         0.77619E-04
         0.72904E-04
         0.58928E-04
        -0.65015E-06
         0.11443E-05
        -0.29096E-05
        -0.14268E-04
        -0.25752E-04
        -0.12442E-04
         0.36162E-05
         0.14467E-04
         0.10374E-05
         0.13270E-04
         0.18010E-04
         0.62290E-04
         0.21916E-04
         0.38792E-04
         0.89322E-04
         0.51659E-04
         0.45809E-04
         0.99135E-04
         0.77104E-04
         0.78108E-04
         0.41427E-04
         0.33323E-04
         0.68930E-04
         0.30521E-04
         0.23178E-04
         0.18412E-04
         0.27984E-04
         0.63722E-04
         0.37293E-04
         0.10844E-02
         0.11587E-02
         0.12626E-02
         0.12575E-02
         0.14319E-02
         0.16473E-02
         0.15103E-02
         0.12052E-02
         0.11417E-02
         0.12963E-02
         0.12480E-02
         0.12189E-02
         0.82687E-03
         0.75523E-03
         0.90254E-03
         0.10314E-02
         0.11132E-02
         0.13282E-02
         0.12217E-02
         0.13002E-02
         0.10539E-02
         0.94745E-03
         0.10631E-02
         0.10073E-02
         0.10773E-02
         0.10669E-02
         0.43458E-04
         0.15749E-04
         0.16335E-04
         0.15912E-04
         0.43155E-04
         0.29065E-04
        -0.10255E-06
         0.26350E-04
         0.25114E-04
         0.22308E-04
        -0.41975E-05
         0.12885E-03
         0.77869E-04
        -0.53276E-05
         0.13933E-03
         0.20375E-04
         0.10333E-04
         0.10574E-04
         0.68111E-05
         0.17306E-05
         0.77582E-04
         0.72815E-04
         0.58881E-04
        -0.74481E-06
         0.11397E-05
        -0.30073E-05
        -0.14350E-04
        -0.25830E-04
        -0.12438E-04
         0.36103E-05
         0.14441E-04
         0.95642E-06
         0.13191E-04
         0.17944E-04
         0.62244E-04
         0.21846E-04
         0.38740E-04
         0.89472E-04
         0.51823E-04
         0.45910E-04
         0.99208E-04
         0.77105E-04
         0.78039E-04
         0.41369E-04
         0.33247E-04
         0.68873E-04
         0.30467E-04
         0.23132E-04
         0.18316E-04
         0.27849E-04
         0.63587E-04
         0.37149E-04
         0.10834E-02
         0.11579E-02
         0.12623E-02
         0.12574E-02
         0.14314E-02
         0.16461E-02
         0.15089E-02
         0.12043E-02
         0.11409E-02
         0.12953E-02
         0.12473E-02
         0.12188E-02
         0.82660E-03
         0.75510E-03
         0.90277E-03
         0.10320E-02
         0.11139E-02
         0.13287E-02
         0.12214E-02
         0.12999E-02
         0.10536E-02
         0.94721E-03
         0.10622E-02
         0.10059E-02
         0.10760E-02
         0.10656E-02
         0.43395E-04
         0.15628E-04
         0.16228E-04
         0.15840E-04
         0.43012E-04
         0.28935E-04
        -0.18496E-06
         0.26303E-04
         0.25053E-04
         0.22259E-04
        -0.42939E-05
         0.12872E-03
         0.77830E-04
        -0.54980E-05
         0.13951E-03
         0.20311E-04
         0.10229E-04
         0.10491E-04
         0.67351E-05
         0.16775E-05
         0.77530E-04
         0.72710E-04
         0.58820E-04
        -0.82593E-06
         0.10561E-05
        -0.31033E-05
        -0.14555E-04
        -0.25956E-04
        -0.12157E-04
         0.37900E-05
         0.14373E-04
         0.84394E-06
         0.13113E-04
         0.17901E-04
         0.62184E-04
         0.21735E-04
         0.38629E-04
         0.89546E-04
         0.51990E-04
         0.46243E-04
         0.99354E-04
         0.77098E-04
         0.77930E-04
         0.41308E-04
         0.33147E-04
         0.68770E-04
         0.30363E-04
         0.23046E-04
         0.18211E-04
         0.27731E-04
         0.63460E-04
         0.36991E-04
         0.10824E-02
         0.11572E-02
         0.12622E-02
         0.12573E-02
         0.14307E-02
         0.16447E-02
         0.15073E-02
         0.12034E-02
         0.11401E-02
         0.12944E-02
         0.12465E-02
         0.12183E-02
         0.82627E-03
         0.75492E-03
         0.90290E-03
         0.10326E-02
         0.11145E-02
         0.13291E-02
         0.12210E-02
         0.12995E-02
         0.10532E-02
         0.94697E-03
         0.10613E-02
         0.10044E-02
         0.10746E-02
         0.10643E-02
         0.43581E-04
         0.15781E-04
         0.16390E-04
         0.15986E-04
         0.43162E-04
         0.29055E-04
         0.49874E-08
         0.26525E-04
         0.25180E-04
         0.22377E-04
        -0.41085E-05
         0.12889E-03
         0.78043E-04
        -0.53832E-05
         0.14002E-03
         0.20491E-04
         0.10352E-04
         0.10598E-04
         0.69299E-05
         0.19521E-05
         0.77715E-04
         0.72866E-04
         0.58982E-04
        -0.65771E-06
         0.11954E-05
        -0.29353E-05
        -0.14584E-04
        -0.25812E-04
        -0.11328E-04
         0.44411E-05
         0.14529E-04
         0.10010E-05
         0.13220E-04
         0.18046E-04
         0.62446E-04
         0.21911E-04
         0.38776E-04
         0.89873E-04
         0.52474E-04
         0.47062E-04
         0.99850E-04
         0.77371E-04
         0.78062E-04
         0.41496E-04
         0.33339E-04
         0.69005E-04
         0.30555E-04
         0.23202E-04
         0.18332E-04
         0.27847E-04
         0.63579E-04
         0.37051E-04
         0.10820E-02
         0.11571E-02
         0.12625E-02
         0.12576E-02
         0.14304E-02
         0.16438E-02
         0.15063E-02
         0.12030E-02
         0.11398E-02
         0.12941E-02
         0.12460E-02
         0.12180E-02
         0.82627E-03
         0.75511E-03
         0.90335E-03
         0.10334E-02
         0.11155E-02
         0.13300E-02
         0.12212E-02
         0.12997E-02
         0.10534E-02
         0.94720E-03
         0.10609E-02
         0.10034E-02
         0.10737E-02
         0.10634E-02
         0.43087E-04
         0.15220E-04
         0.15857E-04
         0.15482E-04
         0.42490E-04
         0.28427E-04
        -0.59066E-06
         0.25943E-04
         0.24638E-04
         0.21748E-04
        -0.47928E-05
         0.12810E-03
         0.77365E-04
        -0.61815E-05
         0.13951E-03
         0.19985E-04
         0.97499E-05
         0.10064E-04
         0.63235E-05
         0.13592E-05
         0.77046E-04
         0.72175E-04
         0.58318E-04
        -0.12524E-05
         0.55036E-06
        -0.35004E-05
        -0.15431E-04
        -0.26521E-04
        -0.11623E-04
         0.40589E-05
         0.14014E-04
         0.41217E-06
         0.12653E-04
         0.17474E-04
         0.61766E-04
         0.21240E-04
         0.38076E-04
         0.89253E-04
         0.52008E-04
         0.46770E-04
         0.99303E-04
         0.76708E-04
         0.77352E-04
         0.40859E-04
         0.32652E-04
         0.68238E-04
         0.29879E-04
         0.22582E-04
         0.17685E-04
         0.27128E-04
         0.62763E-04
         0.36302E-04
         0.10799E-02
         0.11552E-02
         0.12611E-02
         0.12562E-02
         0.14286E-02
         0.16414E-02
         0.15036E-02
         0.12009E-02
         0.11379E-02
         0.12920E-02
         0.12439E-02
         0.12164E-02
         0.82496E-03
         0.75400E-03
         0.90248E-03
         0.10329E-02
         0.11150E-02
         0.13293E-02
         0.12197E-02
         0.12982E-02
         0.10519E-02
         0.94591E-03
         0.10589E-02
         0.10008E-02
         0.10713E-02
         0.10611E-02
         0.43437E-04
         0.15259E-04
         0.15970E-04
         0.15697E-04
         0.42677E-04
         0.28607E-04
        -0.48233E-06
         0.26371E-04
         0.25072E-04
         0.22460E-04
        -0.45964E-05
         0.12812E-03
         0.77241E-04
        -0.57994E-05
         0.14018E-03
         0.20442E-04
         0.10190E-04
         0.10339E-04
         0.66676E-05
         0.16968E-05
         0.77389E-04
         0.72408E-04
         0.58818E-04
        -0.80682E-06
         0.12955E-05
        -0.30864E-05
        -0.14701E-04
        -0.25710E-04
        -0.10927E-04
         0.47136E-05
         0.14371E-04
         0.66665E-06
         0.12791E-04
         0.17398E-04
         0.61942E-04
         0.21185E-04
         0.37870E-04
         0.90002E-04
         0.52816E-04
         0.47375E-04
         0.99745E-04
         0.77205E-04
         0.77829E-04
         0.41338E-04
         0.32912E-04
         0.68383E-04
         0.29999E-04
         0.22858E-04
         0.17861E-04
         0.27089E-04
         0.62761E-04
         0.36239E-04
         0.10796E-02
         0.11554E-02
         0.12613E-02
         0.12559E-02
         0.14275E-02
         0.16399E-02
         0.15029E-02
         0.12009E-02
         0.11378E-02
         0.12914E-02
         0.12436E-02
         0.12170E-02
         0.82547E-03
         0.75422E-03
         0.90327E-03
         0.10344E-02
         0.11165E-02
         0.13304E-02
         0.12197E-02
         0.12980E-02
         0.10520E-02
         0.94621E-03
         0.10588E-02
         0.10003E-02
         0.10707E-02
         0.10606E-02
         0.21360E-02
         0.21978E-02
         0.21818E-02
         0.19920E-02
         0.25479E-02
         0.23669E-02
         0.23619E-02
         0.24187E-02
         0.20817E-02
         0.24219E-02
         0.26262E-02
         0.31679E-02
         0.28040E-02
         0.27106E-02
         0.32685E-02
         0.20310E-02
         0.21733E-02
         0.19004E-02
         0.22616E-02
         0.23605E-02
         0.25848E-02
         0.25997E-02
         0.24655E-02
         0.21568E-02
         0.24085E-02
         0.20638E-02
         0.26753E-02
         0.25822E-02
         0.25992E-02
         0.24947E-02
         0.20463E-02
         0.21385E-02
         0.20022E-02
         0.20942E-02
         0.28483E-02
         0.25189E-02
         0.25392E-02
         0.30596E-02
         0.29118E-02
         0.28617E-02
         0.29967E-02
         0.28154E-02
         0.26735E-02
         0.23779E-02
         0.24707E-02
         0.28717E-02
         0.25673E-02
         0.23858E-02
         0.23244E-02
         0.24239E-02
         0.27183E-02
         0.24531E-02
         0.59554E-02
         0.59141E-02
         0.61146E-02
         0.59442E-02
         0.62499E-02
         0.66874E-02
         0.65779E-02
         0.62260E-02
         0.62083E-02
         0.65039E-02
         0.63045E-02
         0.59937E-02
         0.50783E-02
         0.47656E-02
         0.49784E-02
         0.52087E-02
         0.53416E-02
         0.59250E-02
         0.61369E-02
         0.62252E-02
         0.55776E-02
         0.53185E-02
         0.55876E-02
         0.54829E-02
         0.55147E-02
         0.55076E-02
         0.22525E-01
         0.23544E-01
         0.23218E-01
         0.21266E-01
         0.25977E-01
         0.24447E-01
         0.25388E-01
         0.25597E-01
         0.22040E-01
         0.25583E-01
         0.27779E-01
         0.31127E-01
         0.28264E-01
         0.28562E-01
         0.32200E-01
         0.21615E-01
         0.23162E-01
         0.20331E-01
         0.23891E-01
         0.25083E-01
         0.25973E-01
         0.26512E-01
         0.24957E-01
         0.23013E-01
         0.25858E-01
         0.22239E-01
         0.28462E-01
         0.27987E-01
         0.28110E-01
         0.26737E-01
         0.21838E-01
         0.22917E-01
         0.21428E-01
         0.22367E-01
         0.28369E-01
         0.26083E-01
         0.26176E-01
         0.31163E-01
         0.30349E-01
         0.29988E-01
         0.30555E-01
         0.29050E-01
         0.27529E-01
         0.24373E-01
         0.25333E-01
         0.28367E-01
         0.26277E-01
         0.24761E-01
         0.24286E-01
         0.25147E-01
         0.27244E-01
         0.25221E-01
         0.45566E-01
         0.44541E-01
         0.45583E-01
         0.44230E-01
         0.45690E-01
         0.48181E-01
         0.48755E-01
         0.48239E-01
         0.48465E-01
         0.49722E-01
         0.48316E-01
         0.45564E-01
         0.40601E-01
         0.38384E-01
         0.38683E-01
         0.39318E-01
         0.39781E-01
         0.43206E-01
         0.45921E-01
         0.46195E-01
         0.42654E-01
         0.41280E-01
         0.42723E-01
         0.42362E-01
         0.41991E-01
         0.41845E-01
  
SCALARS                      strain_yz  double 1
LOOKUP_TABLE default
         0.10935E-02
        -0.35946E-03
        -0.94100E-03
        -0.49027E-03
        -0.12618E-09
        -0.34778E-10
        -0.15638E-09
        -0.11927E-09
        -0.34991E-02
         0.23108E-02
        -0.23272E-09
        -0.20488E-09
        -0.30156E-02
        -0.15323E-03
         0.16655E-09
        -0.10678E-10
         0.10756E-02
         0.38655E-02
         0.24503E-11
         0.25071E-10
        -0.19763E-02
        -0.73501E-02
        -0.77872E-02
         0.38178E-09
         0.65933E-09
         0.55111E-09
        -0.72481E-03
        -0.73184E-02
         0.27462E-09
         0.53277E-09
         0.12285E-02
         0.10547E-02
        -0.92216E-03
         0.14237E-09
         0.14534E-09
        -0.30173E-11
         0.36194E-02
         0.34176E-02
         0.26199E-09
         0.20383E-09
         0.35301E-02
         0.22113E-02
         0.19799E-09
         0.18094E-09
         0.32428E-02
         0.11241E-02
        -0.65679E-11
         0.10159E-09
         0.28857E-02
         0.47832E-10
         0.29805E-03
        -0.38740E-11
         0.16644E-03
         0.18502E-09
        -0.10967E-02
         0.10763E-09
        -0.35770E-02
         0.64807E-03
         0.29199E-11
        -0.59263E-11
         0.14893E-02
         0.54031E-02
        -0.39783E-10
        -0.14881E-09
         0.90249E-03
        -0.80303E-10
         0.38486E-02
        -0.97828E-10
        -0.30678E-02
        -0.16218E-02
        -0.12090E-10
         0.15963E-09
        -0.56452E-02
         0.35052E-09
        -0.92262E-02
         0.33939E-09
        -0.92791E-02
         0.25763E-09
        -0.76569E-02
         0.21594E-09
        -0.11336E-01
        -0.87823E-02
         0.13853E-09
        -0.30713E-10
        -0.12507E-02
        -0.34367E-11
         0.50662E-02
        -0.21528E-09
         0.11891E-01
        -0.37688E-09
         0.16519E-01
         0.10206E-01
        -0.55899E-09
        -0.45245E-09
         0.72071E-02
        -0.35122E-09
         0.64851E-02
        -0.35932E-09
         0.62947E-02
        -0.38634E-09
         0.10465E-01
         0.87195E-02
        -0.35928E-09
        -0.17215E-09
        -0.69181E-02
         0.26375E-02
         0.12633E-09
        -0.15699E-09
        -0.16984E-01
         0.42027E-09
        -0.24517E-01
         0.61475E-09
        -0.29772E-01
         0.75922E-09
        -0.34257E-01
         0.75309E-09
        -0.39538E-01
         0.59596E-09
        -0.39913E-01
         0.46121E-09
        -0.37533E-01
         0.42896E-09
        -0.33412E-01
         0.40813E-09
        -0.24701E-01
         0.26082E-09
        -0.17085E-01
         0.86113E-10
        -0.87795E-02
         0.55643E-10
         0.63985E-03
         0.83636E-10
         0.85917E-02
         0.43197E-10
         0.15533E-01
        -0.13063E-09
         0.24031E-01
        -0.36873E-09
         0.26524E-01
        -0.57579E-09
         0.28595E-01
        -0.75485E-09
         0.36343E-01
        -0.75420E-09
         0.37948E-01
        -0.65838E-09
         0.35211E-01
        -0.64166E-09
         0.28440E-01
        -0.64565E-09
         0.19338E-01
        -0.51056E-09
         0.13769E-01
        -0.30192E-09
         0.99673E-02
        -0.23344E-09
        -0.58265E-02
        -0.30506E-02
        -0.26588E-02
        -0.81261E-03
        -0.27588E-02
        -0.28929E-02
        -0.31022E-03
        -0.47267E-02
        -0.39750E-02
        -0.59064E-02
         0.31626E-02
         0.13531E-01
         0.91787E-02
         0.10639E-02
         0.13629E-01
         0.15363E-02
        -0.13652E-02
         0.87155E-03
         0.11643E-02
        -0.87654E-03
         0.80961E-03
         0.66507E-03
        -0.22501E-02
         0.18929E-03
        -0.40305E-02
         0.59615E-03
         0.31222E-04
         0.54533E-03
         0.66711E-03
        -0.31805E-02
         0.15018E-02
        -0.16537E-02
         0.10923E-02
        -0.26869E-03
         0.45796E-03
         0.24583E-02
         0.54867E-02
         0.11928E-01
         0.10906E-01
         0.92958E-02
         0.88079E-02
         0.21546E-02
        -0.17354E-02
        -0.47702E-02
        -0.79454E-02
        -0.13154E-01
        -0.85326E-02
        -0.60406E-02
        -0.64508E-02
        -0.69221E-02
        -0.81997E-02
        -0.36978E-02
         0.72481E-02
        -0.86244E-02
         0.23403E-01
         0.32258E-01
         0.41159E-01
         0.49173E-01
         0.49716E-01
         0.45069E-01
         0.42847E-01
         0.40525E-01
         0.26239E-01
         0.11352E-01
         0.49631E-02
         0.21826E-02
        -0.33300E-02
        -0.13126E-01
        -0.24132E-01
        -0.31661E-01
        -0.38941E-01
        -0.44492E-01
        -0.41669E-01
        -0.39385E-01
        -0.36679E-01
        -0.25642E-01
        -0.14862E-01
        -0.13012E-01
        -0.78551E-02
        -0.49543E-02
        -0.45846E-02
        -0.10874E-02
        -0.59545E-02
        -0.26781E-02
        -0.21236E-02
        -0.74241E-02
        -0.48685E-02
        -0.69826E-02
         0.36917E-02
         0.15977E-01
         0.94653E-02
         0.13602E-02
         0.15741E-01
         0.29789E-02
        -0.90275E-03
         0.86187E-03
         0.38847E-02
         0.75105E-03
         0.33483E-02
         0.23773E-02
        -0.13782E-02
         0.11633E-02
        -0.47020E-02
         0.11630E-02
         0.29185E-03
         0.54254E-03
        -0.86661E-03
        -0.46905E-02
         0.32104E-02
         0.84568E-03
         0.20751E-02
         0.18017E-02
        -0.85910E-03
         0.26188E-02
         0.50000E-02
         0.11963E-01
         0.10550E-01
         0.92972E-02
         0.68302E-02
        -0.16877E-02
        -0.34763E-02
        -0.43424E-02
        -0.55915E-02
        -0.11422E-01
        -0.66464E-02
        -0.43952E-02
        -0.55239E-02
        -0.65212E-02
        -0.67570E-02
        -0.50698E-03
         0.84233E-02
        -0.12049E-01
         0.28039E-01
         0.36235E-01
         0.46766E-01
         0.56119E-01
         0.54969E-01
         0.48005E-01
         0.46005E-01
         0.45517E-01
         0.28583E-01
         0.94207E-02
         0.37539E-02
         0.32166E-02
        -0.14898E-02
        -0.12638E-01
        -0.25317E-01
        -0.35235E-01
        -0.45857E-01
        -0.50849E-01
        -0.44653E-01
        -0.42216E-01
        -0.42090E-01
        -0.29636E-01
        -0.15395E-01
        -0.14577E-01
        -0.78600E-02
        -0.49552E-02
        -0.45868E-02
        -0.10954E-02
        -0.59552E-02
        -0.26802E-02
        -0.21263E-02
        -0.74366E-02
        -0.48772E-02
        -0.70086E-02
         0.36939E-02
         0.15976E-01
         0.94677E-02
         0.13603E-02
         0.15761E-01
         0.29791E-02
        -0.91096E-03
         0.86058E-03
         0.38873E-02
         0.74686E-03
         0.33566E-02
         0.23795E-02
        -0.13785E-02
         0.11627E-02
        -0.47234E-02
         0.11609E-02
         0.29528E-03
         0.54557E-03
        -0.86090E-03
        -0.47004E-02
         0.32110E-02
         0.84383E-03
         0.20797E-02
         0.18047E-02
        -0.85104E-03
         0.26205E-02
         0.49998E-02
         0.11982E-01
         0.10572E-01
         0.93080E-02
         0.68354E-02
        -0.16832E-02
        -0.34799E-02
        -0.43446E-02
        -0.55917E-02
        -0.11422E-01
        -0.66470E-02
        -0.43925E-02
        -0.55165E-02
        -0.65124E-02
        -0.67541E-02
        -0.49930E-03
         0.84154E-02
        -0.12050E-01
         0.28044E-01
         0.36236E-01
         0.46761E-01
         0.56100E-01
         0.54946E-01
         0.47990E-01
         0.45995E-01
         0.45504E-01
         0.28577E-01
         0.94251E-02
         0.37536E-02
         0.32232E-02
        -0.14776E-02
        -0.12644E-01
        -0.25329E-01
        -0.35243E-01
        -0.45857E-01
        -0.50846E-01
        -0.44650E-01
        -0.42215E-01
        -0.42079E-01
        -0.29614E-01
        -0.15378E-01
        -0.14558E-01
        -0.78649E-02
        -0.49561E-02
        -0.45892E-02
        -0.11035E-02
        -0.59558E-02
        -0.26824E-02
        -0.21290E-02
        -0.74491E-02
        -0.48860E-02
        -0.70346E-02
         0.36961E-02
         0.15974E-01
         0.94701E-02
         0.13601E-02
         0.15781E-01
         0.29793E-02
        -0.91926E-03
         0.85927E-03
         0.38900E-02
         0.74260E-03
         0.33649E-02
         0.23818E-02
        -0.13791E-02
         0.11620E-02
        -0.47444E-02
         0.11585E-02
         0.29896E-03
         0.54879E-03
        -0.85466E-03
        -0.47100E-02
         0.32115E-02
         0.84160E-03
         0.20843E-02
         0.18076E-02
        -0.84292E-03
         0.26223E-02
         0.49995E-02
         0.12000E-01
         0.10595E-01
         0.93189E-02
         0.68409E-02
        -0.16782E-02
        -0.34833E-02
        -0.43474E-02
        -0.55924E-02
        -0.11423E-01
        -0.66477E-02
        -0.43898E-02
        -0.55092E-02
        -0.65037E-02
        -0.67513E-02
        -0.49166E-03
         0.84076E-02
        -0.12050E-01
         0.28049E-01
         0.36236E-01
         0.46755E-01
         0.56081E-01
         0.54923E-01
         0.47976E-01
         0.45986E-01
         0.45492E-01
         0.28571E-01
         0.94298E-02
         0.37534E-02
         0.32298E-02
        -0.14654E-02
        -0.12651E-01
        -0.25341E-01
        -0.35252E-01
        -0.45856E-01
        -0.50843E-01
        -0.44647E-01
        -0.42213E-01
        -0.42068E-01
        -0.29593E-01
        -0.15361E-01
        -0.14539E-01
        -0.78698E-02
        -0.49570E-02
        -0.45915E-02
        -0.11116E-02
        -0.59565E-02
        -0.26845E-02
        -0.21318E-02
        -0.74616E-02
        -0.48949E-02
        -0.70602E-02
         0.36983E-02
         0.15973E-01
         0.94726E-02
         0.13601E-02
         0.15801E-01
         0.29795E-02
        -0.92771E-03
         0.85793E-03
         0.38929E-02
         0.73808E-03
         0.33735E-02
         0.23838E-02
        -0.13803E-02
         0.11609E-02
        -0.47648E-02
         0.11553E-02
         0.30276E-03
         0.55306E-03
        -0.84692E-03
        -0.47186E-02
         0.32117E-02
         0.83857E-03
         0.20889E-02
         0.18105E-02
        -0.83485E-03
         0.26240E-02
         0.49992E-02
         0.12019E-01
         0.10619E-01
         0.93305E-02
         0.68473E-02
        -0.16718E-02
        -0.34860E-02
        -0.43516E-02
        -0.55941E-02
        -0.11423E-01
        -0.66488E-02
        -0.43871E-02
        -0.55019E-02
        -0.64949E-02
        -0.67482E-02
        -0.48403E-03
         0.83997E-02
        -0.12051E-01
         0.28055E-01
         0.36236E-01
         0.46750E-01
         0.56062E-01
         0.54900E-01
         0.47962E-01
         0.45976E-01
         0.45479E-01
         0.28566E-01
         0.94353E-02
         0.37534E-02
         0.32363E-02
        -0.14531E-02
        -0.12659E-01
        -0.25355E-01
        -0.35261E-01
        -0.45855E-01
        -0.50840E-01
        -0.44644E-01
        -0.42211E-01
        -0.42057E-01
        -0.29572E-01
        -0.15344E-01
        -0.14519E-01
        -0.78747E-02
        -0.49580E-02
        -0.45938E-02
        -0.11196E-02
        -0.59572E-02
        -0.26867E-02
        -0.21344E-02
        -0.74739E-02
        -0.49037E-02
        -0.70855E-02
         0.37005E-02
         0.15972E-01
         0.94750E-02
         0.13602E-02
         0.15822E-01
         0.29798E-02
        -0.93628E-03
         0.85659E-03
         0.38959E-02
         0.73332E-03
         0.33822E-02
         0.23856E-02
        -0.13821E-02
         0.11592E-02
        -0.47844E-02
         0.11513E-02
         0.30698E-03
         0.55829E-03
        -0.83762E-03
        -0.47264E-02
         0.32117E-02
         0.83461E-03
         0.20934E-02
         0.18135E-02
        -0.82671E-03
         0.26257E-02
         0.49989E-02
         0.12037E-01
         0.10642E-01
         0.93428E-02
         0.68546E-02
        -0.16640E-02
        -0.34881E-02
        -0.43575E-02
        -0.55968E-02
        -0.11425E-01
        -0.66503E-02
        -0.43848E-02
        -0.54947E-02
        -0.64861E-02
        -0.67454E-02
        -0.47636E-03
         0.83918E-02
        -0.12052E-01
         0.28060E-01
         0.36236E-01
         0.46744E-01
         0.56043E-01
         0.54877E-01
         0.47947E-01
         0.45967E-01
         0.45467E-01
         0.28561E-01
         0.94419E-02
         0.37538E-02
         0.32427E-02
        -0.14408E-02
        -0.12667E-01
        -0.25370E-01
        -0.35272E-01
        -0.45855E-01
        -0.50837E-01
        -0.44641E-01
        -0.42209E-01
        -0.42047E-01
        -0.29551E-01
        -0.15328E-01
        -0.14500E-01
        -0.78793E-02
        -0.49585E-02
        -0.45960E-02
        -0.11278E-02
        -0.59579E-02
        -0.26888E-02
        -0.21367E-02
        -0.74857E-02
        -0.49126E-02
        -0.71101E-02
         0.37030E-02
         0.15970E-01
         0.94775E-02
         0.13605E-02
         0.15842E-01
         0.29802E-02
        -0.94503E-03
         0.85527E-03
         0.38988E-02
         0.72846E-03
         0.33908E-02
         0.23873E-02
        -0.13842E-02
         0.11574E-02
        -0.48035E-02
         0.11471E-02
         0.31153E-03
         0.56407E-03
        -0.82768E-03
        -0.47337E-02
         0.32116E-02
         0.83021E-03
         0.20981E-02
         0.18165E-02
        -0.81852E-03
         0.26276E-02
         0.49989E-02
         0.12056E-01
         0.10666E-01
         0.93556E-02
         0.68621E-02
        -0.16557E-02
        -0.34899E-02
        -0.43638E-02
        -0.56003E-02
        -0.11426E-01
        -0.66520E-02
        -0.43828E-02
        -0.54879E-02
        -0.64775E-02
        -0.67426E-02
        -0.46869E-03
         0.83839E-02
        -0.12052E-01
         0.28065E-01
         0.36237E-01
         0.46738E-01
         0.56024E-01
         0.54854E-01
         0.47933E-01
         0.45957E-01
         0.45454E-01
         0.28557E-01
         0.94489E-02
         0.37543E-02
         0.32491E-02
        -0.14285E-02
        -0.12675E-01
        -0.25386E-01
        -0.35283E-01
        -0.45854E-01
        -0.50833E-01
        -0.44638E-01
        -0.42208E-01
        -0.42036E-01
        -0.29530E-01
        -0.15311E-01
        -0.14481E-01
        -0.78835E-02
        -0.49584E-02
        -0.45983E-02
        -0.11361E-02
        -0.59587E-02
        -0.26910E-02
        -0.21386E-02
        -0.74965E-02
        -0.49216E-02
        -0.71336E-02
         0.37061E-02
         0.15970E-01
         0.94807E-02
         0.13615E-02
         0.15862E-01
         0.29807E-02
        -0.95400E-03
         0.85395E-03
         0.39019E-02
         0.72359E-03
         0.33996E-02
         0.23890E-02
        -0.13863E-02
         0.11557E-02
        -0.48222E-02
         0.11428E-02
         0.31689E-03
         0.57021E-03
        -0.81755E-03
        -0.47409E-02
         0.32113E-02
         0.82549E-03
         0.21029E-02
         0.18197E-02
        -0.81031E-03
         0.26296E-02
         0.49990E-02
         0.12075E-01
         0.10690E-01
         0.93683E-02
         0.68698E-02
        -0.16472E-02
        -0.34917E-02
        -0.43701E-02
        -0.56040E-02
        -0.11429E-01
        -0.66547E-02
        -0.43821E-02
        -0.54821E-02
        -0.64692E-02
        -0.67397E-02
        -0.46092E-03
         0.83760E-02
        -0.12053E-01
         0.28070E-01
         0.36237E-01
         0.46733E-01
         0.56004E-01
         0.54830E-01
         0.47918E-01
         0.45947E-01
         0.45441E-01
         0.28552E-01
         0.94559E-02
         0.37548E-02
         0.32555E-02
        -0.14162E-02
        -0.12683E-01
        -0.25403E-01
        -0.35294E-01
        -0.45853E-01
        -0.50830E-01
        -0.44635E-01
        -0.42207E-01
        -0.42025E-01
        -0.29509E-01
        -0.15294E-01
        -0.14462E-01
        -0.78876E-02
        -0.49581E-02
        -0.46005E-02
        -0.11446E-02
        -0.59595E-02
        -0.26932E-02
        -0.21400E-02
        -0.75066E-02
        -0.49307E-02
        -0.71566E-02
         0.37094E-02
         0.15969E-01
         0.94838E-02
         0.13627E-02
         0.15882E-01
         0.29812E-02
        -0.96309E-03
         0.85259E-03
         0.39049E-02
         0.71873E-03
         0.34083E-02
         0.23908E-02
        -0.13883E-02
         0.11540E-02
        -0.48407E-02
         0.11386E-02
         0.32245E-03
         0.57651E-03
        -0.80739E-03
        -0.47480E-02
         0.32110E-02
         0.82057E-03
         0.21078E-02
         0.18231E-02
        -0.80203E-03
         0.26318E-02
         0.49994E-02
         0.12095E-01
         0.10715E-01
         0.93812E-02
         0.68775E-02
        -0.16387E-02
        -0.34934E-02
        -0.43765E-02
        -0.56078E-02
        -0.11431E-01
        -0.66578E-02
        -0.43818E-02
        -0.54769E-02
        -0.64611E-02
        -0.67370E-02
        -0.45316E-03
         0.83681E-02
        -0.12054E-01
         0.28075E-01
         0.36237E-01
         0.46727E-01
         0.55985E-01
         0.54807E-01
         0.47904E-01
         0.45938E-01
         0.45428E-01
         0.28547E-01
         0.94628E-02
         0.37554E-02
         0.32620E-02
        -0.14038E-02
        -0.12691E-01
        -0.25419E-01
        -0.35304E-01
        -0.45852E-01
        -0.50827E-01
        -0.44633E-01
        -0.42206E-01
        -0.42014E-01
        -0.29488E-01
        -0.15277E-01
        -0.14443E-01
        -0.78916E-02
        -0.49578E-02
        -0.46027E-02
        -0.11531E-02
        -0.59603E-02
        -0.26953E-02
        -0.21415E-02
        -0.75168E-02
        -0.49399E-02
        -0.71796E-02
         0.37125E-02
         0.15968E-01
         0.94869E-02
         0.13641E-02
         0.15903E-01
         0.29818E-02
        -0.97222E-03
         0.85123E-03
         0.39079E-02
         0.71383E-03
         0.34170E-02
         0.23926E-02
        -0.13904E-02
         0.11523E-02
        -0.48591E-02
         0.11343E-02
         0.32816E-03
         0.58275E-03
        -0.79725E-03
        -0.47550E-02
         0.32106E-02
         0.81571E-03
         0.21127E-02
         0.18264E-02
        -0.79370E-03
         0.26338E-02
         0.49997E-02
         0.12114E-01
         0.10739E-01
         0.93939E-02
         0.68852E-02
        -0.16303E-02
        -0.34950E-02
        -0.43829E-02
        -0.56117E-02
        -0.11434E-01
        -0.66607E-02
        -0.43815E-02
        -0.54717E-02
        -0.64530E-02
        -0.67343E-02
        -0.44536E-03
         0.83602E-02
        -0.12054E-01
         0.28080E-01
         0.36238E-01
         0.46721E-01
         0.55966E-01
         0.54783E-01
         0.47889E-01
         0.45929E-01
         0.45415E-01
         0.28543E-01
         0.94697E-02
         0.37560E-02
         0.32686E-02
        -0.13915E-02
        -0.12700E-01
        -0.25435E-01
        -0.35315E-01
        -0.45850E-01
        -0.50823E-01
        -0.44631E-01
        -0.42205E-01
        -0.42003E-01
        -0.29467E-01
        -0.15260E-01
        -0.14424E-01
        -0.78956E-02
        -0.49574E-02
        -0.46049E-02
        -0.11615E-02
        -0.59610E-02
        -0.26974E-02
        -0.21429E-02
        -0.75269E-02
        -0.49491E-02
        -0.72024E-02
         0.37159E-02
         0.15967E-01
         0.94902E-02
         0.13653E-02
         0.15923E-01
         0.29824E-02
        -0.98138E-03
         0.84987E-03
         0.39108E-02
         0.70890E-03
         0.34257E-02
         0.23943E-02
        -0.13924E-02
         0.11506E-02
        -0.48775E-02
         0.11301E-02
         0.33371E-03
         0.58892E-03
        -0.78714E-03
        -0.47621E-02
         0.32102E-02
         0.81083E-03
         0.21175E-02
         0.18297E-02
        -0.78539E-03
         0.26360E-02
         0.50001E-02
         0.12133E-01
         0.10763E-01
         0.94067E-02
         0.68929E-02
        -0.16219E-02
        -0.34968E-02
        -0.43893E-02
        -0.56155E-02
        -0.11436E-01
        -0.66638E-02
        -0.43814E-02
        -0.54664E-02
        -0.64449E-02
        -0.67315E-02
        -0.43760E-03
         0.83523E-02
        -0.12055E-01
         0.28084E-01
         0.36238E-01
         0.46716E-01
         0.55947E-01
         0.54760E-01
         0.47874E-01
         0.45919E-01
         0.45402E-01
         0.28538E-01
         0.94765E-02
         0.37566E-02
         0.32752E-02
        -0.13792E-02
        -0.12708E-01
        -0.25451E-01
        -0.35326E-01
        -0.45849E-01
        -0.50820E-01
        -0.44629E-01
        -0.42204E-01
        -0.41992E-01
        -0.29445E-01
        -0.15244E-01
        -0.14404E-01
        -0.78996E-02
        -0.49569E-02
        -0.46071E-02
        -0.11699E-02
        -0.59617E-02
        -0.26995E-02
        -0.21445E-02
        -0.75370E-02
        -0.49582E-02
        -0.72253E-02
         0.37192E-02
         0.15966E-01
         0.94934E-02
         0.13667E-02
         0.15944E-01
         0.29830E-02
        -0.99057E-03
         0.84851E-03
         0.39138E-02
         0.70394E-03
         0.34344E-02
         0.23960E-02
        -0.13945E-02
         0.11490E-02
        -0.48959E-02
         0.11259E-02
         0.33936E-03
         0.59500E-03
        -0.77704E-03
        -0.47692E-02
         0.32099E-02
         0.80596E-03
         0.21224E-02
         0.18330E-02
        -0.77704E-03
         0.26381E-02
         0.50005E-02
         0.12153E-01
         0.10788E-01
         0.94193E-02
         0.69006E-02
        -0.16135E-02
        -0.34985E-02
        -0.43955E-02
        -0.56193E-02
        -0.11439E-01
        -0.66669E-02
        -0.43811E-02
        -0.54612E-02
        -0.64368E-02
        -0.67288E-02
        -0.42981E-03
         0.83443E-02
        -0.12055E-01
         0.28089E-01
         0.36238E-01
         0.46710E-01
         0.55928E-01
         0.54736E-01
         0.47860E-01
         0.45910E-01
         0.45389E-01
         0.28533E-01
         0.94834E-02
         0.37572E-02
         0.32817E-02
        -0.13669E-02
        -0.12716E-01
        -0.25467E-01
        -0.35336E-01
        -0.45848E-01
        -0.50817E-01
        -0.44627E-01
        -0.42203E-01
        -0.41981E-01
        -0.29424E-01
        -0.15227E-01
        -0.14385E-01
        -0.79035E-02
        -0.49566E-02
        -0.46092E-02
        -0.11784E-02
        -0.59625E-02
        -0.27017E-02
        -0.21459E-02
        -0.75471E-02
        -0.49674E-02
        -0.72481E-02
         0.37225E-02
         0.15966E-01
         0.94965E-02
         0.13680E-02
         0.15964E-01
         0.29836E-02
        -0.99977E-03
         0.84713E-03
         0.39168E-02
         0.69902E-03
         0.34431E-02
         0.23977E-02
        -0.13965E-02
         0.11473E-02
        -0.49143E-02
         0.11217E-02
         0.34488E-03
         0.60104E-03
        -0.76694E-03
        -0.47763E-02
         0.32095E-02
         0.80108E-03
         0.21272E-02
         0.18364E-02
        -0.76864E-03
         0.26402E-02
         0.50008E-02
         0.12172E-01
         0.10812E-01
         0.94321E-02
         0.69083E-02
        -0.16052E-02
        -0.35002E-02
        -0.44019E-02
        -0.56232E-02
        -0.11442E-01
        -0.66698E-02
        -0.43809E-02
        -0.54561E-02
        -0.64287E-02
        -0.67261E-02
        -0.42203E-03
         0.83363E-02
        -0.12056E-01
         0.28094E-01
         0.36238E-01
         0.46704E-01
         0.55909E-01
         0.54712E-01
         0.47845E-01
         0.45900E-01
         0.45376E-01
         0.28529E-01
         0.94903E-02
         0.37578E-02
         0.32882E-02
        -0.13545E-02
        -0.12725E-01
        -0.25483E-01
        -0.35347E-01
        -0.45847E-01
        -0.50813E-01
        -0.44625E-01
        -0.42202E-01
        -0.41969E-01
        -0.29403E-01
        -0.15211E-01
        -0.14366E-01
        -0.79075E-02
        -0.49562E-02
        -0.46115E-02
        -0.11870E-02
        -0.59633E-02
        -0.27038E-02
        -0.21474E-02
        -0.75571E-02
        -0.49766E-02
        -0.72708E-02
         0.37258E-02
         0.15965E-01
         0.94998E-02
         0.13691E-02
         0.15985E-01
         0.29841E-02
        -0.10090E-02
         0.84573E-03
         0.39198E-02
         0.69413E-03
         0.34518E-02
         0.23994E-02
        -0.13986E-02
         0.11457E-02
        -0.49326E-02
         0.11174E-02
         0.35057E-03
         0.60702E-03
        -0.75687E-03
        -0.47833E-02
         0.32091E-02
         0.79616E-03
         0.21320E-02
         0.18397E-02
        -0.76025E-03
         0.26424E-02
         0.50011E-02
         0.12192E-01
         0.10836E-01
         0.94448E-02
         0.69161E-02
        -0.15968E-02
        -0.35018E-02
        -0.44083E-02
        -0.56271E-02
        -0.11444E-01
        -0.66730E-02
        -0.43807E-02
        -0.54509E-02
        -0.64207E-02
        -0.67233E-02
        -0.41427E-03
         0.83284E-02
        -0.12056E-01
         0.28099E-01
         0.36239E-01
         0.46699E-01
         0.55889E-01
         0.54689E-01
         0.47830E-01
         0.45891E-01
         0.45363E-01
         0.28524E-01
         0.94971E-02
         0.37583E-02
         0.32947E-02
        -0.13422E-02
        -0.12733E-01
        -0.25499E-01
        -0.35357E-01
        -0.45845E-01
        -0.50810E-01
        -0.44623E-01
        -0.42201E-01
        -0.41958E-01
        -0.29382E-01
        -0.15194E-01
        -0.14347E-01
        -0.79114E-02
        -0.49559E-02
        -0.46137E-02
        -0.11955E-02
        -0.59640E-02
        -0.27060E-02
        -0.21490E-02
        -0.75671E-02
        -0.49858E-02
        -0.72936E-02
         0.37292E-02
         0.15964E-01
         0.95029E-02
         0.13704E-02
         0.16005E-01
         0.29847E-02
        -0.10182E-02
         0.84435E-03
         0.39227E-02
         0.68923E-03
         0.34605E-02
         0.24011E-02
        -0.14006E-02
         0.11441E-02
        -0.49509E-02
         0.11132E-02
         0.35610E-03
         0.61293E-03
        -0.74683E-03
        -0.47903E-02
         0.32087E-02
         0.79128E-03
         0.21369E-02
         0.18431E-02
        -0.75182E-03
         0.26445E-02
         0.50014E-02
         0.12211E-01
         0.10861E-01
         0.94573E-02
         0.69238E-02
        -0.15884E-02
        -0.35035E-02
        -0.44146E-02
        -0.56310E-02
        -0.11447E-01
        -0.66761E-02
        -0.43804E-02
        -0.54456E-02
        -0.64126E-02
        -0.67207E-02
        -0.40656E-03
         0.83204E-02
        -0.12057E-01
         0.28103E-01
         0.36239E-01
         0.46693E-01
         0.55870E-01
         0.54665E-01
         0.47816E-01
         0.45881E-01
         0.45349E-01
         0.28519E-01
         0.95040E-02
         0.37589E-02
         0.33013E-02
        -0.13299E-02
        -0.12741E-01
        -0.25516E-01
        -0.35368E-01
        -0.45844E-01
        -0.50807E-01
        -0.44621E-01
        -0.42200E-01
        -0.41947E-01
        -0.29361E-01
        -0.15178E-01
        -0.14328E-01
        -0.79153E-02
        -0.49555E-02
        -0.46158E-02
        -0.12040E-02
        -0.59648E-02
        -0.27081E-02
        -0.21505E-02
        -0.75771E-02
        -0.49951E-02
        -0.73163E-02
         0.37325E-02
         0.15963E-01
         0.95060E-02
         0.13716E-02
         0.16026E-01
         0.29853E-02
        -0.10275E-02
         0.84298E-03
         0.39257E-02
         0.68429E-03
         0.34692E-02
         0.24028E-02
        -0.14026E-02
         0.11425E-02
        -0.49693E-02
         0.11090E-02
         0.36173E-03
         0.61873E-03
        -0.73684E-03
        -0.47973E-02
         0.32083E-02
         0.78636E-03
         0.21417E-02
         0.18464E-02
        -0.74339E-03
         0.26466E-02
         0.50017E-02
         0.12231E-01
         0.10885E-01
         0.94699E-02
         0.69315E-02
        -0.15800E-02
        -0.35052E-02
        -0.44209E-02
        -0.56349E-02
        -0.11449E-01
        -0.66790E-02
        -0.43803E-02
        -0.54404E-02
        -0.64044E-02
        -0.67180E-02
        -0.39880E-03
         0.83124E-02
        -0.12057E-01
         0.28108E-01
         0.36239E-01
         0.46688E-01
         0.55851E-01
         0.54641E-01
         0.47801E-01
         0.45872E-01
         0.45336E-01
         0.28515E-01
         0.95108E-02
         0.37595E-02
         0.33078E-02
        -0.13175E-02
        -0.12749E-01
        -0.25532E-01
        -0.35379E-01
        -0.45843E-01
        -0.50803E-01
        -0.44619E-01
        -0.42199E-01
        -0.41936E-01
        -0.29340E-01
        -0.15161E-01
        -0.14309E-01
        -0.79192E-02
        -0.49550E-02
        -0.46180E-02
        -0.12124E-02
        -0.59655E-02
        -0.27102E-02
        -0.21520E-02
        -0.75871E-02
        -0.50044E-02
        -0.73389E-02
         0.37358E-02
         0.15962E-01
         0.95093E-02
         0.13728E-02
         0.16046E-01
         0.29858E-02
        -0.10368E-02
         0.84159E-03
         0.39287E-02
         0.67937E-03
         0.34780E-02
         0.24044E-02
        -0.14046E-02
         0.11409E-02
        -0.49876E-02
         0.11047E-02
         0.36721E-03
         0.62446E-03
        -0.72688E-03
        -0.48044E-02
         0.32079E-02
         0.78149E-03
         0.21465E-02
         0.18498E-02
        -0.73489E-03
         0.26487E-02
         0.50020E-02
         0.12251E-01
         0.10910E-01
         0.94823E-02
         0.69392E-02
        -0.15716E-02
        -0.35070E-02
        -0.44271E-02
        -0.56388E-02
        -0.11452E-01
        -0.66822E-02
        -0.43801E-02
        -0.54353E-02
        -0.63964E-02
        -0.67152E-02
        -0.39103E-03
         0.83044E-02
        -0.12058E-01
         0.28113E-01
         0.36239E-01
         0.46682E-01
         0.55832E-01
         0.54617E-01
         0.47786E-01
         0.45862E-01
         0.45322E-01
         0.28510E-01
         0.95177E-02
         0.37600E-02
         0.33142E-02
        -0.13052E-02
        -0.12757E-01
        -0.25548E-01
        -0.35389E-01
        -0.45842E-01
        -0.50800E-01
        -0.44617E-01
        -0.42198E-01
        -0.41924E-01
        -0.29319E-01
        -0.15145E-01
        -0.14289E-01
        -0.79231E-02
        -0.49546E-02
        -0.46202E-02
        -0.12209E-02
        -0.59663E-02
        -0.27123E-02
        -0.21536E-02
        -0.75970E-02
        -0.50137E-02
        -0.73616E-02
         0.37392E-02
         0.15962E-01
         0.95125E-02
         0.13739E-02
         0.16067E-01
         0.29864E-02
        -0.10462E-02
         0.84018E-03
         0.39317E-02
         0.67451E-03
         0.34866E-02
         0.24059E-02
        -0.14067E-02
         0.11393E-02
        -0.50059E-02
         0.11005E-02
         0.37284E-03
         0.63012E-03
        -0.71691E-03
        -0.48112E-02
         0.32075E-02
         0.77658E-03
         0.21513E-02
         0.18531E-02
        -0.72638E-03
         0.26508E-02
         0.50023E-02
         0.12270E-01
         0.10934E-01
         0.94947E-02
         0.69469E-02
        -0.15633E-02
        -0.35087E-02
        -0.44335E-02
        -0.56427E-02
        -0.11455E-01
        -0.66853E-02
        -0.43800E-02
        -0.54301E-02
        -0.63883E-02
        -0.67125E-02
        -0.38333E-03
         0.82964E-02
        -0.12058E-01
         0.28117E-01
         0.36240E-01
         0.46676E-01
         0.55812E-01
         0.54593E-01
         0.47771E-01
         0.45853E-01
         0.45308E-01
         0.28505E-01
         0.95247E-02
         0.37604E-02
         0.33207E-02
        -0.12929E-02
        -0.12765E-01
        -0.25564E-01
        -0.35400E-01
        -0.45841E-01
        -0.50797E-01
        -0.44615E-01
        -0.42197E-01
        -0.41913E-01
        -0.29297E-01
        -0.15129E-01
        -0.14270E-01
        -0.79270E-02
        -0.49543E-02
        -0.46224E-02
        -0.12295E-02
        -0.59670E-02
        -0.27144E-02
        -0.21551E-02
        -0.76069E-02
        -0.50230E-02
        -0.73842E-02
         0.37425E-02
         0.15961E-01
         0.95156E-02
         0.13751E-02
         0.16087E-01
         0.29870E-02
        -0.10557E-02
         0.83876E-03
         0.39346E-02
         0.66987E-03
         0.34953E-02
         0.24075E-02
        -0.14087E-02
         0.11377E-02
        -0.50243E-02
         0.10963E-02
         0.37842E-03
         0.63575E-03
        -0.70697E-03
        -0.48177E-02
         0.32071E-02
         0.77161E-03
         0.21561E-02
         0.18565E-02
        -0.71787E-03
         0.26530E-02
         0.50026E-02
         0.12290E-01
         0.10958E-01
         0.95064E-02
         0.69544E-02
        -0.15549E-02
        -0.35105E-02
        -0.44398E-02
        -0.56467E-02
        -0.11457E-01
        -0.66883E-02
        -0.43798E-02
        -0.54249E-02
        -0.63802E-02
        -0.67099E-02
        -0.37563E-03
         0.82883E-02
        -0.12059E-01
         0.28122E-01
         0.36240E-01
         0.46670E-01
         0.55793E-01
         0.54569E-01
         0.47757E-01
         0.45844E-01
         0.45294E-01
         0.28501E-01
         0.95317E-02
         0.37605E-02
         0.33271E-02
        -0.12807E-02
        -0.12774E-01
        -0.25580E-01
        -0.35410E-01
        -0.45839E-01
        -0.50793E-01
        -0.44613E-01
        -0.42197E-01
        -0.41902E-01
        -0.29276E-01
        -0.15112E-01
        -0.14251E-01
        -0.79309E-02
        -0.49539E-02
        -0.46246E-02
        -0.12380E-02
        -0.59678E-02
        -0.27165E-02
        -0.21566E-02
        -0.76167E-02
        -0.50325E-02
        -0.74068E-02
         0.37458E-02
         0.15960E-01
         0.95189E-02
         0.13763E-02
         0.16107E-01
         0.29875E-02
        -0.10653E-02
         0.83734E-03
         0.39376E-02
         0.66542E-03
         0.35040E-02
         0.24089E-02
        -0.14107E-02
         0.11362E-02
        -0.50426E-02
         0.10920E-02
         0.38424E-03
         0.64131E-03
        -0.69705E-03
        -0.48237E-02
         0.32067E-02
         0.76671E-03
         0.21609E-02
         0.18599E-02
        -0.70929E-03
         0.26551E-02
         0.50029E-02
         0.12311E-01
         0.10982E-01
         0.95179E-02
         0.69619E-02
        -0.15466E-02
        -0.35125E-02
        -0.44460E-02
        -0.56507E-02
        -0.11460E-01
        -0.66914E-02
        -0.43795E-02
        -0.54197E-02
        -0.63720E-02
        -0.67071E-02
        -0.36786E-03
         0.82803E-02
        -0.12059E-01
         0.28126E-01
         0.36240E-01
         0.46665E-01
         0.55774E-01
         0.54545E-01
         0.47742E-01
         0.45834E-01
         0.45279E-01
         0.28498E-01
         0.95388E-02
         0.37604E-02
         0.33335E-02
        -0.12683E-02
        -0.12782E-01
        -0.25596E-01
        -0.35421E-01
        -0.45838E-01
        -0.50790E-01
        -0.44610E-01
        -0.42196E-01
        -0.41890E-01
        -0.29255E-01
        -0.15096E-01
        -0.14232E-01
        -0.79348E-02
        -0.49535E-02
        -0.46269E-02
        -0.12465E-02
        -0.59687E-02
        -0.27186E-02
        -0.21582E-02
        -0.76265E-02
        -0.50420E-02
        -0.74293E-02
         0.37491E-02
         0.15959E-01
         0.95220E-02
         0.13774E-02
         0.16128E-01
         0.29881E-02
        -0.10750E-02
         0.83593E-03
         0.39406E-02
         0.66110E-03
         0.35128E-02
         0.24104E-02
        -0.14126E-02
         0.11347E-02
        -0.50609E-02
         0.10879E-02
         0.38990E-03
         0.64665E-03
        -0.68726E-03
        -0.48297E-02
         0.32063E-02
         0.76191E-03
         0.21657E-02
         0.18633E-02
        -0.70080E-03
         0.26572E-02
         0.50031E-02
         0.12331E-01
         0.11006E-01
         0.95288E-02
         0.69691E-02
        -0.15383E-02
        -0.35145E-02
        -0.44522E-02
        -0.56544E-02
        -0.11463E-01
        -0.66945E-02
        -0.43794E-02
        -0.54146E-02
        -0.63640E-02
        -0.67045E-02
        -0.36015E-03
         0.82722E-02
        -0.12060E-01
         0.28131E-01
         0.36241E-01
         0.46659E-01
         0.55754E-01
         0.54521E-01
         0.47727E-01
         0.45824E-01
         0.45263E-01
         0.28494E-01
         0.95456E-02
         0.37600E-02
         0.33399E-02
        -0.12560E-02
        -0.12790E-01
        -0.25612E-01
        -0.35431E-01
        -0.45837E-01
        -0.50787E-01
        -0.44608E-01
        -0.42194E-01
        -0.41879E-01
        -0.29234E-01
        -0.15080E-01
        -0.14213E-01
        -0.79660E-02
        -0.49710E-02
        -0.46459E-02
        -0.12591E-02
        -0.59895E-02
        -0.27297E-02
        -0.21675E-02
        -0.76610E-02
        -0.50683E-02
        -0.74750E-02
         0.37646E-02
         0.16007E-01
         0.95546E-02
         0.13829E-02
         0.16198E-01
         0.29993E-02
        -0.10878E-02
         0.83745E-03
         0.39568E-02
         0.65947E-03
         0.35319E-02
         0.24195E-02
        -0.14179E-02
         0.11379E-02
        -0.50955E-02
         0.10889E-02
         0.39637E-03
         0.65288E-03
        -0.68160E-03
        -0.48523E-02
         0.32176E-02
         0.76114E-03
         0.21778E-02
         0.18731E-02
        -0.69535E-03
         0.26668E-02
         0.50185E-02
         0.12389E-01
         0.11064E-01
         0.95702E-02
         0.69978E-02
        -0.15370E-02
        -0.35287E-02
        -0.44703E-02
        -0.56743E-02
        -0.11498E-01
        -0.67170E-02
        -0.43919E-02
        -0.54268E-02
        -0.63769E-02
        -0.67231E-02
        -0.35369E-03
         0.82843E-02
        -0.12093E-01
         0.28207E-01
         0.36334E-01
         0.46776E-01
         0.55885E-01
         0.54647E-01
         0.47846E-01
         0.45941E-01
         0.45374E-01
         0.28569E-01
         0.95758E-02
         0.37685E-02
         0.33543E-02
        -0.12475E-02
        -0.12827E-01
        -0.25688E-01
        -0.35528E-01
        -0.45954E-01
        -0.50914E-01
        -0.44719E-01
        -0.42299E-01
        -0.41973E-01
        -0.29289E-01
        -0.15103E-01
        -0.14231E-01
        -0.11817E-01
        -0.74027E-02
        -0.68805E-02
        -0.18815E-02
        -0.85578E-02
        -0.39403E-02
        -0.32206E-02
        -0.11309E-01
        -0.75076E-02
        -0.11014E-01
         0.54955E-02
         0.22433E-01
         0.13599E-01
         0.20103E-02
         0.22829E-01
         0.44547E-02
        -0.16204E-02
         0.12431E-02
         0.57968E-02
         0.96564E-03
         0.50342E-02
         0.34880E-02
        -0.20223E-02
         0.16796E-02
        -0.75820E-02
         0.16204E-02
         0.58581E-03
         0.97146E-03
        -0.10093E-02
        -0.72055E-02
         0.47791E-02
         0.11264E-02
         0.32458E-02
         0.27873E-02
        -0.96138E-03
         0.38419E-02
         0.72299E-02
         0.17850E-01
         0.16174E-01
         0.14038E-01
         0.10123E-01
        -0.22360E-02
        -0.51447E-02
        -0.64272E-02
        -0.81285E-02
        -0.15993E-01
        -0.95881E-02
        -0.63460E-02
        -0.78811E-02
        -0.92181E-02
        -0.94856E-02
        -0.50074E-03
         0.10264E-01
        -0.14978E-01
         0.34936E-01
         0.45137E-01
         0.58059E-01
         0.69515E-01
         0.68724E-01
         0.60677E-01
         0.58152E-01
         0.57090E-01
         0.35996E-01
         0.12049E-01
         0.47937E-02
         0.42883E-02
        -0.15626E-02
        -0.15989E-01
        -0.31923E-01
        -0.43889E-01
        -0.56704E-01
        -0.62897E-01
        -0.55838E-01
        -0.53059E-01
        -0.52450E-01
        -0.36719E-01
        -0.18874E-01
        -0.17716E-01
  
SCALARS                      strain_xz  double 1
LOOKUP_TABLE default
         0.18044E-03
        -0.12576E-02
        -0.41832E-02
         0.29111E-03
        -0.13060E-09
         0.46308E-10
         0.15485E-09
         0.30925E-10
        -0.11677E-01
        -0.78334E-02
         0.46315E-09
         0.41718E-09
         0.48914E-03
        -0.19945E-02
        -0.57123E-10
        -0.26759E-09
        -0.42484E-03
        -0.19160E-02
        -0.19329E-09
        -0.28788E-09
        -0.27666E-02
        -0.46057E-02
        -0.44452E-02
        -0.19223E-09
        -0.88642E-10
         0.15486E-09
        -0.48673E-02
        -0.38796E-02
        -0.35983E-09
        -0.28544E-09
         0.99345E-03
        -0.21735E-02
         0.21413E-03
         0.36635E-10
        -0.14157E-09
        -0.87220E-10
         0.29220E-02
         0.13800E-02
        -0.21019E-09
        -0.22380E-09
         0.57785E-02
         0.80572E-02
        -0.47413E-09
        -0.34965E-09
         0.62622E-02
         0.33533E-02
        -0.52067E-09
        -0.25061E-09
        -0.17227E-02
        -0.15731E-09
         0.42999E-02
        -0.43789E-10
        -0.17592E-02
        -0.30739E-09
         0.13066E-02
        -0.81311E-10
         0.57172E-02
         0.16003E-02
        -0.69655E-10
        -0.16836E-09
        -0.10605E-03
         0.29088E-02
         0.13932E-09
         0.95535E-10
        -0.76248E-03
        -0.14013E-10
        -0.25353E-02
         0.92173E-10
        -0.16371E-01
        -0.11196E-01
         0.57611E-09
         0.41783E-09
        -0.71687E-02
         0.30424E-09
         0.15928E-02
        -0.21046E-09
         0.49672E-02
        -0.41306E-10
         0.10549E-01
        -0.64083E-10
         0.14089E-01
         0.10099E-01
        -0.23485E-09
        -0.26859E-09
         0.90837E-02
        -0.28886E-09
         0.75919E-02
        -0.41588E-09
         0.46952E-02
        -0.26526E-09
         0.73480E-02
         0.53863E-02
        -0.11321E-09
         0.15525E-09
        -0.12363E-02
         0.18211E-09
        -0.34032E-02
         0.76464E-10
        -0.81505E-02
         0.18882E-09
        -0.12038E-01
        -0.82828E-02
         0.43537E-09
         0.45431E-09
        -0.29052E-01
        -0.32400E-01
         0.80447E-09
         0.79279E-09
        -0.28734E-01
         0.68726E-09
        -0.26407E-01
         0.51360E-09
        -0.18790E-01
         0.28224E-09
        -0.13395E-01
         0.30181E-10
        -0.48725E-02
        -0.10750E-09
         0.61996E-02
        -0.86004E-10
         0.14775E-01
        -0.84532E-10
         0.21963E-01
        -0.19063E-09
         0.29947E-01
        -0.36267E-09
         0.37271E-01
        -0.43278E-09
         0.40585E-01
        -0.40833E-09
         0.39165E-01
        -0.44403E-09
         0.36335E-01
        -0.57629E-09
         0.32932E-01
        -0.67956E-09
         0.29037E-01
        -0.63172E-09
         0.22650E-01
        -0.51340E-09
         0.13098E-01
        -0.24237E-09
         0.11171E-02
         0.46281E-10
        -0.73463E-02
         0.11236E-09
        -0.11545E-01
         0.18374E-09
        -0.17244E-01
         0.35959E-09
        -0.22737E-01
         0.59006E-09
        -0.30042E-01
         0.70892E-09
        -0.34745E-01
         0.72510E-09
        -0.18044E-02
         0.95095E-03
         0.11138E-02
        -0.22071E-02
         0.87957E-02
         0.67072E-02
         0.10305E-02
        -0.15002E-02
        -0.75816E-03
        -0.13668E-02
         0.76985E-03
         0.33434E-02
         0.69313E-02
        -0.22157E-02
        -0.26792E-02
         0.29396E-02
         0.24742E-02
        -0.11374E-02
        -0.18120E-02
        -0.19411E-02
        -0.10676E-01
        -0.11323E-01
        -0.10300E-01
        -0.31947E-02
         0.12720E-02
        -0.94831E-03
        -0.30828E-02
        -0.34532E-03
        -0.35634E-02
        -0.24187E-02
         0.26283E-02
         0.52387E-03
        -0.12387E-02
        -0.40465E-03
         0.13237E-01
         0.83467E-02
         0.75160E-02
        -0.52929E-02
        -0.30171E-02
        -0.65142E-02
        -0.13494E-01
        -0.12373E-01
        -0.12015E-01
        -0.88523E-02
        -0.64047E-02
        -0.50837E-02
         0.94304E-03
         0.38848E-02
         0.11245E-02
         0.36032E-02
         0.97277E-02
         0.80771E-02
         0.39599E-01
         0.41122E-01
         0.36831E-01
         0.31256E-01
         0.23296E-01
         0.11943E-01
        -0.71277E-03
        -0.85697E-02
        -0.13045E-01
        -0.22413E-01
        -0.36619E-01
        -0.43873E-01
        -0.39920E-01
        -0.38184E-01
        -0.40176E-01
        -0.40044E-01
        -0.36390E-01
        -0.32044E-01
        -0.16511E-01
         0.26003E-02
         0.99331E-02
         0.11071E-01
         0.18768E-01
         0.30135E-01
         0.38775E-01
         0.40629E-01
        -0.26673E-02
         0.54753E-03
        -0.10424E-02
        -0.30351E-02
         0.62257E-02
         0.53203E-02
         0.15501E-02
        -0.33838E-02
        -0.15548E-02
        -0.32170E-02
        -0.64988E-03
         0.23711E-02
         0.78003E-02
        -0.59818E-02
        -0.61960E-02
         0.52402E-02
         0.29172E-02
        -0.17473E-02
        -0.11759E-02
        -0.20650E-02
        -0.12253E-01
        -0.11677E-01
        -0.11523E-01
        -0.27871E-02
         0.15830E-02
         0.10659E-02
        -0.57804E-02
         0.76751E-03
        -0.19345E-02
        -0.26381E-02
         0.40259E-02
         0.26051E-02
        -0.26111E-02
        -0.22536E-02
         0.11103E-01
         0.61280E-02
         0.70292E-02
        -0.68711E-02
        -0.11504E-02
        -0.33353E-02
        -0.12253E-01
        -0.12605E-01
        -0.12321E-01
        -0.89085E-02
        -0.68603E-02
        -0.40140E-02
         0.43382E-02
         0.51215E-02
        -0.67700E-03
         0.81512E-03
         0.83552E-02
         0.73600E-02
         0.46416E-01
         0.46775E-01
         0.41989E-01
         0.34632E-01
         0.25841E-01
         0.11901E-01
        -0.29549E-02
        -0.95744E-02
        -0.12613E-01
        -0.23120E-01
        -0.41066E-01
        -0.48446E-01
        -0.40626E-01
        -0.38651E-01
        -0.42582E-01
        -0.43853E-01
        -0.40026E-01
        -0.37860E-01
        -0.19290E-01
         0.50137E-02
         0.11089E-01
         0.11235E-01
         0.19974E-01
         0.34584E-01
         0.44266E-01
         0.44127E-01
        -0.26723E-02
         0.54956E-03
        -0.10443E-02
        -0.30371E-02
         0.62197E-02
         0.53154E-02
         0.15599E-02
        -0.33753E-02
        -0.15565E-02
        -0.32144E-02
        -0.63673E-03
         0.23769E-02
         0.78050E-02
        -0.59671E-02
        -0.61927E-02
         0.52456E-02
         0.29236E-02
        -0.17424E-02
        -0.11753E-02
        -0.20614E-02
        -0.12252E-01
        -0.11676E-01
        -0.11522E-01
        -0.27872E-02
         0.15866E-02
         0.10677E-02
        -0.57821E-02
         0.75308E-03
        -0.19481E-02
        -0.26397E-02
         0.40318E-02
         0.26048E-02
        -0.26003E-02
        -0.22546E-02
         0.11109E-01
         0.61252E-02
         0.70270E-02
        -0.68821E-02
        -0.11614E-02
        -0.33458E-02
        -0.12261E-01
        -0.12612E-01
        -0.12321E-01
        -0.89072E-02
        -0.68578E-02
        -0.40119E-02
         0.43373E-02
         0.51232E-02
        -0.67205E-03
         0.81234E-03
         0.83498E-02
         0.73492E-02
         0.46400E-01
         0.46763E-01
         0.41985E-01
         0.34632E-01
         0.25833E-01
         0.11898E-01
        -0.29583E-02
        -0.95803E-02
        -0.12602E-01
        -0.23111E-01
        -0.41060E-01
        -0.48447E-01
        -0.40622E-01
        -0.38649E-01
        -0.42587E-01
        -0.43863E-01
        -0.40033E-01
        -0.37868E-01
        -0.19285E-01
         0.50160E-02
         0.11081E-01
         0.11230E-01
         0.19959E-01
         0.34563E-01
         0.44244E-01
         0.44107E-01
        -0.26773E-02
         0.55156E-03
        -0.10463E-02
        -0.30391E-02
         0.62135E-02
         0.53106E-02
         0.15698E-02
        -0.33667E-02
        -0.15581E-02
        -0.32117E-02
        -0.62360E-03
         0.23826E-02
         0.78097E-02
        -0.59524E-02
        -0.61894E-02
         0.52512E-02
         0.29301E-02
        -0.17375E-02
        -0.11747E-02
        -0.20579E-02
        -0.12251E-01
        -0.11675E-01
        -0.11522E-01
        -0.27874E-02
         0.15904E-02
         0.10696E-02
        -0.57838E-02
         0.73883E-03
        -0.19618E-02
        -0.26414E-02
         0.40378E-02
         0.26046E-02
        -0.25893E-02
        -0.22556E-02
         0.11114E-01
         0.61225E-02
         0.70247E-02
        -0.68931E-02
        -0.11724E-02
        -0.33564E-02
        -0.12269E-01
        -0.12619E-01
        -0.12322E-01
        -0.89061E-02
        -0.68554E-02
        -0.40100E-02
         0.43365E-02
         0.51249E-02
        -0.66699E-03
         0.80946E-03
         0.83446E-02
         0.73384E-02
         0.46385E-01
         0.46751E-01
         0.41982E-01
         0.34632E-01
         0.25825E-01
         0.11894E-01
        -0.29616E-02
        -0.95862E-02
        -0.12592E-01
        -0.23102E-01
        -0.41054E-01
        -0.48448E-01
        -0.40619E-01
        -0.38647E-01
        -0.42593E-01
        -0.43873E-01
        -0.40040E-01
        -0.37875E-01
        -0.19279E-01
         0.50183E-02
         0.11073E-01
         0.11226E-01
         0.19945E-01
         0.34541E-01
         0.44222E-01
         0.44087E-01
        -0.26824E-02
         0.55363E-03
        -0.10482E-02
        -0.30411E-02
         0.62074E-02
         0.53057E-02
         0.15796E-02
        -0.33581E-02
        -0.15595E-02
        -0.32086E-02
        -0.61051E-03
         0.23885E-02
         0.78145E-02
        -0.59376E-02
        -0.61861E-02
         0.52572E-02
         0.29370E-02
        -0.17326E-02
        -0.11742E-02
        -0.20542E-02
        -0.12250E-01
        -0.11674E-01
        -0.11522E-01
        -0.27875E-02
         0.15949E-02
         0.10720E-02
        -0.57852E-02
         0.72502E-03
        -0.19754E-02
        -0.26430E-02
         0.40443E-02
         0.26048E-02
        -0.25783E-02
        -0.22566E-02
         0.11120E-01
         0.61198E-02
         0.70224E-02
        -0.69041E-02
        -0.11834E-02
        -0.33670E-02
        -0.12277E-01
        -0.12627E-01
        -0.12324E-01
        -0.89053E-02
        -0.68528E-02
        -0.40078E-02
         0.43359E-02
         0.51266E-02
        -0.66191E-03
         0.80659E-03
         0.83391E-02
         0.73275E-02
         0.46369E-01
         0.46739E-01
         0.41978E-01
         0.34633E-01
         0.25817E-01
         0.11891E-01
        -0.29651E-02
        -0.95922E-02
        -0.12581E-01
        -0.23093E-01
        -0.41048E-01
        -0.48449E-01
        -0.40616E-01
        -0.38645E-01
        -0.42599E-01
        -0.43884E-01
        -0.40048E-01
        -0.37882E-01
        -0.19274E-01
         0.50206E-02
         0.11065E-01
         0.11221E-01
         0.19930E-01
         0.34520E-01
         0.44200E-01
         0.44068E-01
        -0.26874E-02
         0.55570E-03
        -0.10502E-02
        -0.30431E-02
         0.62014E-02
         0.53008E-02
         0.15895E-02
        -0.33494E-02
        -0.15607E-02
        -0.32049E-02
        -0.59739E-03
         0.23943E-02
         0.78193E-02
        -0.59229E-02
        -0.61827E-02
         0.52638E-02
         0.29441E-02
        -0.17277E-02
        -0.11736E-02
        -0.20505E-02
        -0.12249E-01
        -0.11673E-01
        -0.11522E-01
        -0.27877E-02
         0.16002E-02
         0.10747E-02
        -0.57864E-02
         0.71165E-03
        -0.19890E-02
        -0.26444E-02
         0.40513E-02
         0.26055E-02
        -0.25673E-02
        -0.22576E-02
         0.11125E-01
         0.61170E-02
         0.70202E-02
        -0.69150E-02
        -0.11944E-02
        -0.33776E-02
        -0.12285E-01
        -0.12636E-01
        -0.12326E-01
        -0.89047E-02
        -0.68500E-02
        -0.40055E-02
         0.43354E-02
         0.51286E-02
        -0.65687E-03
         0.80375E-03
         0.83340E-02
         0.73166E-02
         0.46353E-01
         0.46727E-01
         0.41974E-01
         0.34633E-01
         0.25809E-01
         0.11887E-01
        -0.29684E-02
        -0.95981E-02
        -0.12570E-01
        -0.23083E-01
        -0.41041E-01
        -0.48451E-01
        -0.40614E-01
        -0.38643E-01
        -0.42605E-01
        -0.43897E-01
        -0.40057E-01
        -0.37890E-01
        -0.19269E-01
         0.50229E-02
         0.11057E-01
         0.11217E-01
         0.19915E-01
         0.34499E-01
         0.44178E-01
         0.44048E-01
        -0.26922E-02
         0.55794E-03
        -0.10519E-02
        -0.30451E-02
         0.61954E-02
         0.52959E-02
         0.15994E-02
        -0.33406E-02
        -0.15619E-02
        -0.32011E-02
        -0.58426E-03
         0.24001E-02
         0.78240E-02
        -0.59081E-02
        -0.61794E-02
         0.52704E-02
         0.29512E-02
        -0.17228E-02
        -0.11729E-02
        -0.20470E-02
        -0.12249E-01
        -0.11673E-01
        -0.11523E-01
        -0.27879E-02
         0.16054E-02
         0.10775E-02
        -0.57875E-02
         0.69837E-03
        -0.20027E-02
        -0.26461E-02
         0.40582E-02
         0.26061E-02
        -0.25562E-02
        -0.22585E-02
         0.11131E-01
         0.61146E-02
         0.70181E-02
        -0.69259E-02
        -0.12053E-02
        -0.33883E-02
        -0.12294E-01
        -0.12644E-01
        -0.12329E-01
        -0.89043E-02
        -0.68475E-02
        -0.40035E-02
         0.43348E-02
         0.51304E-02
        -0.65168E-03
         0.80115E-03
         0.83288E-02
         0.73060E-02
         0.46337E-01
         0.46715E-01
         0.41970E-01
         0.34633E-01
         0.25801E-01
         0.11883E-01
        -0.29717E-02
        -0.96040E-02
        -0.12560E-01
        -0.23074E-01
        -0.41034E-01
        -0.48453E-01
        -0.40613E-01
        -0.38642E-01
        -0.42612E-01
        -0.43910E-01
        -0.40066E-01
        -0.37897E-01
        -0.19263E-01
         0.50249E-02
         0.11048E-01
         0.11212E-01
         0.19901E-01
         0.34478E-01
         0.44156E-01
         0.44028E-01
        -0.26967E-02
         0.56063E-03
        -0.10532E-02
        -0.30470E-02
         0.61895E-02
         0.52911E-02
         0.16095E-02
        -0.33316E-02
        -0.15631E-02
        -0.31976E-02
        -0.57106E-03
         0.24059E-02
         0.78288E-02
        -0.58934E-02
        -0.61759E-02
         0.52770E-02
         0.29580E-02
        -0.17178E-02
        -0.11724E-02
        -0.20435E-02
        -0.12249E-01
        -0.11672E-01
        -0.11524E-01
        -0.27883E-02
         0.16100E-02
         0.10799E-02
        -0.57887E-02
         0.68477E-03
        -0.20165E-02
        -0.26481E-02
         0.40647E-02
         0.26061E-02
        -0.25448E-02
        -0.22591E-02
         0.11137E-01
         0.61123E-02
         0.70162E-02
        -0.69368E-02
        -0.12163E-02
        -0.33991E-02
        -0.12302E-01
        -0.12653E-01
        -0.12332E-01
        -0.89041E-02
        -0.68453E-02
        -0.40017E-02
         0.43338E-02
         0.51321E-02
        -0.64605E-03
         0.79913E-03
         0.83243E-02
         0.72954E-02
         0.46321E-01
         0.46703E-01
         0.41966E-01
         0.34633E-01
         0.25793E-01
         0.11880E-01
        -0.29750E-02
        -0.96099E-02
        -0.12549E-01
        -0.23065E-01
        -0.41028E-01
        -0.48455E-01
        -0.40611E-01
        -0.38641E-01
        -0.42619E-01
        -0.43924E-01
        -0.40075E-01
        -0.37903E-01
        -0.19258E-01
         0.50266E-02
         0.11040E-01
         0.11208E-01
         0.19886E-01
         0.34457E-01
         0.44134E-01
         0.44009E-01
        -0.27009E-02
         0.56347E-03
        -0.10544E-02
        -0.30488E-02
         0.61838E-02
         0.52862E-02
         0.16197E-02
        -0.33224E-02
        -0.15644E-02
        -0.31941E-02
        -0.55784E-03
         0.24117E-02
         0.78337E-02
        -0.58786E-02
        -0.61725E-02
         0.52836E-02
         0.29647E-02
        -0.17128E-02
        -0.11717E-02
        -0.20403E-02
        -0.12249E-01
        -0.11672E-01
        -0.11525E-01
        -0.27885E-02
         0.16143E-02
         0.10822E-02
        -0.57900E-02
         0.67110E-03
        -0.20305E-02
        -0.26502E-02
         0.40710E-02
         0.26060E-02
        -0.25333E-02
        -0.22597E-02
         0.11143E-01
         0.61103E-02
         0.70146E-02
        -0.69476E-02
        -0.12274E-02
        -0.34099E-02
        -0.12311E-01
        -0.12662E-01
        -0.12335E-01
        -0.89040E-02
        -0.68432E-02
        -0.40002E-02
         0.43327E-02
         0.51337E-02
        -0.64024E-03
         0.79738E-03
         0.83199E-02
         0.72850E-02
         0.46305E-01
         0.46691E-01
         0.41962E-01
         0.34633E-01
         0.25785E-01
         0.11876E-01
        -0.29782E-02
        -0.96158E-02
        -0.12538E-01
        -0.23056E-01
        -0.41021E-01
        -0.48457E-01
        -0.40610E-01
        -0.38640E-01
        -0.42626E-01
        -0.43937E-01
        -0.40084E-01
        -0.37910E-01
        -0.19252E-01
         0.50282E-02
         0.11031E-01
         0.11204E-01
         0.19872E-01
         0.34436E-01
         0.44113E-01
         0.43989E-01
        -0.27051E-02
         0.56633E-03
        -0.10555E-02
        -0.30506E-02
         0.61779E-02
         0.52813E-02
         0.16299E-02
        -0.33134E-02
        -0.15657E-02
        -0.31908E-02
        -0.54466E-03
         0.24175E-02
         0.78386E-02
        -0.58639E-02
        -0.61691E-02
         0.52902E-02
         0.29714E-02
        -0.17079E-02
        -0.11711E-02
        -0.20369E-02
        -0.12249E-01
        -0.11672E-01
        -0.11526E-01
        -0.27889E-02
         0.16186E-02
         0.10845E-02
        -0.57913E-02
         0.65744E-03
        -0.20445E-02
        -0.26523E-02
         0.40774E-02
         0.26058E-02
        -0.25218E-02
        -0.22602E-02
         0.11149E-01
         0.61081E-02
         0.70129E-02
        -0.69584E-02
        -0.12385E-02
        -0.34207E-02
        -0.12319E-01
        -0.12671E-01
        -0.12338E-01
        -0.89041E-02
        -0.68413E-02
        -0.39987E-02
         0.43316E-02
         0.51353E-02
        -0.63442E-03
         0.79572E-03
         0.83158E-02
         0.72745E-02
         0.46289E-01
         0.46679E-01
         0.41958E-01
         0.34633E-01
         0.25777E-01
         0.11872E-01
        -0.29815E-02
        -0.96216E-02
        -0.12528E-01
        -0.23047E-01
        -0.41014E-01
        -0.48459E-01
        -0.40608E-01
        -0.38638E-01
        -0.42633E-01
        -0.43951E-01
        -0.40093E-01
        -0.37916E-01
        -0.19246E-01
         0.50299E-02
         0.11022E-01
         0.11200E-01
         0.19858E-01
         0.34415E-01
         0.44091E-01
         0.43969E-01
        -0.27094E-02
         0.56923E-03
        -0.10566E-02
        -0.30525E-02
         0.61721E-02
         0.52764E-02
         0.16401E-02
        -0.33043E-02
        -0.15670E-02
        -0.31874E-02
        -0.53147E-03
         0.24233E-02
         0.78436E-02
        -0.58492E-02
        -0.61656E-02
         0.52968E-02
         0.29781E-02
        -0.17029E-02
        -0.11705E-02
        -0.20336E-02
        -0.12249E-01
        -0.11671E-01
        -0.11527E-01
        -0.27893E-02
         0.16229E-02
         0.10868E-02
        -0.57927E-02
         0.64387E-03
        -0.20584E-02
        -0.26544E-02
         0.40837E-02
         0.26056E-02
        -0.25103E-02
        -0.22608E-02
         0.11155E-01
         0.61062E-02
         0.70112E-02
        -0.69692E-02
        -0.12495E-02
        -0.34316E-02
        -0.12328E-01
        -0.12680E-01
        -0.12341E-01
        -0.89041E-02
        -0.68393E-02
        -0.39971E-02
         0.43304E-02
         0.51370E-02
        -0.62865E-03
         0.79391E-03
         0.83113E-02
         0.72640E-02
         0.46273E-01
         0.46667E-01
         0.41954E-01
         0.34633E-01
         0.25769E-01
         0.11869E-01
        -0.29848E-02
        -0.96273E-02
        -0.12517E-01
        -0.23038E-01
        -0.41008E-01
        -0.48461E-01
        -0.40606E-01
        -0.38637E-01
        -0.42640E-01
        -0.43964E-01
        -0.40102E-01
        -0.37923E-01
        -0.19241E-01
         0.50314E-02
         0.11014E-01
         0.11195E-01
         0.19844E-01
         0.34394E-01
         0.44069E-01
         0.43950E-01
        -0.27136E-02
         0.57210E-03
        -0.10578E-02
        -0.30543E-02
         0.61664E-02
         0.52716E-02
         0.16502E-02
        -0.32951E-02
        -0.15682E-02
        -0.31840E-02
        -0.51827E-03
         0.24291E-02
         0.78485E-02
        -0.58345E-02
        -0.61621E-02
         0.53033E-02
         0.29848E-02
        -0.16980E-02
        -0.11700E-02
        -0.20302E-02
        -0.12249E-01
        -0.11671E-01
        -0.11528E-01
        -0.27897E-02
         0.16272E-02
         0.10891E-02
        -0.57941E-02
         0.63028E-03
        -0.20723E-02
        -0.26564E-02
         0.40900E-02
         0.26054E-02
        -0.24988E-02
        -0.22613E-02
         0.11161E-01
         0.61041E-02
         0.70096E-02
        -0.69800E-02
        -0.12606E-02
        -0.34423E-02
        -0.12336E-01
        -0.12689E-01
        -0.12344E-01
        -0.89040E-02
        -0.68373E-02
        -0.39956E-02
         0.43293E-02
         0.51386E-02
        -0.62282E-03
         0.79215E-03
         0.83071E-02
         0.72536E-02
         0.46257E-01
         0.46655E-01
         0.41950E-01
         0.34633E-01
         0.25761E-01
         0.11865E-01
        -0.29879E-02
        -0.96332E-02
        -0.12507E-01
        -0.23028E-01
        -0.41001E-01
        -0.48463E-01
        -0.40605E-01
        -0.38636E-01
        -0.42647E-01
        -0.43978E-01
        -0.40111E-01
        -0.37930E-01
        -0.19235E-01
         0.50329E-02
         0.11005E-01
         0.11191E-01
         0.19830E-01
         0.34374E-01
         0.44047E-01
         0.43930E-01
        -0.27178E-02
         0.57496E-03
        -0.10589E-02
        -0.30561E-02
         0.61606E-02
         0.52667E-02
         0.16604E-02
        -0.32860E-02
        -0.15695E-02
        -0.31807E-02
        -0.50510E-03
         0.24350E-02
         0.78534E-02
        -0.58199E-02
        -0.61587E-02
         0.53099E-02
         0.29914E-02
        -0.16931E-02
        -0.11694E-02
        -0.20269E-02
        -0.12248E-01
        -0.11671E-01
        -0.11529E-01
        -0.27901E-02
         0.16314E-02
         0.10914E-02
        -0.57954E-02
         0.61676E-03
        -0.20861E-02
        -0.26586E-02
         0.40963E-02
         0.26053E-02
        -0.24873E-02
        -0.22619E-02
         0.11167E-01
         0.61020E-02
         0.70078E-02
        -0.69908E-02
        -0.12718E-02
        -0.34533E-02
        -0.12345E-01
        -0.12698E-01
        -0.12347E-01
        -0.89040E-02
        -0.68352E-02
        -0.39942E-02
         0.43282E-02
         0.51403E-02
        -0.61699E-03
         0.79048E-03
         0.83028E-02
         0.72431E-02
         0.46241E-01
         0.46644E-01
         0.41946E-01
         0.34633E-01
         0.25753E-01
         0.11862E-01
        -0.29911E-02
        -0.96390E-02
        -0.12496E-01
        -0.23019E-01
        -0.40994E-01
        -0.48465E-01
        -0.40603E-01
        -0.38635E-01
        -0.42653E-01
        -0.43991E-01
        -0.40120E-01
        -0.37936E-01
        -0.19230E-01
         0.50345E-02
         0.10996E-01
         0.11186E-01
         0.19816E-01
         0.34353E-01
         0.44026E-01
         0.43911E-01
        -0.27220E-02
         0.57786E-03
        -0.10600E-02
        -0.30579E-02
         0.61548E-02
         0.52618E-02
         0.16705E-02
        -0.32769E-02
        -0.15707E-02
        -0.31772E-02
        -0.49197E-03
         0.24408E-02
         0.78583E-02
        -0.58052E-02
        -0.61551E-02
         0.53164E-02
         0.29981E-02
        -0.16881E-02
        -0.11688E-02
        -0.20235E-02
        -0.12248E-01
        -0.11670E-01
        -0.11530E-01
        -0.27905E-02
         0.16356E-02
         0.10937E-02
        -0.57967E-02
         0.60320E-03
        -0.21000E-02
        -0.26606E-02
         0.41026E-02
         0.26051E-02
        -0.24757E-02
        -0.22624E-02
         0.11173E-01
         0.61001E-02
         0.70062E-02
        -0.70015E-02
        -0.12829E-02
        -0.34641E-02
        -0.12353E-01
        -0.12707E-01
        -0.12350E-01
        -0.89040E-02
        -0.68334E-02
        -0.39925E-02
         0.43271E-02
         0.51419E-02
        -0.61113E-03
         0.78872E-03
         0.82983E-02
         0.72325E-02
         0.46225E-01
         0.46632E-01
         0.41942E-01
         0.34633E-01
         0.25745E-01
         0.11858E-01
        -0.29944E-02
        -0.96447E-02
        -0.12486E-01
        -0.23010E-01
        -0.40988E-01
        -0.48467E-01
        -0.40601E-01
        -0.38633E-01
        -0.42660E-01
        -0.44004E-01
        -0.40129E-01
        -0.37943E-01
        -0.19224E-01
         0.50360E-02
         0.10988E-01
         0.11182E-01
         0.19802E-01
         0.34332E-01
         0.44004E-01
         0.43891E-01
        -0.27263E-02
         0.58070E-03
        -0.10610E-02
        -0.30597E-02
         0.61492E-02
         0.52569E-02
         0.16805E-02
        -0.32678E-02
        -0.15720E-02
        -0.31738E-02
        -0.47886E-03
         0.24466E-02
         0.78632E-02
        -0.57906E-02
        -0.61516E-02
         0.53230E-02
         0.30047E-02
        -0.16832E-02
        -0.11683E-02
        -0.20203E-02
        -0.12248E-01
        -0.11670E-01
        -0.11531E-01
        -0.27909E-02
         0.16398E-02
         0.10959E-02
        -0.57980E-02
         0.58974E-03
        -0.21139E-02
        -0.26627E-02
         0.41089E-02
         0.26049E-02
        -0.24642E-02
        -0.22630E-02
         0.11179E-01
         0.60980E-02
         0.70046E-02
        -0.70121E-02
        -0.12941E-02
        -0.34751E-02
        -0.12362E-01
        -0.12715E-01
        -0.12353E-01
        -0.89040E-02
        -0.68313E-02
        -0.39910E-02
         0.43259E-02
         0.51435E-02
        -0.60528E-03
         0.78696E-03
         0.82941E-02
         0.72222E-02
         0.46209E-01
         0.46620E-01
         0.41938E-01
         0.34633E-01
         0.25737E-01
         0.11854E-01
        -0.29976E-02
        -0.96502E-02
        -0.12475E-01
        -0.23001E-01
        -0.40981E-01
        -0.48469E-01
        -0.40600E-01
        -0.38632E-01
        -0.42667E-01
        -0.44018E-01
        -0.40139E-01
        -0.37949E-01
        -0.19218E-01
         0.50374E-02
         0.10979E-01
         0.11178E-01
         0.19787E-01
         0.34311E-01
         0.43982E-01
         0.43871E-01
        -0.27305E-02
         0.58353E-03
        -0.10621E-02
        -0.30615E-02
         0.61434E-02
         0.52520E-02
         0.16907E-02
        -0.32587E-02
        -0.15733E-02
        -0.31704E-02
        -0.46576E-03
         0.24525E-02
         0.78681E-02
        -0.57760E-02
        -0.61481E-02
         0.53295E-02
         0.30114E-02
        -0.16782E-02
        -0.11677E-02
        -0.20169E-02
        -0.12248E-01
        -0.11669E-01
        -0.11532E-01
        -0.27913E-02
         0.16439E-02
         0.10982E-02
        -0.57993E-02
         0.57627E-03
        -0.21277E-02
        -0.26647E-02
         0.41152E-02
         0.26046E-02
        -0.24526E-02
        -0.22635E-02
         0.11185E-01
         0.60961E-02
         0.70030E-02
        -0.70227E-02
        -0.13053E-02
        -0.34860E-02
        -0.12370E-01
        -0.12724E-01
        -0.12356E-01
        -0.89040E-02
        -0.68293E-02
        -0.39896E-02
         0.43248E-02
         0.51452E-02
        -0.59935E-03
         0.78525E-03
         0.82897E-02
         0.72116E-02
         0.46193E-01
         0.46608E-01
         0.41934E-01
         0.34633E-01
         0.25729E-01
         0.11851E-01
        -0.30008E-02
        -0.96558E-02
        -0.12464E-01
        -0.22992E-01
        -0.40974E-01
        -0.48471E-01
        -0.40598E-01
        -0.38631E-01
        -0.42674E-01
        -0.44031E-01
        -0.40148E-01
        -0.37956E-01
        -0.19213E-01
         0.50389E-02
         0.10970E-01
         0.11174E-01
         0.19773E-01
         0.34290E-01
         0.43960E-01
         0.43852E-01
        -0.27348E-02
         0.58643E-03
        -0.10632E-02
        -0.30633E-02
         0.61376E-02
         0.52472E-02
         0.17007E-02
        -0.32496E-02
        -0.15745E-02
        -0.31670E-02
        -0.45265E-03
         0.24583E-02
         0.78731E-02
        -0.57614E-02
        -0.61445E-02
         0.53361E-02
         0.30180E-02
        -0.16734E-02
        -0.11671E-02
        -0.20136E-02
        -0.12248E-01
        -0.11669E-01
        -0.11533E-01
        -0.27917E-02
         0.16480E-02
         0.11005E-02
        -0.58006E-02
         0.56281E-03
        -0.21416E-02
        -0.26667E-02
         0.41215E-02
         0.26045E-02
        -0.24411E-02
        -0.22641E-02
         0.11192E-01
         0.60941E-02
         0.70013E-02
        -0.70333E-02
        -0.13165E-02
        -0.34968E-02
        -0.12379E-01
        -0.12733E-01
        -0.12359E-01
        -0.89038E-02
        -0.68274E-02
        -0.39879E-02
         0.43236E-02
         0.51468E-02
        -0.59348E-03
         0.78348E-03
         0.82854E-02
         0.72011E-02
         0.46177E-01
         0.46596E-01
         0.41930E-01
         0.34633E-01
         0.25721E-01
         0.11847E-01
        -0.30038E-02
        -0.96614E-02
        -0.12454E-01
        -0.22982E-01
        -0.40968E-01
        -0.48473E-01
        -0.40597E-01
        -0.38629E-01
        -0.42681E-01
        -0.44045E-01
        -0.40157E-01
        -0.37962E-01
        -0.19207E-01
         0.50404E-02
         0.10962E-01
         0.11169E-01
         0.19759E-01
         0.34269E-01
         0.43939E-01
         0.43832E-01
        -0.27390E-02
         0.58928E-03
        -0.10644E-02
        -0.30651E-02
         0.61319E-02
         0.52423E-02
         0.17108E-02
        -0.32405E-02
        -0.15757E-02
        -0.31634E-02
        -0.43955E-03
         0.24642E-02
         0.78780E-02
        -0.57468E-02
        -0.61408E-02
         0.53426E-02
         0.30247E-02
        -0.16685E-02
        -0.11666E-02
        -0.20102E-02
        -0.12247E-01
        -0.11669E-01
        -0.11534E-01
        -0.27922E-02
         0.16520E-02
         0.11028E-02
        -0.58017E-02
         0.54924E-03
        -0.21553E-02
        -0.26687E-02
         0.41278E-02
         0.26043E-02
        -0.24296E-02
        -0.22647E-02
         0.11198E-01
         0.60920E-02
         0.69996E-02
        -0.70438E-02
        -0.13279E-02
        -0.35078E-02
        -0.12387E-01
        -0.12742E-01
        -0.12361E-01
        -0.89039E-02
        -0.68253E-02
        -0.39865E-02
         0.43225E-02
         0.51485E-02
        -0.58763E-03
         0.78171E-03
         0.82810E-02
         0.71907E-02
         0.46161E-01
         0.46585E-01
         0.41926E-01
         0.34633E-01
         0.25713E-01
         0.11843E-01
        -0.30069E-02
        -0.96669E-02
        -0.12443E-01
        -0.22973E-01
        -0.40961E-01
        -0.48475E-01
        -0.40595E-01
        -0.38628E-01
        -0.42688E-01
        -0.44058E-01
        -0.40166E-01
        -0.37969E-01
        -0.19201E-01
         0.50418E-02
         0.10953E-01
         0.11165E-01
         0.19745E-01
         0.34249E-01
         0.43917E-01
         0.43813E-01
        -0.27432E-02
         0.59213E-03
        -0.10654E-02
        -0.30668E-02
         0.61262E-02
         0.52375E-02
         0.17208E-02
        -0.32314E-02
        -0.15768E-02
        -0.31595E-02
        -0.42647E-03
         0.24701E-02
         0.78828E-02
        -0.57321E-02
        -0.61371E-02
         0.53492E-02
         0.30313E-02
        -0.16635E-02
        -0.11662E-02
        -0.20070E-02
        -0.12247E-01
        -0.11668E-01
        -0.11535E-01
        -0.27926E-02
         0.16558E-02
         0.11051E-02
        -0.58024E-02
         0.53532E-03
        -0.21691E-02
        -0.26708E-02
         0.41342E-02
         0.26041E-02
        -0.24180E-02
        -0.22652E-02
         0.11204E-01
         0.60902E-02
         0.69980E-02
        -0.70540E-02
        -0.13395E-02
        -0.35185E-02
        -0.12395E-01
        -0.12749E-01
        -0.12364E-01
        -0.89039E-02
        -0.68233E-02
        -0.39849E-02
         0.43214E-02
         0.51502E-02
        -0.58180E-03
         0.77995E-03
         0.82768E-02
         0.71801E-02
         0.46145E-01
         0.46573E-01
         0.41922E-01
         0.34633E-01
         0.25705E-01
         0.11840E-01
        -0.30100E-02
        -0.96725E-02
        -0.12433E-01
        -0.22964E-01
        -0.40954E-01
        -0.48479E-01
        -0.40595E-01
        -0.38627E-01
        -0.42694E-01
        -0.44071E-01
        -0.40175E-01
        -0.37975E-01
        -0.19196E-01
         0.50433E-02
         0.10944E-01
         0.11161E-01
         0.19731E-01
         0.34228E-01
         0.43895E-01
         0.43793E-01
        -0.27475E-02
         0.59496E-03
        -0.10665E-02
        -0.30686E-02
         0.61204E-02
         0.52326E-02
         0.17309E-02
        -0.32222E-02
        -0.15778E-02
        -0.31552E-02
        -0.41342E-03
         0.24759E-02
         0.78878E-02
        -0.57173E-02
        -0.61333E-02
         0.53557E-02
         0.30378E-02
        -0.16586E-02
        -0.11657E-02
        -0.20037E-02
        -0.12247E-01
        -0.11668E-01
        -0.11536E-01
        -0.27930E-02
         0.16592E-02
         0.11073E-02
        -0.58026E-02
         0.52098E-03
        -0.21829E-02
        -0.26729E-02
         0.41405E-02
         0.26038E-02
        -0.24064E-02
        -0.22658E-02
         0.11210E-01
         0.60882E-02
         0.69964E-02
        -0.70641E-02
        -0.13515E-02
        -0.35294E-02
        -0.12402E-01
        -0.12757E-01
        -0.12366E-01
        -0.89039E-02
        -0.68214E-02
        -0.39834E-02
         0.43203E-02
         0.51518E-02
        -0.57589E-03
         0.77822E-03
         0.82724E-02
         0.71695E-02
         0.46129E-01
         0.46561E-01
         0.41918E-01
         0.34633E-01
         0.25697E-01
         0.11836E-01
        -0.30130E-02
        -0.96780E-02
        -0.12423E-01
        -0.22954E-01
        -0.40947E-01
        -0.48484E-01
        -0.40595E-01
        -0.38626E-01
        -0.42701E-01
        -0.44085E-01
        -0.40184E-01
        -0.37981E-01
        -0.19190E-01
         0.50448E-02
         0.10936E-01
         0.11156E-01
         0.19717E-01
         0.34207E-01
         0.43873E-01
         0.43774E-01
        -0.27517E-02
         0.59781E-03
        -0.10676E-02
        -0.30704E-02
         0.61148E-02
         0.52278E-02
         0.17408E-02
        -0.32131E-02
        -0.15787E-02
        -0.31508E-02
        -0.40047E-03
         0.24816E-02
         0.78926E-02
        -0.57025E-02
        -0.61295E-02
         0.53622E-02
         0.30444E-02
        -0.16538E-02
        -0.11651E-02
        -0.20004E-02
        -0.12247E-01
        -0.11667E-01
        -0.11537E-01
        -0.27935E-02
         0.16625E-02
         0.11096E-02
        -0.58028E-02
         0.50659E-03
        -0.21965E-02
        -0.26749E-02
         0.41468E-02
         0.26036E-02
        -0.23949E-02
        -0.22664E-02
         0.11216E-01
         0.60863E-02
         0.69947E-02
        -0.70740E-02
        -0.13636E-02
        -0.35399E-02
        -0.12408E-01
        -0.12764E-01
        -0.12368E-01
        -0.89039E-02
        -0.68194E-02
        -0.39820E-02
         0.43192E-02
         0.51536E-02
        -0.57006E-03
         0.77641E-03
         0.82682E-02
         0.71592E-02
         0.46113E-01
         0.46549E-01
         0.41914E-01
         0.34634E-01
         0.25689E-01
         0.11832E-01
        -0.30160E-02
        -0.96833E-02
        -0.12412E-01
        -0.22944E-01
        -0.40940E-01
        -0.48489E-01
        -0.40595E-01
        -0.38625E-01
        -0.42708E-01
        -0.44098E-01
        -0.40193E-01
        -0.37988E-01
        -0.19185E-01
         0.50463E-02
         0.10927E-01
         0.11152E-01
         0.19703E-01
         0.34186E-01
         0.43852E-01
         0.43754E-01
        -0.27653E-02
         0.60212E-03
        -0.10724E-02
        -0.30825E-02
         0.61283E-02
         0.52401E-02
         0.17555E-02
        -0.32159E-02
        -0.15848E-02
        -0.31578E-02
        -0.39048E-03
         0.24936E-02
         0.79213E-02
        -0.57079E-02
        -0.61457E-02
         0.53863E-02
         0.30609E-02
        -0.16549E-02
        -0.11682E-02
        -0.20034E-02
        -0.12284E-01
        -0.11703E-01
        -0.11573E-01
        -0.28030E-02
         0.16711E-02
         0.11153E-02
        -0.58227E-02
         0.49478E-03
        -0.22164E-02
        -0.26855E-02
         0.41668E-02
         0.26120E-02
        -0.23925E-02
        -0.22748E-02
         0.11257E-01
         0.61039E-02
         0.70152E-02
        -0.71063E-02
        -0.13791E-02
        -0.35610E-02
        -0.12454E-01
        -0.12812E-01
        -0.12410E-01
        -0.89310E-02
        -0.68385E-02
        -0.39920E-02
         0.43320E-02
         0.51724E-02
        -0.56673E-03
         0.77710E-03
         0.82901E-02
         0.71723E-02
         0.46217E-01
         0.46657E-01
         0.42019E-01
         0.34723E-01
         0.25749E-01
         0.11858E-01
        -0.30280E-02
        -0.97137E-02
        -0.12436E-01
        -0.22997E-01
        -0.41045E-01
        -0.48623E-01
        -0.40701E-01
        -0.38723E-01
        -0.42821E-01
        -0.44217E-01
        -0.40299E-01
        -0.38088E-01
        -0.19228E-01
         0.50620E-02
         0.10949E-01
         0.11176E-01
         0.19740E-01
         0.34255E-01
         0.43943E-01
         0.43845E-01
        -0.41042E-02
         0.89949E-03
        -0.15883E-02
        -0.45831E-02
         0.87464E-02
         0.75518E-02
         0.26144E-02
        -0.47387E-02
        -0.23449E-02
        -0.46452E-02
        -0.56170E-03
         0.34957E-02
         0.11274E-01
        -0.82824E-02
        -0.86542E-02
         0.80019E-02
         0.45341E-02
        -0.24561E-02
        -0.17105E-02
        -0.29394E-02
        -0.17476E-01
        -0.16862E-01
        -0.16514E-01
        -0.41376E-02
         0.24829E-02
         0.16613E-02
        -0.85242E-02
         0.72177E-03
        -0.33113E-02
        -0.39843E-02
         0.61928E-02
         0.38690E-02
        -0.35487E-02
        -0.33818E-02
         0.15769E-01
         0.87899E-02
         0.10107E-01
        -0.10244E-01
        -0.20229E-02
        -0.52280E-02
        -0.18014E-01
        -0.18671E-01
        -0.18076E-01
        -0.12836E-01
        -0.97940E-02
        -0.55517E-02
         0.61823E-02
         0.74827E-02
        -0.81838E-03
         0.11228E-02
         0.11693E-01
         0.10304E-01
         0.57304E-01
         0.57760E-01
         0.52039E-01
         0.43136E-01
         0.31956E-01
         0.14746E-01
        -0.38138E-02
        -0.12322E-01
        -0.15734E-01
        -0.28930E-01
        -0.51715E-01
        -0.61177E-01
        -0.51799E-01
        -0.49449E-01
        -0.53986E-01
        -0.55114E-01
        -0.50074E-01
        -0.47049E-01
        -0.23722E-01
         0.62578E-02
         0.13669E-01
         0.14017E-01
         0.24663E-01
         0.42950E-01
         0.54931E-01
         0.54614E-01
  
SCALARS                      strain_xy  double 1
LOOKUP_TABLE default
        -0.15739E-06
        -0.35547E-06
        -0.31237E-05
         0.11514E-06
        -0.81971E-20
         0.80108E-21
         0.12044E-19
         0.18347E-20
        -0.32116E-04
         0.14296E-04
         0.53613E-19
         0.42515E-19
         0.11362E-05
        -0.23525E-06
         0.47322E-20
        -0.14213E-20
         0.36774E-06
         0.57073E-05
         0.23559E-21
         0.35900E-20
        -0.41481E-05
        -0.25376E-04
        -0.26450E-04
         0.36504E-19
         0.29071E-19
        -0.42452E-19
        -0.26457E-05
        -0.20926E-04
         0.49152E-19
         0.75641E-19
        -0.98137E-06
         0.18085E-05
         0.16178E-06
        -0.25943E-20
         0.10234E-19
        -0.13090E-21
        -0.84109E-05
        -0.36620E-05
         0.27391E-19
         0.22691E-19
        -0.16069E-04
        -0.13779E-04
         0.46694E-19
         0.31469E-19
        -0.16251E-04
        -0.30380E-05
        -0.17010E-20
         0.12664E-19
         0.37886E-05
         0.37427E-20
        -0.10315E-05
        -0.84381E-22
         0.21848E-06
         0.28289E-19
         0.10633E-05
         0.43531E-20
         0.15177E-04
        -0.78487E-06
         0.10117E-21
        -0.49631E-21
         0.12695E-06
        -0.12541E-04
         0.27569E-20
         0.70714E-20
         0.55568E-06
        -0.55974E-21
         0.78105E-05
         0.44852E-20
        -0.39303E-04
        -0.14177E-04
         0.34645E-20
        -0.33176E-19
        -0.31434E-04
        -0.53045E-19
         0.10765E-04
         0.35529E-19
         0.33661E-04
         0.52933E-20
         0.59078E-04
         0.68832E-20
         0.11780E-03
         0.65991E-04
         0.16182E-19
        -0.41033E-20
         0.86039E-05
        -0.49378E-21
        -0.30770E-04
        -0.44535E-19
        -0.44280E-04
        -0.49727E-19
        -0.95601E-04
        -0.43124E-04
        -0.31478E-19
         0.34940E-19
         0.70226E-05
         0.31814E-19
         0.17454E-04
         0.13666E-19
         0.40451E-04
         0.36286E-19
         0.99226E-04
         0.57061E-04
         0.77805E-19
         0.38902E-19
        -0.15570E-03
         0.66748E-04
        -0.50551E-19
         0.61907E-19
        -0.37754E-03
        -0.14367E-18
        -0.50561E-03
        -0.15705E-18
        -0.43285E-03
        -0.10659E-18
        -0.34793E-03
        -0.11306E-19
        -0.14329E-03
         0.31866E-19
         0.18194E-03
         0.19730E-19
         0.40729E-03
         0.18037E-19
         0.53912E-03
         0.38698E-19
         0.55025E-03
         0.47051E-19
         0.48504E-03
         0.18537E-19
         0.27867E-03
         0.11302E-19
        -0.19905E-04
         0.18472E-19
        -0.25186E-03
         0.12382E-19
        -0.41699E-03
        -0.44157E-19
        -0.56867E-03
        -0.11586E-18
        -0.47733E-03
        -0.14704E-18
        -0.29245E-03
        -0.91003E-19
        -0.31520E-04
         0.17362E-19
         0.21846E-03
         0.36798E-19
         0.32008E-03
         0.58643E-19
         0.38297E-03
         0.11548E-18
         0.34336E-03
         0.14985E-18
         0.32503E-03
         0.10646E-18
         0.27435E-03
         0.84196E-19
        -0.46248E-05
         0.12743E-05
         0.13011E-05
        -0.78946E-06
         0.10645E-04
         0.85264E-05
         0.14018E-06
        -0.31129E-05
        -0.13262E-05
        -0.35470E-05
        -0.10664E-05
        -0.19810E-04
        -0.27883E-04
         0.10331E-05
         0.15995E-04
        -0.19877E-05
         0.14862E-05
         0.43660E-06
         0.92658E-06
        -0.74764E-06
         0.37954E-05
         0.33083E-05
        -0.10173E-04
         0.26549E-06
         0.22527E-05
         0.24839E-06
         0.42231E-07
         0.82633E-07
         0.10421E-05
        -0.33774E-05
        -0.17370E-05
         0.38055E-06
         0.59537E-06
        -0.47788E-07
        -0.26537E-05
        -0.89935E-05
        -0.18086E-04
         0.27669E-04
         0.14419E-04
         0.26507E-04
         0.51987E-04
         0.11684E-04
        -0.91568E-05
        -0.18538E-04
        -0.22317E-04
        -0.29275E-04
         0.35279E-05
         0.10306E-04
         0.31853E-05
         0.10938E-04
         0.34937E-04
         0.13104E-04
        -0.12534E-03
         0.15509E-03
        -0.37686E-03
        -0.44098E-03
        -0.41935E-03
        -0.25666E-03
         0.15475E-04
         0.16861E-03
         0.24403E-03
         0.39654E-03
         0.41934E-03
         0.21779E-03
         0.86702E-04
         0.36481E-04
        -0.58595E-04
        -0.23032E-03
        -0.38478E-03
        -0.44425E-03
        -0.28090E-03
         0.50573E-04
         0.18106E-03
         0.19074E-03
         0.30108E-03
         0.33772E-03
         0.25214E-03
         0.23140E-03
        -0.10422E-04
         0.13493E-05
        -0.23770E-05
        -0.16417E-05
         0.18440E-04
         0.70872E-05
         0.16374E-05
        -0.12496E-04
        -0.37652E-05
        -0.11173E-04
         0.11934E-05
        -0.18845E-04
        -0.36726E-04
         0.40472E-05
         0.48517E-04
        -0.77646E-05
         0.13099E-05
         0.74905E-06
         0.22721E-05
         0.77144E-06
         0.20407E-04
         0.13808E-04
        -0.78997E-05
         0.16127E-05
         0.37024E-05
        -0.61661E-06
         0.83912E-06
        -0.20712E-06
        -0.83389E-06
        -0.61548E-05
        -0.64291E-05
        -0.10958E-05
         0.26951E-05
         0.20197E-05
         0.47447E-05
        -0.79825E-05
        -0.17482E-04
         0.40889E-04
         0.60369E-05
         0.15425E-04
         0.41632E-04
        -0.10582E-04
        -0.21305E-04
        -0.19242E-04
        -0.19081E-04
        -0.22806E-04
         0.14342E-04
         0.11197E-04
        -0.18602E-05
         0.26440E-05
         0.28082E-04
         0.18561E-05
        -0.19458E-03
         0.28050E-03
        -0.58598E-03
        -0.62459E-03
        -0.60154E-03
        -0.33249E-03
         0.80855E-04
         0.22876E-03
         0.28879E-03
         0.52379E-03
         0.58422E-03
         0.22715E-03
         0.75890E-04
         0.61863E-04
        -0.31568E-04
        -0.27581E-03
        -0.50433E-03
        -0.66399E-03
        -0.44028E-03
         0.12689E-03
         0.24643E-03
         0.23602E-03
         0.41840E-03
         0.51006E-03
         0.33916E-03
         0.32012E-03
        -0.10448E-04
         0.13545E-05
        -0.23827E-05
        -0.16548E-05
         0.18424E-04
         0.70862E-05
         0.16498E-05
        -0.12485E-04
        -0.37761E-05
        -0.11206E-04
         0.11699E-05
        -0.18889E-04
        -0.36758E-04
         0.40374E-05
         0.48553E-04
        -0.77731E-05
         0.13248E-05
         0.74586E-06
         0.22725E-05
         0.76579E-06
         0.20456E-04
         0.13820E-04
        -0.79010E-05
         0.16120E-05
         0.37276E-05
        -0.61652E-06
         0.84926E-06
        -0.20436E-06
        -0.83421E-06
        -0.61718E-05
        -0.64396E-05
        -0.10933E-05
         0.26899E-05
         0.20239E-05
         0.47026E-05
        -0.79840E-05
        -0.17476E-04
         0.41018E-04
         0.61079E-05
         0.15491E-04
         0.41690E-04
        -0.10560E-04
        -0.21328E-04
        -0.19249E-04
        -0.19074E-04
        -0.22795E-04
         0.14341E-04
         0.11194E-04
        -0.18441E-05
         0.26315E-05
         0.28052E-04
         0.18253E-05
        -0.19433E-03
         0.28044E-03
        -0.58604E-03
        -0.62460E-03
        -0.60128E-03
        -0.33227E-03
         0.80913E-04
         0.22883E-03
         0.28848E-03
         0.52344E-03
         0.58401E-03
         0.22726E-03
         0.75876E-04
         0.61987E-04
        -0.31315E-04
        -0.27601E-03
        -0.50464E-03
        -0.66427E-03
        -0.44015E-03
         0.12694E-03
         0.24623E-03
         0.23592E-03
         0.41798E-03
         0.50938E-03
         0.33862E-03
         0.31956E-03
        -0.10474E-04
         0.13597E-05
        -0.23884E-05
        -0.16681E-05
         0.18408E-04
         0.70856E-05
         0.16624E-05
        -0.12475E-04
        -0.37868E-05
        -0.11238E-04
         0.11465E-05
        -0.18933E-04
        -0.36789E-04
         0.40270E-05
         0.48589E-04
        -0.77819E-05
         0.13398E-05
         0.74264E-06
         0.22730E-05
         0.76012E-06
         0.20505E-04
         0.13832E-04
        -0.79036E-05
         0.16111E-05
         0.37532E-05
        -0.61635E-06
         0.86008E-06
        -0.20168E-06
        -0.83398E-06
        -0.61882E-05
        -0.64502E-05
        -0.10903E-05
         0.26845E-05
         0.20280E-05
         0.46601E-05
        -0.79860E-05
        -0.17469E-04
         0.41147E-04
         0.61791E-05
         0.15558E-04
         0.41750E-04
        -0.10534E-04
        -0.21350E-04
        -0.19259E-04
        -0.19070E-04
        -0.22784E-04
         0.14339E-04
         0.11190E-04
        -0.18278E-05
         0.26186E-05
         0.28023E-04
         0.17947E-05
        -0.19409E-03
         0.28038E-03
        -0.58610E-03
        -0.62461E-03
        -0.60103E-03
        -0.33206E-03
         0.80972E-04
         0.22890E-03
         0.28818E-03
         0.52309E-03
         0.58380E-03
         0.22738E-03
         0.75865E-04
         0.62111E-04
        -0.31060E-04
        -0.27622E-03
        -0.50497E-03
        -0.66456E-03
        -0.44002E-03
         0.12699E-03
         0.24603E-03
         0.23582E-03
         0.41757E-03
         0.50871E-03
         0.33808E-03
         0.31899E-03
        -0.10501E-04
         0.13651E-05
        -0.23940E-05
        -0.16815E-05
         0.18392E-04
         0.70848E-05
         0.16750E-05
        -0.12464E-04
        -0.37971E-05
        -0.11268E-04
         0.11231E-05
        -0.18978E-04
        -0.36822E-04
         0.40171E-05
         0.48625E-04
        -0.77916E-05
         0.13553E-05
         0.73939E-06
         0.22737E-05
         0.75416E-06
         0.20556E-04
         0.13842E-04
        -0.79104E-05
         0.16096E-05
         0.37800E-05
        -0.61602E-06
         0.87122E-06
        -0.19945E-06
        -0.83217E-06
        -0.62033E-05
        -0.64611E-05
        -0.10865E-05
         0.26790E-05
         0.20322E-05
         0.46177E-05
        -0.79877E-05
        -0.17462E-04
         0.41276E-04
         0.62508E-05
         0.15627E-04
         0.41817E-04
        -0.10501E-04
        -0.21370E-04
        -0.19276E-04
        -0.19068E-04
        -0.22773E-04
         0.14340E-04
         0.11187E-04
        -0.18115E-05
         0.26058E-05
         0.27992E-04
         0.17642E-05
        -0.19384E-03
         0.28033E-03
        -0.58615E-03
        -0.62462E-03
        -0.60077E-03
        -0.33185E-03
         0.81031E-04
         0.22897E-03
         0.28788E-03
         0.52273E-03
         0.58360E-03
         0.22752E-03
         0.75861E-04
         0.62233E-04
        -0.30804E-04
        -0.27646E-03
        -0.50535E-03
        -0.66487E-03
        -0.43989E-03
         0.12704E-03
         0.24583E-03
         0.23572E-03
         0.41715E-03
         0.50803E-03
         0.33754E-03
         0.31843E-03
        -0.10527E-04
         0.13704E-05
        -0.23996E-05
        -0.16947E-05
         0.18376E-04
         0.70839E-05
         0.16875E-05
        -0.12452E-04
        -0.38068E-05
        -0.11295E-04
         0.10996E-05
        -0.19022E-04
        -0.36853E-04
         0.40074E-05
         0.48660E-04
        -0.78019E-05
         0.13711E-05
         0.73614E-06
         0.22742E-05
         0.74794E-06
         0.20608E-04
         0.13852E-04
        -0.79212E-05
         0.16074E-05
         0.38081E-05
        -0.61545E-06
         0.88356E-06
        -0.19762E-06
        -0.82870E-06
        -0.62169E-05
        -0.64722E-05
        -0.10816E-05
         0.26733E-05
         0.20364E-05
         0.45750E-05
        -0.79893E-05
        -0.17456E-04
         0.41406E-04
         0.63226E-05
         0.15697E-04
         0.41889E-04
        -0.10459E-04
        -0.21387E-04
        -0.19301E-04
        -0.19070E-04
        -0.22763E-04
         0.14341E-04
         0.11186E-04
        -0.17953E-05
         0.25931E-05
         0.27963E-04
         0.17337E-05
        -0.19359E-03
         0.28027E-03
        -0.58621E-03
        -0.62462E-03
        -0.60051E-03
        -0.33164E-03
         0.81087E-04
         0.22905E-03
         0.28757E-03
         0.52238E-03
         0.58341E-03
         0.22769E-03
         0.75865E-04
         0.62354E-04
        -0.30548E-04
        -0.27672E-03
        -0.50577E-03
        -0.66520E-03
        -0.43976E-03
         0.12709E-03
         0.24564E-03
         0.23561E-03
         0.41674E-03
         0.50736E-03
         0.33700E-03
         0.31787E-03
        -0.10552E-04
         0.13761E-05
        -0.24047E-05
        -0.17082E-05
         0.18361E-04
         0.70829E-05
         0.16999E-05
        -0.12439E-04
        -0.38165E-05
        -0.11321E-04
         0.10762E-05
        -0.19067E-04
        -0.36885E-04
         0.39981E-05
         0.48695E-04
        -0.78127E-05
         0.13873E-05
         0.73291E-06
         0.22746E-05
         0.74170E-06
         0.20661E-04
         0.13861E-04
        -0.79338E-05
         0.16051E-05
         0.38358E-05
        -0.61477E-06
         0.89681E-06
        -0.19594E-06
        -0.82450E-06
        -0.62305E-05
        -0.64828E-05
        -0.10762E-05
         0.26677E-05
         0.20407E-05
         0.45320E-05
        -0.79919E-05
        -0.17451E-04
         0.41536E-04
         0.63949E-05
         0.15768E-04
         0.41963E-04
        -0.10414E-04
        -0.21403E-04
        -0.19328E-04
        -0.19075E-04
        -0.22755E-04
         0.14343E-04
         0.11185E-04
        -0.17789E-05
         0.25813E-05
         0.27934E-04
         0.17033E-05
        -0.19334E-03
         0.28021E-03
        -0.58626E-03
        -0.62463E-03
        -0.60025E-03
        -0.33142E-03
         0.81142E-04
         0.22912E-03
         0.28727E-03
         0.52203E-03
         0.58323E-03
         0.22787E-03
         0.75873E-04
         0.62474E-04
        -0.30291E-04
        -0.27698E-03
        -0.50620E-03
        -0.66553E-03
        -0.43963E-03
         0.12714E-03
         0.24544E-03
         0.23551E-03
         0.41633E-03
         0.50669E-03
         0.33646E-03
         0.31731E-03
        -0.10575E-04
         0.13827E-05
        -0.24090E-05
        -0.17219E-05
         0.18345E-04
         0.70824E-05
         0.17121E-05
        -0.12423E-04
        -0.38266E-05
        -0.11346E-04
         0.10527E-05
        -0.19112E-04
        -0.36920E-04
         0.39912E-05
         0.48731E-04
        -0.78239E-05
         0.14037E-05
         0.72967E-06
         0.22753E-05
         0.73550E-06
         0.20714E-04
         0.13871E-04
        -0.79466E-05
         0.16028E-05
         0.38618E-05
        -0.61387E-06
         0.91243E-06
        -0.19422E-06
        -0.82002E-06
        -0.62446E-05
        -0.64927E-05
        -0.10701E-05
         0.26619E-05
         0.20449E-05
         0.44889E-05
        -0.79950E-05
        -0.17447E-04
         0.41667E-04
         0.64681E-05
         0.15840E-04
         0.42040E-04
        -0.10368E-04
        -0.21419E-04
        -0.19355E-04
        -0.19081E-04
        -0.22749E-04
         0.14346E-04
         0.11187E-04
        -0.17617E-05
         0.25715E-05
         0.27907E-04
         0.16726E-05
        -0.19309E-03
         0.28016E-03
        -0.58631E-03
        -0.62464E-03
        -0.59999E-03
        -0.33121E-03
         0.81198E-04
         0.22919E-03
         0.28697E-03
         0.52167E-03
         0.58304E-03
         0.22804E-03
         0.75881E-04
         0.62596E-04
        -0.30035E-04
        -0.27725E-03
        -0.50664E-03
        -0.66585E-03
        -0.43949E-03
         0.12717E-03
         0.24523E-03
         0.23542E-03
         0.41592E-03
         0.50602E-03
         0.33593E-03
         0.31675E-03
        -0.10597E-04
         0.13896E-05
        -0.24128E-05
        -0.17358E-05
         0.18331E-04
         0.70814E-05
         0.17241E-05
        -0.12406E-04
        -0.38368E-05
        -0.11371E-04
         0.10293E-05
        -0.19157E-04
        -0.36956E-04
         0.39847E-05
         0.48766E-04
        -0.78352E-05
         0.14202E-05
         0.72639E-06
         0.22759E-05
         0.72940E-06
         0.20767E-04
         0.13881E-04
        -0.79591E-05
         0.16007E-05
         0.38870E-05
        -0.61289E-06
         0.92866E-06
        -0.19244E-06
        -0.81545E-06
        -0.62589E-05
        -0.65021E-05
        -0.10637E-05
         0.26560E-05
         0.20491E-05
         0.44455E-05
        -0.79990E-05
        -0.17444E-04
         0.41799E-04
         0.65415E-05
         0.15912E-04
         0.42116E-04
        -0.10322E-04
        -0.21434E-04
        -0.19384E-04
        -0.19088E-04
        -0.22746E-04
         0.14349E-04
         0.11189E-04
        -0.17442E-05
         0.25627E-05
         0.27881E-04
         0.16421E-05
        -0.19284E-03
         0.28010E-03
        -0.58636E-03
        -0.62465E-03
        -0.59973E-03
        -0.33099E-03
         0.81252E-04
         0.22926E-03
         0.28667E-03
         0.52132E-03
         0.58285E-03
         0.22822E-03
         0.75888E-04
         0.62719E-04
        -0.29778E-04
        -0.27751E-03
        -0.50708E-03
        -0.66616E-03
        -0.43935E-03
         0.12720E-03
         0.24503E-03
         0.23532E-03
         0.41552E-03
         0.50535E-03
         0.33539E-03
         0.31618E-03
        -0.10619E-04
         0.13966E-05
        -0.24165E-05
        -0.17497E-05
         0.18316E-04
         0.70805E-05
         0.17361E-05
        -0.12389E-04
        -0.38471E-05
        -0.11395E-04
         0.10058E-05
        -0.19202E-04
        -0.36991E-04
         0.39788E-05
         0.48802E-04
        -0.78465E-05
         0.14369E-05
         0.72313E-06
         0.22764E-05
         0.72323E-06
         0.20820E-04
         0.13891E-04
        -0.79717E-05
         0.15985E-05
         0.39122E-05
        -0.61191E-06
         0.94531E-06
        -0.19057E-06
        -0.81075E-06
        -0.62732E-05
        -0.65115E-05
        -0.10573E-05
         0.26501E-05
         0.20534E-05
         0.44017E-05
        -0.80023E-05
        -0.17441E-04
         0.41931E-04
         0.66156E-05
         0.15984E-04
         0.42193E-04
        -0.10276E-04
        -0.21450E-04
        -0.19412E-04
        -0.19096E-04
        -0.22743E-04
         0.14351E-04
         0.11192E-04
        -0.17267E-05
         0.25541E-05
         0.27856E-04
         0.16115E-05
        -0.19260E-03
         0.28004E-03
        -0.58640E-03
        -0.62465E-03
        -0.59948E-03
        -0.33078E-03
         0.81307E-04
         0.22933E-03
         0.28637E-03
         0.52096E-03
         0.58266E-03
         0.22840E-03
         0.75898E-04
         0.62844E-04
        -0.29521E-04
        -0.27778E-03
        -0.50752E-03
        -0.66648E-03
        -0.43921E-03
         0.12724E-03
         0.24483E-03
         0.23523E-03
         0.41511E-03
         0.50468E-03
         0.33486E-03
         0.31562E-03
        -0.10641E-04
         0.14036E-05
        -0.24202E-05
        -0.17636E-05
         0.18301E-04
         0.70795E-05
         0.17482E-05
        -0.12371E-04
        -0.38574E-05
        -0.11419E-04
         0.98233E-06
        -0.19247E-04
        -0.37027E-04
         0.39723E-05
         0.48838E-04
        -0.78577E-05
         0.14538E-05
         0.71989E-06
         0.22769E-05
         0.71708E-06
         0.20872E-04
         0.13901E-04
        -0.79837E-05
         0.15964E-05
         0.39375E-05
        -0.61091E-06
         0.96153E-06
        -0.18861E-06
        -0.80592E-06
        -0.62875E-05
        -0.65208E-05
        -0.10509E-05
         0.26440E-05
         0.20576E-05
         0.43579E-05
        -0.80063E-05
        -0.17438E-04
         0.42063E-04
         0.66899E-05
         0.16057E-04
         0.42269E-04
        -0.10230E-04
        -0.21466E-04
        -0.19440E-04
        -0.19104E-04
        -0.22739E-04
         0.14354E-04
         0.11195E-04
        -0.17093E-05
         0.25451E-05
         0.27830E-04
         0.15811E-05
        -0.19235E-03
         0.27999E-03
        -0.58645E-03
        -0.62466E-03
        -0.59922E-03
        -0.33056E-03
         0.81360E-04
         0.22939E-03
         0.28606E-03
         0.52061E-03
         0.58247E-03
         0.22857E-03
         0.75907E-04
         0.62968E-04
        -0.29265E-04
        -0.27804E-03
        -0.50795E-03
        -0.66680E-03
        -0.43907E-03
         0.12727E-03
         0.24462E-03
         0.23513E-03
         0.41470E-03
         0.50401E-03
         0.33433E-03
         0.31506E-03
        -0.10663E-04
         0.14106E-05
        -0.24240E-05
        -0.17774E-05
         0.18286E-04
         0.70787E-05
         0.17602E-05
        -0.12354E-04
        -0.38678E-05
        -0.11443E-04
         0.95878E-06
        -0.19293E-04
        -0.37063E-04
         0.39662E-05
         0.48873E-04
        -0.78690E-05
         0.14706E-05
         0.71667E-06
         0.22777E-05
         0.71086E-06
         0.20925E-04
         0.13910E-04
        -0.79963E-05
         0.15944E-05
         0.39626E-05
        -0.60990E-06
         0.97804E-06
        -0.18653E-06
        -0.80096E-06
        -0.63017E-05
        -0.65302E-05
        -0.10445E-05
         0.26380E-05
         0.20618E-05
         0.43140E-05
        -0.80099E-05
        -0.17435E-04
         0.42196E-04
         0.67647E-05
         0.16129E-04
         0.42345E-04
        -0.10184E-04
        -0.21481E-04
        -0.19468E-04
        -0.19111E-04
        -0.22736E-04
         0.14357E-04
         0.11198E-04
        -0.16919E-05
         0.25363E-05
         0.27805E-04
         0.15508E-05
        -0.19209E-03
         0.27993E-03
        -0.58649E-03
        -0.62466E-03
        -0.59896E-03
        -0.33035E-03
         0.81411E-04
         0.22946E-03
         0.28576E-03
         0.52025E-03
         0.58228E-03
         0.22874E-03
         0.75916E-04
         0.63091E-04
        -0.29008E-04
        -0.27831E-03
        -0.50839E-03
        -0.66711E-03
        -0.43893E-03
         0.12730E-03
         0.24442E-03
         0.23503E-03
         0.41430E-03
         0.50334E-03
         0.33380E-03
         0.31450E-03
        -0.10685E-04
         0.14175E-05
        -0.24277E-05
        -0.17914E-05
         0.18272E-04
         0.70777E-05
         0.17723E-05
        -0.12336E-04
        -0.38781E-05
        -0.11467E-04
         0.93525E-06
        -0.19338E-04
        -0.37098E-04
         0.39601E-05
         0.48907E-04
        -0.78803E-05
         0.14876E-05
         0.71341E-06
         0.22782E-05
         0.70476E-06
         0.20978E-04
         0.13919E-04
        -0.80089E-05
         0.15923E-05
         0.39879E-05
        -0.60893E-06
         0.99419E-06
        -0.18439E-06
        -0.79580E-06
        -0.63161E-05
        -0.65395E-05
        -0.10381E-05
         0.26318E-05
         0.20661E-05
         0.42697E-05
        -0.80136E-05
        -0.17432E-04
         0.42329E-04
         0.68398E-05
         0.16202E-04
         0.42422E-04
        -0.10139E-04
        -0.21497E-04
        -0.19496E-04
        -0.19119E-04
        -0.22733E-04
         0.14360E-04
         0.11201E-04
        -0.16745E-05
         0.25278E-05
         0.27779E-04
         0.15205E-05
        -0.19185E-03
         0.27987E-03
        -0.58653E-03
        -0.62467E-03
        -0.59870E-03
        -0.33014E-03
         0.81463E-04
         0.22953E-03
         0.28546E-03
         0.51989E-03
         0.58209E-03
         0.22892E-03
         0.75924E-04
         0.63214E-04
        -0.28750E-04
        -0.27857E-03
        -0.50883E-03
        -0.66743E-03
        -0.43879E-03
         0.12733E-03
         0.24421E-03
         0.23494E-03
         0.41389E-03
         0.50268E-03
         0.33327E-03
         0.31394E-03
        -0.10707E-04
         0.14246E-05
        -0.24313E-05
        -0.18054E-05
         0.18257E-04
         0.70768E-05
         0.17843E-05
        -0.12318E-04
        -0.38883E-05
        -0.11491E-04
         0.91175E-06
        -0.19384E-04
        -0.37134E-04
         0.39535E-05
         0.48943E-04
        -0.78914E-05
         0.15047E-05
         0.71014E-06
         0.22788E-05
         0.69866E-06
         0.21030E-04
         0.13929E-04
        -0.80212E-05
         0.15903E-05
         0.40130E-05
        -0.60789E-06
         0.10108E-05
        -0.18213E-06
        -0.79058E-06
        -0.63303E-05
        -0.65488E-05
        -0.10316E-05
         0.26255E-05
         0.20703E-05
         0.42254E-05
        -0.80177E-05
        -0.17429E-04
         0.42461E-04
         0.69154E-05
         0.16275E-04
         0.42499E-04
        -0.10093E-04
        -0.21512E-04
        -0.19524E-04
        -0.19127E-04
        -0.22728E-04
         0.14363E-04
         0.11204E-04
        -0.16570E-05
         0.25190E-05
         0.27752E-04
         0.14904E-05
        -0.19160E-03
         0.27981E-03
        -0.58657E-03
        -0.62467E-03
        -0.59844E-03
        -0.32992E-03
         0.81517E-04
         0.22960E-03
         0.28516E-03
         0.51953E-03
         0.58189E-03
         0.22909E-03
         0.75933E-04
         0.63337E-04
        -0.28493E-04
        -0.27884E-03
        -0.50927E-03
        -0.66774E-03
        -0.43865E-03
         0.12736E-03
         0.24401E-03
         0.23484E-03
         0.41349E-03
         0.50201E-03
         0.33275E-03
         0.31339E-03
        -0.10729E-04
         0.14315E-05
        -0.24350E-05
        -0.18194E-05
         0.18242E-04
         0.70757E-05
         0.17964E-05
        -0.12300E-04
        -0.38986E-05
        -0.11514E-04
         0.88825E-06
        -0.19429E-04
        -0.37170E-04
         0.39473E-05
         0.48977E-04
        -0.79026E-05
         0.15218E-05
         0.70691E-06
         0.22796E-05
         0.69261E-06
         0.21083E-04
         0.13938E-04
        -0.80338E-05
         0.15882E-05
         0.40382E-05
        -0.60685E-06
         0.10270E-05
        -0.17980E-06
        -0.78526E-06
        -0.63444E-05
        -0.65580E-05
        -0.10253E-05
         0.26192E-05
         0.20746E-05
         0.41808E-05
        -0.80214E-05
        -0.17426E-04
         0.42594E-04
         0.69913E-05
         0.16348E-04
         0.42576E-04
        -0.10046E-04
        -0.21528E-04
        -0.19552E-04
        -0.19134E-04
        -0.22725E-04
         0.14366E-04
         0.11207E-04
        -0.16395E-05
         0.25102E-05
         0.27727E-04
         0.14605E-05
        -0.19135E-03
         0.27975E-03
        -0.58662E-03
        -0.62468E-03
        -0.59819E-03
        -0.32970E-03
         0.81569E-04
         0.22966E-03
         0.28486E-03
         0.51917E-03
         0.58170E-03
         0.22927E-03
         0.75941E-04
         0.63461E-04
        -0.28237E-04
        -0.27911E-03
        -0.50971E-03
        -0.66806E-03
        -0.43851E-03
         0.12739E-03
         0.24381E-03
         0.23475E-03
         0.41308E-03
         0.50134E-03
         0.33222E-03
         0.31283E-03
        -0.10751E-04
         0.14384E-05
        -0.24386E-05
        -0.18334E-05
         0.18227E-04
         0.70746E-05
         0.18084E-05
        -0.12282E-04
        -0.39089E-05
        -0.11538E-04
         0.86472E-06
        -0.19475E-04
        -0.37205E-04
         0.39405E-05
         0.49012E-04
        -0.79138E-05
         0.15391E-05
         0.70370E-06
         0.22802E-05
         0.68649E-06
         0.21136E-04
         0.13947E-04
        -0.80459E-05
         0.15863E-05
         0.40634E-05
        -0.60579E-06
         0.10435E-05
        -0.17735E-06
        -0.77983E-06
        -0.63586E-05
        -0.65673E-05
        -0.10188E-05
         0.26128E-05
         0.20788E-05
         0.41362E-05
        -0.80254E-05
        -0.17423E-04
         0.42727E-04
         0.70675E-05
         0.16421E-04
         0.42653E-04
        -0.10000E-04
        -0.21544E-04
        -0.19580E-04
        -0.19142E-04
        -0.22722E-04
         0.14368E-04
         0.11211E-04
        -0.16219E-05
         0.25015E-05
         0.27701E-04
         0.14306E-05
        -0.19110E-03
         0.27969E-03
        -0.58666E-03
        -0.62468E-03
        -0.59793E-03
        -0.32949E-03
         0.81618E-04
         0.22972E-03
         0.28456E-03
         0.51881E-03
         0.58151E-03
         0.22944E-03
         0.75949E-04
         0.63584E-04
        -0.27980E-04
        -0.27937E-03
        -0.51015E-03
        -0.66837E-03
        -0.43837E-03
         0.12742E-03
         0.24360E-03
         0.23465E-03
         0.41267E-03
         0.50068E-03
         0.33170E-03
         0.31227E-03
        -0.10773E-04
         0.14454E-05
        -0.24423E-05
        -0.18474E-05
         0.18212E-04
         0.70738E-05
         0.18205E-05
        -0.12264E-04
        -0.39193E-05
        -0.11561E-04
         0.84113E-06
        -0.19520E-04
        -0.37241E-04
         0.39342E-05
         0.49045E-04
        -0.79251E-05
         0.15565E-05
         0.70050E-06
         0.22808E-05
         0.68045E-06
         0.21189E-04
         0.13956E-04
        -0.80583E-05
         0.15843E-05
         0.40886E-05
        -0.60473E-06
         0.10595E-05
        -0.17481E-06
        -0.77429E-06
        -0.63727E-05
        -0.65765E-05
        -0.10124E-05
         0.26063E-05
         0.20832E-05
         0.40912E-05
        -0.80290E-05
        -0.17420E-04
         0.42860E-04
         0.71443E-05
         0.16493E-04
         0.42729E-04
        -0.99542E-05
        -0.21559E-04
        -0.19607E-04
        -0.19150E-04
        -0.22717E-04
         0.14371E-04
         0.11213E-04
        -0.16045E-05
         0.24928E-05
         0.27676E-04
         0.14007E-05
        -0.19084E-03
         0.27963E-03
        -0.58670E-03
        -0.62469E-03
        -0.59767E-03
        -0.32927E-03
         0.81666E-04
         0.22978E-03
         0.28426E-03
         0.51844E-03
         0.58133E-03
         0.22962E-03
         0.75957E-04
         0.63706E-04
        -0.27722E-04
        -0.27963E-03
        -0.51059E-03
        -0.66869E-03
        -0.43823E-03
         0.12744E-03
         0.24340E-03
         0.23456E-03
         0.41227E-03
         0.50001E-03
         0.33118E-03
         0.31171E-03
        -0.10795E-04
         0.14523E-05
        -0.24460E-05
        -0.18615E-05
         0.18198E-04
         0.70727E-05
         0.18326E-05
        -0.12245E-04
        -0.39296E-05
        -0.11584E-04
         0.81752E-06
        -0.19566E-04
        -0.37277E-04
         0.39273E-05
         0.49079E-04
        -0.79364E-05
         0.15741E-05
         0.69728E-06
         0.22815E-05
         0.67445E-06
         0.21241E-04
         0.13965E-04
        -0.80705E-05
         0.15824E-05
         0.41135E-05
        -0.60364E-06
         0.10760E-05
        -0.17214E-06
        -0.76856E-06
        -0.63866E-05
        -0.65858E-05
        -0.10060E-05
         0.25999E-05
         0.20875E-05
         0.40460E-05
        -0.80327E-05
        -0.17417E-04
         0.42993E-04
         0.72220E-05
         0.16567E-04
         0.42805E-04
        -0.99084E-05
        -0.21575E-04
        -0.19636E-04
        -0.19157E-04
        -0.22714E-04
         0.14374E-04
         0.11217E-04
        -0.15872E-05
         0.24840E-05
         0.27650E-04
         0.13711E-05
        -0.19059E-03
         0.27958E-03
        -0.58674E-03
        -0.62469E-03
        -0.59741E-03
        -0.32906E-03
         0.81713E-04
         0.22984E-03
         0.28396E-03
         0.51808E-03
         0.58114E-03
         0.22980E-03
         0.75962E-04
         0.63827E-04
        -0.27466E-04
        -0.27990E-03
        -0.51103E-03
        -0.66900E-03
        -0.43809E-03
         0.12747E-03
         0.24319E-03
         0.23446E-03
         0.41186E-03
         0.49935E-03
         0.33066E-03
         0.31115E-03
        -0.10817E-04
         0.14592E-05
        -0.24496E-05
        -0.18756E-05
         0.18183E-04
         0.70716E-05
         0.18447E-05
        -0.12227E-04
        -0.39396E-05
        -0.11605E-04
         0.79389E-06
        -0.19611E-04
        -0.37312E-04
         0.39208E-05
         0.49111E-04
        -0.79476E-05
         0.15918E-05
         0.69405E-06
         0.22824E-05
         0.66873E-06
         0.21294E-04
         0.13973E-04
        -0.80831E-05
         0.15803E-05
         0.41379E-05
        -0.60261E-06
         0.10922E-05
        -0.16928E-06
        -0.76275E-06
        -0.64003E-05
        -0.65950E-05
        -0.99946E-06
         0.25932E-05
         0.20918E-05
         0.40008E-05
        -0.80369E-05
        -0.17414E-04
         0.43126E-04
         0.73016E-05
         0.16638E-04
         0.42878E-04
        -0.98613E-05
        -0.21591E-04
        -0.19664E-04
        -0.19165E-04
        -0.22711E-04
         0.14377E-04
         0.11220E-04
        -0.15699E-05
         0.24753E-05
         0.27625E-04
         0.13416E-05
        -0.19034E-03
         0.27952E-03
        -0.58677E-03
        -0.62470E-03
        -0.59715E-03
        -0.32884E-03
         0.81761E-04
         0.22990E-03
         0.28367E-03
         0.51770E-03
         0.58096E-03
         0.22999E-03
         0.75965E-04
         0.63948E-04
        -0.27210E-04
        -0.28016E-03
        -0.51147E-03
        -0.66931E-03
        -0.43795E-03
         0.12750E-03
         0.24299E-03
         0.23436E-03
         0.41145E-03
         0.49868E-03
         0.33014E-03
         0.31060E-03
        -0.10839E-04
         0.14661E-05
        -0.24532E-05
        -0.18897E-05
         0.18168E-04
         0.70704E-05
         0.18567E-05
        -0.12208E-04
        -0.39495E-05
        -0.11624E-04
         0.77028E-06
        -0.19657E-04
        -0.37348E-04
         0.39141E-05
         0.49144E-04
        -0.79587E-05
         0.16098E-05
         0.69082E-06
         0.22831E-05
         0.66319E-06
         0.21347E-04
         0.13981E-04
        -0.80955E-05
         0.15784E-05
         0.41617E-05
        -0.60149E-06
         0.11090E-05
        -0.16619E-06
        -0.75684E-06
        -0.64133E-05
        -0.66042E-05
        -0.99303E-06
         0.25865E-05
         0.20961E-05
         0.39551E-05
        -0.80406E-05
        -0.17411E-04
         0.43258E-04
         0.73831E-05
         0.16709E-04
         0.42948E-04
        -0.98138E-05
        -0.21606E-04
        -0.19691E-04
        -0.19173E-04
        -0.22708E-04
         0.14380E-04
         0.11223E-04
        -0.15525E-05
         0.24666E-05
         0.27599E-04
         0.13119E-05
        -0.19009E-03
         0.27946E-03
        -0.58681E-03
        -0.62470E-03
        -0.59690E-03
        -0.32863E-03
         0.81807E-04
         0.22996E-03
         0.28337E-03
         0.51730E-03
         0.58079E-03
         0.23018E-03
         0.75962E-04
         0.64070E-04
        -0.26952E-04
        -0.28042E-03
        -0.51191E-03
        -0.66962E-03
        -0.43781E-03
         0.12753E-03
         0.24279E-03
         0.23427E-03
         0.41104E-03
         0.49802E-03
         0.32962E-03
         0.31004E-03
        -0.10861E-04
         0.14730E-05
        -0.24570E-05
        -0.19037E-05
         0.18154E-04
         0.70696E-05
         0.18688E-05
        -0.12189E-04
        -0.39592E-05
        -0.11644E-04
         0.74682E-06
        -0.19701E-04
        -0.37383E-04
         0.39070E-05
         0.49175E-04
        -0.79700E-05
         0.16279E-05
         0.68763E-06
         0.22838E-05
         0.65782E-06
         0.21399E-04
         0.13989E-04
        -0.81070E-05
         0.15767E-05
         0.41852E-05
        -0.60044E-06
         0.11254E-05
        -0.16294E-06
        -0.75089E-06
        -0.64261E-05
        -0.66135E-05
        -0.98672E-06
         0.25798E-05
         0.21006E-05
         0.39100E-05
        -0.80444E-05
        -0.17407E-04
         0.43390E-04
         0.74655E-05
         0.16778E-04
         0.43016E-04
        -0.97670E-05
        -0.21622E-04
        -0.19719E-04
        -0.19180E-04
        -0.22704E-04
         0.14383E-04
         0.11226E-04
        -0.15353E-05
         0.24577E-05
         0.27574E-04
         0.12825E-05
        -0.18984E-03
         0.27940E-03
        -0.58685E-03
        -0.62471E-03
        -0.59664E-03
        -0.32841E-03
         0.81852E-04
         0.23002E-03
         0.28308E-03
         0.51690E-03
         0.58062E-03
         0.23037E-03
         0.75955E-04
         0.64191E-04
        -0.26694E-04
        -0.28068E-03
        -0.51234E-03
        -0.66994E-03
        -0.43767E-03
         0.12756E-03
         0.24259E-03
         0.23417E-03
         0.41064E-03
         0.49736E-03
         0.32911E-03
         0.30949E-03
        -0.10965E-04
         0.14899E-05
        -0.24800E-05
        -0.19317E-05
         0.18273E-04
         0.71205E-05
         0.18941E-05
        -0.12265E-04
        -0.39981E-05
        -0.11751E-04
         0.73184E-06
        -0.19876E-04
        -0.37682E-04
         0.39299E-05
         0.49570E-04
        -0.80413E-05
         0.16574E-05
         0.68980E-06
         0.23008E-05
         0.65768E-06
         0.21599E-04
         0.14096E-04
        -0.81687E-05
         0.15876E-05
         0.42389E-05
        -0.60451E-06
         0.11490E-05
        -0.16081E-06
        -0.75207E-06
        -0.64871E-05
        -0.66734E-05
        -0.98958E-06
         0.25934E-05
         0.21209E-05
         0.38971E-05
        -0.81034E-05
        -0.17526E-04
         0.43836E-04
         0.75971E-05
         0.16967E-04
         0.43395E-04
        -0.98042E-05
        -0.21801E-04
        -0.19875E-04
        -0.19317E-04
        -0.22853E-04
         0.14486E-04
         0.11309E-04
        -0.15310E-05
         0.24669E-05
         0.27748E-04
         0.12629E-05
        -0.19086E-03
         0.28125E-03
        -0.59086E-03
        -0.62891E-03
        -0.60048E-03
        -0.33045E-03
         0.82508E-04
         0.23170E-03
         0.28483E-03
         0.52026E-03
         0.58462E-03
         0.23210E-03
         0.76434E-04
         0.64719E-04
        -0.26618E-04
        -0.28266E-03
        -0.51592E-03
        -0.67456E-03
        -0.44051E-03
         0.12849E-03
         0.24403E-03
         0.23560E-03
         0.41297E-03
         0.50004E-03
         0.33079E-03
         0.31098E-03
        -0.24306E-04
         0.33381E-05
        -0.54779E-05
        -0.43195E-05
         0.37554E-04
         0.14922E-04
         0.42237E-05
        -0.26885E-04
        -0.88209E-05
        -0.25665E-04
         0.15497E-05
        -0.39414E-04
        -0.76987E-04
         0.83611E-05
         0.99336E-04
        -0.17859E-04
         0.36828E-05
         0.15290E-05
         0.49712E-05
         0.14237E-05
         0.44142E-04
         0.29515E-04
        -0.16750E-04
         0.34832E-05
         0.94449E-05
        -0.13490E-05
         0.25075E-05
        -0.35203E-06
        -0.16779E-05
        -0.14408E-04
        -0.14829E-04
        -0.21843E-05
         0.57704E-05
         0.47236E-05
         0.76124E-05
        -0.16944E-04
        -0.36665E-04
         0.91902E-04
         0.16440E-04
         0.36871E-04
         0.91639E-04
        -0.20968E-04
        -0.46684E-04
        -0.41372E-04
        -0.39934E-04
        -0.44583E-04
         0.29744E-04
         0.23815E-04
        -0.32342E-05
         0.51915E-05
         0.55674E-04
         0.25879E-05
        -0.29711E-03
         0.43689E-03
        -0.91848E-03
        -0.98318E-03
        -0.93738E-03
        -0.51838E-03
         0.13256E-03
         0.37805E-03
         0.46268E-03
         0.83554E-03
         0.94129E-03
         0.37238E-03
         0.12522E-03
         0.10686E-03
        -0.42515E-04
        -0.44421E-03
        -0.80597E-03
        -0.10424E-02
        -0.67961E-03
         0.19889E-03
         0.38519E-03
         0.37515E-03
         0.65286E-03
         0.79582E-03
         0.52312E-03
         0.48817E-03
  
SCALARS                      strain_eq  double 1
LOOKUP_TABLE default
         0.10065E+01
         0.98366E+00
         0.99815E+00
         0.10241E+01
         0.13482E-08
         0.14949E-08
         0.14524E-08
         0.13069E-08
         0.98306E+00
         0.99067E+00
         0.14703E-08
         0.14061E-08
         0.95067E+00
         0.94945E+00
         0.16086E-08
         0.15319E-08
         0.10203E+01
         0.95125E+00
         0.12000E-08
         0.13497E-08
         0.92591E+00
         0.90635E+00
         0.93762E+00
         0.16568E-08
         0.15804E-08
         0.15720E-08
         0.90704E+00
         0.87844E+00
         0.16048E-08
         0.14575E-08
         0.10190E+01
         0.98897E+00
         0.10482E+01
         0.13059E-08
         0.12263E-08
         0.11746E-08
         0.10017E+01
         0.96337E+00
         0.14237E-08
         0.12979E-08
         0.98653E+00
         0.95704E+00
         0.13243E-08
         0.11424E-08
         0.10115E+01
         0.10226E+01
         0.14300E-08
         0.14829E-08
         0.93331E+00
         0.12816E-08
         0.10204E+01
         0.14902E-08
         0.89874E+00
         0.14011E-08
         0.88973E+00
         0.12933E-08
         0.88993E+00
         0.92192E+00
         0.13106E-08
         0.12887E-08
         0.10184E+01
         0.10069E+01
         0.13223E-08
         0.14969E-08
         0.10256E+01
         0.12692E-08
         0.10119E+01
         0.13901E-08
         0.97612E+00
         0.97231E+00
         0.14869E-08
         0.14859E-08
         0.96410E+00
         0.15037E-08
         0.86828E+00
         0.12020E-08
         0.86330E+00
         0.11188E-08
         0.86588E+00
         0.11655E-08
         0.87994E+00
         0.89414E+00
         0.11273E-08
         0.11709E-08
         0.92306E+00
         0.11027E-08
         0.10110E+01
         0.14806E-08
         0.99737E+00
         0.15077E-08
         0.98632E+00
         0.97988E+00
         0.15063E-08
         0.14776E-08
         0.98740E+00
         0.13260E-08
         0.99281E+00
         0.12983E-08
         0.98799E+00
         0.14043E-08
         0.98645E+00
         0.99126E+00
         0.14437E-08
         0.14397E-08
         0.96012E+00
         0.97336E+00
         0.13727E-08
         0.13250E-08
         0.95795E+00
         0.13331E-08
         0.97322E+00
         0.13016E-08
         0.95831E+00
         0.13000E-08
         0.92566E+00
         0.12188E-08
         0.89421E+00
         0.10313E-08
         0.87528E+00
         0.87141E-09
         0.87334E+00
         0.84517E-09
         0.87390E+00
         0.90047E-09
         0.89438E+00
         0.92890E-09
         0.93317E+00
         0.87017E-09
         0.97563E+00
         0.79419E-09
         0.10002E+01
         0.82194E-09
         0.10247E+01
         0.97430E-09
         0.10408E+01
         0.11374E-08
         0.10404E+01
         0.12123E-08
         0.10006E+01
         0.12944E-08
         0.97282E+00
         0.13603E-08
         0.96382E+00
         0.12692E-08
         0.97877E+00
         0.11174E-08
         0.98630E+00
         0.11152E-08
         0.97306E+00
         0.12272E-08
         0.97298E+00
         0.13022E-08
         0.98296E+00
         0.12601E-08
         0.99591E+00
         0.12320E-08
         0.31923E+00
         0.32312E+00
         0.32259E+00
         0.31745E+00
         0.32692E+00
         0.32223E+00
         0.32786E+00
         0.32495E+00
         0.31830E+00
         0.32250E+00
         0.33096E+00
         0.33219E+00
         0.32961E+00
         0.32922E+00
         0.33114E+00
         0.31771E+00
         0.31868E+00
         0.31593E+00
         0.32353E+00
         0.32218E+00
         0.32429E+00
         0.32304E+00
         0.32535E+00
         0.32457E+00
         0.32231E+00
         0.32245E+00
         0.32632E+00
         0.32596E+00
         0.32876E+00
         0.32453E+00
         0.31819E+00
         0.32316E+00
         0.31821E+00
         0.32150E+00
         0.33279E+00
         0.32922E+00
         0.32758E+00
         0.32966E+00
         0.32984E+00
         0.33295E+00
         0.33536E+00
         0.32975E+00
         0.32426E+00
         0.32494E+00
         0.32777E+00
         0.33270E+00
         0.32843E+00
         0.32386E+00
         0.32417E+00
         0.32771E+00
         0.33136E+00
         0.32650E+00
         0.34268E+00
         0.33910E+00
         0.33997E+00
         0.33924E+00
         0.33983E+00
         0.34241E+00
         0.34435E+00
         0.34443E+00
         0.34399E+00
         0.34442E+00
         0.34510E+00
         0.33974E+00
         0.33692E+00
         0.33585E+00
         0.33469E+00
         0.33385E+00
         0.33411E+00
         0.33616E+00
         0.34169E+00
         0.34063E+00
         0.33836E+00
         0.33812E+00
         0.33851E+00
         0.34024E+00
         0.33763E+00
         0.33670E+00
         0.95790E-02
         0.57556E-02
         0.54289E-02
         0.37228E-02
         0.99477E-02
         0.68778E-02
         0.30359E-02
         0.94211E-02
         0.59014E-02
         0.88774E-02
         0.43283E-02
         0.18651E-01
         0.14163E-01
         0.70836E-02
         0.19534E-01
         0.69602E-02
         0.35261E-02
         0.22497E-02
         0.46866E-02
         0.25373E-02
         0.14667E-01
         0.13761E-01
         0.13401E-01
         0.34873E-02
         0.57289E-02
         0.18216E-02
         0.66831E-02
         0.10855E-02
         0.24477E-02
         0.62139E-02
         0.59459E-02
         0.31627E-02
         0.38513E-02
         0.33317E-02
         0.12859E-01
         0.76951E-02
         0.99607E-02
         0.15931E-01
         0.12254E-01
         0.11406E-01
         0.16199E-01
         0.14685E-01
         0.14782E-01
         0.11444E-01
         0.10220E-01
         0.13980E-01
         0.91648E-02
         0.77929E-02
         0.64262E-02
         0.75886E-02
         0.12408E-01
         0.85189E-02
         0.54487E-01
         0.55791E-01
         0.58319E-01
         0.57896E-01
         0.61719E-01
         0.66269E-01
         0.63589E-01
         0.56540E-01
         0.55098E-01
         0.58969E-01
         0.57793E-01
         0.57006E-01
         0.47121E-01
         0.44793E-01
         0.49210E-01
         0.52712E-01
         0.54702E-01
         0.59740E-01
         0.57463E-01
         0.59020E-01
         0.53141E-01
         0.50456E-01
         0.53810E-01
         0.52604E-01
         0.54132E-01
         0.53676E-01
         0.95862E-02
         0.57569E-02
         0.54320E-02
         0.37281E-02
         0.99432E-02
         0.68738E-02
         0.30451E-02
         0.94302E-02
         0.59116E-02
         0.89035E-02
         0.43282E-02
         0.18651E-01
         0.14169E-01
         0.70670E-02
         0.19555E-01
         0.69658E-02
         0.35360E-02
         0.22440E-02
         0.46894E-02
         0.25317E-02
         0.14668E-01
         0.13760E-01
         0.13400E-01
         0.34872E-02
         0.57535E-02
         0.18212E-02
         0.66854E-02
         0.10740E-02
         0.24594E-02
         0.62249E-02
         0.59516E-02
         0.31616E-02
         0.38447E-02
         0.33347E-02
         0.12865E-01
         0.76929E-02
         0.99585E-02
         0.15955E-01
         0.12282E-01
         0.11421E-01
         0.16210E-01
         0.14692E-01
         0.14784E-01
         0.11444E-01
         0.10218E-01
         0.13979E-01
         0.91649E-02
         0.77925E-02
         0.64171E-02
         0.75783E-02
         0.12401E-01
         0.85057E-02
         0.54468E-01
         0.55778E-01
         0.58319E-01
         0.57896E-01
         0.61708E-01
         0.66246E-01
         0.63563E-01
         0.56525E-01
         0.55084E-01
         0.58952E-01
         0.57783E-01
         0.57008E-01
         0.47116E-01
         0.44791E-01
         0.49216E-01
         0.52724E-01
         0.54716E-01
         0.59753E-01
         0.57460E-01
         0.59016E-01
         0.53135E-01
         0.50453E-01
         0.53792E-01
         0.52569E-01
         0.54101E-01
         0.53647E-01
         0.95935E-02
         0.57582E-02
         0.54351E-02
         0.37335E-02
         0.99386E-02
         0.68700E-02
         0.30544E-02
         0.94393E-02
         0.59219E-02
         0.89294E-02
         0.43282E-02
         0.18650E-01
         0.14174E-01
         0.70504E-02
         0.19575E-01
         0.69715E-02
         0.35460E-02
         0.22383E-02
         0.46921E-02
         0.25262E-02
         0.14670E-01
         0.13759E-01
         0.13399E-01
         0.34871E-02
         0.57780E-02
         0.18207E-02
         0.66875E-02
         0.10629E-02
         0.24709E-02
         0.62355E-02
         0.59574E-02
         0.31606E-02
         0.38382E-02
         0.33377E-02
         0.12871E-01
         0.76909E-02
         0.99561E-02
         0.15980E-01
         0.12309E-01
         0.11437E-01
         0.16221E-01
         0.14700E-01
         0.14786E-01
         0.11444E-01
         0.10216E-01
         0.13979E-01
         0.91650E-02
         0.77919E-02
         0.64080E-02
         0.75678E-02
         0.12394E-01
         0.84927E-02
         0.54448E-01
         0.55764E-01
         0.58319E-01
         0.57897E-01
         0.61698E-01
         0.66224E-01
         0.63536E-01
         0.56510E-01
         0.55070E-01
         0.58934E-01
         0.57773E-01
         0.57010E-01
         0.47112E-01
         0.44789E-01
         0.49222E-01
         0.52737E-01
         0.54731E-01
         0.59766E-01
         0.57457E-01
         0.59013E-01
         0.53130E-01
         0.50449E-01
         0.53773E-01
         0.52535E-01
         0.54071E-01
         0.53619E-01
         0.96008E-02
         0.57595E-02
         0.54382E-02
         0.37388E-02
         0.99340E-02
         0.68661E-02
         0.30637E-02
         0.94483E-02
         0.59321E-02
         0.89548E-02
         0.43282E-02
         0.18650E-01
         0.14180E-01
         0.70338E-02
         0.19595E-01
         0.69777E-02
         0.35565E-02
         0.22325E-02
         0.46952E-02
         0.25204E-02
         0.14672E-01
         0.13758E-01
         0.13399E-01
         0.34867E-02
         0.58019E-02
         0.18198E-02
         0.66893E-02
         0.10532E-02
         0.24818E-02
         0.62451E-02
         0.59635E-02
         0.31598E-02
         0.38317E-02
         0.33407E-02
         0.12876E-01
         0.76887E-02
         0.99537E-02
         0.16005E-01
         0.12337E-01
         0.11454E-01
         0.16232E-01
         0.14708E-01
         0.14789E-01
         0.11445E-01
         0.10215E-01
         0.13979E-01
         0.91657E-02
         0.77914E-02
         0.63989E-02
         0.75573E-02
         0.12387E-01
         0.84795E-02
         0.54428E-01
         0.55751E-01
         0.58319E-01
         0.57897E-01
         0.61688E-01
         0.66202E-01
         0.63510E-01
         0.56495E-01
         0.55056E-01
         0.58916E-01
         0.57764E-01
         0.57013E-01
         0.47109E-01
         0.44788E-01
         0.49229E-01
         0.52752E-01
         0.54747E-01
         0.59780E-01
         0.57454E-01
         0.59009E-01
         0.53124E-01
         0.50446E-01
         0.53755E-01
         0.52500E-01
         0.54041E-01
         0.53590E-01
         0.96079E-02
         0.57608E-02
         0.54413E-02
         0.37442E-02
         0.99296E-02
         0.68622E-02
         0.30729E-02
         0.94572E-02
         0.59422E-02
         0.89797E-02
         0.43283E-02
         0.18649E-01
         0.14186E-01
         0.70172E-02
         0.19615E-01
         0.69844E-02
         0.35673E-02
         0.22267E-02
         0.46982E-02
         0.25146E-02
         0.14674E-01
         0.13758E-01
         0.13400E-01
         0.34862E-02
         0.58253E-02
         0.18186E-02
         0.66910E-02
         0.10446E-02
         0.24921E-02
         0.62537E-02
         0.59697E-02
         0.31591E-02
         0.38251E-02
         0.33438E-02
         0.12882E-01
         0.76866E-02
         0.99515E-02
         0.16030E-01
         0.12366E-01
         0.11472E-01
         0.16245E-01
         0.14717E-01
         0.14792E-01
         0.11447E-01
         0.10214E-01
         0.13979E-01
         0.91668E-02
         0.77914E-02
         0.63899E-02
         0.75468E-02
         0.12381E-01
         0.84664E-02
         0.54408E-01
         0.55738E-01
         0.58318E-01
         0.57897E-01
         0.61678E-01
         0.66179E-01
         0.63483E-01
         0.56480E-01
         0.55042E-01
         0.58898E-01
         0.57754E-01
         0.57016E-01
         0.47107E-01
         0.44787E-01
         0.49236E-01
         0.52769E-01
         0.54765E-01
         0.59794E-01
         0.57451E-01
         0.59006E-01
         0.53118E-01
         0.50443E-01
         0.53736E-01
         0.52466E-01
         0.54010E-01
         0.53561E-01
         0.96148E-02
         0.57618E-02
         0.54443E-02
         0.37496E-02
         0.99251E-02
         0.68582E-02
         0.30820E-02
         0.94655E-02
         0.59524E-02
         0.90038E-02
         0.43288E-02
         0.18649E-01
         0.14191E-01
         0.70007E-02
         0.19635E-01
         0.69913E-02
         0.35782E-02
         0.22210E-02
         0.47013E-02
         0.25088E-02
         0.14677E-01
         0.13758E-01
         0.13402E-01
         0.34856E-02
         0.58482E-02
         0.18172E-02
         0.66925E-02
         0.10368E-02
         0.25022E-02
         0.62621E-02
         0.59759E-02
         0.31582E-02
         0.38186E-02
         0.33468E-02
         0.12888E-01
         0.76849E-02
         0.99495E-02
         0.16055E-01
         0.12395E-01
         0.11490E-01
         0.16258E-01
         0.14726E-01
         0.14796E-01
         0.11450E-01
         0.10215E-01
         0.13981E-01
         0.91681E-02
         0.77915E-02
         0.63814E-02
         0.75366E-02
         0.12374E-01
         0.84536E-02
         0.54389E-01
         0.55724E-01
         0.58318E-01
         0.57898E-01
         0.61668E-01
         0.66157E-01
         0.63456E-01
         0.56465E-01
         0.55028E-01
         0.58880E-01
         0.57745E-01
         0.57020E-01
         0.47105E-01
         0.44786E-01
         0.49243E-01
         0.52787E-01
         0.54784E-01
         0.59809E-01
         0.57448E-01
         0.59002E-01
         0.53113E-01
         0.50440E-01
         0.53718E-01
         0.52431E-01
         0.53980E-01
         0.53533E-01
         0.96210E-02
         0.57620E-02
         0.54471E-02
         0.37550E-02
         0.99208E-02
         0.68545E-02
         0.30906E-02
         0.94726E-02
         0.59627E-02
         0.90269E-02
         0.43299E-02
         0.18649E-01
         0.14198E-01
         0.69843E-02
         0.19656E-01
         0.69983E-02
         0.35889E-02
         0.22152E-02
         0.47045E-02
         0.25032E-02
         0.14679E-01
         0.13758E-01
         0.13403E-01
         0.34852E-02
         0.58703E-02
         0.18156E-02
         0.66943E-02
         0.10292E-02
         0.25126E-02
         0.62704E-02
         0.59815E-02
         0.31567E-02
         0.38120E-02
         0.33497E-02
         0.12894E-01
         0.76834E-02
         0.99478E-02
         0.16081E-01
         0.12424E-01
         0.11508E-01
         0.16270E-01
         0.14734E-01
         0.14800E-01
         0.11453E-01
         0.10215E-01
         0.13983E-01
         0.91701E-02
         0.77925E-02
         0.63741E-02
         0.75268E-02
         0.12368E-01
         0.84408E-02
         0.54369E-01
         0.55711E-01
         0.58317E-01
         0.57898E-01
         0.61658E-01
         0.66134E-01
         0.63430E-01
         0.56450E-01
         0.55014E-01
         0.58862E-01
         0.57736E-01
         0.57024E-01
         0.47103E-01
         0.44785E-01
         0.49251E-01
         0.52804E-01
         0.54803E-01
         0.59823E-01
         0.57444E-01
         0.58999E-01
         0.53108E-01
         0.50437E-01
         0.53700E-01
         0.52397E-01
         0.53950E-01
         0.53504E-01
         0.96271E-02
         0.57620E-02
         0.54499E-02
         0.37604E-02
         0.99167E-02
         0.68505E-02
         0.30991E-02
         0.94790E-02
         0.59733E-02
         0.90495E-02
         0.43314E-02
         0.18649E-01
         0.14204E-01
         0.69680E-02
         0.19676E-01
         0.70052E-02
         0.35995E-02
         0.22093E-02
         0.47076E-02
         0.24978E-02
         0.14682E-01
         0.13758E-01
         0.13404E-01
         0.34848E-02
         0.58922E-02
         0.18138E-02
         0.66961E-02
         0.10218E-02
         0.25232E-02
         0.62787E-02
         0.59871E-02
         0.31548E-02
         0.38053E-02
         0.33526E-02
         0.12900E-01
         0.76823E-02
         0.99465E-02
         0.16106E-01
         0.12453E-01
         0.11526E-01
         0.16283E-01
         0.14743E-01
         0.14804E-01
         0.11456E-01
         0.10216E-01
         0.13985E-01
         0.91724E-02
         0.77936E-02
         0.63673E-02
         0.75173E-02
         0.12362E-01
         0.84283E-02
         0.54349E-01
         0.55698E-01
         0.58317E-01
         0.57898E-01
         0.61647E-01
         0.66112E-01
         0.63403E-01
         0.56435E-01
         0.55001E-01
         0.58844E-01
         0.57726E-01
         0.57028E-01
         0.47102E-01
         0.44784E-01
         0.49258E-01
         0.52822E-01
         0.54822E-01
         0.59837E-01
         0.57440E-01
         0.58995E-01
         0.53103E-01
         0.50435E-01
         0.53681E-01
         0.52363E-01
         0.53919E-01
         0.53476E-01
         0.96331E-02
         0.57620E-02
         0.54527E-02
         0.37658E-02
         0.99125E-02
         0.68466E-02
         0.31075E-02
         0.94855E-02
         0.59838E-02
         0.90721E-02
         0.43328E-02
         0.18649E-01
         0.14210E-01
         0.69518E-02
         0.19697E-01
         0.70122E-02
         0.36101E-02
         0.22035E-02
         0.47107E-02
         0.24922E-02
         0.14684E-01
         0.13758E-01
         0.13406E-01
         0.34844E-02
         0.59139E-02
         0.18121E-02
         0.66980E-02
         0.10147E-02
         0.25339E-02
         0.62870E-02
         0.59925E-02
         0.31529E-02
         0.37988E-02
         0.33555E-02
         0.12907E-01
         0.76809E-02
         0.99451E-02
         0.16132E-01
         0.12483E-01
         0.11544E-01
         0.16296E-01
         0.14752E-01
         0.14808E-01
         0.11460E-01
         0.10217E-01
         0.13987E-01
         0.91745E-02
         0.77948E-02
         0.63605E-02
         0.75078E-02
         0.12356E-01
         0.84157E-02
         0.54329E-01
         0.55685E-01
         0.58316E-01
         0.57899E-01
         0.61637E-01
         0.66090E-01
         0.63376E-01
         0.56419E-01
         0.54987E-01
         0.58826E-01
         0.57717E-01
         0.57031E-01
         0.47100E-01
         0.44784E-01
         0.49265E-01
         0.52840E-01
         0.54841E-01
         0.59851E-01
         0.57436E-01
         0.58992E-01
         0.53098E-01
         0.50433E-01
         0.53662E-01
         0.52329E-01
         0.53889E-01
         0.53448E-01
         0.96390E-02
         0.57619E-02
         0.54554E-02
         0.37713E-02
         0.99082E-02
         0.68427E-02
         0.31160E-02
         0.94920E-02
         0.59943E-02
         0.90947E-02
         0.43344E-02
         0.18649E-01
         0.14217E-01
         0.69356E-02
         0.19718E-01
         0.70191E-02
         0.36207E-02
         0.21977E-02
         0.47138E-02
         0.24868E-02
         0.14687E-01
         0.13758E-01
         0.13407E-01
         0.34841E-02
         0.59357E-02
         0.18104E-02
         0.66999E-02
         0.10078E-02
         0.25447E-02
         0.62954E-02
         0.59980E-02
         0.31510E-02
         0.37922E-02
         0.33584E-02
         0.12913E-01
         0.76798E-02
         0.99438E-02
         0.16158E-01
         0.12512E-01
         0.11562E-01
         0.16309E-01
         0.14761E-01
         0.14811E-01
         0.11463E-01
         0.10218E-01
         0.13989E-01
         0.91768E-02
         0.77962E-02
         0.63537E-02
         0.74982E-02
         0.12350E-01
         0.84030E-02
         0.54309E-01
         0.55672E-01
         0.58315E-01
         0.57899E-01
         0.61627E-01
         0.66067E-01
         0.63349E-01
         0.56404E-01
         0.54973E-01
         0.58808E-01
         0.57707E-01
         0.57035E-01
         0.47098E-01
         0.44783E-01
         0.49273E-01
         0.52857E-01
         0.54860E-01
         0.59865E-01
         0.57432E-01
         0.58988E-01
         0.53093E-01
         0.50431E-01
         0.53644E-01
         0.52295E-01
         0.53859E-01
         0.53419E-01
         0.96449E-02
         0.57618E-02
         0.54582E-02
         0.37767E-02
         0.99041E-02
         0.68389E-02
         0.31245E-02
         0.94984E-02
         0.60049E-02
         0.91173E-02
         0.43361E-02
         0.18649E-01
         0.14223E-01
         0.69195E-02
         0.19738E-01
         0.70260E-02
         0.36314E-02
         0.21919E-02
         0.47169E-02
         0.24812E-02
         0.14689E-01
         0.13758E-01
         0.13409E-01
         0.34838E-02
         0.59574E-02
         0.18087E-02
         0.67019E-02
         0.10011E-02
         0.25556E-02
         0.63037E-02
         0.60035E-02
         0.31492E-02
         0.37857E-02
         0.33613E-02
         0.12919E-01
         0.76785E-02
         0.99425E-02
         0.16183E-01
         0.12541E-01
         0.11580E-01
         0.16322E-01
         0.14770E-01
         0.14815E-01
         0.11466E-01
         0.10219E-01
         0.13992E-01
         0.91791E-02
         0.77974E-02
         0.63470E-02
         0.74887E-02
         0.12344E-01
         0.83905E-02
         0.54290E-01
         0.55659E-01
         0.58314E-01
         0.57899E-01
         0.61617E-01
         0.66044E-01
         0.63322E-01
         0.56389E-01
         0.54959E-01
         0.58790E-01
         0.57698E-01
         0.57039E-01
         0.47096E-01
         0.44782E-01
         0.49280E-01
         0.52875E-01
         0.54878E-01
         0.59878E-01
         0.57428E-01
         0.58984E-01
         0.53088E-01
         0.50428E-01
         0.53625E-01
         0.52260E-01
         0.53829E-01
         0.53391E-01
         0.96508E-02
         0.57618E-02
         0.54610E-02
         0.37822E-02
         0.98999E-02
         0.68350E-02
         0.31330E-02
         0.95049E-02
         0.60155E-02
         0.91398E-02
         0.43378E-02
         0.18649E-01
         0.14230E-01
         0.69034E-02
         0.19759E-01
         0.70330E-02
         0.36420E-02
         0.21861E-02
         0.47200E-02
         0.24758E-02
         0.14692E-01
         0.13758E-01
         0.13410E-01
         0.34835E-02
         0.59790E-02
         0.18071E-02
         0.67038E-02
         0.99464E-03
         0.25665E-02
         0.63120E-02
         0.60090E-02
         0.31473E-02
         0.37792E-02
         0.33643E-02
         0.12926E-01
         0.76773E-02
         0.99411E-02
         0.16209E-01
         0.12571E-01
         0.11598E-01
         0.16335E-01
         0.14779E-01
         0.14819E-01
         0.11469E-01
         0.10220E-01
         0.13994E-01
         0.91812E-02
         0.77988E-02
         0.63403E-02
         0.74792E-02
         0.12339E-01
         0.83778E-02
         0.54270E-01
         0.55645E-01
         0.58314E-01
         0.57899E-01
         0.61607E-01
         0.66022E-01
         0.63295E-01
         0.56374E-01
         0.54946E-01
         0.58771E-01
         0.57688E-01
         0.57043E-01
         0.47094E-01
         0.44781E-01
         0.49288E-01
         0.52892E-01
         0.54897E-01
         0.59892E-01
         0.57425E-01
         0.58981E-01
         0.53084E-01
         0.50426E-01
         0.53606E-01
         0.52226E-01
         0.53799E-01
         0.53362E-01
         0.96567E-02
         0.57617E-02
         0.54637E-02
         0.37877E-02
         0.98957E-02
         0.68311E-02
         0.31415E-02
         0.95114E-02
         0.60260E-02
         0.91623E-02
         0.43396E-02
         0.18649E-01
         0.14236E-01
         0.68872E-02
         0.19779E-01
         0.70399E-02
         0.36527E-02
         0.21802E-02
         0.47231E-02
         0.24702E-02
         0.14694E-01
         0.13758E-01
         0.13412E-01
         0.34832E-02
         0.60006E-02
         0.18055E-02
         0.67058E-02
         0.98838E-03
         0.25776E-02
         0.63202E-02
         0.60144E-02
         0.31454E-02
         0.37727E-02
         0.33672E-02
         0.12932E-01
         0.76763E-02
         0.99398E-02
         0.16234E-01
         0.12600E-01
         0.11616E-01
         0.16348E-01
         0.14788E-01
         0.14823E-01
         0.11473E-01
         0.10222E-01
         0.13996E-01
         0.91835E-02
         0.78000E-02
         0.63336E-02
         0.74697E-02
         0.12333E-01
         0.83652E-02
         0.54250E-01
         0.55632E-01
         0.58313E-01
         0.57900E-01
         0.61597E-01
         0.65999E-01
         0.63267E-01
         0.56358E-01
         0.54932E-01
         0.58753E-01
         0.57679E-01
         0.57046E-01
         0.47093E-01
         0.44780E-01
         0.49295E-01
         0.52910E-01
         0.54916E-01
         0.59906E-01
         0.57421E-01
         0.58977E-01
         0.53079E-01
         0.50423E-01
         0.53588E-01
         0.52192E-01
         0.53769E-01
         0.53334E-01
         0.96626E-02
         0.57617E-02
         0.54665E-02
         0.37932E-02
         0.98917E-02
         0.68272E-02
         0.31501E-02
         0.95178E-02
         0.60366E-02
         0.91848E-02
         0.43414E-02
         0.18649E-01
         0.14243E-01
         0.68711E-02
         0.19800E-01
         0.70468E-02
         0.36634E-02
         0.21744E-02
         0.47262E-02
         0.24648E-02
         0.14697E-01
         0.13758E-01
         0.13413E-01
         0.34829E-02
         0.60223E-02
         0.18038E-02
         0.67076E-02
         0.98238E-03
         0.25888E-02
         0.63284E-02
         0.60199E-02
         0.31436E-02
         0.37663E-02
         0.33701E-02
         0.12938E-01
         0.76751E-02
         0.99384E-02
         0.16260E-01
         0.12630E-01
         0.11634E-01
         0.16361E-01
         0.14797E-01
         0.14827E-01
         0.11476E-01
         0.10223E-01
         0.13998E-01
         0.91859E-02
         0.78013E-02
         0.63268E-02
         0.74602E-02
         0.12327E-01
         0.83527E-02
         0.54230E-01
         0.55619E-01
         0.58312E-01
         0.57900E-01
         0.61587E-01
         0.65977E-01
         0.63240E-01
         0.56343E-01
         0.54918E-01
         0.58734E-01
         0.57669E-01
         0.57050E-01
         0.47091E-01
         0.44779E-01
         0.49303E-01
         0.52927E-01
         0.54935E-01
         0.59920E-01
         0.57417E-01
         0.58973E-01
         0.53074E-01
         0.50421E-01
         0.53569E-01
         0.52158E-01
         0.53739E-01
         0.53306E-01
         0.96685E-02
         0.57617E-02
         0.54692E-02
         0.37987E-02
         0.98874E-02
         0.68233E-02
         0.31587E-02
         0.95242E-02
         0.60472E-02
         0.92072E-02
         0.43434E-02
         0.18650E-01
         0.14249E-01
         0.68550E-02
         0.19821E-01
         0.70537E-02
         0.36741E-02
         0.21686E-02
         0.47293E-02
         0.24593E-02
         0.14699E-01
         0.13758E-01
         0.13414E-01
         0.34827E-02
         0.60439E-02
         0.18022E-02
         0.67095E-02
         0.97655E-03
         0.26001E-02
         0.63367E-02
         0.60253E-02
         0.31417E-02
         0.37598E-02
         0.33730E-02
         0.12944E-01
         0.76740E-02
         0.99371E-02
         0.16286E-01
         0.12659E-01
         0.11652E-01
         0.16374E-01
         0.14806E-01
         0.14831E-01
         0.11479E-01
         0.10224E-01
         0.14001E-01
         0.91880E-02
         0.78026E-02
         0.63201E-02
         0.74506E-02
         0.12321E-01
         0.83400E-02
         0.54210E-01
         0.55606E-01
         0.58311E-01
         0.57900E-01
         0.61576E-01
         0.65954E-01
         0.63213E-01
         0.56327E-01
         0.54904E-01
         0.58715E-01
         0.57660E-01
         0.57054E-01
         0.47089E-01
         0.44779E-01
         0.49310E-01
         0.52945E-01
         0.54954E-01
         0.59934E-01
         0.57413E-01
         0.58970E-01
         0.53070E-01
         0.50419E-01
         0.53550E-01
         0.52124E-01
         0.53710E-01
         0.53277E-01
         0.96743E-02
         0.57615E-02
         0.54719E-02
         0.38042E-02
         0.98832E-02
         0.68195E-02
         0.31672E-02
         0.95306E-02
         0.60578E-02
         0.92297E-02
         0.43453E-02
         0.18650E-01
         0.14256E-01
         0.68390E-02
         0.19841E-01
         0.70606E-02
         0.36849E-02
         0.21629E-02
         0.47324E-02
         0.24539E-02
         0.14702E-01
         0.13758E-01
         0.13416E-01
         0.34824E-02
         0.60655E-02
         0.18006E-02
         0.67114E-02
         0.97094E-03
         0.26114E-02
         0.63449E-02
         0.60308E-02
         0.31398E-02
         0.37535E-02
         0.33760E-02
         0.12951E-01
         0.76728E-02
         0.99358E-02
         0.16312E-01
         0.12689E-01
         0.11670E-01
         0.16387E-01
         0.14815E-01
         0.14834E-01
         0.11482E-01
         0.10225E-01
         0.14003E-01
         0.91903E-02
         0.78039E-02
         0.63134E-02
         0.74411E-02
         0.12315E-01
         0.83274E-02
         0.54190E-01
         0.55593E-01
         0.58310E-01
         0.57901E-01
         0.61566E-01
         0.65931E-01
         0.63185E-01
         0.56312E-01
         0.54891E-01
         0.58697E-01
         0.57651E-01
         0.57058E-01
         0.47087E-01
         0.44778E-01
         0.49318E-01
         0.52963E-01
         0.54973E-01
         0.59948E-01
         0.57409E-01
         0.58966E-01
         0.53065E-01
         0.50416E-01
         0.53531E-01
         0.52089E-01
         0.53680E-01
         0.53249E-01
         0.96802E-02
         0.57615E-02
         0.54747E-02
         0.38097E-02
         0.98792E-02
         0.68156E-02
         0.31759E-02
         0.95371E-02
         0.60685E-02
         0.92521E-02
         0.43474E-02
         0.18650E-01
         0.14262E-01
         0.68228E-02
         0.19862E-01
         0.70676E-02
         0.36957E-02
         0.21571E-02
         0.47355E-02
         0.24484E-02
         0.14704E-01
         0.13757E-01
         0.13417E-01
         0.34822E-02
         0.60870E-02
         0.17989E-02
         0.67131E-02
         0.96544E-03
         0.26228E-02
         0.63530E-02
         0.60363E-02
         0.31380E-02
         0.37472E-02
         0.33789E-02
         0.12958E-01
         0.76716E-02
         0.99344E-02
         0.16338E-01
         0.12718E-01
         0.11688E-01
         0.16399E-01
         0.14823E-01
         0.14838E-01
         0.11485E-01
         0.10226E-01
         0.14005E-01
         0.91926E-02
         0.78053E-02
         0.63068E-02
         0.74316E-02
         0.12309E-01
         0.83150E-02
         0.54170E-01
         0.55580E-01
         0.58309E-01
         0.57901E-01
         0.61556E-01
         0.65908E-01
         0.63158E-01
         0.56296E-01
         0.54877E-01
         0.58677E-01
         0.57641E-01
         0.57062E-01
         0.47086E-01
         0.44777E-01
         0.49325E-01
         0.52980E-01
         0.54992E-01
         0.59961E-01
         0.57406E-01
         0.58962E-01
         0.53060E-01
         0.50414E-01
         0.53513E-01
         0.52055E-01
         0.53650E-01
         0.53220E-01
         0.96860E-02
         0.57614E-02
         0.54774E-02
         0.38153E-02
         0.98750E-02
         0.68117E-02
         0.31845E-02
         0.95434E-02
         0.60792E-02
         0.92743E-02
         0.43494E-02
         0.18650E-01
         0.14268E-01
         0.68067E-02
         0.19882E-01
         0.70745E-02
         0.37065E-02
         0.21513E-02
         0.47387E-02
         0.24432E-02
         0.14707E-01
         0.13757E-01
         0.13419E-01
         0.34819E-02
         0.61084E-02
         0.17974E-02
         0.67143E-02
         0.95991E-03
         0.26343E-02
         0.63607E-02
         0.60417E-02
         0.31361E-02
         0.37408E-02
         0.33819E-02
         0.12964E-01
         0.76707E-02
         0.99331E-02
         0.16363E-01
         0.12748E-01
         0.11705E-01
         0.16411E-01
         0.14831E-01
         0.14841E-01
         0.11489E-01
         0.10227E-01
         0.14007E-01
         0.91948E-02
         0.78066E-02
         0.63000E-02
         0.74221E-02
         0.12304E-01
         0.83023E-02
         0.54151E-01
         0.55567E-01
         0.58308E-01
         0.57901E-01
         0.61546E-01
         0.65886E-01
         0.63130E-01
         0.56281E-01
         0.54863E-01
         0.58658E-01
         0.57632E-01
         0.57068E-01
         0.47085E-01
         0.44776E-01
         0.49333E-01
         0.52997E-01
         0.55011E-01
         0.59975E-01
         0.57402E-01
         0.58959E-01
         0.53056E-01
         0.50412E-01
         0.53494E-01
         0.52021E-01
         0.53620E-01
         0.53192E-01
         0.96918E-02
         0.57614E-02
         0.54802E-02
         0.38208E-02
         0.98708E-02
         0.68078E-02
         0.31931E-02
         0.95497E-02
         0.60899E-02
         0.92963E-02
         0.43516E-02
         0.18650E-01
         0.14275E-01
         0.67904E-02
         0.19903E-01
         0.70813E-02
         0.37173E-02
         0.21455E-02
         0.47418E-02
         0.24379E-02
         0.14709E-01
         0.13757E-01
         0.13420E-01
         0.34817E-02
         0.61298E-02
         0.17958E-02
         0.67150E-02
         0.95432E-03
         0.26460E-02
         0.63679E-02
         0.60472E-02
         0.31343E-02
         0.37345E-02
         0.33849E-02
         0.12970E-01
         0.76695E-02
         0.99318E-02
         0.16389E-01
         0.12777E-01
         0.11722E-01
         0.16423E-01
         0.14838E-01
         0.14844E-01
         0.11492E-01
         0.10228E-01
         0.14010E-01
         0.91971E-02
         0.78079E-02
         0.62934E-02
         0.74125E-02
         0.12297E-01
         0.82896E-02
         0.54131E-01
         0.55554E-01
         0.58307E-01
         0.57901E-01
         0.61536E-01
         0.65863E-01
         0.63103E-01
         0.56266E-01
         0.54849E-01
         0.58637E-01
         0.57623E-01
         0.57075E-01
         0.47085E-01
         0.44776E-01
         0.49340E-01
         0.53015E-01
         0.55030E-01
         0.59989E-01
         0.57398E-01
         0.58955E-01
         0.53051E-01
         0.50409E-01
         0.53475E-01
         0.51987E-01
         0.53590E-01
         0.53164E-01
         0.96977E-02
         0.57614E-02
         0.54831E-02
         0.38264E-02
         0.98669E-02
         0.68041E-02
         0.32018E-02
         0.95560E-02
         0.61007E-02
         0.93183E-02
         0.43538E-02
         0.18650E-01
         0.14281E-01
         0.67741E-02
         0.19923E-01
         0.70882E-02
         0.37281E-02
         0.21397E-02
         0.47450E-02
         0.24328E-02
         0.14712E-01
         0.13757E-01
         0.13422E-01
         0.34816E-02
         0.61511E-02
         0.17943E-02
         0.67156E-02
         0.94876E-03
         0.26576E-02
         0.63751E-02
         0.60527E-02
         0.31325E-02
         0.37284E-02
         0.33879E-02
         0.12977E-01
         0.76685E-02
         0.99303E-02
         0.16415E-01
         0.12807E-01
         0.11738E-01
         0.16434E-01
         0.14845E-01
         0.14847E-01
         0.11495E-01
         0.10229E-01
         0.14012E-01
         0.91994E-02
         0.78093E-02
         0.62868E-02
         0.74030E-02
         0.12292E-01
         0.82772E-02
         0.54111E-01
         0.55541E-01
         0.58306E-01
         0.57901E-01
         0.61526E-01
         0.65840E-01
         0.63075E-01
         0.56251E-01
         0.54835E-01
         0.58616E-01
         0.57614E-01
         0.57083E-01
         0.47086E-01
         0.44775E-01
         0.49348E-01
         0.53032E-01
         0.55049E-01
         0.60003E-01
         0.57395E-01
         0.58951E-01
         0.53046E-01
         0.50407E-01
         0.53456E-01
         0.51953E-01
         0.53561E-01
         0.53136E-01
         0.98918E-02
         0.60540E-02
         0.57867E-02
         0.41747E-02
         0.10111E-01
         0.70910E-02
         0.37539E-02
         0.97952E-02
         0.63630E-02
         0.95764E-02
         0.48680E-02
         0.18885E-01
         0.14513E-01
         0.71336E-02
         0.20182E-01
         0.73095E-02
         0.41495E-02
         0.26447E-02
         0.51093E-02
         0.31058E-02
         0.14909E-01
         0.13962E-01
         0.13613E-01
         0.39120E-02
         0.64969E-02
         0.24656E-02
         0.70842E-02
         0.23108E-02
         0.34166E-02
         0.67200E-02
         0.63044E-02
         0.35941E-02
         0.40778E-02
         0.38080E-02
         0.13229E-01
         0.79617E-02
         0.10173E-01
         0.16680E-01
         0.13093E-01
         0.12020E-01
         0.16676E-01
         0.15076E-01
         0.15057E-01
         0.11695E-01
         0.10457E-01
         0.14249E-01
         0.94643E-02
         0.80737E-02
         0.65800E-02
         0.76773E-02
         0.12523E-01
         0.85304E-02
         0.54442E-01
         0.55872E-01
         0.58659E-01
         0.58244E-01
         0.61876E-01
         0.66206E-01
         0.63437E-01
         0.56612E-01
         0.55199E-01
         0.58988E-01
         0.57984E-01
         0.57441E-01
         0.47385E-01
         0.45054E-01
         0.49639E-01
         0.53340E-01
         0.55363E-01
         0.60348E-01
         0.57748E-01
         0.59309E-01
         0.53364E-01
         0.50711E-01
         0.53760E-01
         0.52241E-01
         0.53850E-01
         0.53425E-01
         0.23386E-01
         0.21064E-01
         0.20636E-01
         0.18281E-01
         0.25486E-01
         0.22253E-01
         0.21276E-01
         0.25244E-01
         0.20157E-01
         0.25036E-01
         0.23561E-01
         0.36514E-01
         0.30800E-01
         0.25312E-01
         0.38549E-01
         0.20574E-01
         0.19712E-01
         0.16902E-01
         0.20718E-01
         0.20789E-01
         0.29846E-01
         0.29393E-01
         0.28005E-01
         0.19485E-01
         0.23035E-01
         0.18355E-01
         0.25247E-01
         0.22894E-01
         0.23297E-01
         0.23811E-01
         0.19988E-01
         0.19281E-01
         0.18356E-01
         0.18951E-01
         0.29484E-01
         0.24005E-01
         0.25743E-01
         0.34817E-01
         0.31118E-01
         0.29979E-01
         0.34522E-01
         0.32158E-01
         0.31244E-01
         0.25900E-01
         0.25374E-01
         0.30308E-01
         0.25176E-01
         0.23175E-01
         0.21838E-01
         0.23164E-01
         0.28233E-01
         0.23790E-01
         0.76843E-01
         0.77924E-01
         0.81400E-01
         0.80649E-01
         0.85153E-01
         0.91022E-01
         0.88911E-01
         0.81641E-01
         0.80044E-01
         0.84336E-01
         0.82779E-01
         0.81058E-01
         0.68618E-01
         0.65331E-01
         0.69916E-01
         0.73643E-01
         0.75889E-01
         0.82263E-01
         0.80285E-01
         0.82173E-01
         0.74974E-01
         0.71786E-01
         0.75484E-01
         0.73861E-01
         0.75337E-01
         0.74596E-01
  
SCALARS                     nodal_mass  double 1
LOOKUP_TABLE default
         0.24608E-05
         0.19551E-05
         0.20945E-05
         0.35953E-05
         0.12304E-05
         0.97770E-06
         0.10472E-05
         0.17973E-05
         0.19315E-05
         0.24627E-05
         0.96570E-06
         0.12312E-05
         0.13823E-05
         0.16614E-05
         0.69133E-06
         0.83095E-06
         0.27274E-05
         0.20125E-05
         0.13635E-05
         0.10066E-05
         0.81737E-06
         0.15393E-05
         0.16929E-05
         0.40889E-06
         0.76975E-06
         0.84649E-06
         0.13859E-05
         0.17532E-05
         0.69345E-06
         0.87672E-06
         0.32470E-05
         0.25355E-05
         0.32225E-05
         0.16233E-05
         0.12675E-05
         0.16109E-05
         0.18980E-05
         0.21673E-05
         0.94902E-06
         0.10836E-05
         0.20482E-05
         0.22683E-05
         0.10242E-05
         0.11342E-05
         0.17426E-05
         0.10823E-05
         0.87140E-06
         0.54121E-06
         0.20598E-05
         0.10301E-05
         0.17103E-05
         0.85523E-06
         0.17977E-05
         0.89958E-06
         0.18362E-05
         0.91859E-06
         0.15911E-05
         0.19369E-05
         0.79575E-06
         0.96860E-06
         0.24553E-05
         0.17361E-05
         0.12277E-05
         0.86816E-06
         0.27409E-05
         0.13702E-05
         0.23792E-05
         0.11891E-05
         0.10821E-05
         0.16705E-05
         0.54106E-06
         0.83538E-06
         0.18955E-05
         0.94787E-06
         0.20026E-05
         0.10014E-05
         0.19316E-05
         0.96578E-06
         0.15181E-05
         0.75906E-06
         0.95443E-06
         0.15782E-05
         0.47723E-06
         0.78918E-06
         0.20886E-05
         0.10443E-05
         0.16867E-05
         0.84342E-06
         0.14838E-05
         0.74203E-06
         0.97224E-06
         0.16569E-05
         0.48620E-06
         0.82849E-06
         0.22482E-05
         0.11241E-05
         0.23568E-05
         0.11783E-05
         0.19018E-05
         0.95085E-06
         0.11709E-05
         0.20091E-05
         0.58544E-06
         0.10044E-05
         0.74681E-06
         0.94889E-06
         0.37348E-06
         0.47447E-06
         0.88885E-06
         0.44455E-06
         0.10466E-05
         0.52333E-06
         0.10205E-05
         0.51021E-06
         0.99108E-06
         0.49550E-06
         0.10560E-05
         0.52791E-06
         0.11142E-05
         0.55694E-06
         0.10497E-05
         0.52469E-06
         0.82085E-06
         0.41039E-06
         0.66950E-06
         0.33475E-06
         0.86397E-06
         0.43199E-06
         0.11504E-05
         0.57519E-06
         0.12637E-05
         0.63182E-06
         0.12132E-05
         0.60658E-06
         0.10948E-05
         0.54745E-06
         0.99429E-06
         0.49718E-06
         0.80759E-06
         0.40382E-06
         0.67982E-06
         0.33995E-06
         0.88797E-06
         0.44401E-06
         0.11753E-05
         0.58766E-06
         0.12140E-05
         0.60702E-06
         0.98236E-06
         0.49125E-06
         0.79766E-06
         0.39889E-06
         0.97540E-06
         0.48769E-06
         0.11548E-05
         0.57743E-06
         0.24609E-05
         0.19547E-05
         0.20946E-05
         0.35969E-05
         0.19318E-05
         0.24634E-05
         0.13815E-05
         0.16603E-05
         0.27283E-05
         0.20111E-05
         0.81658E-06
         0.15390E-05
         0.16927E-05
         0.13839E-05
         0.17528E-05
         0.32479E-05
         0.25367E-05
         0.32241E-05
         0.18980E-05
         0.21675E-05
         0.20481E-05
         0.22684E-05
         0.17424E-05
         0.10822E-05
         0.20589E-05
         0.17102E-05
         0.17950E-05
         0.18344E-05
         0.15904E-05
         0.19365E-05
         0.24555E-05
         0.17359E-05
         0.27423E-05
         0.23814E-05
         0.10820E-05
         0.16702E-05
         0.18953E-05
         0.20025E-05
         0.19317E-05
         0.15181E-05
         0.95442E-06
         0.15780E-05
         0.20884E-05
         0.16864E-05
         0.14835E-05
         0.97197E-06
         0.16567E-05
         0.22482E-05
         0.23571E-05
         0.19022E-05
         0.11709E-05
         0.20101E-05
         0.74658E-06
         0.94886E-06
         0.88841E-06
         0.10467E-05
         0.10207E-05
         0.99128E-06
         0.10565E-05
         0.11150E-05
         0.10503E-05
         0.82102E-06
         0.66954E-06
         0.86398E-06
         0.11506E-05
         0.12640E-05
         0.12133E-05
         0.10948E-05
         0.99421E-06
         0.80751E-06
         0.67970E-06
         0.88789E-06
         0.11752E-05
         0.12140E-05
         0.98215E-06
         0.79747E-06
         0.97551E-06
         0.11548E-05
         0.24611E-05
         0.19543E-05
         0.20949E-05
         0.35987E-05
         0.19321E-05
         0.24642E-05
         0.13808E-05
         0.16594E-05
         0.27293E-05
         0.20098E-05
         0.81582E-06
         0.15388E-05
         0.16927E-05
         0.13821E-05
         0.17525E-05
         0.32489E-05
         0.25379E-05
         0.32257E-05
         0.18982E-05
         0.21678E-05
         0.20480E-05
         0.22685E-05
         0.17423E-05
         0.10821E-05
         0.20580E-05
         0.17101E-05
         0.17924E-05
         0.18326E-05
         0.15898E-05
         0.19361E-05
         0.24558E-05
         0.17357E-05
         0.27438E-05
         0.23836E-05
         0.10821E-05
         0.16699E-05
         0.18951E-05
         0.20024E-05
         0.19318E-05
         0.15183E-05
         0.95445E-06
         0.15778E-05
         0.20884E-05
         0.16862E-05
         0.14831E-05
         0.97174E-06
         0.16566E-05
         0.22483E-05
         0.23575E-05
         0.19026E-05
         0.11709E-05
         0.20112E-05
         0.74636E-06
         0.94886E-06
         0.88800E-06
         0.10467E-05
         0.10210E-05
         0.99152E-06
         0.10570E-05
         0.11159E-05
         0.10509E-05
         0.82122E-06
         0.66961E-06
         0.86402E-06
         0.11507E-05
         0.12643E-05
         0.12135E-05
         0.10948E-05
         0.99417E-06
         0.80747E-06
         0.67961E-06
         0.88784E-06
         0.11752E-05
         0.12140E-05
         0.98197E-06
         0.79731E-06
         0.97565E-06
         0.11548E-05
         0.24612E-05
         0.19539E-05
         0.20950E-05
         0.36004E-05
         0.19324E-05
         0.24650E-05
         0.13801E-05
         0.16584E-05
         0.27303E-05
         0.20085E-05
         0.81504E-06
         0.15385E-05
         0.16925E-05
         0.13801E-05
         0.17521E-05
         0.32498E-05
         0.25390E-05
         0.32274E-05
         0.18982E-05
         0.21681E-05
         0.20479E-05
         0.22686E-05
         0.17421E-05
         0.10820E-05
         0.20571E-05
         0.17099E-05
         0.17897E-05
         0.18308E-05
         0.15891E-05
         0.19356E-05
         0.24561E-05
         0.17355E-05
         0.27453E-05
         0.23857E-05
         0.10820E-05
         0.16696E-05
         0.18948E-05
         0.20022E-05
         0.19320E-05
         0.15183E-05
         0.95445E-06
         0.15776E-05
         0.20883E-05
         0.16859E-05
         0.14828E-05
         0.97149E-06
         0.16564E-05
         0.22483E-05
         0.23578E-05
         0.19030E-05
         0.11710E-05
         0.20122E-05
         0.74613E-06
         0.94884E-06
         0.88756E-06
         0.10467E-05
         0.10212E-05
         0.99173E-06
         0.10574E-05
         0.11167E-05
         0.10515E-05
         0.82140E-06
         0.66966E-06
         0.86404E-06
         0.11509E-05
         0.12646E-05
         0.12136E-05
         0.10947E-05
         0.99410E-06
         0.80740E-06
         0.67950E-06
         0.88777E-06
         0.11752E-05
         0.12140E-05
         0.98177E-06
         0.79713E-06
         0.97576E-06
         0.11547E-05
         0.24613E-05
         0.19535E-05
         0.20952E-05
         0.36022E-05
         0.19327E-05
         0.24657E-05
         0.13794E-05
         0.16574E-05
         0.27313E-05
         0.20072E-05
         0.81426E-06
         0.15382E-05
         0.16924E-05
         0.13782E-05
         0.17517E-05
         0.32508E-05
         0.25402E-05
         0.32290E-05
         0.18983E-05
         0.21684E-05
         0.20479E-05
         0.22687E-05
         0.17420E-05
         0.10819E-05
         0.20563E-05
         0.17098E-05
         0.17870E-05
         0.18290E-05
         0.15884E-05
         0.19352E-05
         0.24563E-05
         0.17353E-05
         0.27467E-05
         0.23879E-05
         0.10820E-05
         0.16693E-05
         0.18946E-05
         0.20021E-05
         0.19321E-05
         0.15184E-05
         0.95445E-06
         0.15773E-05
         0.20882E-05
         0.16857E-05
         0.14824E-05
         0.97124E-06
         0.16563E-05
         0.22484E-05
         0.23582E-05
         0.19034E-05
         0.11710E-05
         0.20132E-05
         0.74590E-06
         0.94883E-06
         0.88713E-06
         0.10468E-05
         0.10215E-05
         0.99194E-06
         0.10579E-05
         0.11175E-05
         0.10521E-05
         0.82159E-06
         0.66972E-06
         0.86406E-06
         0.11510E-05
         0.12649E-05
         0.12138E-05
         0.10947E-05
         0.99404E-06
         0.80734E-06
         0.67940E-06
         0.88771E-06
         0.11752E-05
         0.12140E-05
         0.98157E-06
         0.79696E-06
         0.97588E-06
         0.11547E-05
         0.24615E-05
         0.19531E-05
         0.20954E-05
         0.36039E-05
         0.19331E-05
         0.24665E-05
         0.13787E-05
         0.16564E-05
         0.27322E-05
         0.20059E-05
         0.81349E-06
         0.15380E-05
         0.16923E-05
         0.13763E-05
         0.17514E-05
         0.32518E-05
         0.25414E-05
         0.32306E-05
         0.18984E-05
         0.21687E-05
         0.20478E-05
         0.22688E-05
         0.17418E-05
         0.10818E-05
         0.20554E-05
         0.17096E-05
         0.17843E-05
         0.18272E-05
         0.15878E-05
         0.19347E-05
         0.24566E-05
         0.17351E-05
         0.27482E-05
         0.23901E-05
         0.10820E-05
         0.16690E-05
         0.18943E-05
         0.20019E-05
         0.19322E-05
         0.15185E-05
         0.95446E-06
         0.15771E-05
         0.20881E-05
         0.16855E-05
         0.14821E-05
         0.97100E-06
         0.16562E-05
         0.22484E-05
         0.23586E-05
         0.19038E-05
         0.11710E-05
         0.20142E-05
         0.74568E-06
         0.94882E-06
         0.88671E-06
         0.10468E-05
         0.10217E-05
         0.99216E-06
         0.10583E-05
         0.11183E-05
         0.10528E-05
         0.82178E-06
         0.66977E-06
         0.86408E-06
         0.11512E-05
         0.12652E-05
         0.12139E-05
         0.10947E-05
         0.99398E-06
         0.80728E-06
         0.67930E-06
         0.88766E-06
         0.11752E-05
         0.12140E-05
         0.98138E-06
         0.79679E-06
         0.97601E-06
         0.11547E-05
         0.24616E-05
         0.19527E-05
         0.20956E-05
         0.36056E-05
         0.19334E-05
         0.24672E-05
         0.13779E-05
         0.16554E-05
         0.27332E-05
         0.20046E-05
         0.81271E-06
         0.15377E-05
         0.16922E-05
         0.13744E-05
         0.17510E-05
         0.32527E-05
         0.25425E-05
         0.32322E-05
         0.18984E-05
         0.21689E-05
         0.20477E-05
         0.22689E-05
         0.17416E-05
         0.10816E-05
         0.20545E-05
         0.17095E-05
         0.17817E-05
         0.18254E-05
         0.15871E-05
         0.19343E-05
         0.24568E-05
         0.17349E-05
         0.27496E-05
         0.23922E-05
         0.10820E-05
         0.16686E-05
         0.18941E-05
         0.20018E-05
         0.19324E-05
         0.15186E-05
         0.95446E-06
         0.15769E-05
         0.20880E-05
         0.16852E-05
         0.14817E-05
         0.97074E-06
         0.16560E-05
         0.22484E-05
         0.23589E-05
         0.19042E-05
         0.11710E-05
         0.20152E-05
         0.74544E-06
         0.94880E-06
         0.88627E-06
         0.10469E-05
         0.10219E-05
         0.99237E-06
         0.10588E-05
         0.11191E-05
         0.10534E-05
         0.82196E-06
         0.66982E-06
         0.86410E-06
         0.11513E-05
         0.12654E-05
         0.12140E-05
         0.10947E-05
         0.99391E-06
         0.80721E-06
         0.67919E-06
         0.88759E-06
         0.11751E-05
         0.12140E-05
         0.98118E-06
         0.79661E-06
         0.97612E-06
         0.11546E-05
         0.24618E-05
         0.19523E-05
         0.20957E-05
         0.36073E-05
         0.19337E-05
         0.24680E-05
         0.13772E-05
         0.16545E-05
         0.27341E-05
         0.20033E-05
         0.81194E-06
         0.15374E-05
         0.16921E-05
         0.13725E-05
         0.17506E-05
         0.32537E-05
         0.25437E-05
         0.32339E-05
         0.18985E-05
         0.21692E-05
         0.20476E-05
         0.22690E-05
         0.17414E-05
         0.10815E-05
         0.20536E-05
         0.17093E-05
         0.17790E-05
         0.18236E-05
         0.15864E-05
         0.19339E-05
         0.24571E-05
         0.17347E-05
         0.27511E-05
         0.23944E-05
         0.10820E-05
         0.16683E-05
         0.18938E-05
         0.20016E-05
         0.19325E-05
         0.15186E-05
         0.95446E-06
         0.15767E-05
         0.20878E-05
         0.16850E-05
         0.14814E-05
         0.97050E-06
         0.16559E-05
         0.22484E-05
         0.23593E-05
         0.19046E-05
         0.11711E-05
         0.20162E-05
         0.74522E-06
         0.94878E-06
         0.88584E-06
         0.10469E-05
         0.10222E-05
         0.99258E-06
         0.10593E-05
         0.11199E-05
         0.10540E-05
         0.82215E-06
         0.66988E-06
         0.86413E-06
         0.11515E-05
         0.12657E-05
         0.12142E-05
         0.10946E-05
         0.99385E-06
         0.80715E-06
         0.67909E-06
         0.88752E-06
         0.11751E-05
         0.12140E-05
         0.98098E-06
         0.79643E-06
         0.97624E-06
         0.11546E-05
         0.24619E-05
         0.19519E-05
         0.20959E-05
         0.36091E-05
         0.19340E-05
         0.24688E-05
         0.13765E-05
         0.16535E-05
         0.27351E-05
         0.20020E-05
         0.81117E-06
         0.15372E-05
         0.16920E-05
         0.13706E-05
         0.17503E-05
         0.32546E-05
         0.25448E-05
         0.32355E-05
         0.18986E-05
         0.21695E-05
         0.20475E-05
         0.22691E-05
         0.17413E-05
         0.10814E-05
         0.20527E-05
         0.17092E-05
         0.17763E-05
         0.18219E-05
         0.15858E-05
         0.19334E-05
         0.24573E-05
         0.17345E-05
         0.27525E-05
         0.23966E-05
         0.10820E-05
         0.16680E-05
         0.18936E-05
         0.20015E-05
         0.19326E-05
         0.15187E-05
         0.95447E-06
         0.15765E-05
         0.20878E-05
         0.16848E-05
         0.14810E-05
         0.97025E-06
         0.16557E-05
         0.22485E-05
         0.23597E-05
         0.19050E-05
         0.11711E-05
         0.20172E-05
         0.74499E-06
         0.94877E-06
         0.88541E-06
         0.10469E-05
         0.10224E-05
         0.99280E-06
         0.10597E-05
         0.11207E-05
         0.10546E-05
         0.82234E-06
         0.66994E-06
         0.86415E-06
         0.11517E-05
         0.12660E-05
         0.12143E-05
         0.10946E-05
         0.99379E-06
         0.80709E-06
         0.67898E-06
         0.88746E-06
         0.11751E-05
         0.12140E-05
         0.98079E-06
         0.79626E-06
         0.97636E-06
         0.11546E-05
         0.24621E-05
         0.19515E-05
         0.20961E-05
         0.36108E-05
         0.19343E-05
         0.24695E-05
         0.13758E-05
         0.16525E-05
         0.27361E-05
         0.20006E-05
         0.81039E-06
         0.15369E-05
         0.16919E-05
         0.13686E-05
         0.17499E-05
         0.32556E-05
         0.25460E-05
         0.32371E-05
         0.18986E-05
         0.21697E-05
         0.20474E-05
         0.22692E-05
         0.17411E-05
         0.10813E-05
         0.20519E-05
         0.17091E-05
         0.17736E-05
         0.18201E-05
         0.15851E-05
         0.19330E-05
         0.24575E-05
         0.17342E-05
         0.27540E-05
         0.23987E-05
         0.10820E-05
         0.16677E-05
         0.18933E-05
         0.20014E-05
         0.19328E-05
         0.15188E-05
         0.95448E-06
         0.15763E-05
         0.20876E-05
         0.16845E-05
         0.14807E-05
         0.97000E-06
         0.16556E-05
         0.22485E-05
         0.23600E-05
         0.19053E-05
         0.11711E-05
         0.20182E-05
         0.74476E-06
         0.94875E-06
         0.88498E-06
         0.10470E-05
         0.10227E-05
         0.99301E-06
         0.10602E-05
         0.11215E-05
         0.10553E-05
         0.82252E-06
         0.66999E-06
         0.86417E-06
         0.11518E-05
         0.12663E-05
         0.12145E-05
         0.10946E-05
         0.99373E-06
         0.80702E-06
         0.67888E-06
         0.88740E-06
         0.11751E-05
         0.12140E-05
         0.98058E-06
         0.79608E-06
         0.97648E-06
         0.11546E-05
         0.24622E-05
         0.19511E-05
         0.20963E-05
         0.36125E-05
         0.19346E-05
         0.24703E-05
         0.13751E-05
         0.16515E-05
         0.27370E-05
         0.19993E-05
         0.80962E-06
         0.15366E-05
         0.16917E-05
         0.13667E-05
         0.17495E-05
         0.32565E-05
         0.25471E-05
         0.32388E-05
         0.18987E-05
         0.21700E-05
         0.20473E-05
         0.22693E-05
         0.17409E-05
         0.10812E-05
         0.20510E-05
         0.17089E-05
         0.17710E-05
         0.18183E-05
         0.15844E-05
         0.19325E-05
         0.24578E-05
         0.17340E-05
         0.27554E-05
         0.24009E-05
         0.10820E-05
         0.16674E-05
         0.18931E-05
         0.20012E-05
         0.19329E-05
         0.15189E-05
         0.95448E-06
         0.15760E-05
         0.20875E-05
         0.16843E-05
         0.14803E-05
         0.96975E-06
         0.16555E-05
         0.22485E-05
         0.23604E-05
         0.19057E-05
         0.11712E-05
         0.20192E-05
         0.74453E-06
         0.94874E-06
         0.88455E-06
         0.10470E-05
         0.10229E-05
         0.99322E-06
         0.10606E-05
         0.11223E-05
         0.10559E-05
         0.82270E-06
         0.67004E-06
         0.86419E-06
         0.11520E-05
         0.12666E-05
         0.12146E-05
         0.10945E-05
         0.99366E-06
         0.80696E-06
         0.67877E-06
         0.88733E-06
         0.11751E-05
         0.12140E-05
         0.98038E-06
         0.79590E-06
         0.97660E-06
         0.11545E-05
         0.24623E-05
         0.19507E-05
         0.20964E-05
         0.36142E-05
         0.19349E-05
         0.24710E-05
         0.13743E-05
         0.16505E-05
         0.27380E-05
         0.19980E-05
         0.80885E-06
         0.15364E-05
         0.16916E-05
         0.13648E-05
         0.17492E-05
         0.32575E-05
         0.25483E-05
         0.32404E-05
         0.18988E-05
         0.21703E-05
         0.20473E-05
         0.22694E-05
         0.17407E-05
         0.10811E-05
         0.20501E-05
         0.17088E-05
         0.17683E-05
         0.18165E-05
         0.15837E-05
         0.19321E-05
         0.24580E-05
         0.17338E-05
         0.27569E-05
         0.24031E-05
         0.10820E-05
         0.16670E-05
         0.18928E-05
         0.20011E-05
         0.19330E-05
         0.15189E-05
         0.95448E-06
         0.15758E-05
         0.20874E-05
         0.16840E-05
         0.14800E-05
         0.96950E-06
         0.16553E-05
         0.22485E-05
         0.23608E-05
         0.19061E-05
         0.11712E-05
         0.20202E-05
         0.74430E-06
         0.94872E-06
         0.88412E-06
         0.10470E-05
         0.10231E-05
         0.99344E-06
         0.10611E-05
         0.11231E-05
         0.10565E-05
         0.82289E-06
         0.67009E-06
         0.86422E-06
         0.11521E-05
         0.12669E-05
         0.12147E-05
         0.10945E-05
         0.99360E-06
         0.80690E-06
         0.67867E-06
         0.88727E-06
         0.11750E-05
         0.12140E-05
         0.98019E-06
         0.79573E-06
         0.97672E-06
         0.11545E-05
         0.24625E-05
         0.19503E-05
         0.20966E-05
         0.36160E-05
         0.19352E-05
         0.24718E-05
         0.13736E-05
         0.16496E-05
         0.27389E-05
         0.19967E-05
         0.80807E-06
         0.15361E-05
         0.16915E-05
         0.13629E-05
         0.17488E-05
         0.32584E-05
         0.25495E-05
         0.32420E-05
         0.18988E-05
         0.21705E-05
         0.20472E-05
         0.22695E-05
         0.17406E-05
         0.10810E-05
         0.20492E-05
         0.17086E-05
         0.17656E-05
         0.18147E-05
         0.15831E-05
         0.19317E-05
         0.24583E-05
         0.17336E-05
         0.27583E-05
         0.24053E-05
         0.10820E-05
         0.16667E-05
         0.18926E-05
         0.20009E-05
         0.19331E-05
         0.15190E-05
         0.95449E-06
         0.15756E-05
         0.20873E-05
         0.16838E-05
         0.14796E-05
         0.96925E-06
         0.16552E-05
         0.22486E-05
         0.23611E-05
         0.19065E-05
         0.11712E-05
         0.20212E-05
         0.74407E-06
         0.94870E-06
         0.88368E-06
         0.10471E-05
         0.10234E-05
         0.99365E-06
         0.10616E-05
         0.11239E-05
         0.10571E-05
         0.82307E-06
         0.67014E-06
         0.86424E-06
         0.11523E-05
         0.12672E-05
         0.12149E-05
         0.10945E-05
         0.99354E-06
         0.80683E-06
         0.67856E-06
         0.88721E-06
         0.11750E-05
         0.12140E-05
         0.97999E-06
         0.79555E-06
         0.97684E-06
         0.11545E-05
         0.24626E-05
         0.19499E-05
         0.20968E-05
         0.36177E-05
         0.19355E-05
         0.24725E-05
         0.13729E-05
         0.16486E-05
         0.27399E-05
         0.19954E-05
         0.80730E-06
         0.15358E-05
         0.16914E-05
         0.13610E-05
         0.17484E-05
         0.32594E-05
         0.25506E-05
         0.32437E-05
         0.18989E-05
         0.21708E-05
         0.20471E-05
         0.22696E-05
         0.17404E-05
         0.10808E-05
         0.20483E-05
         0.17085E-05
         0.17629E-05
         0.18129E-05
         0.15824E-05
         0.19312E-05
         0.24585E-05
         0.17334E-05
         0.27598E-05
         0.24074E-05
         0.10820E-05
         0.16664E-05
         0.18923E-05
         0.20008E-05
         0.19333E-05
         0.15191E-05
         0.95449E-06
         0.15754E-05
         0.20872E-05
         0.16835E-05
         0.14793E-05
         0.96901E-06
         0.16550E-05
         0.22486E-05
         0.23615E-05
         0.19069E-05
         0.11713E-05
         0.20222E-05
         0.74384E-06
         0.94869E-06
         0.88325E-06
         0.10471E-05
         0.10236E-05
         0.99386E-06
         0.10620E-05
         0.11247E-05
         0.10577E-05
         0.82326E-06
         0.67020E-06
         0.86426E-06
         0.11524E-05
         0.12674E-05
         0.12150E-05
         0.10944E-05
         0.99348E-06
         0.80677E-06
         0.67846E-06
         0.88714E-06
         0.11750E-05
         0.12140E-05
         0.97979E-06
         0.79538E-06
         0.97696E-06
         0.11544E-05
         0.24628E-05
         0.19495E-05
         0.20970E-05
         0.36194E-05
         0.19358E-05
         0.24733E-05
         0.13722E-05
         0.16476E-05
         0.27409E-05
         0.19941E-05
         0.80652E-06
         0.15355E-05
         0.16913E-05
         0.13591E-05
         0.17481E-05
         0.32604E-05
         0.25518E-05
         0.32453E-05
         0.18990E-05
         0.21711E-05
         0.20470E-05
         0.22697E-05
         0.17402E-05
         0.10807E-05
         0.20474E-05
         0.17084E-05
         0.17603E-05
         0.18111E-05
         0.15817E-05
         0.19308E-05
         0.24588E-05
         0.17332E-05
         0.27613E-05
         0.24096E-05
         0.10819E-05
         0.16661E-05
         0.18921E-05
         0.20006E-05
         0.19334E-05
         0.15192E-05
         0.95450E-06
         0.15752E-05
         0.20871E-05
         0.16833E-05
         0.14789E-05
         0.96876E-06
         0.16549E-05
         0.22486E-05
         0.23619E-05
         0.19073E-05
         0.11713E-05
         0.20232E-05
         0.74362E-06
         0.94868E-06
         0.88282E-06
         0.10472E-05
         0.10238E-05
         0.99408E-06
         0.10625E-05
         0.11255E-05
         0.10584E-05
         0.82345E-06
         0.67025E-06
         0.86428E-06
         0.11526E-05
         0.12677E-05
         0.12152E-05
         0.10944E-05
         0.99342E-06
         0.80671E-06
         0.67836E-06
         0.88709E-06
         0.11750E-05
         0.12140E-05
         0.97959E-06
         0.79521E-06
         0.97708E-06
         0.11544E-05
         0.24629E-05
         0.19491E-05
         0.20972E-05
         0.36212E-05
         0.19361E-05
         0.24741E-05
         0.13715E-05
         0.16466E-05
         0.27418E-05
         0.19928E-05
         0.80575E-06
         0.15353E-05
         0.16912E-05
         0.13572E-05
         0.17477E-05
         0.32613E-05
         0.25529E-05
         0.32469E-05
         0.18990E-05
         0.21714E-05
         0.20469E-05
         0.22698E-05
         0.17400E-05
         0.10806E-05
         0.20466E-05
         0.17082E-05
         0.17576E-05
         0.18093E-05
         0.15810E-05
         0.19303E-05
         0.24590E-05
         0.17330E-05
         0.27627E-05
         0.24118E-05
         0.10819E-05
         0.16658E-05
         0.18919E-05
         0.20005E-05
         0.19335E-05
         0.15192E-05
         0.95450E-06
         0.15750E-05
         0.20870E-05
         0.16831E-05
         0.14786E-05
         0.96851E-06
         0.16548E-05
         0.22487E-05
         0.23622E-05
         0.19077E-05
         0.11713E-05
         0.20242E-05
         0.74339E-06
         0.94866E-06
         0.88239E-06
         0.10472E-05
         0.10241E-05
         0.99429E-06
         0.10630E-05
         0.11263E-05
         0.10590E-05
         0.82363E-06
         0.67030E-06
         0.86430E-06
         0.11527E-05
         0.12680E-05
         0.12153E-05
         0.10944E-05
         0.99335E-06
         0.80665E-06
         0.67825E-06
         0.88702E-06
         0.11749E-05
         0.12140E-05
         0.97939E-06
         0.79503E-06
         0.97720E-06
         0.11544E-05
         0.24631E-05
         0.19487E-05
         0.20973E-05
         0.36229E-05
         0.19364E-05
         0.24748E-05
         0.13707E-05
         0.16456E-05
         0.27428E-05
         0.19915E-05
         0.80498E-06
         0.15350E-05
         0.16911E-05
         0.13553E-05
         0.17473E-05
         0.32623E-05
         0.25541E-05
         0.32486E-05
         0.18991E-05
         0.21716E-05
         0.20468E-05
         0.22699E-05
         0.17399E-05
         0.10805E-05
         0.20457E-05
         0.17081E-05
         0.17549E-05
         0.18075E-05
         0.15804E-05
         0.19299E-05
         0.24592E-05
         0.17328E-05
         0.27642E-05
         0.24140E-05
         0.10819E-05
         0.16654E-05
         0.18916E-05
         0.20003E-05
         0.19337E-05
         0.15193E-05
         0.95450E-06
         0.15748E-05
         0.20869E-05
         0.16828E-05
         0.14782E-05
         0.96826E-06
         0.16546E-05
         0.22487E-05
         0.23626E-05
         0.19081E-05
         0.11714E-05
         0.20253E-05
         0.74316E-06
         0.94864E-06
         0.88196E-06
         0.10472E-05
         0.10243E-05
         0.99450E-06
         0.10634E-05
         0.11271E-05
         0.10596E-05
         0.82381E-06
         0.67036E-06
         0.86432E-06
         0.11529E-05
         0.12683E-05
         0.12154E-05
         0.10943E-05
         0.99329E-06
         0.80658E-06
         0.67815E-06
         0.88696E-06
         0.11749E-05
         0.12140E-05
         0.97919E-06
         0.79485E-06
         0.97732E-06
         0.11544E-05
         0.24632E-05
         0.19483E-05
         0.20975E-05
         0.36246E-05
         0.19368E-05
         0.24756E-05
         0.13700E-05
         0.16447E-05
         0.27437E-05
         0.19902E-05
         0.80421E-06
         0.15347E-05
         0.16910E-05
         0.13534E-05
         0.17470E-05
         0.32632E-05
         0.25552E-05
         0.32502E-05
         0.18992E-05
         0.21719E-05
         0.20467E-05
         0.22700E-05
         0.17397E-05
         0.10804E-05
         0.20448E-05
         0.17079E-05
         0.17523E-05
         0.18057E-05
         0.15797E-05
         0.19295E-05
         0.24595E-05
         0.17326E-05
         0.27656E-05
         0.24161E-05
         0.10819E-05
         0.16651E-05
         0.18914E-05
         0.20002E-05
         0.19338E-05
         0.15194E-05
         0.95451E-06
         0.15745E-05
         0.20868E-05
         0.16826E-05
         0.14779E-05
         0.96801E-06
         0.16545E-05
         0.22487E-05
         0.23630E-05
         0.19085E-05
         0.11714E-05
         0.20263E-05
         0.74293E-06
         0.94863E-06
         0.88153E-06
         0.10473E-05
         0.10245E-05
         0.99472E-06
         0.10639E-05
         0.11279E-05
         0.10602E-05
         0.82400E-06
         0.67041E-06
         0.86435E-06
         0.11530E-05
         0.12686E-05
         0.12156E-05
         0.10943E-05
         0.99323E-06
         0.80652E-06
         0.67804E-06
         0.88690E-06
         0.11749E-05
         0.12140E-05
         0.97900E-06
         0.79468E-06
         0.97744E-06
         0.11543E-05
         0.24633E-05
         0.19479E-05
         0.20977E-05
         0.36264E-05
         0.19371E-05
         0.24763E-05
         0.13693E-05
         0.16437E-05
         0.27447E-05
         0.19888E-05
         0.80343E-06
         0.15345E-05
         0.16908E-05
         0.13515E-05
         0.17466E-05
         0.32642E-05
         0.25564E-05
         0.32518E-05
         0.18992E-05
         0.21722E-05
         0.20466E-05
         0.22701E-05
         0.17395E-05
         0.10803E-05
         0.20439E-05
         0.17078E-05
         0.17496E-05
         0.18039E-05
         0.15790E-05
         0.19290E-05
         0.24597E-05
         0.17323E-05
         0.27671E-05
         0.24183E-05
         0.10819E-05
         0.16648E-05
         0.18911E-05
         0.20001E-05
         0.19339E-05
         0.15195E-05
         0.95452E-06
         0.15743E-05
         0.20867E-05
         0.16823E-05
         0.14775E-05
         0.96776E-06
         0.16543E-05
         0.22487E-05
         0.23633E-05
         0.19089E-05
         0.11714E-05
         0.20273E-05
         0.74270E-06
         0.94861E-06
         0.88109E-06
         0.10473E-05
         0.10248E-05
         0.99493E-06
         0.10643E-05
         0.11287E-05
         0.10609E-05
         0.82418E-06
         0.67046E-06
         0.86437E-06
         0.11532E-05
         0.12689E-05
         0.12157E-05
         0.10943E-05
         0.99316E-06
         0.80646E-06
         0.67794E-06
         0.88683E-06
         0.11749E-05
         0.12140E-05
         0.97879E-06
         0.79450E-06
         0.97755E-06
         0.11543E-05
         0.24635E-05
         0.19475E-05
         0.20979E-05
         0.36281E-05
         0.19374E-05
         0.24771E-05
         0.13686E-05
         0.16427E-05
         0.27456E-05
         0.19875E-05
         0.80266E-06
         0.15342E-05
         0.16907E-05
         0.13496E-05
         0.17463E-05
         0.32651E-05
         0.25575E-05
         0.32534E-05
         0.18993E-05
         0.21724E-05
         0.20466E-05
         0.22702E-05
         0.17393E-05
         0.10802E-05
         0.20430E-05
         0.17076E-05
         0.17469E-05
         0.18021E-05
         0.15784E-05
         0.19286E-05
         0.24600E-05
         0.17321E-05
         0.27685E-05
         0.24205E-05
         0.10819E-05
         0.16645E-05
         0.18909E-05
         0.19999E-05
         0.19341E-05
         0.15195E-05
         0.95452E-06
         0.15741E-05
         0.20866E-05
         0.16821E-05
         0.14772E-05
         0.96751E-06
         0.16542E-05
         0.22488E-05
         0.23637E-05
         0.19092E-05
         0.11715E-05
         0.20283E-05
         0.74247E-06
         0.94860E-06
         0.88066E-06
         0.10473E-05
         0.10250E-05
         0.99514E-06
         0.10648E-05
         0.11295E-05
         0.10615E-05
         0.82437E-06
         0.67052E-06
         0.86439E-06
         0.11533E-05
         0.12691E-05
         0.12159E-05
         0.10942E-05
         0.99310E-06
         0.80639E-06
         0.67783E-06
         0.88676E-06
         0.11748E-05
         0.12140E-05
         0.97859E-06
         0.79433E-06
         0.97767E-06
         0.11543E-05
         0.24636E-05
         0.19471E-05
         0.20980E-05
         0.36298E-05
         0.19377E-05
         0.24779E-05
         0.13679E-05
         0.16417E-05
         0.27466E-05
         0.19862E-05
         0.80189E-06
         0.15339E-05
         0.16906E-05
         0.13477E-05
         0.17459E-05
         0.32661E-05
         0.25587E-05
         0.32551E-05
         0.18994E-05
         0.21727E-05
         0.20465E-05
         0.22703E-05
         0.17392E-05
         0.10800E-05
         0.20421E-05
         0.17075E-05
         0.17443E-05
         0.18003E-05
         0.15777E-05
         0.19281E-05
         0.24602E-05
         0.17319E-05
         0.27700E-05
         0.24227E-05
         0.10819E-05
         0.16642E-05
         0.18906E-05
         0.19998E-05
         0.19342E-05
         0.15196E-05
         0.95453E-06
         0.15739E-05
         0.20865E-05
         0.16819E-05
         0.14768E-05
         0.96727E-06
         0.16541E-05
         0.22488E-05
         0.23640E-05
         0.19096E-05
         0.11715E-05
         0.20293E-05
         0.74225E-06
         0.94859E-06
         0.88023E-06
         0.10474E-05
         0.10253E-05
         0.99535E-06
         0.10653E-05
         0.11303E-05
         0.10621E-05
         0.82456E-06
         0.67057E-06
         0.86441E-06
         0.11535E-05
         0.12694E-05
         0.12160E-05
         0.10942E-05
         0.99304E-06
         0.80633E-06
         0.67773E-06
         0.88671E-06
         0.11748E-05
         0.12140E-05
         0.97840E-06
         0.79415E-06
         0.97780E-06
         0.11542E-05
         0.24637E-05
         0.19466E-05
         0.20982E-05
         0.36315E-05
         0.19380E-05
         0.24786E-05
         0.13671E-05
         0.16407E-05
         0.27475E-05
         0.19849E-05
         0.80110E-06
         0.15336E-05
         0.16905E-05
         0.13457E-05
         0.17455E-05
         0.32669E-05
         0.25598E-05
         0.32567E-05
         0.18994E-05
         0.21729E-05
         0.20464E-05
         0.22703E-05
         0.17390E-05
         0.10799E-05
         0.20412E-05
         0.17073E-05
         0.17416E-05
         0.17985E-05
         0.15770E-05
         0.19277E-05
         0.24604E-05
         0.17317E-05
         0.27714E-05
         0.24248E-05
         0.10819E-05
         0.16638E-05
         0.18903E-05
         0.19996E-05
         0.19343E-05
         0.15196E-05
         0.95451E-06
         0.15737E-05
         0.20864E-05
         0.16816E-05
         0.14765E-05
         0.96700E-06
         0.16539E-05
         0.22488E-05
         0.23644E-05
         0.19100E-05
         0.11715E-05
         0.20303E-05
         0.74200E-06
         0.94855E-06
         0.87978E-06
         0.10474E-05
         0.10255E-05
         0.99555E-06
         0.10657E-05
         0.11311E-05
         0.10627E-05
         0.82472E-06
         0.67061E-06
         0.86442E-06
         0.11536E-05
         0.12697E-05
         0.12161E-05
         0.10941E-05
         0.99295E-06
         0.80625E-06
         0.67761E-06
         0.88662E-06
         0.11748E-05
         0.12140E-05
         0.97818E-06
         0.79396E-06
         0.97790E-06
         0.11542E-05
         0.24639E-05
         0.19463E-05
         0.20984E-05
         0.36333E-05
         0.19383E-05
         0.24794E-05
         0.13664E-05
         0.16398E-05
         0.27485E-05
         0.19836E-05
         0.80034E-06
         0.15334E-05
         0.16904E-05
         0.13439E-05
         0.17452E-05
         0.32679E-05
         0.25610E-05
         0.32583E-05
         0.18995E-05
         0.21732E-05
         0.20463E-05
         0.22704E-05
         0.17388E-05
         0.10798E-05
         0.20404E-05
         0.17072E-05
         0.17389E-05
         0.17967E-05
         0.15763E-05
         0.19272E-05
         0.24607E-05
         0.17315E-05
         0.27729E-05
         0.24270E-05
         0.10819E-05
         0.16635E-05
         0.18901E-05
         0.19995E-05
         0.19345E-05
         0.15197E-05
         0.95453E-06
         0.15735E-05
         0.20863E-05
         0.16814E-05
         0.14761E-05
         0.96677E-06
         0.16538E-05
         0.22488E-05
         0.23647E-05
         0.19104E-05
         0.11716E-05
         0.20313E-05
         0.74179E-06
         0.94855E-06
         0.87936E-06
         0.10475E-05
         0.10257E-05
         0.99577E-06
         0.10662E-05
         0.11319E-05
         0.10633E-05
         0.82492E-06
         0.67068E-06
         0.86446E-06
         0.11538E-05
         0.12700E-05
         0.12163E-05
         0.10941E-05
         0.99291E-06
         0.80620E-06
         0.67752E-06
         0.88657E-06
         0.11748E-05
         0.12140E-05
         0.97800E-06
         0.79380E-06
         0.97803E-06
         0.11542E-05
         0.12320E-05
         0.97306E-06
         0.10493E-05
         0.18171E-05
         0.96926E-06
         0.12399E-05
         0.68306E-06
         0.81967E-06
         0.13745E-05
         0.99152E-06
         0.39999E-06
         0.76665E-06
         0.84519E-06
         0.67148E-06
         0.87252E-06
         0.16343E-05
         0.12808E-05
         0.16296E-05
         0.94981E-06
         0.10867E-05
         0.10232E-05
         0.11353E-05
         0.86940E-06
         0.53990E-06
         0.10200E-05
         0.85360E-06
         0.86884E-06
         0.89793E-06
         0.78802E-06
         0.96354E-06
         0.12305E-05
         0.86572E-06
         0.13869E-05
         0.12141E-05
         0.54095E-06
         0.83170E-06
         0.94503E-06
         0.99975E-06
         0.96729E-06
         0.75992E-06
         0.47728E-06
         0.78670E-06
         0.10432E-05
         0.84065E-06
         0.73800E-06
         0.48334E-06
         0.82688E-06
         0.11245E-05
         0.11825E-05
         0.95534E-06
         0.58581E-06
         0.10159E-05
         0.37085E-06
         0.47429E-06
         0.43959E-06
         0.52375E-06
         0.51294E-06
         0.49796E-06
         0.53322E-06
         0.56619E-06
         0.53185E-06
         0.41252E-06
         0.33536E-06
         0.43225E-06
         0.57696E-06
         0.63509E-06
         0.60820E-06
         0.54708E-06
         0.49646E-06
         0.40310E-06
         0.33875E-06
         0.44329E-06
         0.58740E-06
         0.60700E-06
         0.48897E-06
         0.39687E-06
         0.48906E-06
         0.57710E-06
  
SCALARS                 Poissons_ratio  double 1
LOOKUP_TABLE default
         0.30000E+00
         0.30000E+00
         0.30000E+00
         0.30000E+00
         0.30000E+00
         0.30000E+00
         0.30000E+00
         0.30000E+00
         0.30000E+00
         0.30000E+00
         0.30000E+00
         0.30000E+00
         0.30000E+00
         0.30000E+00
         0.30000E+00
         0.30000E+00
         0.30000E+00
         0.30000E+00
         0.30000E+00
         0.30000E+00
         0.30000E+00
         0.30000E+00
         0.30000E+00
         0.30000E+00
         0.30000E+00
         0.30000E+00
         0.30000E+00
         0.30000E+00
         0.30000E+00
         0.30000E+00
         0.30000E+00
         0.30000E+00
         0.30000E+00
         0.30000E+00
         0.30000E+00
         0.30000E+00
         0.30000E+00
         0.30000E+00
         0.30000E+00
         0.30000E+00
         0.30000E+00
         0.30000E+00
         0.30000E+00
         0.30000E+00
         0.30000E+00
         0.30000E+00
         0.30000E+00
         0.30000E+00
         0.30000E+00
         0.30000E+00
         0.30000E+00
         0.30000E+00
         0.30000E+00
         0.30000E+00
         0.30000E+00
         0.30000E+00
         0.30000E+00
         0.30000E+00
         0.30000E+00
         0.30000E+00
         0.30000E+00
         0.30000E+00
         0.30000E+00
         0.30000E+00
         0.30000E+00
         0.30000E+00
         0.30000E+00
         0.30000E+00
         0.30000E+00
         0.30000E+00
         0.30000E+00
         0.30000E+00
         0.30000E+00
         0.30000E+00
         0.30000E+00
         0.30000E+00
         0.30000E+00
         0.30000E+00
         0.30000E+00
         0.30000E+00
         0.30000E+00
         0.30000E+00
         0.30000E+00
         0.30000E+00
         0.30000E+00
         0.30000E+00
         0.30000E+00
         0.30000E+00
         0.30000E+00
         0.30000E+00
         0.30000E+00
         0.30000E+00
         0.30000E+00
         0.30000E+00
         0.30000E+00
         0.30000E+00
         0.30000E+00
         0.30000E+00
         0.30000E+00
         0.30000E+00
         0.30000E+00
         0.30000E+00
         0.30000E+00
         0.30000E+00
         0.30000E+00
         0.30000E+00
         0.30000E+00
         0.30000E+00
         0.30000E+00
         0.30000E+00
         0.30000E+00
         0.30000E+00
         0.30000E+00
         0.30000E+00
         0.30000E+00
         0.30000E+00
         0.30000E+00
         0.30000E+00
         0.30000E+00
         0.30000E+00
         0.30000E+00
         0.30000E+00
         0.30000E+00
         0.30000E+00
         0.30000E+00
         0.30000E+00
         0.30000E+00
         0.30000E+00
         0.30000E+00
         0.30000E+00
         0.30000E+00
         0.30000E+00
         0.30000E+00
         0.30000E+00
         0.30000E+00
         0.30000E+00
         0.30000E+00
         0.30000E+00
         0.30000E+00
         0.30000E+00
         0.30000E+00
         0.30000E+00
         0.30000E+00
         0.30000E+00
         0.30000E+00
         0.30000E+00
         0.30000E+00
         0.30000E+00
         0.30000E+00
         0.30000E+00
         0.30000E+00
         0.30000E+00
         0.30000E+00
         0.30000E+00
         0.30000E+00
         0.30000E+00
         0.30000E+00
         0.30000E+00
         0.30000E+00
         0.30000E+00
         0.30000E+00
         0.30000E+00
         0.30000E+00
         0.30000E+00
         0.30000E+00
         0.30000E+00
         0.30000E+00
         0.30000E+00
         0.30000E+00
         0.30000E+00
         0.30000E+00
         0.30000E+00
         0.30000E+00
         0.30000E+00
         0.30000E+00
         0.30000E+00
         0.30000E+00
         0.30000E+00
         0.30000E+00
         0.30000E+00
         0.30000E+00
         0.30000E+00
         0.30000E+00
         0.30000E+00
         0.30000E+00
         0.30000E+00
         0.30000E+00
         0.30000E+00
         0.30000E+00
         0.30000E+00
         0.30000E+00
         0.30000E+00
         0.30000E+00
         0.30000E+00
         0.30000E+00
         0.30000E+00
         0.30000E+00
         0.30000E+00
         0.30000E+00
         0.30000E+00
         0.30000E+00
         0.30000E+00
         0.30000E+00
         0.30000E+00
         0.30000E+00
         0.30000E+00
         0.30000E+00
         0.30000E+00
         0.30000E+00
         0.30000E+00
         0.30000E+00
         0.30000E+00
         0.30000E+00
         0.30000E+00
         0.30000E+00
         0.30000E+00
         0.30000E+00
         0.30000E+00
         0.30000E+00
         0.30000E+00
         0.30000E+00
         0.30000E+00
         0.30000E+00
         0.30000E+00
         0.30000E+00
         0.30000E+00
         0.30000E+00
         0.30000E+00
         0.30000E+00
         0.30000E+00
         0.30000E+00
         0.30000E+00
         0.30000E+00
         0.30000E+00
         0.30000E+00
         0.30000E+00
         0.30000E+00
         0.30000E+00
         0.30000E+00
         0.30000E+00
         0.30000E+00
         0.30000E+00
         0.30000E+00
         0.30000E+00
         0.30000E+00
         0.30000E+00
         0.30000E+00
         0.30000E+00
         0.30000E+00
         0.30000E+00
         0.30000E+00
         0.30000E+00
         0.30000E+00
         0.30000E+00
         0.30000E+00
         0.30000E+00
         0.30000E+00
         0.30000E+00
         0.30000E+00
         0.30000E+00
         0.30000E+00
         0.30000E+00
         0.30000E+00
         0.30000E+00
         0.30000E+00
         0.30000E+00
         0.30000E+00
         0.30000E+00
         0.30000E+00
         0.30000E+00
         0.30000E+00
         0.30000E+00
         0.30000E+00
         0.30000E+00
         0.30000E+00
         0.30000E+00
         0.30000E+00
         0.30000E+00
         0.30000E+00
         0.30000E+00
         0.30000E+00
         0.30000E+00
         0.30000E+00
         0.30000E+00
         0.30000E+00
         0.30000E+00
         0.30000E+00
         0.30000E+00
         0.30000E+00
         0.30000E+00
         0.30000E+00
         0.30000E+00
         0.30000E+00
         0.30000E+00
         0.30000E+00
         0.30000E+00
         0.30000E+00
         0.30000E+00
         0.30000E+00
         0.30000E+00
         0.30000E+00
         0.30000E+00
         0.30000E+00
         0.30000E+00
         0.30000E+00
         0.30000E+00
         0.30000E+00
         0.30000E+00
         0.30000E+00
         0.30000E+00
         0.30000E+00
         0.30000E+00
         0.30000E+00
         0.30000E+00
         0.30000E+00
         0.30000E+00
         0.30000E+00
         0.30000E+00
         0.30000E+00
         0.30000E+00
         0.30000E+00
         0.30000E+00
         0.30000E+00
         0.30000E+00
         0.30000E+00
         0.30000E+00
         0.30000E+00
         0.30000E+00
         0.30000E+00
         0.30000E+00
         0.30000E+00
         0.30000E+00
         0.30000E+00
         0.30000E+00
         0.30000E+00
         0.30000E+00
         0.30000E+00
         0.30000E+00
         0.30000E+00
         0.30000E+00
         0.30000E+00
         0.30000E+00
         0.30000E+00
         0.30000E+00
         0.30000E+00
         0.30000E+00
         0.30000E+00
         0.30000E+00
         0.30000E+00
         0.30000E+00
         0.30000E+00
         0.30000E+00
         0.30000E+00
         0.30000E+00
         0.30000E+00
         0.30000E+00
         0.30000E+00
         0.30000E+00
         0.30000E+00
         0.30000E+00
         0.30000E+00
         0.30000E+00
         0.30000E+00
         0.30000E+00
         0.30000E+00
         0.30000E+00
         0.30000E+00
         0.30000E+00
         0.30000E+00
         0.30000E+00
         0.30000E+00
         0.30000E+00
         0.30000E+00
         0.30000E+00
         0.30000E+00
         0.30000E+00
         0.30000E+00
         0.30000E+00
         0.30000E+00
         0.30000E+00
         0.30000E+00
         0.30000E+00
         0.30000E+00
         0.30000E+00
         0.30000E+00
         0.30000E+00
         0.30000E+00
         0.30000E+00
         0.30000E+00
         0.30000E+00
         0.30000E+00
         0.30000E+00
         0.30000E+00
         0.30000E+00
         0.30000E+00
         0.30000E+00
         0.30000E+00
         0.30000E+00
         0.30000E+00
         0.30000E+00
         0.30000E+00
         0.30000E+00
         0.30000E+00
         0.30000E+00
         0.30000E+00
         0.30000E+00
         0.30000E+00
         0.30000E+00
         0.30000E+00
         0.30000E+00
         0.30000E+00
         0.30000E+00
         0.30000E+00
         0.30000E+00
         0.30000E+00
         0.30000E+00
         0.30000E+00
         0.30000E+00
         0.30000E+00
         0.30000E+00
         0.30000E+00
         0.30000E+00
         0.30000E+00
         0.30000E+00
         0.30000E+00
         0.30000E+00
         0.30000E+00
         0.30000E+00
         0.30000E+00
         0.30000E+00
         0.30000E+00
         0.30000E+00
         0.30000E+00
         0.30000E+00
         0.30000E+00
         0.30000E+00
         0.30000E+00
         0.30000E+00
         0.30000E+00
         0.30000E+00
         0.30000E+00
         0.30000E+00
         0.30000E+00
         0.30000E+00
         0.30000E+00
         0.30000E+00
         0.30000E+00
         0.30000E+00
         0.30000E+00
         0.30000E+00
         0.30000E+00
         0.30000E+00
         0.30000E+00
         0.30000E+00
         0.30000E+00
         0.30000E+00
         0.30000E+00
         0.30000E+00
         0.30000E+00
         0.30000E+00
         0.30000E+00
         0.30000E+00
         0.30000E+00
         0.30000E+00
         0.30000E+00
         0.30000E+00
         0.30000E+00
         0.30000E+00
         0.30000E+00
         0.30000E+00
         0.30000E+00
         0.30000E+00
         0.30000E+00
         0.30000E+00
         0.30000E+00
         0.30000E+00
         0.30000E+00
         0.30000E+00
         0.30000E+00
         0.30000E+00
         0.30000E+00
         0.30000E+00
         0.30000E+00
         0.30000E+00
         0.30000E+00
         0.30000E+00
         0.30000E+00
         0.30000E+00
         0.30000E+00
         0.30000E+00
         0.30000E+00
         0.30000E+00
         0.30000E+00
         0.30000E+00
         0.30000E+00
         0.30000E+00
         0.30000E+00
         0.30000E+00
         0.30000E+00
         0.30000E+00
         0.30000E+00
         0.30000E+00
         0.30000E+00
         0.30000E+00
         0.30000E+00
         0.30000E+00
         0.30000E+00
         0.30000E+00
         0.30000E+00
         0.30000E+00
         0.30000E+00
         0.30000E+00
         0.30000E+00
         0.30000E+00
         0.30000E+00
         0.30000E+00
         0.30000E+00
         0.30000E+00
         0.30000E+00
         0.30000E+00
         0.30000E+00
         0.30000E+00
         0.30000E+00
         0.30000E+00
         0.30000E+00
         0.30000E+00
         0.30000E+00
         0.30000E+00
         0.30000E+00
         0.30000E+00
         0.30000E+00
         0.30000E+00
         0.30000E+00
         0.30000E+00
         0.30000E+00
         0.30000E+00
         0.30000E+00
         0.30000E+00
         0.30000E+00
         0.30000E+00
         0.30000E+00
         0.30000E+00
         0.30000E+00
         0.30000E+00
         0.30000E+00
         0.30000E+00
         0.30000E+00
         0.30000E+00
         0.30000E+00
         0.30000E+00
         0.30000E+00
         0.30000E+00
         0.30000E+00
         0.30000E+00
         0.30000E+00
         0.30000E+00
         0.30000E+00
         0.30000E+00
         0.30000E+00
         0.30000E+00
         0.30000E+00
         0.30000E+00
         0.30000E+00
         0.30000E+00
         0.30000E+00
         0.30000E+00
         0.30000E+00
         0.30000E+00
         0.30000E+00
         0.30000E+00
         0.30000E+00
         0.30000E+00
         0.30000E+00
         0.30000E+00
         0.30000E+00
         0.30000E+00
         0.30000E+00
         0.30000E+00
         0.30000E+00
         0.30000E+00
         0.30000E+00
         0.30000E+00
         0.30000E+00
         0.30000E+00
         0.30000E+00
         0.30000E+00
         0.30000E+00
         0.30000E+00
         0.30000E+00
         0.30000E+00
         0.30000E+00
         0.30000E+00
         0.30000E+00
         0.30000E+00
         0.30000E+00
         0.30000E+00
         0.30000E+00
         0.30000E+00
         0.30000E+00
         0.30000E+00
         0.30000E+00
         0.30000E+00
         0.30000E+00
         0.30000E+00
         0.30000E+00
         0.30000E+00
         0.30000E+00
         0.30000E+00
         0.30000E+00
         0.30000E+00
         0.30000E+00
         0.30000E+00
         0.30000E+00
         0.30000E+00
         0.30000E+00
         0.30000E+00
         0.30000E+00
         0.30000E+00
         0.30000E+00
         0.30000E+00
         0.30000E+00
         0.30000E+00
         0.30000E+00
         0.30000E+00
         0.30000E+00
         0.30000E+00
         0.30000E+00
         0.30000E+00
         0.30000E+00
         0.30000E+00
         0.30000E+00
         0.30000E+00
         0.30000E+00
         0.30000E+00
         0.30000E+00
         0.30000E+00
         0.30000E+00
         0.30000E+00
         0.30000E+00
         0.30000E+00
         0.30000E+00
         0.30000E+00
         0.30000E+00
         0.30000E+00
         0.30000E+00
         0.30000E+00
         0.30000E+00
         0.30000E+00
         0.30000E+00
         0.30000E+00
         0.30000E+00
         0.30000E+00
         0.30000E+00
         0.30000E+00
         0.30000E+00
         0.30000E+00
         0.30000E+00
         0.30000E+00
         0.30000E+00
         0.30000E+00
         0.30000E+00
         0.30000E+00
         0.30000E+00
         0.30000E+00
         0.30000E+00
         0.30000E+00
         0.30000E+00
         0.30000E+00
         0.30000E+00
         0.30000E+00
         0.30000E+00
         0.30000E+00
         0.30000E+00
         0.30000E+00
         0.30000E+00
         0.30000E+00
         0.30000E+00
         0.30000E+00
         0.30000E+00
         0.30000E+00
         0.30000E+00
         0.30000E+00
         0.30000E+00
         0.30000E+00
         0.30000E+00
         0.30000E+00
         0.30000E+00
         0.30000E+00
         0.30000E+00
         0.30000E+00
         0.30000E+00
         0.30000E+00
         0.30000E+00
         0.30000E+00
         0.30000E+00
         0.30000E+00
         0.30000E+00
         0.30000E+00
         0.30000E+00
         0.30000E+00
         0.30000E+00
         0.30000E+00
         0.30000E+00
         0.30000E+00
         0.30000E+00
         0.30000E+00
         0.30000E+00
         0.30000E+00
         0.30000E+00
         0.30000E+00
         0.30000E+00
         0.30000E+00
         0.30000E+00
         0.30000E+00
         0.30000E+00
         0.30000E+00
         0.30000E+00
         0.30000E+00
         0.30000E+00
         0.30000E+00
         0.30000E+00
         0.30000E+00
         0.30000E+00
         0.30000E+00
         0.30000E+00
         0.30000E+00
         0.30000E+00
         0.30000E+00
         0.30000E+00
         0.30000E+00
         0.30000E+00
         0.30000E+00
         0.30000E+00
         0.30000E+00
         0.30000E+00
         0.30000E+00
         0.30000E+00
         0.30000E+00
         0.30000E+00
         0.30000E+00
         0.30000E+00
         0.30000E+00
         0.30000E+00
         0.30000E+00
         0.30000E+00
         0.30000E+00
         0.30000E+00
         0.30000E+00
         0.30000E+00
         0.30000E+00
         0.30000E+00
         0.30000E+00
         0.30000E+00
         0.30000E+00
         0.30000E+00
         0.30000E+00
         0.30000E+00
         0.30000E+00
         0.30000E+00
         0.30000E+00
         0.30000E+00
         0.30000E+00
         0.30000E+00
         0.30000E+00
         0.30000E+00
         0.30000E+00
         0.30000E+00
         0.30000E+00
         0.30000E+00
         0.30000E+00
         0.30000E+00
         0.30000E+00
         0.30000E+00
         0.30000E+00
         0.30000E+00
         0.30000E+00
         0.30000E+00
         0.30000E+00
         0.30000E+00
         0.30000E+00
         0.30000E+00
         0.30000E+00
         0.30000E+00
         0.30000E+00
         0.30000E+00
         0.30000E+00
         0.30000E+00
         0.30000E+00
         0.30000E+00
         0.30000E+00
         0.30000E+00
         0.30000E+00
         0.30000E+00
         0.30000E+00
         0.30000E+00
         0.30000E+00
         0.30000E+00
         0.30000E+00
         0.30000E+00
         0.30000E+00
         0.30000E+00
         0.30000E+00
         0.30000E+00
         0.30000E+00
         0.30000E+00
         0.30000E+00
         0.30000E+00
         0.30000E+00
         0.30000E+00
         0.30000E+00
         0.30000E+00
         0.30000E+00
         0.30000E+00
         0.30000E+00
         0.30000E+00
         0.30000E+00
         0.30000E+00
         0.30000E+00
         0.30000E+00
         0.30000E+00
         0.30000E+00
         0.30000E+00
         0.30000E+00
         0.30000E+00
         0.30000E+00
         0.30000E+00
         0.30000E+00
         0.30000E+00
         0.30000E+00
         0.30000E+00
         0.30000E+00
         0.30000E+00
         0.30000E+00
         0.30000E+00
         0.30000E+00
         0.30000E+00
         0.30000E+00
         0.30000E+00
         0.30000E+00
         0.30000E+00
         0.30000E+00
         0.30000E+00
         0.30000E+00
         0.30000E+00
         0.30000E+00
         0.30000E+00
         0.30000E+00
         0.30000E+00
         0.30000E+00
         0.30000E+00
         0.30000E+00
         0.30000E+00
         0.30000E+00
         0.30000E+00
         0.30000E+00
         0.30000E+00
         0.30000E+00
         0.30000E+00
         0.30000E+00
         0.30000E+00
         0.30000E+00
         0.30000E+00
         0.30000E+00
         0.30000E+00
         0.30000E+00
         0.30000E+00
         0.30000E+00
         0.30000E+00
         0.30000E+00
         0.30000E+00
         0.30000E+00
         0.30000E+00
         0.30000E+00
         0.30000E+00
         0.30000E+00
         0.30000E+00
         0.30000E+00
         0.30000E+00
         0.30000E+00
         0.30000E+00
         0.30000E+00
         0.30000E+00
         0.30000E+00
         0.30000E+00
         0.30000E+00
         0.30000E+00
         0.30000E+00
         0.30000E+00
         0.30000E+00
         0.30000E+00
         0.30000E+00
         0.30000E+00
         0.30000E+00
         0.30000E+00
         0.30000E+00
         0.30000E+00
         0.30000E+00
         0.30000E+00
         0.30000E+00
         0.30000E+00
         0.30000E+00
         0.30000E+00
         0.30000E+00
         0.30000E+00
         0.30000E+00
         0.30000E+00
         0.30000E+00
         0.30000E+00
         0.30000E+00
         0.30000E+00
         0.30000E+00
         0.30000E+00
         0.30000E+00
         0.30000E+00
         0.30000E+00
         0.30000E+00
         0.30000E+00
         0.30000E+00
         0.30000E+00
         0.30000E+00
         0.30000E+00
         0.30000E+00
         0.30000E+00
         0.30000E+00
         0.30000E+00
         0.30000E+00
         0.30000E+00
         0.30000E+00
         0.30000E+00
         0.30000E+00
         0.30000E+00
         0.30000E+00
         0.30000E+00
         0.30000E+00
         0.30000E+00
         0.30000E+00
         0.30000E+00
         0.30000E+00
         0.30000E+00
         0.30000E+00
         0.30000E+00
         0.30000E+00
         0.30000E+00
         0.30000E+00
         0.30000E+00
         0.30000E+00
         0.30000E+00
         0.30000E+00
         0.30000E+00
         0.30000E+00
         0.30000E+00
         0.30000E+00
         0.30000E+00
         0.30000E+00
         0.30000E+00
         0.30000E+00
         0.30000E+00
         0.30000E+00
         0.30000E+00
         0.30000E+00
         0.30000E+00
         0.30000E+00
         0.30000E+00
         0.30000E+00
         0.30000E+00
         0.30000E+00
         0.30000E+00
         0.30000E+00
         0.30000E+00
         0.30000E+00
         0.30000E+00
         0.30000E+00
         0.30000E+00
         0.30000E+00
         0.30000E+00
         0.30000E+00
         0.30000E+00
         0.30000E+00
         0.30000E+00
         0.30000E+00
         0.30000E+00
         0.30000E+00
         0.30000E+00
         0.30000E+00
         0.30000E+00
         0.30000E+00
         0.30000E+00
         0.30000E+00
         0.30000E+00
         0.30000E+00
         0.30000E+00
         0.30000E+00
         0.30000E+00
         0.30000E+00
         0.30000E+00
         0.30000E+00
         0.30000E+00
         0.30000E+00
         0.30000E+00
         0.30000E+00
         0.30000E+00
         0.30000E+00
         0.30000E+00
         0.30000E+00
         0.30000E+00
         0.30000E+00
         0.30000E+00
         0.30000E+00
         0.30000E+00
         0.30000E+00
         0.30000E+00
         0.30000E+00
         0.30000E+00
         0.30000E+00
         0.30000E+00
         0.30000E+00
         0.30000E+00
         0.30000E+00
         0.30000E+00
         0.30000E+00
         0.30000E+00
         0.30000E+00
         0.30000E+00
         0.30000E+00
         0.30000E+00
         0.30000E+00
         0.30000E+00
         0.30000E+00
         0.30000E+00
         0.30000E+00
         0.30000E+00
         0.30000E+00
         0.30000E+00
         0.30000E+00
         0.30000E+00
         0.30000E+00
         0.30000E+00
         0.30000E+00
         0.30000E+00
         0.30000E+00
         0.30000E+00
         0.30000E+00
         0.30000E+00
         0.30000E+00
         0.30000E+00
         0.30000E+00
         0.30000E+00
         0.30000E+00
         0.30000E+00
         0.30000E+00
         0.30000E+00
         0.30000E+00
         0.30000E+00
         0.30000E+00
         0.30000E+00
         0.30000E+00
         0.30000E+00
         0.30000E+00
         0.30000E+00
         0.30000E+00
         0.30000E+00
         0.30000E+00
         0.30000E+00
         0.30000E+00
         0.30000E+00
         0.30000E+00
         0.30000E+00
         0.30000E+00
         0.30000E+00
         0.30000E+00
         0.30000E+00
         0.30000E+00
         0.30000E+00
         0.30000E+00
         0.30000E+00
         0.30000E+00
         0.30000E+00
         0.30000E+00
         0.30000E+00
         0.30000E+00
         0.30000E+00
         0.30000E+00
         0.30000E+00
         0.30000E+00
         0.30000E+00
         0.30000E+00
         0.30000E+00
         0.30000E+00
         0.30000E+00
         0.30000E+00
         0.30000E+00
         0.30000E+00
         0.30000E+00
         0.30000E+00
         0.30000E+00
         0.30000E+00
         0.30000E+00
         0.30000E+00
         0.30000E+00
         0.30000E+00
         0.30000E+00
         0.30000E+00
         0.30000E+00
         0.30000E+00
         0.30000E+00
         0.30000E+00
         0.30000E+00
         0.30000E+00
         0.30000E+00
         0.30000E+00
         0.30000E+00
         0.30000E+00
         0.30000E+00
         0.30000E+00
         0.30000E+00
         0.30000E+00
         0.30000E+00
         0.30000E+00
         0.30000E+00
         0.30000E+00
         0.30000E+00
         0.30000E+00
         0.30000E+00
         0.30000E+00
         0.30000E+00
         0.30000E+00
         0.30000E+00
         0.30000E+00
         0.30000E+00
         0.30000E+00
         0.30000E+00
         0.30000E+00
         0.30000E+00
         0.30000E+00
         0.30000E+00
         0.30000E+00
         0.30000E+00
         0.30000E+00
         0.30000E+00
         0.30000E+00
         0.30000E+00
         0.30000E+00
         0.30000E+00
         0.30000E+00
         0.30000E+00
         0.30000E+00
         0.30000E+00
         0.30000E+00
         0.30000E+00
         0.30000E+00
         0.30000E+00
         0.30000E+00
         0.30000E+00
         0.30000E+00
         0.30000E+00
         0.30000E+00
         0.30000E+00
         0.30000E+00
         0.30000E+00
         0.30000E+00
         0.30000E+00
         0.30000E+00
         0.30000E+00
         0.30000E+00
         0.30000E+00
         0.30000E+00
         0.30000E+00
         0.30000E+00
         0.30000E+00
         0.30000E+00
         0.30000E+00
         0.30000E+00
         0.30000E+00
         0.30000E+00
         0.30000E+00
         0.30000E+00
         0.30000E+00
         0.30000E+00
         0.30000E+00
         0.30000E+00
         0.30000E+00
         0.30000E+00
         0.30000E+00
         0.30000E+00
         0.30000E+00
         0.30000E+00
         0.30000E+00
         0.30000E+00
         0.30000E+00
         0.30000E+00
         0.30000E+00
         0.30000E+00
         0.30000E+00
         0.30000E+00
         0.30000E+00
         0.30000E+00
         0.30000E+00
         0.30000E+00
         0.30000E+00
         0.30000E+00
         0.30000E+00
         0.30000E+00
         0.30000E+00
         0.30000E+00
         0.30000E+00
         0.30000E+00
         0.30000E+00
         0.30000E+00
         0.30000E+00
         0.30000E+00
         0.30000E+00
         0.30000E+00
         0.30000E+00
         0.30000E+00
         0.30000E+00
         0.30000E+00
         0.30000E+00
         0.30000E+00
         0.30000E+00
         0.30000E+00
         0.30000E+00
         0.30000E+00
         0.30000E+00
         0.30000E+00
         0.30000E+00
         0.30000E+00
         0.30000E+00
         0.30000E+00
         0.30000E+00
         0.30000E+00
         0.30000E+00
         0.30000E+00
         0.30000E+00
         0.30000E+00
         0.30000E+00
         0.30000E+00
         0.30000E+00
         0.30000E+00
         0.30000E+00
         0.30000E+00
         0.30000E+00
         0.30000E+00
         0.30000E+00
         0.30000E+00
         0.30000E+00
         0.30000E+00
         0.30000E+00
         0.30000E+00
         0.30000E+00
         0.30000E+00
         0.30000E+00
         0.30000E+00
         0.30000E+00
         0.30000E+00
         0.30000E+00
         0.30000E+00
         0.30000E+00
         0.30000E+00
         0.30000E+00
         0.30000E+00
         0.30000E+00
         0.30000E+00
         0.30000E+00
         0.30000E+00
         0.30000E+00
         0.30000E+00
         0.30000E+00
         0.30000E+00
         0.30000E+00
         0.30000E+00
         0.30000E+00
         0.30000E+00
         0.30000E+00
         0.30000E+00
         0.30000E+00
         0.30000E+00
         0.30000E+00
         0.30000E+00
         0.30000E+00
         0.30000E+00
         0.30000E+00
         0.30000E+00
         0.30000E+00
         0.30000E+00
         0.30000E+00
         0.30000E+00
         0.30000E+00
         0.30000E+00
         0.30000E+00
         0.30000E+00
         0.30000E+00
         0.30000E+00
         0.30000E+00
         0.30000E+00
         0.30000E+00
         0.30000E+00
         0.30000E+00
         0.30000E+00
         0.30000E+00
         0.30000E+00
         0.30000E+00
         0.30000E+00
         0.30000E+00
         0.30000E+00
         0.30000E+00
         0.30000E+00
         0.30000E+00
         0.30000E+00
         0.30000E+00
         0.30000E+00
         0.30000E+00
         0.30000E+00
         0.30000E+00
         0.30000E+00
         0.30000E+00
         0.30000E+00
         0.30000E+00
         0.30000E+00
         0.30000E+00
         0.30000E+00
         0.30000E+00
         0.30000E+00
         0.30000E+00
         0.30000E+00
         0.30000E+00
         0.30000E+00
         0.30000E+00
         0.30000E+00
         0.30000E+00
         0.30000E+00
         0.30000E+00
         0.30000E+00
         0.30000E+00
         0.30000E+00
         0.30000E+00
         0.30000E+00
         0.30000E+00
         0.30000E+00
         0.30000E+00
         0.30000E+00
         0.30000E+00
         0.30000E+00
         0.30000E+00
         0.30000E+00
         0.30000E+00
         0.30000E+00
         0.30000E+00
         0.30000E+00
         0.30000E+00
         0.30000E+00
         0.30000E+00
         0.30000E+00
         0.30000E+00
         0.30000E+00
         0.30000E+00
         0.30000E+00
         0.30000E+00
         0.30000E+00
         0.30000E+00
         0.30000E+00
         0.30000E+00
         0.30000E+00
         0.30000E+00
         0.30000E+00
         0.30000E+00
         0.30000E+00
         0.30000E+00
         0.30000E+00
         0.30000E+00
         0.30000E+00
         0.30000E+00
         0.30000E+00
         0.30000E+00
         0.30000E+00
         0.30000E+00
         0.30000E+00
         0.30000E+00
         0.30000E+00
         0.30000E+00
         0.30000E+00
         0.30000E+00
         0.30000E+00
         0.30000E+00
         0.30000E+00
         0.30000E+00
         0.30000E+00
         0.30000E+00
         0.30000E+00
         0.30000E+00
         0.30000E+00
         0.30000E+00
         0.30000E+00
         0.30000E+00
         0.30000E+00
         0.30000E+00
         0.30000E+00
         0.30000E+00
         0.30000E+00
         0.30000E+00
         0.30000E+00
         0.30000E+00
         0.30000E+00
         0.30000E+00
         0.30000E+00
         0.30000E+00
         0.30000E+00
         0.30000E+00
         0.30000E+00
         0.30000E+00
         0.30000E+00
         0.30000E+00
         0.30000E+00
         0.30000E+00
         0.30000E+00
         0.30000E+00
         0.30000E+00
         0.30000E+00
         0.30000E+00
         0.30000E+00
         0.30000E+00
         0.30000E+00
         0.30000E+00
         0.30000E+00
         0.30000E+00
         0.30000E+00
         0.30000E+00
         0.30000E+00
         0.30000E+00
         0.30000E+00
         0.30000E+00
         0.30000E+00
         0.30000E+00
         0.30000E+00
         0.30000E+00
         0.30000E+00
         0.30000E+00
         0.30000E+00
         0.30000E+00
         0.30000E+00
         0.30000E+00
         0.30000E+00
         0.30000E+00
         0.30000E+00
         0.30000E+00
         0.30000E+00
         0.30000E+00
         0.30000E+00
         0.30000E+00
         0.30000E+00
         0.30000E+00
         0.30000E+00
         0.30000E+00
         0.30000E+00
         0.30000E+00
         0.30000E+00
         0.30000E+00
         0.30000E+00
         0.30000E+00
         0.30000E+00
         0.30000E+00
         0.30000E+00
         0.30000E+00
         0.30000E+00
         0.30000E+00
         0.30000E+00
         0.30000E+00
         0.30000E+00
         0.30000E+00
         0.30000E+00
         0.30000E+00
         0.30000E+00
         0.30000E+00
         0.30000E+00
         0.30000E+00
         0.30000E+00
         0.30000E+00
         0.30000E+00
         0.30000E+00
         0.30000E+00
         0.30000E+00
         0.30000E+00
         0.30000E+00
         0.30000E+00
         0.30000E+00
         0.30000E+00
         0.30000E+00
         0.30000E+00
         0.30000E+00
         0.30000E+00
         0.30000E+00
         0.30000E+00
         0.30000E+00
         0.30000E+00
         0.30000E+00
         0.30000E+00
         0.30000E+00
         0.30000E+00
         0.30000E+00
         0.30000E+00
         0.30000E+00
         0.30000E+00
         0.30000E+00
         0.30000E+00
         0.30000E+00
         0.30000E+00
         0.30000E+00
         0.30000E+00
         0.30000E+00
         0.30000E+00
         0.30000E+00
         0.30000E+00
         0.30000E+00
         0.30000E+00
         0.30000E+00
         0.30000E+00
         0.30000E+00
         0.30000E+00
         0.30000E+00
         0.30000E+00
         0.30000E+00
         0.30000E+00
         0.30000E+00
         0.30000E+00
         0.30000E+00
         0.30000E+00
         0.30000E+00
         0.30000E+00
         0.30000E+00
         0.30000E+00
         0.30000E+00
         0.30000E+00
         0.30000E+00
         0.30000E+00
         0.30000E+00
         0.30000E+00
         0.30000E+00
         0.30000E+00
         0.30000E+00
         0.30000E+00
         0.30000E+00
         0.30000E+00
         0.30000E+00
         0.30000E+00
         0.30000E+00
         0.30000E+00
         0.30000E+00
         0.30000E+00
         0.30000E+00
         0.30000E+00
         0.30000E+00
         0.30000E+00
         0.30000E+00
         0.30000E+00
         0.30000E+00
         0.30000E+00
         0.30000E+00
         0.30000E+00
         0.30000E+00
         0.30000E+00
         0.30000E+00
         0.30000E+00
         0.30000E+00
         0.30000E+00
         0.30000E+00
         0.30000E+00
         0.30000E+00
         0.30000E+00
         0.30000E+00
         0.30000E+00
         0.30000E+00
         0.30000E+00
         0.30000E+00
         0.30000E+00
         0.30000E+00
         0.30000E+00
         0.30000E+00
         0.30000E+00
         0.30000E+00
         0.30000E+00
         0.30000E+00
         0.30000E+00
         0.30000E+00
         0.30000E+00
         0.30000E+00
         0.30000E+00
         0.30000E+00
         0.30000E+00
         0.30000E+00
         0.30000E+00
         0.30000E+00
         0.30000E+00
         0.30000E+00
         0.30000E+00
         0.30000E+00
         0.30000E+00
         0.30000E+00
         0.30000E+00
         0.30000E+00
         0.30000E+00
         0.30000E+00
         0.30000E+00
         0.30000E+00
         0.30000E+00
         0.30000E+00
         0.30000E+00
         0.30000E+00
         0.30000E+00
         0.30000E+00
         0.30000E+00
         0.30000E+00
         0.30000E+00
         0.30000E+00
         0.30000E+00
         0.30000E+00
         0.30000E+00
         0.30000E+00
         0.30000E+00
         0.30000E+00
         0.30000E+00
         0.30000E+00
         0.30000E+00
         0.30000E+00
         0.30000E+00
         0.30000E+00
         0.30000E+00
         0.30000E+00
         0.30000E+00
         0.30000E+00
         0.30000E+00
         0.30000E+00
         0.30000E+00
         0.30000E+00
         0.30000E+00
         0.30000E+00
         0.30000E+00
         0.30000E+00
         0.30000E+00
         0.30000E+00
         0.30000E+00
         0.30000E+00
         0.30000E+00
         0.30000E+00
         0.30000E+00
         0.30000E+00
         0.30000E+00
         0.30000E+00
         0.30000E+00
         0.30000E+00
         0.30000E+00
         0.30000E+00
         0.30000E+00
         0.30000E+00
         0.30000E+00
         0.30000E+00
         0.30000E+00
         0.30000E+00
         0.30000E+00
         0.30000E+00
         0.30000E+00
         0.30000E+00
         0.30000E+00
         0.30000E+00
         0.30000E+00
         0.30000E+00
         0.30000E+00
         0.30000E+00
         0.30000E+00
         0.30000E+00
         0.30000E+00
         0.30000E+00
         0.30000E+00
         0.30000E+00
         0.30000E+00
         0.30000E+00
         0.30000E+00
         0.30000E+00
         0.30000E+00
         0.30000E+00
         0.30000E+00
         0.30000E+00
         0.30000E+00
         0.30000E+00
         0.30000E+00
         0.30000E+00
         0.30000E+00
         0.30000E+00
         0.30000E+00
         0.30000E+00
         0.30000E+00
         0.30000E+00
         0.30000E+00
         0.30000E+00
         0.30000E+00
         0.30000E+00
         0.30000E+00
         0.30000E+00
         0.30000E+00
         0.30000E+00
         0.30000E+00
         0.30000E+00
         0.30000E+00
         0.30000E+00
         0.30000E+00
         0.30000E+00
         0.30000E+00
         0.30000E+00
         0.30000E+00
         0.30000E+00
         0.30000E+00
         0.30000E+00
         0.30000E+00
         0.30000E+00
         0.30000E+00
         0.30000E+00
         0.30000E+00
         0.30000E+00
         0.30000E+00
         0.30000E+00
         0.30000E+00
         0.30000E+00
         0.30000E+00
         0.30000E+00
         0.30000E+00
         0.30000E+00
         0.30000E+00
         0.30000E+00
         0.30000E+00
         0.30000E+00
         0.30000E+00
         0.30000E+00
         0.30000E+00
         0.30000E+00
         0.30000E+00
         0.30000E+00
         0.30000E+00
         0.30000E+00
         0.30000E+00
         0.30000E+00
         0.30000E+00
         0.30000E+00
         0.30000E+00
         0.30000E+00
         0.30000E+00
         0.30000E+00
         0.30000E+00
         0.30000E+00
         0.30000E+00
         0.30000E+00
         0.30000E+00
         0.30000E+00
         0.30000E+00
         0.30000E+00
         0.30000E+00
         0.30000E+00
         0.30000E+00
         0.30000E+00
         0.30000E+00
         0.30000E+00
         0.30000E+00
         0.30000E+00
         0.30000E+00
         0.30000E+00
         0.30000E+00
         0.30000E+00
         0.30000E+00
         0.30000E+00
         0.30000E+00
         0.30000E+00
         0.30000E+00
         0.30000E+00
         0.30000E+00
         0.30000E+00
         0.30000E+00
         0.30000E+00
         0.30000E+00
         0.30000E+00
         0.30000E+00
         0.30000E+00
         0.30000E+00
         0.30000E+00
         0.30000E+00
         0.30000E+00
         0.30000E+00
         0.30000E+00
         0.30000E+00
         0.30000E+00
         0.30000E+00
         0.30000E+00
         0.30000E+00
         0.30000E+00
         0.30000E+00
         0.30000E+00
         0.30000E+00
         0.30000E+00
         0.30000E+00
         0.30000E+00
         0.30000E+00
         0.30000E+00
         0.30000E+00
         0.30000E+00
         0.30000E+00
         0.30000E+00
         0.30000E+00
         0.30000E+00
         0.30000E+00
         0.30000E+00
         0.30000E+00
         0.30000E+00
         0.30000E+00
         0.30000E+00
         0.30000E+00
         0.30000E+00
         0.30000E+00
         0.30000E+00
         0.30000E+00
         0.30000E+00
         0.30000E+00
         0.30000E+00
         0.30000E+00
         0.30000E+00
         0.30000E+00
         0.30000E+00
         0.30000E+00
         0.30000E+00
         0.30000E+00
         0.30000E+00
         0.30000E+00
         0.30000E+00
         0.30000E+00
         0.30000E+00
         0.30000E+00
         0.30000E+00
         0.30000E+00
         0.30000E+00
         0.30000E+00
         0.30000E+00
         0.30000E+00
         0.30000E+00
         0.30000E+00
         0.30000E+00
         0.30000E+00
         0.30000E+00
         0.30000E+00
         0.30000E+00
         0.30000E+00
         0.30000E+00
         0.30000E+00
         0.30000E+00
         0.30000E+00
         0.30000E+00
         0.30000E+00
         0.30000E+00
         0.30000E+00
         0.30000E+00
         0.30000E+00
         0.30000E+00
         0.30000E+00
         0.30000E+00
         0.30000E+00
         0.30000E+00
         0.30000E+00
         0.30000E+00
         0.30000E+00
         0.30000E+00
         0.30000E+00
         0.30000E+00
         0.30000E+00
         0.30000E+00
         0.30000E+00
         0.30000E+00
         0.30000E+00
         0.30000E+00
         0.30000E+00
         0.30000E+00
         0.30000E+00
         0.30000E+00
         0.30000E+00
         0.30000E+00
         0.30000E+00
         0.30000E+00
         0.30000E+00
         0.30000E+00
         0.30000E+00
         0.30000E+00
         0.30000E+00
         0.30000E+00
         0.30000E+00
         0.30000E+00
         0.30000E+00
         0.30000E+00
         0.30000E+00
         0.30000E+00
         0.30000E+00
         0.30000E+00
         0.30000E+00
         0.30000E+00
         0.30000E+00
         0.30000E+00
         0.30000E+00
         0.30000E+00
         0.30000E+00
         0.30000E+00
         0.30000E+00
         0.30000E+00
         0.30000E+00
         0.30000E+00
         0.30000E+00
         0.30000E+00
         0.30000E+00
         0.30000E+00
         0.30000E+00
         0.30000E+00
         0.30000E+00
         0.30000E+00
         0.30000E+00
         0.30000E+00
         0.30000E+00
         0.30000E+00
         0.30000E+00
         0.30000E+00
         0.30000E+00
         0.30000E+00
         0.30000E+00
         0.30000E+00
         0.30000E+00
         0.30000E+00
         0.30000E+00
         0.30000E+00
         0.30000E+00
         0.30000E+00
         0.30000E+00
         0.30000E+00
         0.30000E+00
         0.30000E+00
         0.30000E+00
         0.30000E+00
         0.30000E+00
         0.30000E+00
         0.30000E+00
         0.30000E+00
         0.30000E+00
         0.30000E+00
         0.30000E+00
         0.30000E+00
         0.30000E+00
         0.30000E+00
         0.30000E+00
         0.30000E+00
         0.30000E+00
         0.30000E+00
  
SCALARS                 Youngs_modulus  double 1
LOOKUP_TABLE default
         0.78200E+11
         0.78200E+11
         0.78200E+11
         0.78200E+11
         0.78200E+11
         0.78200E+11
         0.78200E+11
         0.78200E+11
         0.78200E+11
         0.78200E+11
         0.78200E+11
         0.78200E+11
         0.78200E+11
         0.78200E+11
         0.78200E+11
         0.78200E+11
         0.78200E+11
         0.78200E+11
         0.78200E+11
         0.78200E+11
         0.78200E+11
         0.78200E+11
         0.78200E+11
         0.78200E+11
         0.78200E+11
         0.78200E+11
         0.78200E+11
         0.78200E+11
         0.78200E+11
         0.78200E+11
         0.78200E+11
         0.78200E+11
         0.78200E+11
         0.78200E+11
         0.78200E+11
         0.78200E+11
         0.78200E+11
         0.78200E+11
         0.78200E+11
         0.78200E+11
         0.78200E+11
         0.78200E+11
         0.78200E+11
         0.78200E+11
         0.78200E+11
         0.78200E+11
         0.78200E+11
         0.78200E+11
         0.78200E+11
         0.78200E+11
         0.78200E+11
         0.78200E+11
         0.78200E+11
         0.78200E+11
         0.78200E+11
         0.78200E+11
         0.78200E+11
         0.78200E+11
         0.78200E+11
         0.78200E+11
         0.78200E+11
         0.78200E+11
         0.78200E+11
         0.78200E+11
         0.78200E+11
         0.78200E+11
         0.78200E+11
         0.78200E+11
         0.78200E+11
         0.78200E+11
         0.78200E+11
         0.78200E+11
         0.78200E+11
         0.78200E+11
         0.78200E+11
         0.78200E+11
         0.78200E+11
         0.78200E+11
         0.78200E+11
         0.78200E+11
         0.78200E+11
         0.78200E+11
         0.78200E+11
         0.78200E+11
         0.78200E+11
         0.78200E+11
         0.78200E+11
         0.78200E+11
         0.78200E+11
         0.78200E+11
         0.78200E+11
         0.78200E+11
         0.78200E+11
         0.78200E+11
         0.78200E+11
         0.78200E+11
         0.78200E+11
         0.78200E+11
         0.78200E+11
         0.78200E+11
         0.78200E+11
         0.78200E+11
         0.78200E+11
         0.78200E+11
         0.78200E+11
         0.78200E+11
         0.78200E+11
         0.78200E+11
         0.78200E+11
         0.78200E+11
         0.78200E+11
         0.78200E+11
         0.78200E+11
         0.78200E+11
         0.78200E+11
         0.78200E+11
         0.78200E+11
         0.78200E+11
         0.78200E+11
         0.78200E+11
         0.78200E+11
         0.78200E+11
         0.78200E+11
         0.78200E+11
         0.78200E+11
         0.78200E+11
         0.78200E+11
         0.78200E+11
         0.78200E+11
         0.78200E+11
         0.78200E+11
         0.78200E+11
         0.78200E+11
         0.78200E+11
         0.78200E+11
         0.78200E+11
         0.78200E+11
         0.78200E+11
         0.78200E+11
         0.78200E+11
         0.78200E+11
         0.78200E+11
         0.78200E+11
         0.78200E+11
         0.78200E+11
         0.78200E+11
         0.78200E+11
         0.78200E+11
         0.78200E+11
         0.78200E+11
         0.78200E+11
         0.78200E+11
         0.78200E+11
         0.78200E+11
         0.78200E+11
         0.78200E+11
         0.78200E+11
         0.78200E+11
         0.78200E+11
         0.78200E+11
         0.78200E+11
         0.78200E+11
         0.78200E+11
         0.78200E+11
         0.78200E+11
         0.78200E+11
         0.78200E+11
         0.78200E+11
         0.78200E+11
         0.78200E+11
         0.78200E+11
         0.78200E+11
         0.78200E+11
         0.78200E+11
         0.78200E+11
         0.78200E+11
         0.78200E+11
         0.78200E+11
         0.78200E+11
         0.78200E+11
         0.78200E+11
         0.78200E+11
         0.78200E+11
         0.78200E+11
         0.78200E+11
         0.78200E+11
         0.78200E+11
         0.78200E+11
         0.78200E+11
         0.78200E+11
         0.78200E+11
         0.78200E+11
         0.78200E+11
         0.78200E+11
         0.78200E+11
         0.78200E+11
         0.78200E+11
         0.78200E+11
         0.78200E+11
         0.78200E+11
         0.78200E+11
         0.78200E+11
         0.78200E+11
         0.78200E+11
         0.78200E+11
         0.78200E+11
         0.78200E+11
         0.78200E+11
         0.78200E+11
         0.78200E+11
         0.78200E+11
         0.78200E+11
         0.78200E+11
         0.78200E+11
         0.78200E+11
         0.78200E+11
         0.78200E+11
         0.78200E+11
         0.78200E+11
         0.78200E+11
         0.78200E+11
         0.78200E+11
         0.78200E+11
         0.78200E+11
         0.78200E+11
         0.78200E+11
         0.78200E+11
         0.78200E+11
         0.78200E+11
         0.78200E+11
         0.78200E+11
         0.78200E+11
         0.78200E+11
         0.78200E+11
         0.78200E+11
         0.78200E+11
         0.78200E+11
         0.78200E+11
         0.78200E+11
         0.78200E+11
         0.78200E+11
         0.78200E+11
         0.78200E+11
         0.78200E+11
         0.78200E+11
         0.78200E+11
         0.78200E+11
         0.78200E+11
         0.78200E+11
         0.78200E+11
         0.78200E+11
         0.78200E+11
         0.78200E+11
         0.78200E+11
         0.78200E+11
         0.78200E+11
         0.78200E+11
         0.78200E+11
         0.78200E+11
         0.78200E+11
         0.78200E+11
         0.78200E+11
         0.78200E+11
         0.78200E+11
         0.78200E+11
         0.78200E+11
         0.78200E+11
         0.78200E+11
         0.78200E+11
         0.78200E+11
         0.78200E+11
         0.78200E+11
         0.78200E+11
         0.78200E+11
         0.78200E+11
         0.78200E+11
         0.78200E+11
         0.78200E+11
         0.78200E+11
         0.78200E+11
         0.78200E+11
         0.78200E+11
         0.78200E+11
         0.78200E+11
         0.78200E+11
         0.78200E+11
         0.78200E+11
         0.78200E+11
         0.78200E+11
         0.78200E+11
         0.78200E+11
         0.78200E+11
         0.78200E+11
         0.78200E+11
         0.78200E+11
         0.78200E+11
         0.78200E+11
         0.78200E+11
         0.78200E+11
         0.78200E+11
         0.78200E+11
         0.78200E+11
         0.78200E+11
         0.78200E+11
         0.78200E+11
         0.78200E+11
         0.78200E+11
         0.78200E+11
         0.78200E+11
         0.78200E+11
         0.78200E+11
         0.78200E+11
         0.78200E+11
         0.78200E+11
         0.78200E+11
         0.78200E+11
         0.78200E+11
         0.78200E+11
         0.78200E+11
         0.78200E+11
         0.78200E+11
         0.78200E+11
         0.78200E+11
         0.78200E+11
         0.78200E+11
         0.78200E+11
         0.78200E+11
         0.78200E+11
         0.78200E+11
         0.78200E+11
         0.78200E+11
         0.78200E+11
         0.78200E+11
         0.78200E+11
         0.78200E+11
         0.78200E+11
         0.78200E+11
         0.78200E+11
         0.78200E+11
         0.78200E+11
         0.78200E+11
         0.78200E+11
         0.78200E+11
         0.78200E+11
         0.78200E+11
         0.78200E+11
         0.78200E+11
         0.78200E+11
         0.78200E+11
         0.78200E+11
         0.78200E+11
         0.78200E+11
         0.78200E+11
         0.78200E+11
         0.78200E+11
         0.78200E+11
         0.78200E+11
         0.78200E+11
         0.78200E+11
         0.78200E+11
         0.78200E+11
         0.78200E+11
         0.78200E+11
         0.78200E+11
         0.78200E+11
         0.78200E+11
         0.78200E+11
         0.78200E+11
         0.78200E+11
         0.78200E+11
         0.78200E+11
         0.78200E+11
         0.78200E+11
         0.78200E+11
         0.78200E+11
         0.78200E+11
         0.78200E+11
         0.78200E+11
         0.78200E+11
         0.78200E+11
         0.78200E+11
         0.78200E+11
         0.78200E+11
         0.78200E+11
         0.78200E+11
         0.78200E+11
         0.78200E+11
         0.78200E+11
         0.78200E+11
         0.78200E+11
         0.78200E+11
         0.78200E+11
         0.78200E+11
         0.78200E+11
         0.78200E+11
         0.78200E+11
         0.78200E+11
         0.78200E+11
         0.78200E+11
         0.78200E+11
         0.78200E+11
         0.78200E+11
         0.78200E+11
         0.78200E+11
         0.78200E+11
         0.78200E+11
         0.78200E+11
         0.78200E+11
         0.78200E+11
         0.78200E+11
         0.78200E+11
         0.78200E+11
         0.78200E+11
         0.78200E+11
         0.78200E+11
         0.78200E+11
         0.78200E+11
         0.78200E+11
         0.78200E+11
         0.78200E+11
         0.78200E+11
         0.78200E+11
         0.78200E+11
         0.78200E+11
         0.78200E+11
         0.78200E+11
         0.78200E+11
         0.78200E+11
         0.78200E+11
         0.78200E+11
         0.78200E+11
         0.78200E+11
         0.78200E+11
         0.78200E+11
         0.78200E+11
         0.78200E+11
         0.78200E+11
         0.78200E+11
         0.78200E+11
         0.78200E+11
         0.78200E+11
         0.78200E+11
         0.78200E+11
         0.78200E+11
         0.78200E+11
         0.78200E+11
         0.78200E+11
         0.78200E+11
         0.78200E+11
         0.78200E+11
         0.78200E+11
         0.78200E+11
         0.78200E+11
         0.78200E+11
         0.78200E+11
         0.78200E+11
         0.78200E+11
         0.78200E+11
         0.78200E+11
         0.78200E+11
         0.78200E+11
         0.78200E+11
         0.78200E+11
         0.78200E+11
         0.78200E+11
         0.78200E+11
         0.78200E+11
         0.78200E+11
         0.78200E+11
         0.78200E+11
         0.78200E+11
         0.78200E+11
         0.78200E+11
         0.78200E+11
         0.78200E+11
         0.78200E+11
         0.78200E+11
         0.78200E+11
         0.78200E+11
         0.78200E+11
         0.78200E+11
         0.78200E+11
         0.78200E+11
         0.78200E+11
         0.78200E+11
         0.78200E+11
         0.78200E+11
         0.78200E+11
         0.78200E+11
         0.78200E+11
         0.78200E+11
         0.78200E+11
         0.78200E+11
         0.78200E+11
         0.78200E+11
         0.78200E+11
         0.78200E+11
         0.78200E+11
         0.78200E+11
         0.78200E+11
         0.78200E+11
         0.78200E+11
         0.78200E+11
         0.78200E+11
         0.78200E+11
         0.78200E+11
         0.78200E+11
         0.78200E+11
         0.78200E+11
         0.78200E+11
         0.78200E+11
         0.78200E+11
         0.78200E+11
         0.78200E+11
         0.78200E+11
         0.78200E+11
         0.78200E+11
         0.78200E+11
         0.78200E+11
         0.78200E+11
         0.78200E+11
         0.78200E+11
         0.78200E+11
         0.78200E+11
         0.78200E+11
         0.78200E+11
         0.78200E+11
         0.78200E+11
         0.78200E+11
         0.78200E+11
         0.78200E+11
         0.78200E+11
         0.78200E+11
         0.78200E+11
         0.78200E+11
         0.78200E+11
         0.78200E+11
         0.78200E+11
         0.78200E+11
         0.78200E+11
         0.78200E+11
         0.78200E+11
         0.78200E+11
         0.78200E+11
         0.78200E+11
         0.78200E+11
         0.78200E+11
         0.78200E+11
         0.78200E+11
         0.78200E+11
         0.78200E+11
         0.78200E+11
         0.78200E+11
         0.78200E+11
         0.78200E+11
         0.78200E+11
         0.78200E+11
         0.78200E+11
         0.78200E+11
         0.78200E+11
         0.78200E+11
         0.78200E+11
         0.78200E+11
         0.78200E+11
         0.78200E+11
         0.78200E+11
         0.78200E+11
         0.78200E+11
         0.78200E+11
         0.78200E+11
         0.78200E+11
         0.78200E+11
         0.78200E+11
         0.78200E+11
         0.78200E+11
         0.78200E+11
         0.78200E+11
         0.78200E+11
         0.78200E+11
         0.78200E+11
         0.78200E+11
         0.78200E+11
         0.78200E+11
         0.78200E+11
         0.78200E+11
         0.78200E+11
         0.78200E+11
         0.78200E+11
         0.78200E+11
         0.78200E+11
         0.78200E+11
         0.78200E+11
         0.78200E+11
         0.78200E+11
         0.78200E+11
         0.78200E+11
         0.78200E+11
         0.78200E+11
         0.78200E+11
         0.78200E+11
         0.78200E+11
         0.78200E+11
         0.78200E+11
         0.78200E+11
         0.78200E+11
         0.78200E+11
         0.78200E+11
         0.78200E+11
         0.78200E+11
         0.78200E+11
         0.78200E+11
         0.78200E+11
         0.78200E+11
         0.78200E+11
         0.78200E+11
         0.78200E+11
         0.78200E+11
         0.78200E+11
         0.78200E+11
         0.78200E+11
         0.78200E+11
         0.78200E+11
         0.78200E+11
         0.78200E+11
         0.78200E+11
         0.78200E+11
         0.78200E+11
         0.78200E+11
         0.78200E+11
         0.78200E+11
         0.78200E+11
         0.78200E+11
         0.78200E+11
         0.78200E+11
         0.78200E+11
         0.78200E+11
         0.78200E+11
         0.78200E+11
         0.78200E+11
         0.78200E+11
         0.78200E+11
         0.78200E+11
         0.78200E+11
         0.78200E+11
         0.78200E+11
         0.78200E+11
         0.78200E+11
         0.78200E+11
         0.78200E+11
         0.78200E+11
         0.78200E+11
         0.78200E+11
         0.78200E+11
         0.78200E+11
         0.78200E+11
         0.78200E+11
         0.78200E+11
         0.78200E+11
         0.78200E+11
         0.78200E+11
         0.78200E+11
         0.78200E+11
         0.78200E+11
         0.78200E+11
         0.78200E+11
         0.78200E+11
         0.78200E+11
         0.78200E+11
         0.78200E+11
         0.78200E+11
         0.78200E+11
         0.78200E+11
         0.78200E+11
         0.78200E+11
         0.78200E+11
         0.78200E+11
         0.78200E+11
         0.78200E+11
         0.78200E+11
         0.78200E+11
         0.78200E+11
         0.78200E+11
         0.78200E+11
         0.78200E+11
         0.78200E+11
         0.78200E+11
         0.78200E+11
         0.78200E+11
         0.78200E+11
         0.78200E+11
         0.78200E+11
         0.78200E+11
         0.78200E+11
         0.78200E+11
         0.78200E+11
         0.78200E+11
         0.78200E+11
         0.78200E+11
         0.78200E+11
         0.78200E+11
         0.78200E+11
         0.78200E+11
         0.78200E+11
         0.78200E+11
         0.78200E+11
         0.78200E+11
         0.78200E+11
         0.78200E+11
         0.78200E+11
         0.78200E+11
         0.78200E+11
         0.78200E+11
         0.78200E+11
         0.78200E+11
         0.78200E+11
         0.78200E+11
         0.78200E+11
         0.78200E+11
         0.78200E+11
         0.78200E+11
         0.78200E+11
         0.78200E+11
         0.78200E+11
         0.78200E+11
         0.78200E+11
         0.78200E+11
         0.78200E+11
         0.78200E+11
         0.78200E+11
         0.78200E+11
         0.78200E+11
         0.78200E+11
         0.78200E+11
         0.78200E+11
         0.78200E+11
         0.78200E+11
         0.78200E+11
         0.78200E+11
         0.78200E+11
         0.78200E+11
         0.78200E+11
         0.78200E+11
         0.78200E+11
         0.78200E+11
         0.78200E+11
         0.78200E+11
         0.78200E+11
         0.78200E+11
         0.78200E+11
         0.78200E+11
         0.78200E+11
         0.78200E+11
         0.78200E+11
         0.78200E+11
         0.78200E+11
         0.78200E+11
         0.78200E+11
         0.78200E+11
         0.78200E+11
         0.78200E+11
         0.78200E+11
         0.78200E+11
         0.78200E+11
         0.78200E+11
         0.78200E+11
         0.78200E+11
         0.78200E+11
         0.78200E+11
         0.78200E+11
         0.78200E+11
         0.78200E+11
         0.78200E+11
         0.78200E+11
         0.78200E+11
         0.78200E+11
         0.78200E+11
         0.78200E+11
         0.78200E+11
         0.78200E+11
         0.78200E+11
         0.78200E+11
         0.78200E+11
         0.78200E+11
         0.78200E+11
         0.78200E+11
         0.78200E+11
         0.78200E+11
         0.78200E+11
         0.78200E+11
         0.78200E+11
         0.78200E+11
         0.78200E+11
         0.78200E+11
         0.78200E+11
         0.78200E+11
         0.78200E+11
         0.78200E+11
         0.78200E+11
         0.78200E+11
         0.78200E+11
         0.78200E+11
         0.78200E+11
         0.78200E+11
         0.78200E+11
         0.78200E+11
         0.78200E+11
         0.78200E+11
         0.78200E+11
         0.78200E+11
         0.78200E+11
         0.78200E+11
         0.78200E+11
         0.78200E+11
         0.78200E+11
         0.78200E+11
         0.78200E+11
         0.78200E+11
         0.78200E+11
         0.78200E+11
         0.78200E+11
         0.78200E+11
         0.78200E+11
         0.78200E+11
         0.78200E+11
         0.78200E+11
         0.78200E+11
         0.78200E+11
         0.78200E+11
         0.78200E+11
         0.78200E+11
         0.78200E+11
         0.78200E+11
         0.78200E+11
         0.78200E+11
         0.78200E+11
         0.78200E+11
         0.78200E+11
         0.78200E+11
         0.78200E+11
         0.78200E+11
         0.78200E+11
         0.78200E+11
         0.78200E+11
         0.78200E+11
         0.78200E+11
         0.78200E+11
         0.78200E+11
         0.78200E+11
         0.78200E+11
         0.78200E+11
         0.78200E+11
         0.78200E+11
         0.78200E+11
         0.78200E+11
         0.78200E+11
         0.78200E+11
         0.78200E+11
         0.78200E+11
         0.78200E+11
         0.78200E+11
         0.78200E+11
         0.78200E+11
         0.78200E+11
         0.78200E+11
         0.78200E+11
         0.78200E+11
         0.78200E+11
         0.78200E+11
         0.78200E+11
         0.78200E+11
         0.78200E+11
         0.78200E+11
         0.78200E+11
         0.78200E+11
         0.78200E+11
         0.78200E+11
         0.78200E+11
         0.78200E+11
         0.78200E+11
         0.78200E+11
         0.78200E+11
         0.78200E+11
         0.78200E+11
         0.78200E+11
         0.78200E+11
         0.78200E+11
         0.78200E+11
         0.78200E+11
         0.78200E+11
         0.78200E+11
         0.78200E+11
         0.78200E+11
         0.78200E+11
         0.78200E+11
         0.78200E+11
         0.78200E+11
         0.78200E+11
         0.78200E+11
         0.78200E+11
         0.78200E+11
         0.78200E+11
         0.78200E+11
         0.78200E+11
         0.78200E+11
         0.78200E+11
         0.78200E+11
         0.78200E+11
         0.78200E+11
         0.78200E+11
         0.78200E+11
         0.78200E+11
         0.78200E+11
         0.78200E+11
         0.78200E+11
         0.78200E+11
         0.78200E+11
         0.78200E+11
         0.78200E+11
         0.78200E+11
         0.78200E+11
         0.78200E+11
         0.78200E+11
         0.78200E+11
         0.78200E+11
         0.78200E+11
         0.78200E+11
         0.78200E+11
         0.78200E+11
         0.78200E+11
         0.78200E+11
         0.78200E+11
         0.78200E+11
         0.78200E+11
         0.78200E+11
         0.78200E+11
         0.78200E+11
         0.78200E+11
         0.78200E+11
         0.78200E+11
         0.78200E+11
         0.78200E+11
         0.78200E+11
         0.78200E+11
         0.78200E+11
         0.78200E+11
         0.78200E+11
         0.78200E+11
         0.78200E+11
         0.78200E+11
         0.78200E+11
         0.78200E+11
         0.78200E+11
         0.78200E+11
         0.78200E+11
         0.78200E+11
         0.78200E+11
         0.78200E+11
         0.78200E+11
         0.78200E+11
         0.78200E+11
         0.78200E+11
         0.78200E+11
         0.78200E+11
         0.78200E+11
         0.78200E+11
         0.78200E+11
         0.78200E+11
         0.78200E+11
         0.78200E+11
         0.78200E+11
         0.78200E+11
         0.78200E+11
         0.78200E+11
         0.78200E+11
         0.78200E+11
         0.78200E+11
         0.78200E+11
         0.78200E+11
         0.78200E+11
         0.78200E+11
         0.78200E+11
         0.78200E+11
         0.78200E+11
         0.78200E+11
         0.78200E+11
         0.78200E+11
         0.78200E+11
         0.78200E+11
         0.78200E+11
         0.78200E+11
         0.78200E+11
         0.78200E+11
         0.78200E+11
         0.78200E+11
         0.78200E+11
         0.78200E+11
         0.78200E+11
         0.78200E+11
         0.78200E+11
         0.78200E+11
         0.78200E+11
         0.78200E+11
         0.78200E+11
         0.78200E+11
         0.78200E+11
         0.78200E+11
         0.78200E+11
         0.78200E+11
         0.78200E+11
         0.78200E+11
         0.78200E+11
         0.78200E+11
         0.78200E+11
         0.78200E+11
         0.78200E+11
         0.78200E+11
         0.78200E+11
         0.78200E+11
         0.78200E+11
         0.78200E+11
         0.78200E+11
         0.78200E+11
         0.78200E+11
         0.78200E+11
         0.78200E+11
         0.78200E+11
         0.78200E+11
         0.78200E+11
         0.78200E+11
         0.78200E+11
         0.78200E+11
         0.78200E+11
         0.78200E+11
         0.78200E+11
         0.78200E+11
         0.78200E+11
         0.78200E+11
         0.78200E+11
         0.78200E+11
         0.78200E+11
         0.78200E+11
         0.78200E+11
         0.78200E+11
         0.78200E+11
         0.78200E+11
         0.78200E+11
         0.78200E+11
         0.78200E+11
         0.78200E+11
         0.78200E+11
         0.78200E+11
         0.78200E+11
         0.78200E+11
         0.78200E+11
         0.78200E+11
         0.78200E+11
         0.78200E+11
         0.78200E+11
         0.78200E+11
         0.78200E+11
         0.78200E+11
         0.78200E+11
         0.78200E+11
         0.78200E+11
         0.78200E+11
         0.78200E+11
         0.78200E+11
         0.78200E+11
         0.78200E+11
         0.78200E+11
         0.78200E+11
         0.78200E+11
         0.78200E+11
         0.78200E+11
         0.78200E+11
         0.78200E+11
         0.78200E+11
         0.78200E+11
         0.78200E+11
         0.78200E+11
         0.78200E+11
         0.78200E+11
         0.78200E+11
         0.78200E+11
         0.78200E+11
         0.78200E+11
         0.78200E+11
         0.78200E+11
         0.78200E+11
         0.78200E+11
         0.78200E+11
         0.78200E+11
         0.78200E+11
         0.78200E+11
         0.78200E+11
         0.78200E+11
         0.78200E+11
         0.78200E+11
         0.78200E+11
         0.78200E+11
         0.78200E+11
         0.78200E+11
         0.78200E+11
         0.78200E+11
         0.78200E+11
         0.78200E+11
         0.78200E+11
         0.78200E+11
         0.78200E+11
         0.78200E+11
         0.78200E+11
         0.78200E+11
         0.78200E+11
         0.78200E+11
         0.78200E+11
         0.78200E+11
         0.78200E+11
         0.78200E+11
         0.78200E+11
         0.78200E+11
         0.78200E+11
         0.78200E+11
         0.78200E+11
         0.78200E+11
         0.78200E+11
         0.78200E+11
         0.78200E+11
         0.78200E+11
         0.78200E+11
         0.78200E+11
         0.78200E+11
         0.78200E+11
         0.78200E+11
         0.78200E+11
         0.78200E+11
         0.78200E+11
         0.78200E+11
         0.78200E+11
         0.78200E+11
         0.78200E+11
         0.78200E+11
         0.78200E+11
         0.78200E+11
         0.78200E+11
         0.78200E+11
         0.78200E+11
         0.78200E+11
         0.78200E+11
         0.78200E+11
         0.78200E+11
         0.78200E+11
         0.78200E+11
         0.78200E+11
         0.78200E+11
         0.78200E+11
         0.78200E+11
         0.78200E+11
         0.78200E+11
         0.78200E+11
         0.78200E+11
         0.78200E+11
         0.78200E+11
         0.78200E+11
         0.78200E+11
         0.78200E+11
         0.78200E+11
         0.78200E+11
         0.78200E+11
         0.78200E+11
         0.78200E+11
         0.78200E+11
         0.78200E+11
         0.78200E+11
         0.78200E+11
         0.78200E+11
         0.78200E+11
         0.78200E+11
         0.78200E+11
         0.78200E+11
         0.78200E+11
         0.78200E+11
         0.78200E+11
         0.78200E+11
         0.78200E+11
         0.78200E+11
         0.78200E+11
         0.78200E+11
         0.78200E+11
         0.78200E+11
         0.78200E+11
         0.78200E+11
         0.78200E+11
         0.78200E+11
         0.78200E+11
         0.78200E+11
         0.78200E+11
         0.78200E+11
         0.78200E+11
         0.78200E+11
         0.78200E+11
         0.78200E+11
         0.78200E+11
         0.78200E+11
         0.78200E+11
         0.78200E+11
         0.78200E+11
         0.78200E+11
         0.78200E+11
         0.78200E+11
         0.78200E+11
         0.78200E+11
         0.78200E+11
         0.78200E+11
         0.78200E+11
         0.78200E+11
         0.78200E+11
         0.78200E+11
         0.78200E+11
         0.78200E+11
         0.78200E+11
         0.78200E+11
         0.78200E+11
         0.78200E+11
         0.78200E+11
         0.78200E+11
         0.78200E+11
         0.78200E+11
         0.78200E+11
         0.78200E+11
         0.78200E+11
         0.78200E+11
         0.78200E+11
         0.78200E+11
         0.78200E+11
         0.78200E+11
         0.78200E+11
         0.78200E+11
         0.78200E+11
         0.78200E+11
         0.78200E+11
         0.78200E+11
         0.78200E+11
         0.78200E+11
         0.78200E+11
         0.78200E+11
         0.78200E+11
         0.78200E+11
         0.78200E+11
         0.78200E+11
         0.78200E+11
         0.78200E+11
         0.78200E+11
         0.78200E+11
         0.78200E+11
         0.78200E+11
         0.78200E+11
         0.78200E+11
         0.78200E+11
         0.78200E+11
         0.78200E+11
         0.78200E+11
         0.78200E+11
         0.78200E+11
         0.78200E+11
         0.78200E+11
         0.78200E+11
         0.78200E+11
         0.78200E+11
         0.78200E+11
         0.78200E+11
         0.78200E+11
         0.78200E+11
         0.78200E+11
         0.78200E+11
         0.78200E+11
         0.78200E+11
         0.78200E+11
         0.78200E+11
         0.78200E+11
         0.78200E+11
         0.78200E+11
         0.78200E+11
         0.78200E+11
         0.78200E+11
         0.78200E+11
         0.78200E+11
         0.78200E+11
         0.78200E+11
         0.78200E+11
         0.78200E+11
         0.78200E+11
         0.78200E+11
         0.78200E+11
         0.78200E+11
         0.78200E+11
         0.78200E+11
         0.78200E+11
         0.78200E+11
         0.78200E+11
         0.78200E+11
         0.78200E+11
         0.78200E+11
         0.78200E+11
         0.78200E+11
         0.78200E+11
         0.78200E+11
         0.78200E+11
         0.78200E+11
         0.78200E+11
         0.78200E+11
         0.78200E+11
         0.78200E+11
         0.78200E+11
         0.78200E+11
         0.78200E+11
         0.78200E+11
         0.78200E+11
         0.78200E+11
         0.78200E+11
         0.78200E+11
         0.78200E+11
         0.78200E+11
         0.78200E+11
         0.78200E+11
         0.78200E+11
         0.78200E+11
         0.78200E+11
         0.78200E+11
         0.78200E+11
         0.78200E+11
         0.78200E+11
         0.78200E+11
         0.78200E+11
         0.78200E+11
         0.78200E+11
         0.78200E+11
         0.78200E+11
         0.78200E+11
         0.78200E+11
         0.78200E+11
         0.78200E+11
         0.78200E+11
         0.78200E+11
         0.78200E+11
         0.78200E+11
         0.78200E+11
         0.78200E+11
         0.78200E+11
         0.78200E+11
         0.78200E+11
         0.78200E+11
         0.78200E+11
         0.78200E+11
         0.78200E+11
         0.78200E+11
         0.78200E+11
         0.78200E+11
         0.78200E+11
         0.78200E+11
         0.78200E+11
         0.78200E+11
         0.78200E+11
         0.78200E+11
         0.78200E+11
         0.78200E+11
         0.78200E+11
         0.78200E+11
         0.78200E+11
         0.78200E+11
         0.78200E+11
         0.78200E+11
         0.78200E+11
         0.78200E+11
         0.78200E+11
         0.78200E+11
         0.78200E+11
         0.78200E+11
         0.78200E+11
         0.78200E+11
         0.78200E+11
         0.78200E+11
         0.78200E+11
         0.78200E+11
         0.78200E+11
         0.78200E+11
         0.78200E+11
         0.78200E+11
         0.78200E+11
         0.78200E+11
         0.78200E+11
         0.78200E+11
         0.78200E+11
         0.78200E+11
         0.78200E+11
         0.78200E+11
         0.78200E+11
         0.78200E+11
         0.78200E+11
         0.78200E+11
         0.78200E+11
         0.78200E+11
         0.78200E+11
         0.78200E+11
         0.78200E+11
         0.78200E+11
         0.78200E+11
         0.78200E+11
         0.78200E+11
         0.78200E+11
         0.78200E+11
         0.78200E+11
         0.78200E+11
         0.78200E+11
         0.78200E+11
         0.78200E+11
         0.78200E+11
         0.78200E+11
         0.78200E+11
         0.78200E+11
         0.78200E+11
         0.78200E+11
         0.78200E+11
         0.78200E+11
         0.78200E+11
         0.78200E+11
         0.78200E+11
         0.78200E+11
         0.78200E+11
         0.78200E+11
         0.78200E+11
         0.78200E+11
         0.78200E+11
         0.78200E+11
         0.78200E+11
         0.78200E+11
         0.78200E+11
         0.78200E+11
         0.78200E+11
         0.78200E+11
         0.78200E+11
         0.78200E+11
         0.78200E+11
         0.78200E+11
         0.78200E+11
         0.78200E+11
         0.78200E+11
         0.78200E+11
         0.78200E+11
         0.78200E+11
         0.78200E+11
         0.78200E+11
         0.78200E+11
         0.78200E+11
         0.78200E+11
         0.78200E+11
         0.78200E+11
         0.78200E+11
         0.78200E+11
         0.78200E+11
         0.78200E+11
         0.78200E+11
         0.78200E+11
         0.78200E+11
         0.78200E+11
         0.78200E+11
         0.78200E+11
         0.78200E+11
         0.78200E+11
         0.78200E+11
         0.78200E+11
         0.78200E+11
         0.78200E+11
         0.78200E+11
         0.78200E+11
         0.78200E+11
         0.78200E+11
         0.78200E+11
         0.78200E+11
         0.78200E+11
         0.78200E+11
         0.78200E+11
         0.78200E+11
         0.78200E+11
         0.78200E+11
         0.78200E+11
         0.78200E+11
         0.78200E+11
         0.78200E+11
         0.78200E+11
         0.78200E+11
         0.78200E+11
         0.78200E+11
         0.78200E+11
         0.78200E+11
         0.78200E+11
         0.78200E+11
         0.78200E+11
         0.78200E+11
         0.78200E+11
         0.78200E+11
         0.78200E+11
         0.78200E+11
         0.78200E+11
         0.78200E+11
         0.78200E+11
         0.78200E+11
         0.78200E+11
         0.78200E+11
         0.78200E+11
         0.78200E+11
         0.78200E+11
         0.78200E+11
         0.78200E+11
         0.78200E+11
         0.78200E+11
         0.78200E+11
         0.78200E+11
         0.78200E+11
         0.78200E+11
         0.78200E+11
         0.78200E+11
         0.78200E+11
         0.78200E+11
         0.78200E+11
         0.78200E+11
         0.78200E+11
         0.78200E+11
         0.78200E+11
         0.78200E+11
         0.78200E+11
         0.78200E+11
         0.78200E+11
         0.78200E+11
         0.78200E+11
         0.78200E+11
         0.78200E+11
         0.78200E+11
         0.78200E+11
         0.78200E+11
         0.78200E+11
         0.78200E+11
         0.78200E+11
         0.78200E+11
         0.78200E+11
         0.78200E+11
         0.78200E+11
         0.78200E+11
         0.78200E+11
         0.78200E+11
         0.78200E+11
         0.78200E+11
         0.78200E+11
         0.78200E+11
         0.78200E+11
         0.78200E+11
         0.78200E+11
         0.78200E+11
         0.78200E+11
         0.78200E+11
         0.78200E+11
         0.78200E+11
         0.78200E+11
         0.78200E+11
         0.78200E+11
         0.78200E+11
         0.78200E+11
         0.78200E+11
         0.78200E+11
         0.78200E+11
         0.78200E+11
         0.78200E+11
         0.78200E+11
         0.78200E+11
         0.78200E+11
         0.78200E+11
         0.78200E+11
         0.78200E+11
         0.78200E+11
         0.78200E+11
         0.78200E+11
         0.78200E+11
         0.78200E+11
         0.78200E+11
         0.78200E+11
         0.78200E+11
         0.78200E+11
         0.78200E+11
         0.78200E+11
         0.78200E+11
         0.78200E+11
         0.78200E+11
         0.78200E+11
         0.78200E+11
         0.78200E+11
         0.78200E+11
         0.78200E+11
         0.78200E+11
         0.78200E+11
         0.78200E+11
         0.78200E+11
         0.78200E+11
         0.78200E+11
         0.78200E+11
         0.78200E+11
         0.78200E+11
         0.78200E+11
         0.78200E+11
         0.78200E+11
         0.78200E+11
         0.78200E+11
         0.78200E+11
         0.78200E+11
         0.78200E+11
         0.78200E+11
         0.78200E+11
         0.78200E+11
         0.78200E+11
         0.78200E+11
         0.78200E+11
         0.78200E+11
         0.78200E+11
         0.78200E+11
         0.78200E+11
         0.78200E+11
         0.78200E+11
         0.78200E+11
         0.78200E+11
         0.78200E+11
         0.78200E+11
         0.78200E+11
         0.78200E+11
         0.78200E+11
         0.78200E+11
         0.78200E+11
         0.78200E+11
         0.78200E+11
         0.78200E+11
         0.78200E+11
         0.78200E+11
         0.78200E+11
         0.78200E+11
         0.78200E+11
         0.78200E+11
         0.78200E+11
         0.78200E+11
         0.78200E+11
         0.78200E+11
         0.78200E+11
         0.78200E+11
         0.78200E+11
         0.78200E+11
         0.78200E+11
         0.78200E+11
         0.78200E+11
         0.78200E+11
         0.78200E+11
         0.78200E+11
         0.78200E+11
         0.78200E+11
         0.78200E+11
         0.78200E+11
         0.78200E+11
         0.78200E+11
         0.78200E+11
         0.78200E+11
         0.78200E+11
         0.78200E+11
         0.78200E+11
         0.78200E+11
         0.78200E+11
         0.78200E+11
         0.78200E+11
         0.78200E+11
         0.78200E+11
         0.78200E+11
         0.78200E+11
         0.78200E+11
         0.78200E+11
         0.78200E+11
         0.78200E+11
         0.78200E+11
         0.78200E+11
         0.78200E+11
         0.78200E+11
         0.78200E+11
         0.78200E+11
         0.78200E+11
         0.78200E+11
         0.78200E+11
         0.78200E+11
         0.78200E+11
         0.78200E+11
         0.78200E+11
         0.78200E+11
         0.78200E+11
         0.78200E+11
         0.78200E+11
         0.78200E+11
         0.78200E+11
         0.78200E+11
         0.78200E+11
         0.78200E+11
         0.78200E+11
         0.78200E+11
         0.78200E+11
         0.78200E+11
         0.78200E+11
         0.78200E+11
         0.78200E+11
         0.78200E+11
         0.78200E+11
         0.78200E+11
         0.78200E+11
         0.78200E+11
         0.78200E+11
         0.78200E+11
         0.78200E+11
         0.78200E+11
         0.78200E+11
         0.78200E+11
         0.78200E+11
         0.78200E+11
         0.78200E+11
         0.78200E+11
         0.78200E+11
         0.78200E+11
         0.78200E+11
         0.78200E+11
         0.78200E+11
         0.78200E+11
         0.78200E+11
         0.78200E+11
         0.78200E+11
         0.78200E+11
         0.78200E+11
         0.78200E+11
         0.78200E+11
         0.78200E+11
         0.78200E+11
         0.78200E+11
         0.78200E+11
         0.78200E+11
         0.78200E+11
         0.78200E+11
         0.78200E+11
         0.78200E+11
         0.78200E+11
         0.78200E+11
         0.78200E+11
         0.78200E+11
         0.78200E+11
         0.78200E+11
         0.78200E+11
         0.78200E+11
         0.78200E+11
         0.78200E+11
         0.78200E+11
         0.78200E+11
         0.78200E+11
         0.78200E+11
         0.78200E+11
         0.78200E+11
         0.78200E+11
         0.78200E+11
         0.78200E+11
         0.78200E+11
         0.78200E+11
         0.78200E+11
         0.78200E+11
         0.78200E+11
         0.78200E+11
         0.78200E+11
         0.78200E+11
         0.78200E+11
         0.78200E+11
         0.78200E+11
         0.78200E+11
         0.78200E+11
         0.78200E+11
         0.78200E+11
         0.78200E+11
         0.78200E+11
         0.78200E+11
         0.78200E+11
         0.78200E+11
         0.78200E+11
         0.78200E+11
         0.78200E+11
         0.78200E+11
         0.78200E+11
         0.78200E+11
         0.78200E+11
         0.78200E+11
         0.78200E+11
         0.78200E+11
         0.78200E+11
         0.78200E+11
         0.78200E+11
         0.78200E+11
         0.78200E+11
         0.78200E+11
         0.78200E+11
         0.78200E+11
         0.78200E+11
         0.78200E+11
         0.78200E+11
         0.78200E+11
         0.78200E+11
         0.78200E+11
         0.78200E+11
         0.78200E+11
         0.78200E+11
         0.78200E+11
         0.78200E+11
         0.78200E+11
         0.78200E+11
         0.78200E+11
         0.78200E+11
         0.78200E+11
         0.78200E+11
         0.78200E+11
         0.78200E+11
         0.78200E+11
         0.78200E+11
         0.78200E+11
         0.78200E+11
         0.78200E+11
         0.78200E+11
         0.78200E+11
         0.78200E+11
         0.78200E+11
         0.78200E+11
         0.78200E+11
         0.78200E+11
         0.78200E+11
         0.78200E+11
         0.78200E+11
         0.78200E+11
         0.78200E+11
         0.78200E+11
         0.78200E+11
         0.78200E+11
         0.78200E+11
         0.78200E+11
         0.78200E+11
         0.78200E+11
         0.78200E+11
         0.78200E+11
         0.78200E+11
         0.78200E+11
         0.78200E+11
         0.78200E+11
         0.78200E+11
         0.78200E+11
         0.78200E+11
         0.78200E+11
         0.78200E+11
         0.78200E+11
         0.78200E+11
         0.78200E+11
         0.78200E+11
         0.78200E+11
         0.78200E+11
         0.78200E+11
         0.78200E+11
         0.78200E+11
         0.78200E+11
         0.78200E+11
         0.78200E+11
         0.78200E+11
         0.78200E+11
         0.78200E+11
         0.78200E+11
         0.78200E+11
         0.78200E+11
         0.78200E+11
         0.78200E+11
         0.78200E+11
         0.78200E+11
         0.78200E+11
         0.78200E+11
         0.78200E+11
         0.78200E+11
         0.78200E+11
         0.78200E+11
         0.78200E+11
         0.78200E+11
         0.78200E+11
         0.78200E+11
         0.78200E+11
         0.78200E+11
         0.78200E+11
         0.78200E+11
         0.78200E+11
         0.78200E+11
         0.78200E+11
         0.78200E+11
         0.78200E+11
         0.78200E+11
         0.78200E+11
         0.78200E+11
         0.78200E+11
         0.78200E+11
         0.78200E+11
         0.78200E+11
         0.78200E+11
         0.78200E+11
         0.78200E+11
         0.78200E+11
         0.78200E+11
         0.78200E+11
         0.78200E+11
         0.78200E+11
         0.78200E+11
         0.78200E+11
         0.78200E+11
         0.78200E+11
         0.78200E+11
         0.78200E+11
         0.78200E+11
         0.78200E+11
         0.78200E+11
         0.78200E+11
         0.78200E+11
         0.78200E+11
         0.78200E+11
         0.78200E+11
         0.78200E+11
         0.78200E+11
         0.78200E+11
         0.78200E+11
         0.78200E+11
         0.78200E+11
         0.78200E+11
         0.78200E+11
         0.78200E+11
         0.78200E+11
         0.78200E+11
         0.78200E+11
         0.78200E+11
         0.78200E+11
         0.78200E+11
         0.78200E+11
         0.78200E+11
         0.78200E+11
         0.78200E+11
         0.78200E+11
         0.78200E+11
         0.78200E+11
         0.78200E+11
  
SCALARS                        density  double 1
LOOKUP_TABLE default
         0.27000E+04
         0.27000E+04
         0.27000E+04
         0.27000E+04
         0.27000E+04
         0.27000E+04
         0.27000E+04
         0.27000E+04
         0.27000E+04
         0.27000E+04
         0.27000E+04
         0.27000E+04
         0.27000E+04
         0.27000E+04
         0.27000E+04
         0.27000E+04
         0.27000E+04
         0.27000E+04
         0.27000E+04
         0.27000E+04
         0.27000E+04
         0.27000E+04
         0.27000E+04
         0.27000E+04
         0.27000E+04
         0.27000E+04
         0.27000E+04
         0.27000E+04
         0.27000E+04
         0.27000E+04
         0.27000E+04
         0.27000E+04
         0.27000E+04
         0.27000E+04
         0.27000E+04
         0.27000E+04
         0.27000E+04
         0.27000E+04
         0.27000E+04
         0.27000E+04
         0.27000E+04
         0.27000E+04
         0.27000E+04
         0.27000E+04
         0.27000E+04
         0.27000E+04
         0.27000E+04
         0.27000E+04
         0.27000E+04
         0.27000E+04
         0.27000E+04
         0.27000E+04
         0.27000E+04
         0.27000E+04
         0.27000E+04
         0.27000E+04
         0.27000E+04
         0.27000E+04
         0.27000E+04
         0.27000E+04
         0.27000E+04
         0.27000E+04
         0.27000E+04
         0.27000E+04
         0.27000E+04
         0.27000E+04
         0.27000E+04
         0.27000E+04
         0.27000E+04
         0.27000E+04
         0.27000E+04
         0.27000E+04
         0.27000E+04
         0.27000E+04
         0.27000E+04
         0.27000E+04
         0.27000E+04
         0.27000E+04
         0.27000E+04
         0.27000E+04
         0.27000E+04
         0.27000E+04
         0.27000E+04
         0.27000E+04
         0.27000E+04
         0.27000E+04
         0.27000E+04
         0.27000E+04
         0.27000E+04
         0.27000E+04
         0.27000E+04
         0.27000E+04
         0.27000E+04
         0.27000E+04
         0.27000E+04
         0.27000E+04
         0.27000E+04
         0.27000E+04
         0.27000E+04
         0.27000E+04
         0.27000E+04
         0.27000E+04
         0.27000E+04
         0.27000E+04
         0.27000E+04
         0.27000E+04
         0.27000E+04
         0.27000E+04
         0.27000E+04
         0.27000E+04
         0.27000E+04
         0.27000E+04
         0.27000E+04
         0.27000E+04
         0.27000E+04
         0.27000E+04
         0.27000E+04
         0.27000E+04
         0.27000E+04
         0.27000E+04
         0.27000E+04
         0.27000E+04
         0.27000E+04
         0.27000E+04
         0.27000E+04
         0.27000E+04
         0.27000E+04
         0.27000E+04
         0.27000E+04
         0.27000E+04
         0.27000E+04
         0.27000E+04
         0.27000E+04
         0.27000E+04
         0.27000E+04
         0.27000E+04
         0.27000E+04
         0.27000E+04
         0.27000E+04
         0.27000E+04
         0.27000E+04
         0.27000E+04
         0.27000E+04
         0.27000E+04
         0.27000E+04
         0.27000E+04
         0.27000E+04
         0.27000E+04
         0.27000E+04
         0.27000E+04
         0.27000E+04
         0.27000E+04
         0.27000E+04
         0.27000E+04
         0.27000E+04
         0.27000E+04
         0.27000E+04
         0.27000E+04
         0.27000E+04
         0.27000E+04
         0.27000E+04
         0.27000E+04
         0.27000E+04
         0.27000E+04
         0.27000E+04
         0.27000E+04
         0.27000E+04
         0.27000E+04
         0.27000E+04
         0.27000E+04
         0.27000E+04
         0.27000E+04
         0.27000E+04
         0.27000E+04
         0.27000E+04
         0.27000E+04
         0.27000E+04
         0.27000E+04
         0.27000E+04
         0.27000E+04
         0.27000E+04
         0.27000E+04
         0.27000E+04
         0.27000E+04
         0.27000E+04
         0.27000E+04
         0.27000E+04
         0.27000E+04
         0.27000E+04
         0.27000E+04
         0.27000E+04
         0.27000E+04
         0.27000E+04
         0.27000E+04
         0.27000E+04
         0.27000E+04
         0.27000E+04
         0.27000E+04
         0.27000E+04
         0.27000E+04
         0.27000E+04
         0.27000E+04
         0.27000E+04
         0.27000E+04
         0.27000E+04
         0.27000E+04
         0.27000E+04
         0.27000E+04
         0.27000E+04
         0.27000E+04
         0.27000E+04
         0.27000E+04
         0.27000E+04
         0.27000E+04
         0.27000E+04
         0.27000E+04
         0.27000E+04
         0.27000E+04
         0.27000E+04
         0.27000E+04
         0.27000E+04
         0.27000E+04
         0.27000E+04
         0.27000E+04
         0.27000E+04
         0.27000E+04
         0.27000E+04
         0.27000E+04
         0.27000E+04
         0.27000E+04
         0.27000E+04
         0.27000E+04
         0.27000E+04
         0.27000E+04
         0.27000E+04
         0.27000E+04
         0.27000E+04
         0.27000E+04
         0.27000E+04
         0.27000E+04
         0.27000E+04
         0.27000E+04
         0.27000E+04
         0.27000E+04
         0.27000E+04
         0.27000E+04
         0.27000E+04
         0.27000E+04
         0.27000E+04
         0.27000E+04
         0.27000E+04
         0.27000E+04
         0.27000E+04
         0.27000E+04
         0.27000E+04
         0.27000E+04
         0.27000E+04
         0.27000E+04
         0.27000E+04
         0.27000E+04
         0.27000E+04
         0.27000E+04
         0.27000E+04
         0.27000E+04
         0.27000E+04
         0.27000E+04
         0.27000E+04
         0.27000E+04
         0.27000E+04
         0.27000E+04
         0.27000E+04
         0.27000E+04
         0.27000E+04
         0.27000E+04
         0.27000E+04
         0.27000E+04
         0.27000E+04
         0.27000E+04
         0.27000E+04
         0.27000E+04
         0.27000E+04
         0.27000E+04
         0.27000E+04
         0.27000E+04
         0.27000E+04
         0.27000E+04
         0.27000E+04
         0.27000E+04
         0.27000E+04
         0.27000E+04
         0.27000E+04
         0.27000E+04
         0.27000E+04
         0.27000E+04
         0.27000E+04
         0.27000E+04
         0.27000E+04
         0.27000E+04
         0.27000E+04
         0.27000E+04
         0.27000E+04
         0.27000E+04
         0.27000E+04
         0.27000E+04
         0.27000E+04
         0.27000E+04
         0.27000E+04
         0.27000E+04
         0.27000E+04
         0.27000E+04
         0.27000E+04
         0.27000E+04
         0.27000E+04
         0.27000E+04
         0.27000E+04
         0.27000E+04
         0.27000E+04
         0.27000E+04
         0.27000E+04
         0.27000E+04
         0.27000E+04
         0.27000E+04
         0.27000E+04
         0.27000E+04
         0.27000E+04
         0.27000E+04
         0.27000E+04
         0.27000E+04
         0.27000E+04
         0.27000E+04
         0.27000E+04
         0.27000E+04
         0.27000E+04
         0.27000E+04
         0.27000E+04
         0.27000E+04
         0.27000E+04
         0.27000E+04
         0.27000E+04
         0.27000E+04
         0.27000E+04
         0.27000E+04
         0.27000E+04
         0.27000E+04
         0.27000E+04
         0.27000E+04
         0.27000E+04
         0.27000E+04
         0.27000E+04
         0.27000E+04
         0.27000E+04
         0.27000E+04
         0.27000E+04
         0.27000E+04
         0.27000E+04
         0.27000E+04
         0.27000E+04
         0.27000E+04
         0.27000E+04
         0.27000E+04
         0.27000E+04
         0.27000E+04
         0.27000E+04
         0.27000E+04
         0.27000E+04
         0.27000E+04
         0.27000E+04
         0.27000E+04
         0.27000E+04
         0.27000E+04
         0.27000E+04
         0.27000E+04
         0.27000E+04
         0.27000E+04
         0.27000E+04
         0.27000E+04
         0.27000E+04
         0.27000E+04
         0.27000E+04
         0.27000E+04
         0.27000E+04
         0.27000E+04
         0.27000E+04
         0.27000E+04
         0.27000E+04
         0.27000E+04
         0.27000E+04
         0.27000E+04
         0.27000E+04
         0.27000E+04
         0.27000E+04
         0.27000E+04
         0.27000E+04
         0.27000E+04
         0.27000E+04
         0.27000E+04
         0.27000E+04
         0.27000E+04
         0.27000E+04
         0.27000E+04
         0.27000E+04
         0.27000E+04
         0.27000E+04
         0.27000E+04
         0.27000E+04
         0.27000E+04
         0.27000E+04
         0.27000E+04
         0.27000E+04
         0.27000E+04
         0.27000E+04
         0.27000E+04
         0.27000E+04
         0.27000E+04
         0.27000E+04
         0.27000E+04
         0.27000E+04
         0.27000E+04
         0.27000E+04
         0.27000E+04
         0.27000E+04
         0.27000E+04
         0.27000E+04
         0.27000E+04
         0.27000E+04
         0.27000E+04
         0.27000E+04
         0.27000E+04
         0.27000E+04
         0.27000E+04
         0.27000E+04
         0.27000E+04
         0.27000E+04
         0.27000E+04
         0.27000E+04
         0.27000E+04
         0.27000E+04
         0.27000E+04
         0.27000E+04
         0.27000E+04
         0.27000E+04
         0.27000E+04
         0.27000E+04
         0.27000E+04
         0.27000E+04
         0.27000E+04
         0.27000E+04
         0.27000E+04
         0.27000E+04
         0.27000E+04
         0.27000E+04
         0.27000E+04
         0.27000E+04
         0.27000E+04
         0.27000E+04
         0.27000E+04
         0.27000E+04
         0.27000E+04
         0.27000E+04
         0.27000E+04
         0.27000E+04
         0.27000E+04
         0.27000E+04
         0.27000E+04
         0.27000E+04
         0.27000E+04
         0.27000E+04
         0.27000E+04
         0.27000E+04
         0.27000E+04
         0.27000E+04
         0.27000E+04
         0.27000E+04
         0.27000E+04
         0.27000E+04
         0.27000E+04
         0.27000E+04
         0.27000E+04
         0.27000E+04
         0.27000E+04
         0.27000E+04
         0.27000E+04
         0.27000E+04
         0.27000E+04
         0.27000E+04
         0.27000E+04
         0.27000E+04
         0.27000E+04
         0.27000E+04
         0.27000E+04
         0.27000E+04
         0.27000E+04
         0.27000E+04
         0.27000E+04
         0.27000E+04
         0.27000E+04
         0.27000E+04
         0.27000E+04
         0.27000E+04
         0.27000E+04
         0.27000E+04
         0.27000E+04
         0.27000E+04
         0.27000E+04
         0.27000E+04
         0.27000E+04
         0.27000E+04
         0.27000E+04
         0.27000E+04
         0.27000E+04
         0.27000E+04
         0.27000E+04
         0.27000E+04
         0.27000E+04
         0.27000E+04
         0.27000E+04
         0.27000E+04
         0.27000E+04
         0.27000E+04
         0.27000E+04
         0.27000E+04
         0.27000E+04
         0.27000E+04
         0.27000E+04
         0.27000E+04
         0.27000E+04
         0.27000E+04
         0.27000E+04
         0.27000E+04
         0.27000E+04
         0.27000E+04
         0.27000E+04
         0.27000E+04
         0.27000E+04
         0.27000E+04
         0.27000E+04
         0.27000E+04
         0.27000E+04
         0.27000E+04
         0.27000E+04
         0.27000E+04
         0.27000E+04
         0.27000E+04
         0.27000E+04
         0.27000E+04
         0.27000E+04
         0.27000E+04
         0.27000E+04
         0.27000E+04
         0.27000E+04
         0.27000E+04
         0.27000E+04
         0.27000E+04
         0.27000E+04
         0.27000E+04
         0.27000E+04
         0.27000E+04
         0.27000E+04
         0.27000E+04
         0.27000E+04
         0.27000E+04
         0.27000E+04
         0.27000E+04
         0.27000E+04
         0.27000E+04
         0.27000E+04
         0.27000E+04
         0.27000E+04
         0.27000E+04
         0.27000E+04
         0.27000E+04
         0.27000E+04
         0.27000E+04
         0.27000E+04
         0.27000E+04
         0.27000E+04
         0.27000E+04
         0.27000E+04
         0.27000E+04
         0.27000E+04
         0.27000E+04
         0.27000E+04
         0.27000E+04
         0.27000E+04
         0.27000E+04
         0.27000E+04
         0.27000E+04
         0.27000E+04
         0.27000E+04
         0.27000E+04
         0.27000E+04
         0.27000E+04
         0.27000E+04
         0.27000E+04
         0.27000E+04
         0.27000E+04
         0.27000E+04
         0.27000E+04
         0.27000E+04
         0.27000E+04
         0.27000E+04
         0.27000E+04
         0.27000E+04
         0.27000E+04
         0.27000E+04
         0.27000E+04
         0.27000E+04
         0.27000E+04
         0.27000E+04
         0.27000E+04
         0.27000E+04
         0.27000E+04
         0.27000E+04
         0.27000E+04
         0.27000E+04
         0.27000E+04
         0.27000E+04
         0.27000E+04
         0.27000E+04
         0.27000E+04
         0.27000E+04
         0.27000E+04
         0.27000E+04
         0.27000E+04
         0.27000E+04
         0.27000E+04
         0.27000E+04
         0.27000E+04
         0.27000E+04
         0.27000E+04
         0.27000E+04
         0.27000E+04
         0.27000E+04
         0.27000E+04
         0.27000E+04
         0.27000E+04
         0.27000E+04
         0.27000E+04
         0.27000E+04
         0.27000E+04
         0.27000E+04
         0.27000E+04
         0.27000E+04
         0.27000E+04
         0.27000E+04
         0.27000E+04
         0.27000E+04
         0.27000E+04
         0.27000E+04
         0.27000E+04
         0.27000E+04
         0.27000E+04
         0.27000E+04
         0.27000E+04
         0.27000E+04
         0.27000E+04
         0.27000E+04
         0.27000E+04
         0.27000E+04
         0.27000E+04
         0.27000E+04
         0.27000E+04
         0.27000E+04
         0.27000E+04
         0.27000E+04
         0.27000E+04
         0.27000E+04
         0.27000E+04
         0.27000E+04
         0.27000E+04
         0.27000E+04
         0.27000E+04
         0.27000E+04
         0.27000E+04
         0.27000E+04
         0.27000E+04
         0.27000E+04
         0.27000E+04
         0.27000E+04
         0.27000E+04
         0.27000E+04
         0.27000E+04
         0.27000E+04
         0.27000E+04
         0.27000E+04
         0.27000E+04
         0.27000E+04
         0.27000E+04
         0.27000E+04
         0.27000E+04
         0.27000E+04
         0.27000E+04
         0.27000E+04
         0.27000E+04
         0.27000E+04
         0.27000E+04
         0.27000E+04
         0.27000E+04
         0.27000E+04
         0.27000E+04
         0.27000E+04
         0.27000E+04
         0.27000E+04
         0.27000E+04
         0.27000E+04
         0.27000E+04
         0.27000E+04
         0.27000E+04
         0.27000E+04
         0.27000E+04
         0.27000E+04
         0.27000E+04
         0.27000E+04
         0.27000E+04
         0.27000E+04
         0.27000E+04
         0.27000E+04
         0.27000E+04
         0.27000E+04
         0.27000E+04
         0.27000E+04
         0.27000E+04
         0.27000E+04
         0.27000E+04
         0.27000E+04
         0.27000E+04
         0.27000E+04
         0.27000E+04
         0.27000E+04
         0.27000E+04
         0.27000E+04
         0.27000E+04
         0.27000E+04
         0.27000E+04
         0.27000E+04
         0.27000E+04
         0.27000E+04
         0.27000E+04
         0.27000E+04
         0.27000E+04
         0.27000E+04
         0.27000E+04
         0.27000E+04
         0.27000E+04
         0.27000E+04
         0.27000E+04
         0.27000E+04
         0.27000E+04
         0.27000E+04
         0.27000E+04
         0.27000E+04
         0.27000E+04
         0.27000E+04
         0.27000E+04
         0.27000E+04
         0.27000E+04
         0.27000E+04
         0.27000E+04
         0.27000E+04
         0.27000E+04
         0.27000E+04
         0.27000E+04
         0.27000E+04
         0.27000E+04
         0.27000E+04
         0.27000E+04
         0.27000E+04
         0.27000E+04
         0.27000E+04
         0.27000E+04
         0.27000E+04
         0.27000E+04
         0.27000E+04
         0.27000E+04
         0.27000E+04
         0.27000E+04
         0.27000E+04
         0.27000E+04
         0.27000E+04
         0.27000E+04
         0.27000E+04
         0.27000E+04
         0.27000E+04
         0.27000E+04
         0.27000E+04
         0.27000E+04
         0.27000E+04
         0.27000E+04
         0.27000E+04
         0.27000E+04
         0.27000E+04
         0.27000E+04
         0.27000E+04
         0.27000E+04
         0.27000E+04
         0.27000E+04
         0.27000E+04
         0.27000E+04
         0.27000E+04
         0.27000E+04
         0.27000E+04
         0.27000E+04
         0.27000E+04
         0.27000E+04
         0.27000E+04
         0.27000E+04
         0.27000E+04
         0.27000E+04
         0.27000E+04
         0.27000E+04
         0.27000E+04
         0.27000E+04
         0.27000E+04
         0.27000E+04
         0.27000E+04
         0.27000E+04
         0.27000E+04
         0.27000E+04
         0.27000E+04
         0.27000E+04
         0.27000E+04
         0.27000E+04
         0.27000E+04
         0.27000E+04
         0.27000E+04
         0.27000E+04
         0.27000E+04
         0.27000E+04
         0.27000E+04
         0.27000E+04
         0.27000E+04
         0.27000E+04
         0.27000E+04
         0.27000E+04
         0.27000E+04
         0.27000E+04
         0.27000E+04
         0.27000E+04
         0.27000E+04
         0.27000E+04
         0.27000E+04
         0.27000E+04
         0.27000E+04
         0.27000E+04
         0.27000E+04
         0.27000E+04
         0.27000E+04
         0.27000E+04
         0.27000E+04
         0.27000E+04
         0.27000E+04
         0.27000E+04
         0.27000E+04
         0.27000E+04
         0.27000E+04
         0.27000E+04
         0.27000E+04
         0.27000E+04
         0.27000E+04
         0.27000E+04
         0.27000E+04
         0.27000E+04
         0.27000E+04
         0.27000E+04
         0.27000E+04
         0.27000E+04
         0.27000E+04
         0.27000E+04
         0.27000E+04
         0.27000E+04
         0.27000E+04
         0.27000E+04
         0.27000E+04
         0.27000E+04
         0.27000E+04
         0.27000E+04
         0.27000E+04
         0.27000E+04
         0.27000E+04
         0.27000E+04
         0.27000E+04
         0.27000E+04
         0.27000E+04
         0.27000E+04
         0.27000E+04
         0.27000E+04
         0.27000E+04
         0.27000E+04
         0.27000E+04
         0.27000E+04
         0.27000E+04
         0.27000E+04
         0.27000E+04
         0.27000E+04
         0.27000E+04
         0.27000E+04
         0.27000E+04
         0.27000E+04
         0.27000E+04
         0.27000E+04
         0.27000E+04
         0.27000E+04
         0.27000E+04
         0.27000E+04
         0.27000E+04
         0.27000E+04
         0.27000E+04
         0.27000E+04
         0.27000E+04
         0.27000E+04
         0.27000E+04
         0.27000E+04
         0.27000E+04
         0.27000E+04
         0.27000E+04
         0.27000E+04
         0.27000E+04
         0.27000E+04
         0.27000E+04
         0.27000E+04
         0.27000E+04
         0.27000E+04
         0.27000E+04
         0.27000E+04
         0.27000E+04
         0.27000E+04
         0.27000E+04
         0.27000E+04
         0.27000E+04
         0.27000E+04
         0.27000E+04
         0.27000E+04
         0.27000E+04
         0.27000E+04
         0.27000E+04
         0.27000E+04
         0.27000E+04
         0.27000E+04
         0.27000E+04
         0.27000E+04
         0.27000E+04
         0.27000E+04
         0.27000E+04
         0.27000E+04
         0.27000E+04
         0.27000E+04
         0.27000E+04
         0.27000E+04
         0.27000E+04
         0.27000E+04
         0.27000E+04
         0.27000E+04
         0.27000E+04
         0.27000E+04
         0.27000E+04
         0.27000E+04
         0.27000E+04
         0.27000E+04
         0.27000E+04
         0.27000E+04
         0.27000E+04
         0.27000E+04
         0.27000E+04
         0.27000E+04
         0.27000E+04
         0.27000E+04
         0.27000E+04
         0.27000E+04
         0.27000E+04
         0.27000E+04
         0.27000E+04
         0.27000E+04
         0.27000E+04
         0.27000E+04
         0.27000E+04
         0.27000E+04
         0.27000E+04
         0.27000E+04
         0.27000E+04
         0.27000E+04
         0.27000E+04
         0.27000E+04
         0.27000E+04
         0.27000E+04
         0.27000E+04
         0.27000E+04
         0.27000E+04
         0.27000E+04
         0.27000E+04
         0.27000E+04
         0.27000E+04
         0.27000E+04
         0.27000E+04
         0.27000E+04
         0.27000E+04
         0.27000E+04
         0.27000E+04
         0.27000E+04
         0.27000E+04
         0.27000E+04
         0.27000E+04
         0.27000E+04
         0.27000E+04
         0.27000E+04
         0.27000E+04
         0.27000E+04
         0.27000E+04
         0.27000E+04
         0.27000E+04
         0.27000E+04
         0.27000E+04
         0.27000E+04
         0.27000E+04
         0.27000E+04
         0.27000E+04
         0.27000E+04
         0.27000E+04
         0.27000E+04
         0.27000E+04
         0.27000E+04
         0.27000E+04
         0.27000E+04
         0.27000E+04
         0.27000E+04
         0.27000E+04
         0.27000E+04
         0.27000E+04
         0.27000E+04
         0.27000E+04
         0.27000E+04
         0.27000E+04
         0.27000E+04
         0.27000E+04
         0.27000E+04
         0.27000E+04
         0.27000E+04
         0.27000E+04
         0.27000E+04
         0.27000E+04
         0.27000E+04
         0.27000E+04
         0.27000E+04
         0.27000E+04
         0.27000E+04
         0.27000E+04
         0.27000E+04
         0.27000E+04
         0.27000E+04
         0.27000E+04
         0.27000E+04
         0.27000E+04
         0.27000E+04
         0.27000E+04
         0.27000E+04
         0.27000E+04
         0.27000E+04
         0.27000E+04
         0.27000E+04
         0.27000E+04
         0.27000E+04
         0.27000E+04
         0.27000E+04
         0.27000E+04
         0.27000E+04
         0.27000E+04
         0.27000E+04
         0.27000E+04
         0.27000E+04
         0.27000E+04
         0.27000E+04
         0.27000E+04
         0.27000E+04
         0.27000E+04
         0.27000E+04
         0.27000E+04
         0.27000E+04
         0.27000E+04
         0.27000E+04
         0.27000E+04
         0.27000E+04
         0.27000E+04
         0.27000E+04
         0.27000E+04
         0.27000E+04
         0.27000E+04
         0.27000E+04
         0.27000E+04
         0.27000E+04
         0.27000E+04
         0.27000E+04
         0.27000E+04
         0.27000E+04
         0.27000E+04
         0.27000E+04
         0.27000E+04
         0.27000E+04
         0.27000E+04
         0.27000E+04
         0.27000E+04
         0.27000E+04
         0.27000E+04
         0.27000E+04
         0.27000E+04
         0.27000E+04
         0.27000E+04
         0.27000E+04
         0.27000E+04
         0.27000E+04
         0.27000E+04
         0.27000E+04
         0.27000E+04
         0.27000E+04
         0.27000E+04
         0.27000E+04
         0.27000E+04
         0.27000E+04
         0.27000E+04
         0.27000E+04
         0.27000E+04
         0.27000E+04
         0.27000E+04
         0.27000E+04
         0.27000E+04
         0.27000E+04
         0.27000E+04
         0.27000E+04
         0.27000E+04
         0.27000E+04
         0.27000E+04
         0.27000E+04
         0.27000E+04
         0.27000E+04
         0.27000E+04
         0.27000E+04
         0.27000E+04
         0.27000E+04
         0.27000E+04
         0.27000E+04
         0.27000E+04
         0.27000E+04
         0.27000E+04
         0.27000E+04
         0.27000E+04
         0.27000E+04
         0.27000E+04
         0.27000E+04
         0.27000E+04
         0.27000E+04
         0.27000E+04
         0.27000E+04
         0.27000E+04
         0.27000E+04
         0.27000E+04
         0.27000E+04
         0.27000E+04
         0.27000E+04
         0.27000E+04
         0.27000E+04
         0.27000E+04
         0.27000E+04
         0.27000E+04
         0.27000E+04
         0.27000E+04
         0.27000E+04
         0.27000E+04
         0.27000E+04
         0.27000E+04
         0.27000E+04
         0.27000E+04
         0.27000E+04
         0.27000E+04
         0.27000E+04
         0.27000E+04
         0.27000E+04
         0.27000E+04
         0.27000E+04
         0.27000E+04
         0.27000E+04
         0.27000E+04
         0.27000E+04
         0.27000E+04
         0.27000E+04
         0.27000E+04
         0.27000E+04
         0.27000E+04
         0.27000E+04
         0.27000E+04
         0.27000E+04
         0.27000E+04
         0.27000E+04
         0.27000E+04
         0.27000E+04
         0.27000E+04
         0.27000E+04
         0.27000E+04
         0.27000E+04
         0.27000E+04
         0.27000E+04
         0.27000E+04
         0.27000E+04
         0.27000E+04
         0.27000E+04
         0.27000E+04
         0.27000E+04
         0.27000E+04
         0.27000E+04
         0.27000E+04
         0.27000E+04
         0.27000E+04
         0.27000E+04
         0.27000E+04
         0.27000E+04
         0.27000E+04
         0.27000E+04
         0.27000E+04
         0.27000E+04
         0.27000E+04
         0.27000E+04
         0.27000E+04
         0.27000E+04
         0.27000E+04
         0.27000E+04
         0.27000E+04
         0.27000E+04
         0.27000E+04
         0.27000E+04
         0.27000E+04
         0.27000E+04
         0.27000E+04
         0.27000E+04
         0.27000E+04
         0.27000E+04
         0.27000E+04
         0.27000E+04
         0.27000E+04
         0.27000E+04
         0.27000E+04
         0.27000E+04
         0.27000E+04
         0.27000E+04
         0.27000E+04
         0.27000E+04
         0.27000E+04
         0.27000E+04
         0.27000E+04
         0.27000E+04
         0.27000E+04
         0.27000E+04
         0.27000E+04
         0.27000E+04
         0.27000E+04
         0.27000E+04
         0.27000E+04
         0.27000E+04
         0.27000E+04
         0.27000E+04
         0.27000E+04
         0.27000E+04
         0.27000E+04
         0.27000E+04
         0.27000E+04
         0.27000E+04
         0.27000E+04
         0.27000E+04
         0.27000E+04
         0.27000E+04
         0.27000E+04
         0.27000E+04
         0.27000E+04
         0.27000E+04
         0.27000E+04
         0.27000E+04
         0.27000E+04
         0.27000E+04
         0.27000E+04
         0.27000E+04
         0.27000E+04
         0.27000E+04
         0.27000E+04
         0.27000E+04
         0.27000E+04
         0.27000E+04
         0.27000E+04
         0.27000E+04
         0.27000E+04
         0.27000E+04
         0.27000E+04
         0.27000E+04
         0.27000E+04
         0.27000E+04
         0.27000E+04
         0.27000E+04
         0.27000E+04
         0.27000E+04
         0.27000E+04
         0.27000E+04
         0.27000E+04
         0.27000E+04
         0.27000E+04
         0.27000E+04
         0.27000E+04
         0.27000E+04
         0.27000E+04
         0.27000E+04
         0.27000E+04
         0.27000E+04
         0.27000E+04
         0.27000E+04
         0.27000E+04
         0.27000E+04
         0.27000E+04
         0.27000E+04
         0.27000E+04
         0.27000E+04
         0.27000E+04
         0.27000E+04
         0.27000E+04
         0.27000E+04
         0.27000E+04
         0.27000E+04
         0.27000E+04
         0.27000E+04
         0.27000E+04
         0.27000E+04
         0.27000E+04
         0.27000E+04
         0.27000E+04
         0.27000E+04
         0.27000E+04
         0.27000E+04
         0.27000E+04
         0.27000E+04
         0.27000E+04
         0.27000E+04
         0.27000E+04
         0.27000E+04
         0.27000E+04
         0.27000E+04
         0.27000E+04
         0.27000E+04
         0.27000E+04
         0.27000E+04
         0.27000E+04
         0.27000E+04
         0.27000E+04
         0.27000E+04
         0.27000E+04
         0.27000E+04
         0.27000E+04
         0.27000E+04
         0.27000E+04
         0.27000E+04
         0.27000E+04
         0.27000E+04
         0.27000E+04
         0.27000E+04
         0.27000E+04
         0.27000E+04
         0.27000E+04
         0.27000E+04
         0.27000E+04
         0.27000E+04
         0.27000E+04
         0.27000E+04
         0.27000E+04
         0.27000E+04
         0.27000E+04
         0.27000E+04
         0.27000E+04
         0.27000E+04
         0.27000E+04
         0.27000E+04
         0.27000E+04
         0.27000E+04
         0.27000E+04
         0.27000E+04
         0.27000E+04
         0.27000E+04
         0.27000E+04
         0.27000E+04
         0.27000E+04
         0.27000E+04
         0.27000E+04
         0.27000E+04
         0.27000E+04
         0.27000E+04
         0.27000E+04
         0.27000E+04
         0.27000E+04
         0.27000E+04
         0.27000E+04
         0.27000E+04
         0.27000E+04
         0.27000E+04
         0.27000E+04
         0.27000E+04
         0.27000E+04
         0.27000E+04
         0.27000E+04
         0.27000E+04
         0.27000E+04
         0.27000E+04
         0.27000E+04
         0.27000E+04
         0.27000E+04
         0.27000E+04
         0.27000E+04
         0.27000E+04
         0.27000E+04
         0.27000E+04
         0.27000E+04
         0.27000E+04
         0.27000E+04
         0.27000E+04
         0.27000E+04
         0.27000E+04
         0.27000E+04
         0.27000E+04
         0.27000E+04
         0.27000E+04
         0.27000E+04
         0.27000E+04
         0.27000E+04
         0.27000E+04
         0.27000E+04
         0.27000E+04
         0.27000E+04
         0.27000E+04
         0.27000E+04
         0.27000E+04
         0.27000E+04
         0.27000E+04
         0.27000E+04
         0.27000E+04
         0.27000E+04
         0.27000E+04
         0.27000E+04
         0.27000E+04
         0.27000E+04
         0.27000E+04
         0.27000E+04
         0.27000E+04
         0.27000E+04
         0.27000E+04
         0.27000E+04
         0.27000E+04
         0.27000E+04
         0.27000E+04
         0.27000E+04
         0.27000E+04
         0.27000E+04
         0.27000E+04
         0.27000E+04
         0.27000E+04
         0.27000E+04
         0.27000E+04
         0.27000E+04
         0.27000E+04
         0.27000E+04
         0.27000E+04
         0.27000E+04
         0.27000E+04
         0.27000E+04
         0.27000E+04
         0.27000E+04
         0.27000E+04
         0.27000E+04
         0.27000E+04
         0.27000E+04
         0.27000E+04
         0.27000E+04
         0.27000E+04
         0.27000E+04
         0.27000E+04
         0.27000E+04
         0.27000E+04
         0.27000E+04
         0.27000E+04
         0.27000E+04
         0.27000E+04
         0.27000E+04
         0.27000E+04
         0.27000E+04
         0.27000E+04
         0.27000E+04
         0.27000E+04
         0.27000E+04
         0.27000E+04
         0.27000E+04
         0.27000E+04
         0.27000E+04
         0.27000E+04
         0.27000E+04
         0.27000E+04
         0.27000E+04
         0.27000E+04
         0.27000E+04
         0.27000E+04
         0.27000E+04
         0.27000E+04
         0.27000E+04
         0.27000E+04
         0.27000E+04
         0.27000E+04
         0.27000E+04
         0.27000E+04
         0.27000E+04
         0.27000E+04
         0.27000E+04
         0.27000E+04
         0.27000E+04
         0.27000E+04
         0.27000E+04
         0.27000E+04
         0.27000E+04
         0.27000E+04
         0.27000E+04
         0.27000E+04
         0.27000E+04
         0.27000E+04
         0.27000E+04
         0.27000E+04
         0.27000E+04
         0.27000E+04
         0.27000E+04
         0.27000E+04
         0.27000E+04
         0.27000E+04
         0.27000E+04
         0.27000E+04
         0.27000E+04
         0.27000E+04
         0.27000E+04
         0.27000E+04
         0.27000E+04
         0.27000E+04
         0.27000E+04
         0.27000E+04
         0.27000E+04
         0.27000E+04
         0.27000E+04
         0.27000E+04
         0.27000E+04
         0.27000E+04
         0.27000E+04
         0.27000E+04
         0.27000E+04
         0.27000E+04
         0.27000E+04
         0.27000E+04
         0.27000E+04
         0.27000E+04
         0.27000E+04
         0.27000E+04
         0.27000E+04
         0.27000E+04
         0.27000E+04
         0.27000E+04
         0.27000E+04
         0.27000E+04
         0.27000E+04
         0.27000E+04
         0.27000E+04
         0.27000E+04
         0.27000E+04
         0.27000E+04
         0.27000E+04
         0.27000E+04
         0.27000E+04
         0.27000E+04
         0.27000E+04
         0.27000E+04
         0.27000E+04
         0.27000E+04
         0.27000E+04
         0.27000E+04
         0.27000E+04
         0.27000E+04
         0.27000E+04
         0.27000E+04
         0.27000E+04
         0.27000E+04
         0.27000E+04
         0.27000E+04
         0.27000E+04
         0.27000E+04
         0.27000E+04
         0.27000E+04
         0.27000E+04
         0.27000E+04
         0.27000E+04
         0.27000E+04
         0.27000E+04
         0.27000E+04
         0.27000E+04
         0.27000E+04
         0.27000E+04
         0.27000E+04
         0.27000E+04
         0.27000E+04
         0.27000E+04
         0.27000E+04
         0.27000E+04
         0.27000E+04
         0.27000E+04
         0.27000E+04
         0.27000E+04
         0.27000E+04
         0.27000E+04
         0.27000E+04
         0.27000E+04
         0.27000E+04
         0.27000E+04
         0.27000E+04
         0.27000E+04
         0.27000E+04
         0.27000E+04
         0.27000E+04
         0.27000E+04
         0.27000E+04
         0.27000E+04
         0.27000E+04
         0.27000E+04
         0.27000E+04
         0.27000E+04
         0.27000E+04
         0.27000E+04
         0.27000E+04
         0.27000E+04
         0.27000E+04
         0.27000E+04
         0.27000E+04
         0.27000E+04
         0.27000E+04
         0.27000E+04
         0.27000E+04
         0.27000E+04
         0.27000E+04
         0.27000E+04
         0.27000E+04
         0.27000E+04
         0.27000E+04
         0.27000E+04
         0.27000E+04
         0.27000E+04
         0.27000E+04
         0.27000E+04
         0.27000E+04
         0.27000E+04
         0.27000E+04
         0.27000E+04
         0.27000E+04
         0.27000E+04
         0.27000E+04
         0.27000E+04
         0.27000E+04
         0.27000E+04
         0.27000E+04
         0.27000E+04
         0.27000E+04
         0.27000E+04
         0.27000E+04
         0.27000E+04
         0.27000E+04
         0.27000E+04
         0.27000E+04
         0.27000E+04
         0.27000E+04
         0.27000E+04
         0.27000E+04
         0.27000E+04
         0.27000E+04
         0.27000E+04
         0.27000E+04
         0.27000E+04
         0.27000E+04
         0.27000E+04
         0.27000E+04
         0.27000E+04
         0.27000E+04
         0.27000E+04
         0.27000E+04
         0.27000E+04
         0.27000E+04
         0.27000E+04
         0.27000E+04
         0.27000E+04
         0.27000E+04
         0.27000E+04
         0.27000E+04
         0.27000E+04
         0.27000E+04
         0.27000E+04
         0.27000E+04
         0.27000E+04
         0.27000E+04
         0.27000E+04
         0.27000E+04
         0.27000E+04
         0.27000E+04
         0.27000E+04
         0.27000E+04
         0.27000E+04
         0.27000E+04
         0.27000E+04
         0.27000E+04
         0.27000E+04
         0.27000E+04
         0.27000E+04
         0.27000E+04
         0.27000E+04
         0.27000E+04
         0.27000E+04
         0.27000E+04
         0.27000E+04
         0.27000E+04
         0.27000E+04
         0.27000E+04
         0.27000E+04
         0.27000E+04
         0.27000E+04
         0.27000E+04
         0.27000E+04
         0.27000E+04
         0.27000E+04
         0.27000E+04
         0.27000E+04
         0.27000E+04
         0.27000E+04
         0.27000E+04
         0.27000E+04
         0.27000E+04
         0.27000E+04
         0.27000E+04
         0.27000E+04
         0.27000E+04
         0.27000E+04
         0.27000E+04
         0.27000E+04
         0.27000E+04
         0.27000E+04
         0.27000E+04
         0.27000E+04
         0.27000E+04
         0.27000E+04
         0.27000E+04
         0.27000E+04
         0.27000E+04
         0.27000E+04
         0.27000E+04
         0.27000E+04
         0.27000E+04
         0.27000E+04
         0.27000E+04
         0.27000E+04
         0.27000E+04
         0.27000E+04
         0.27000E+04
         0.27000E+04
         0.27000E+04
         0.27000E+04
         0.27000E+04
         0.27000E+04
         0.27000E+04
         0.27000E+04
         0.27000E+04
         0.27000E+04
         0.27000E+04
         0.27000E+04
         0.27000E+04
         0.27000E+04
         0.27000E+04
         0.27000E+04
         0.27000E+04
         0.27000E+04
         0.27000E+04
         0.27000E+04
         0.27000E+04
         0.27000E+04
         0.27000E+04
         0.27000E+04
         0.27000E+04
         0.27000E+04
         0.27000E+04
         0.27000E+04
         0.27000E+04
         0.27000E+04
         0.27000E+04
         0.27000E+04
         0.27000E+04
         0.27000E+04
         0.27000E+04
         0.27000E+04
         0.27000E+04
         0.27000E+04
         0.27000E+04
         0.27000E+04
         0.27000E+04
         0.27000E+04
         0.27000E+04
         0.27000E+04
         0.27000E+04
         0.27000E+04
         0.27000E+04
         0.27000E+04
         0.27000E+04
         0.27000E+04
         0.27000E+04
         0.27000E+04
         0.27000E+04
         0.27000E+04
         0.27000E+04
         0.27000E+04
         0.27000E+04
         0.27000E+04
         0.27000E+04
         0.27000E+04
         0.27000E+04
         0.27000E+04
         0.27000E+04
         0.27000E+04
         0.27000E+04
         0.27000E+04
         0.27000E+04
         0.27000E+04
         0.27000E+04
         0.27000E+04
         0.27000E+04
         0.27000E+04
         0.27000E+04
         0.27000E+04
         0.27000E+04
         0.27000E+04
         0.27000E+04
         0.27000E+04
         0.27000E+04
         0.27000E+04
         0.27000E+04
         0.27000E+04
         0.27000E+04
         0.27000E+04
         0.27000E+04
         0.27000E+04
         0.27000E+04
         0.27000E+04
         0.27000E+04
         0.27000E+04
         0.27000E+04
         0.27000E+04
         0.27000E+04
         0.27000E+04
         0.27000E+04
         0.27000E+04
         0.27000E+04
         0.27000E+04
         0.27000E+04
         0.27000E+04
         0.27000E+04
         0.27000E+04
         0.27000E+04
         0.27000E+04
         0.27000E+04
         0.27000E+04
         0.27000E+04
         0.27000E+04
         0.27000E+04
         0.27000E+04
         0.27000E+04
         0.27000E+04
         0.27000E+04
         0.27000E+04
         0.27000E+04
         0.27000E+04
         0.27000E+04
         0.27000E+04
         0.27000E+04
         0.27000E+04
         0.27000E+04
         0.27000E+04
         0.27000E+04
         0.27000E+04
         0.27000E+04
         0.27000E+04
         0.27000E+04
         0.27000E+04
         0.27000E+04
         0.27000E+04
         0.27000E+04
         0.27000E+04
         0.27000E+04
         0.27000E+04
         0.27000E+04
         0.27000E+04
         0.27000E+04
         0.27000E+04
         0.27000E+04
         0.27000E+04
         0.27000E+04
         0.27000E+04
         0.27000E+04
         0.27000E+04
         0.27000E+04
         0.27000E+04
         0.27000E+04
         0.27000E+04
         0.27000E+04
         0.27000E+04
         0.27000E+04
         0.27000E+04
         0.27000E+04
         0.27000E+04
         0.27000E+04
         0.27000E+04
         0.27000E+04
         0.27000E+04
         0.27000E+04
         0.27000E+04
         0.27000E+04
         0.27000E+04
         0.27000E+04
         0.27000E+04
         0.27000E+04
         0.27000E+04
         0.27000E+04
         0.27000E+04
         0.27000E+04
         0.27000E+04
         0.27000E+04
         0.27000E+04
         0.27000E+04
         0.27000E+04
         0.27000E+04
         0.27000E+04
         0.27000E+04
         0.27000E+04
         0.27000E+04
         0.27000E+04
         0.27000E+04
         0.27000E+04
         0.27000E+04
         0.27000E+04
         0.27000E+04
         0.27000E+04
         0.27000E+04
         0.27000E+04
         0.27000E+04
         0.27000E+04
         0.27000E+04
         0.27000E+04
         0.27000E+04
