# vtk DataFile Version 2.0
               (MEGA VTK FILE)
ASCII
DATASET UNSTRUCTURED_GRID
POINTS       1950    double
  0.10378E-02  0.67292E-03 -0.19542E-01
  0.17452E-02  0.12308E-02 -0.19528E-01
  0.23177E-02  0.59151E-03 -0.19525E-01
  0.16698E-02 -0.33775E-03 -0.19551E-01
  0.10379E-02  0.67237E-03 -0.11750E-01
  0.17453E-02  0.12301E-02 -0.11750E-01
  0.23178E-02  0.59098E-03 -0.11750E-01
  0.16700E-02 -0.33851E-03 -0.11750E-01
  0.30377E-02  0.14882E-03 -0.19499E-01
  0.27791E-02 -0.67643E-03 -0.19530E-01
  0.30377E-02  0.14846E-03 -0.11750E-01
  0.27788E-02 -0.67692E-03 -0.11750E-01
  0.12850E-02  0.18412E-02 -0.19512E-01
  0.65139E-03  0.14576E-02 -0.19532E-01
  0.12851E-02  0.18410E-02 -0.11750E-01
  0.65164E-03  0.14566E-02 -0.11750E-01
  0.12757E-03  0.29933E-03 -0.19543E-01
 -0.12822E-03  0.11672E-02 -0.19546E-01
  0.12783E-03  0.29819E-03 -0.11750E-01
 -0.12804E-03  0.11655E-02 -0.11750E-01
  0.94500E-03  0.22748E-02 -0.19502E-01
  0.11327E-02  0.28286E-02 -0.19490E-01
  0.17490E-02  0.24238E-02 -0.19496E-01
  0.94533E-03  0.22746E-02 -0.11750E-01
  0.11330E-02  0.28291E-02 -0.11750E-01
  0.17494E-02  0.24236E-02 -0.11750E-01
  0.40588E-03  0.21685E-02 -0.19526E-01
  0.39779E-03  0.29366E-02 -0.19518E-01
  0.40594E-03  0.21684E-02 -0.11750E-01
  0.39781E-03  0.29369E-02 -0.11750E-01
 -0.76303E-03 -0.10033E-02 -0.19554E-01
 -0.86604E-03  0.78969E-04 -0.19561E-01
  0.46119E-03 -0.70318E-03 -0.19549E-01
 -0.76268E-03 -0.10032E-02 -0.11750E-01
 -0.86593E-03  0.78160E-04 -0.11750E-01
  0.46164E-03 -0.70391E-03 -0.11750E-01
 -0.18300E-02 -0.71196E-03 -0.19526E-01
 -0.18440E-02  0.82749E-04 -0.19554E-01
 -0.18297E-02 -0.71210E-03 -0.11750E-01
 -0.18441E-02  0.82626E-04 -0.11750E-01
 -0.27238E-02 -0.77865E-03 -0.19518E-01
 -0.28028E-02  0.40713E-04 -0.19542E-01
 -0.27238E-02 -0.77882E-03 -0.11750E-01
 -0.28031E-02  0.40439E-04 -0.11750E-01
 -0.25365E-02 -0.15195E-02 -0.19496E-01
 -0.19287E-02 -0.13230E-02 -0.19507E-01
 -0.25363E-02 -0.15195E-02 -0.11750E-01
 -0.19283E-02 -0.13231E-02 -0.11750E-01
 -0.99363E-03  0.98847E-03 -0.19563E-01
 -0.99377E-03  0.98712E-03 -0.11750E-01
 -0.14380E-02 -0.17325E-02 -0.19522E-01
 -0.14377E-02 -0.17325E-02 -0.11750E-01
 -0.31574E-03  0.20220E-02 -0.19552E-01
 -0.31594E-03  0.20217E-02 -0.11750E-01
 -0.11068E-02  0.18615E-02 -0.19561E-01
 -0.11071E-02  0.18616E-02 -0.11750E-01
 -0.18845E-02  0.17175E-02 -0.19537E-01
 -0.18713E-02  0.90940E-03 -0.19556E-01
 -0.18846E-02  0.17175E-02 -0.11750E-01
 -0.18714E-02  0.90916E-03 -0.11750E-01
 -0.15871E-03 -0.19800E-02 -0.19547E-01
 -0.94089E-03 -0.23489E-02 -0.19522E-01
 -0.15844E-03 -0.19800E-02 -0.11750E-01
 -0.94029E-03 -0.23489E-02 -0.11750E-01
  0.78856E-03 -0.17074E-02 -0.19546E-01
  0.78922E-03 -0.17074E-02 -0.11750E-01
  0.17211E-02 -0.14894E-02 -0.19535E-01
  0.17211E-02 -0.14892E-02 -0.11750E-01
  0.32050E-02  0.76036E-03 -0.19460E-01
  0.28046E-02  0.12477E-02 -0.19491E-01
  0.32047E-02  0.75936E-03 -0.11750E-01
  0.28047E-02  0.12473E-02 -0.11750E-01
  0.23059E-02  0.18665E-02 -0.19502E-01
  0.23060E-02  0.18664E-02 -0.11750E-01
 -0.40614E-03  0.29038E-02 -0.19535E-01
 -0.40627E-03  0.29049E-02 -0.11750E-01
 -0.12092E-02  0.27207E-02 -0.19532E-01
 -0.12092E-02  0.27212E-02 -0.11750E-01
 -0.19448E-02  0.24642E-02 -0.19503E-01
 -0.19448E-02  0.24645E-02 -0.11750E-01
 -0.25029E-02  0.22359E-02 -0.19470E-01
 -0.26371E-02  0.16503E-02 -0.19511E-01
 -0.25029E-02  0.22359E-02 -0.11750E-01
 -0.26372E-02  0.16503E-02 -0.11750E-01
 -0.27671E-02  0.87493E-03 -0.19544E-01
 -0.27674E-02  0.87466E-03 -0.11750E-01
 -0.21123E-02 -0.21373E-02 -0.19498E-01
 -0.21122E-02 -0.21373E-02 -0.11750E-01
 -0.16087E-02 -0.26931E-02 -0.19487E-01
 -0.16087E-02 -0.26931E-02 -0.11750E-01
 -0.11939E-02 -0.31291E-02 -0.19457E-01
 -0.58641E-03 -0.30382E-02 -0.19497E-01
 -0.11937E-02 -0.31291E-02 -0.11750E-01
 -0.58606E-03 -0.30382E-02 -0.11750E-01
  0.20912E-03 -0.28748E-02 -0.19525E-01
  0.20952E-03 -0.28748E-02 -0.11750E-01
  0.10586E-02 -0.26423E-02 -0.19521E-01
  0.10589E-02 -0.26420E-02 -0.11750E-01
  0.18413E-02 -0.23707E-02 -0.19499E-01
  0.18413E-02 -0.23705E-02 -0.11750E-01
  0.24544E-02 -0.21445E-02 -0.19468E-01
  0.26022E-02 -0.15105E-02 -0.19504E-01
  0.24543E-02 -0.21439E-02 -0.11750E-01
  0.26021E-02 -0.15106E-02 -0.11750E-01
  0.37964E-02  0.93572E-03 -0.19377E-01
  0.39100E-02  0.00000E+00 -0.19391E-01
  0.37964E-02  0.93572E-03 -0.11750E-01
  0.39100E-02  0.00000E+00 -0.11750E-01
  0.34621E-02  0.18171E-02 -0.19389E-01
  0.34621E-02  0.18171E-02 -0.11750E-01
  0.29267E-02  0.25928E-02 -0.19379E-01
  0.29267E-02  0.25928E-02 -0.11750E-01
  0.22211E-02  0.32179E-02 -0.19380E-01
  0.22211E-02  0.32179E-02 -0.11750E-01
  0.13865E-02  0.36559E-02 -0.19378E-01
  0.13865E-02  0.36559E-02 -0.11750E-01
  0.47130E-03  0.38815E-02 -0.19387E-01
  0.47130E-03  0.38815E-02 -0.11750E-01
 -0.47130E-03  0.38815E-02 -0.19390E-01
 -0.47130E-03  0.38815E-02 -0.11750E-01
 -0.13865E-02  0.36559E-02 -0.19388E-01
 -0.13865E-02  0.36559E-02 -0.11750E-01
 -0.22211E-02  0.32179E-02 -0.19387E-01
 -0.22211E-02  0.32179E-02 -0.11750E-01
 -0.29267E-02  0.25928E-02 -0.19374E-01
 -0.29267E-02  0.25928E-02 -0.11750E-01
 -0.34621E-02  0.18171E-02 -0.19390E-01
 -0.34621E-02  0.18171E-02 -0.11750E-01
 -0.37964E-02  0.93572E-03 -0.19396E-01
 -0.37964E-02  0.93572E-03 -0.11750E-01
 -0.39100E-02  0.22152E-17 -0.19394E-01
 -0.39100E-02 -0.47884E-18 -0.11750E-01
 -0.37964E-02 -0.93572E-03 -0.19388E-01
 -0.37964E-02 -0.93572E-03 -0.11750E-01
 -0.34621E-02 -0.18171E-02 -0.19381E-01
 -0.34621E-02 -0.18171E-02 -0.11750E-01
 -0.29267E-02 -0.25928E-02 -0.19378E-01
 -0.29267E-02 -0.25928E-02 -0.11750E-01
 -0.22211E-02 -0.32179E-02 -0.19388E-01
 -0.22211E-02 -0.32179E-02 -0.11750E-01
 -0.13865E-02 -0.36559E-02 -0.19378E-01
 -0.13865E-02 -0.36559E-02 -0.11750E-01
 -0.47130E-03 -0.38815E-02 -0.19393E-01
 -0.47130E-03 -0.38815E-02 -0.11750E-01
  0.47130E-03 -0.38815E-02 -0.19388E-01
  0.47130E-03 -0.38815E-02 -0.11750E-01
  0.13865E-02 -0.36559E-02 -0.19383E-01
  0.13865E-02 -0.36559E-02 -0.11750E-01
  0.22211E-02 -0.32179E-02 -0.19392E-01
  0.22211E-02 -0.32179E-02 -0.11750E-01
  0.29267E-02 -0.25928E-02 -0.19380E-01
  0.29267E-02 -0.25928E-02 -0.11750E-01
  0.34621E-02 -0.18171E-02 -0.19392E-01
  0.34621E-02 -0.18171E-02 -0.11750E-01
  0.37964E-02 -0.93572E-03 -0.19392E-01
  0.37964E-02 -0.93572E-03 -0.11750E-01
  0.10376E-02  0.67348E-03 -0.22154E-01
  0.17450E-02  0.12314E-02 -0.22151E-01
  0.23175E-02  0.59203E-03 -0.22151E-01
  0.16696E-02 -0.33700E-03 -0.22155E-01
  0.30377E-02  0.14918E-03 -0.22147E-01
  0.27795E-02 -0.67594E-03 -0.22152E-01
  0.12849E-02  0.18414E-02 -0.22149E-01
  0.65115E-03  0.14586E-02 -0.22152E-01
  0.12731E-03  0.30048E-03 -0.22154E-01
 -0.12841E-03  0.11690E-02 -0.22155E-01
  0.94467E-03  0.22749E-02 -0.22148E-01
  0.11323E-02  0.28282E-02 -0.22146E-01
  0.17487E-02  0.24239E-02 -0.22146E-01
  0.40583E-03  0.21685E-02 -0.22151E-01
  0.39777E-03  0.29364E-02 -0.22150E-01
 -0.76338E-03 -0.10035E-02 -0.22155E-01
 -0.86615E-03  0.79778E-04 -0.22157E-01
  0.46074E-03 -0.70245E-03 -0.22155E-01
 -0.18303E-02 -0.71182E-03 -0.22151E-01
 -0.18439E-02  0.82873E-04 -0.22156E-01
 -0.27238E-02 -0.77848E-03 -0.22150E-01
 -0.28025E-02  0.40986E-04 -0.22154E-01
 -0.25366E-02 -0.15194E-02 -0.22147E-01
 -0.19292E-02 -0.13228E-02 -0.22149E-01
 -0.99349E-03  0.98983E-03 -0.22157E-01
 -0.14384E-02 -0.17324E-02 -0.22150E-01
 -0.31554E-03  0.20223E-02 -0.22155E-01
 -0.11064E-02  0.18614E-02 -0.22156E-01
 -0.18845E-02  0.17175E-02 -0.22153E-01
 -0.18712E-02  0.90964E-03 -0.22156E-01
 -0.15899E-03 -0.19800E-02 -0.22155E-01
 -0.94149E-03 -0.23489E-02 -0.22150E-01
  0.78790E-03 -0.17074E-02 -0.22154E-01
  0.17210E-02 -0.14896E-02 -0.22152E-01
  0.32053E-02  0.76137E-03 -0.22142E-01
  0.28046E-02  0.12481E-02 -0.22146E-01
  0.23058E-02  0.18665E-02 -0.22147E-01
 -0.40600E-03  0.29027E-02 -0.22153E-01
 -0.12092E-02  0.27202E-02 -0.22152E-01
 -0.19447E-02  0.24640E-02 -0.22148E-01
 -0.25028E-02  0.22359E-02 -0.22143E-01
 -0.26370E-02  0.16503E-02 -0.22149E-01
 -0.27668E-02  0.87519E-03 -0.22154E-01
 -0.21125E-02 -0.21373E-02 -0.22147E-01
 -0.16088E-02 -0.26932E-02 -0.22145E-01
 -0.11940E-02 -0.31291E-02 -0.22141E-01
 -0.58676E-03 -0.30382E-02 -0.22147E-01
  0.20871E-03 -0.28748E-02 -0.22151E-01
  0.10583E-02 -0.26426E-02 -0.22150E-01
  0.18413E-02 -0.23709E-02 -0.22147E-01
  0.24545E-02 -0.21450E-02 -0.22143E-01
  0.26022E-02 -0.15104E-02 -0.22148E-01
  0.37964E-02  0.93572E-03 -0.22133E-01
  0.39100E-02  0.00000E+00 -0.22135E-01
  0.34621E-02  0.18171E-02 -0.22135E-01
  0.29267E-02  0.25928E-02 -0.22134E-01
  0.22211E-02  0.32179E-02 -0.22134E-01
  0.13865E-02  0.36559E-02 -0.22134E-01
  0.47130E-03  0.38815E-02 -0.22135E-01
 -0.47130E-03  0.38815E-02 -0.22135E-01
 -0.13865E-02  0.36559E-02 -0.22135E-01
 -0.22211E-02  0.32179E-02 -0.22134E-01
 -0.29267E-02  0.25928E-02 -0.22132E-01
 -0.34621E-02  0.18171E-02 -0.22135E-01
 -0.37964E-02  0.93572E-03 -0.22136E-01
 -0.39100E-02 -0.47884E-18 -0.22136E-01
 -0.37964E-02 -0.93572E-03 -0.22135E-01
 -0.34621E-02 -0.18171E-02 -0.22134E-01
 -0.29267E-02 -0.25928E-02 -0.22134E-01
 -0.22211E-02 -0.32179E-02 -0.22135E-01
 -0.13865E-02 -0.36559E-02 -0.22133E-01
 -0.47130E-03 -0.38815E-02 -0.22136E-01
  0.47130E-03 -0.38815E-02 -0.22136E-01
  0.13865E-02 -0.36559E-02 -0.22134E-01
  0.22211E-02 -0.32179E-02 -0.22135E-01
  0.29267E-02 -0.25928E-02 -0.22133E-01
  0.34621E-02 -0.18171E-02 -0.22135E-01
  0.37964E-02 -0.93572E-03 -0.22136E-01
  0.10375E-02  0.67403E-03 -0.21469E-01
  0.17448E-02  0.12321E-02 -0.21469E-01
  0.23174E-02  0.59255E-03 -0.21469E-01
  0.16694E-02 -0.33624E-03 -0.21469E-01
  0.30377E-02  0.14955E-03 -0.21469E-01
  0.27798E-02 -0.67544E-03 -0.21469E-01
  0.12848E-02  0.18415E-02 -0.21469E-01
  0.65090E-03  0.14596E-02 -0.21469E-01
  0.12705E-03  0.30163E-03 -0.21469E-01
 -0.12859E-03  0.11707E-02 -0.21469E-01
  0.94434E-03  0.22750E-02 -0.21469E-01
  0.11320E-02  0.28277E-02 -0.21469E-01
  0.17483E-02  0.24241E-02 -0.21469E-01
  0.40577E-03  0.21685E-02 -0.21469E-01
  0.39776E-03  0.29361E-02 -0.21469E-01
 -0.76374E-03 -0.10036E-02 -0.21469E-01
 -0.86626E-03  0.80588E-04 -0.21469E-01
  0.46029E-03 -0.70173E-03 -0.21469E-01
 -0.18306E-02 -0.71168E-03 -0.21469E-01
 -0.18438E-02  0.82996E-04 -0.21469E-01
 -0.27238E-02 -0.77831E-03 -0.21469E-01
 -0.28022E-02  0.41259E-04 -0.21469E-01
 -0.25368E-02 -0.15194E-02 -0.21469E-01
 -0.19296E-02 -0.13227E-02 -0.21469E-01
 -0.99334E-03  0.99119E-03 -0.21469E-01
 -0.14387E-02 -0.17324E-02 -0.21469E-01
 -0.31534E-03  0.20226E-02 -0.21469E-01
 -0.11061E-02  0.18613E-02 -0.21469E-01
 -0.18844E-02  0.17175E-02 -0.21469E-01
 -0.18710E-02  0.90988E-03 -0.21469E-01
 -0.15926E-03 -0.19801E-02 -0.21469E-01
 -0.94209E-03 -0.23490E-02 -0.21469E-01
  0.78724E-03 -0.17074E-02 -0.21469E-01
  0.17210E-02 -0.14899E-02 -0.21469E-01
  0.32056E-02  0.76237E-03 -0.21469E-01
  0.28046E-02  0.12485E-02 -0.21469E-01
  0.23057E-02  0.18666E-02 -0.21469E-01
 -0.40586E-03  0.29017E-02 -0.21469E-01
 -0.12092E-02  0.27198E-02 -0.21469E-01
 -0.19447E-02  0.24638E-02 -0.21469E-01
 -0.25028E-02  0.22359E-02 -0.21469E-01
 -0.26369E-02  0.16503E-02 -0.21469E-01
 -0.27665E-02  0.87545E-03 -0.21469E-01
 -0.21126E-02 -0.21374E-02 -0.21469E-01
 -0.16088E-02 -0.26932E-02 -0.21469E-01
 -0.11941E-02 -0.31291E-02 -0.21469E-01
 -0.58711E-03 -0.30382E-02 -0.21469E-01
  0.20830E-03 -0.28748E-02 -0.21469E-01
  0.10580E-02 -0.26428E-02 -0.21469E-01
  0.18414E-02 -0.23711E-02 -0.21469E-01
  0.24546E-02 -0.21456E-02 -0.21469E-01
  0.26023E-02 -0.15103E-02 -0.21469E-01
  0.37964E-02  0.93572E-03 -0.21469E-01
  0.39100E-02  0.00000E+00 -0.21469E-01
  0.34621E-02  0.18171E-02 -0.21469E-01
  0.29267E-02  0.25928E-02 -0.21469E-01
  0.22211E-02  0.32179E-02 -0.21469E-01
  0.13865E-02  0.36559E-02 -0.21469E-01
  0.47130E-03  0.38815E-02 -0.21469E-01
 -0.47130E-03  0.38815E-02 -0.21469E-01
 -0.13865E-02  0.36559E-02 -0.21469E-01
 -0.22211E-02  0.32179E-02 -0.21469E-01
 -0.29267E-02  0.25928E-02 -0.21469E-01
 -0.34621E-02  0.18171E-02 -0.21469E-01
 -0.37964E-02  0.93572E-03 -0.21469E-01
 -0.39100E-02  0.39516E-17 -0.21469E-01
 -0.37964E-02 -0.93572E-03 -0.21469E-01
 -0.34621E-02 -0.18171E-02 -0.21469E-01
 -0.29267E-02 -0.25928E-02 -0.21469E-01
 -0.22211E-02 -0.32179E-02 -0.21469E-01
 -0.13865E-02 -0.36559E-02 -0.21469E-01
 -0.47130E-03 -0.38815E-02 -0.21469E-01
  0.47130E-03 -0.38815E-02 -0.21469E-01
  0.13865E-02 -0.36559E-02 -0.21469E-01
  0.22211E-02 -0.32179E-02 -0.21469E-01
  0.29267E-02 -0.25928E-02 -0.21469E-01
  0.34621E-02 -0.18171E-02 -0.21469E-01
  0.37964E-02 -0.93572E-03 -0.21469E-01
  0.10374E-02  0.67459E-03 -0.20490E-01
  0.17446E-02  0.12328E-02 -0.20490E-01
  0.23173E-02  0.59308E-03 -0.20490E-01
  0.16692E-02 -0.33549E-03 -0.20490E-01
  0.30376E-02  0.14991E-03 -0.20490E-01
  0.27801E-02 -0.67495E-03 -0.20490E-01
  0.12847E-02  0.18417E-02 -0.20490E-01
  0.65065E-03  0.14606E-02 -0.20490E-01
  0.12678E-03  0.30278E-03 -0.20490E-01
 -0.12878E-03  0.11725E-02 -0.20490E-01
  0.94401E-03  0.22752E-02 -0.20490E-01
  0.11316E-02  0.28273E-02 -0.20490E-01
  0.17479E-02  0.24242E-02 -0.20490E-01
  0.40572E-03  0.21686E-02 -0.20490E-01
  0.39774E-03  0.29359E-02 -0.20490E-01
 -0.76409E-03 -0.10038E-02 -0.20490E-01
 -0.86637E-03  0.81397E-04 -0.20490E-01
  0.45985E-03 -0.70100E-03 -0.20490E-01
 -0.18309E-02 -0.71154E-03 -0.20490E-01
 -0.18437E-02  0.83120E-04 -0.20490E-01
 -0.27237E-02 -0.77814E-03 -0.20490E-01
 -0.28020E-02  0.41533E-04 -0.20490E-01
 -0.25369E-02 -0.15193E-02 -0.20490E-01
 -0.19300E-02 -0.13227E-02 -0.20490E-01
 -0.99320E-03  0.99254E-03 -0.20490E-01
 -0.14391E-02 -0.17324E-02 -0.20490E-01
 -0.31514E-03  0.20228E-02 -0.20490E-01
 -0.11057E-02  0.18611E-02 -0.20490E-01
 -0.18844E-02  0.17175E-02 -0.20490E-01
 -0.18709E-02  0.91012E-03 -0.20490E-01
 -0.15954E-03 -0.19801E-02 -0.20490E-01
 -0.94269E-03 -0.23490E-02 -0.20490E-01
  0.78658E-03 -0.17074E-02 -0.20490E-01
  0.17209E-02 -0.14901E-02 -0.20490E-01
  0.32060E-02  0.76338E-03 -0.20490E-01
  0.28046E-02  0.12490E-02 -0.20490E-01
  0.23056E-02  0.18666E-02 -0.20490E-01
 -0.40572E-03  0.29006E-02 -0.20490E-01
 -0.12092E-02  0.27193E-02 -0.20490E-01
 -0.19446E-02  0.24636E-02 -0.20490E-01
 -0.25028E-02  0.22359E-02 -0.20490E-01
 -0.26368E-02  0.16503E-02 -0.20490E-01
 -0.27662E-02  0.87571E-03 -0.20490E-01
 -0.21128E-02 -0.21374E-02 -0.20490E-01
 -0.16088E-02 -0.26932E-02 -0.20490E-01
 -0.11942E-02 -0.31291E-02 -0.20490E-01
 -0.58746E-03 -0.30382E-02 -0.20490E-01
  0.20790E-03 -0.28748E-02 -0.20490E-01
  0.10577E-02 -0.26431E-02 -0.20490E-01
  0.18414E-02 -0.23713E-02 -0.20490E-01
  0.24548E-02 -0.21461E-02 -0.20490E-01
  0.26024E-02 -0.15102E-02 -0.20490E-01
  0.37964E-02  0.93572E-03 -0.20490E-01
  0.39100E-02  0.00000E+00 -0.20490E-01
  0.34621E-02  0.18171E-02 -0.20490E-01
  0.29267E-02  0.25928E-02 -0.20490E-01
  0.22211E-02  0.32179E-02 -0.20490E-01
  0.13865E-02  0.36559E-02 -0.20490E-01
  0.47130E-03  0.38815E-02 -0.20490E-01
 -0.47130E-03  0.38815E-02 -0.20490E-01
 -0.13865E-02  0.36559E-02 -0.20490E-01
 -0.22211E-02  0.32179E-02 -0.20490E-01
 -0.29267E-02  0.25928E-02 -0.20490E-01
 -0.34621E-02  0.18171E-02 -0.20490E-01
 -0.37964E-02  0.93572E-03 -0.20490E-01
 -0.39100E-02 -0.47884E-18 -0.20490E-01
 -0.37964E-02 -0.93572E-03 -0.20490E-01
 -0.34621E-02 -0.18171E-02 -0.20490E-01
 -0.29267E-02 -0.25928E-02 -0.20490E-01
 -0.22211E-02 -0.32179E-02 -0.20490E-01
 -0.13865E-02 -0.36559E-02 -0.20490E-01
 -0.47130E-03 -0.38815E-02 -0.20490E-01
  0.47130E-03 -0.38815E-02 -0.20490E-01
  0.13865E-02 -0.36559E-02 -0.20490E-01
  0.22211E-02 -0.32179E-02 -0.20490E-01
  0.29267E-02 -0.25928E-02 -0.20490E-01
  0.34621E-02 -0.18171E-02 -0.20490E-01
  0.37964E-02 -0.93572E-03 -0.20490E-01
  0.10373E-02  0.67514E-03 -0.19510E-01
  0.17445E-02  0.12334E-02 -0.19510E-01
  0.23172E-02  0.59360E-03 -0.19510E-01
  0.16689E-02 -0.33474E-03 -0.19510E-01
  0.30376E-02  0.15027E-03 -0.19510E-01
  0.27805E-02 -0.67446E-03 -0.19510E-01
  0.12846E-02  0.18419E-02 -0.19510E-01
  0.65041E-03  0.14616E-02 -0.19510E-01
  0.12652E-03  0.30393E-03 -0.19510E-01
 -0.12896E-03  0.11742E-02 -0.19510E-01
  0.94367E-03  0.22753E-02 -0.19510E-01
  0.11313E-02  0.28269E-02 -0.19510E-01
  0.17475E-02  0.24244E-02 -0.19510E-01
  0.40566E-03  0.21686E-02 -0.19510E-01
  0.39772E-03  0.29356E-02 -0.19510E-01
 -0.76444E-03 -0.10039E-02 -0.19510E-01
 -0.86648E-03  0.82206E-04 -0.19510E-01
  0.45940E-03 -0.70028E-03 -0.19510E-01
 -0.18312E-02 -0.71140E-03 -0.19510E-01
 -0.18436E-02  0.83243E-04 -0.19510E-01
 -0.27237E-02 -0.77797E-03 -0.19510E-01
 -0.28017E-02  0.41806E-04 -0.19510E-01
 -0.25371E-02 -0.15193E-02 -0.19510E-01
 -0.19305E-02 -0.13226E-02 -0.19510E-01
 -0.99305E-03  0.99390E-03 -0.19510E-01
 -0.14394E-02 -0.17323E-02 -0.19510E-01
 -0.31494E-03  0.20231E-02 -0.19510E-01
 -0.11054E-02  0.18610E-02 -0.19510E-01
 -0.18843E-02  0.17175E-02 -0.19510E-01
 -0.18708E-02  0.91036E-03 -0.19510E-01
 -0.15981E-03 -0.19801E-02 -0.19510E-01
 -0.94328E-03 -0.23490E-02 -0.19510E-01
  0.78592E-03 -0.17074E-02 -0.19510E-01
  0.17209E-02 -0.14904E-02 -0.19510E-01
  0.32063E-02  0.76439E-03 -0.19510E-01
  0.28045E-02  0.12494E-02 -0.19510E-01
  0.23055E-02  0.18666E-02 -0.19510E-01
 -0.40558E-03  0.28995E-02 -0.19510E-01
 -0.12092E-02  0.27188E-02 -0.19510E-01
 -0.19446E-02  0.24633E-02 -0.19510E-01
 -0.25027E-02  0.22359E-02 -0.19510E-01
 -0.26367E-02  0.16503E-02 -0.19510E-01
 -0.27658E-02  0.87597E-03 -0.19510E-01
 -0.21129E-02 -0.21374E-02 -0.19510E-01
 -0.16089E-02 -0.26932E-02 -0.19510E-01
 -0.11943E-02 -0.31291E-02 -0.19510E-01
 -0.58781E-03 -0.30382E-02 -0.19510E-01
  0.20749E-03 -0.28748E-02 -0.19510E-01
  0.10574E-02 -0.26434E-02 -0.19510E-01
  0.18415E-02 -0.23715E-02 -0.19510E-01
  0.24549E-02 -0.21467E-02 -0.19510E-01
  0.26025E-02 -0.15101E-02 -0.19510E-01
  0.37964E-02  0.93572E-03 -0.19510E-01
  0.39100E-02  0.00000E+00 -0.19510E-01
  0.34621E-02  0.18171E-02 -0.19510E-01
  0.29267E-02  0.25928E-02 -0.19510E-01
  0.22211E-02  0.32179E-02 -0.19510E-01
  0.13865E-02  0.36559E-02 -0.19510E-01
  0.47130E-03  0.38815E-02 -0.19510E-01
 -0.47130E-03  0.38815E-02 -0.19510E-01
 -0.13865E-02  0.36559E-02 -0.19510E-01
 -0.22211E-02  0.32179E-02 -0.19510E-01
 -0.29267E-02  0.25928E-02 -0.19510E-01
 -0.34621E-02  0.18171E-02 -0.19510E-01
 -0.37964E-02  0.93572E-03 -0.19510E-01
 -0.39100E-02 -0.47884E-18 -0.19510E-01
 -0.37964E-02 -0.93572E-03 -0.19510E-01
 -0.34621E-02 -0.18171E-02 -0.19510E-01
 -0.29267E-02 -0.25928E-02 -0.19510E-01
 -0.22211E-02 -0.32179E-02 -0.19510E-01
 -0.13865E-02 -0.36559E-02 -0.19510E-01
 -0.47130E-03 -0.38815E-02 -0.19510E-01
  0.47130E-03 -0.38815E-02 -0.19510E-01
  0.13865E-02 -0.36559E-02 -0.19510E-01
  0.22211E-02 -0.32179E-02 -0.19510E-01
  0.29267E-02 -0.25928E-02 -0.19510E-01
  0.34621E-02 -0.18171E-02 -0.19510E-01
  0.37964E-02 -0.93572E-03 -0.19510E-01
  0.10372E-02  0.67570E-03 -0.18531E-01
  0.17443E-02  0.12341E-02 -0.18531E-01
  0.23171E-02  0.59412E-03 -0.18531E-01
  0.16687E-02 -0.33398E-03 -0.18531E-01
  0.30376E-02  0.15064E-03 -0.18531E-01
  0.27808E-02 -0.67396E-03 -0.18531E-01
  0.12845E-02  0.18421E-02 -0.18531E-01
  0.65016E-03  0.14626E-02 -0.18531E-01
  0.12626E-03  0.30507E-03 -0.18531E-01
 -0.12915E-03  0.11760E-02 -0.18531E-01
  0.94334E-03  0.22754E-02 -0.18531E-01
  0.11310E-02  0.28264E-02 -0.18531E-01
  0.17471E-02  0.24245E-02 -0.18531E-01
  0.40561E-03  0.21686E-02 -0.18531E-01
  0.39770E-03  0.29353E-02 -0.18531E-01
 -0.76480E-03 -0.10040E-02 -0.18531E-01
 -0.86659E-03  0.83015E-04 -0.18531E-01
  0.45895E-03 -0.69955E-03 -0.18531E-01
 -0.18315E-02 -0.71126E-03 -0.18531E-01
 -0.18435E-02  0.83367E-04 -0.18531E-01
 -0.27237E-02 -0.77780E-03 -0.18531E-01
 -0.28014E-02  0.42080E-04 -0.18531E-01
 -0.25372E-02 -0.15192E-02 -0.18531E-01
 -0.19309E-02 -0.13224E-02 -0.18531E-01
 -0.99291E-03  0.99526E-03 -0.18531E-01
 -0.14398E-02 -0.17323E-02 -0.18531E-01
 -0.31474E-03  0.20234E-02 -0.18531E-01
 -0.11051E-02  0.18609E-02 -0.18531E-01
 -0.18843E-02  0.17175E-02 -0.18531E-01
 -0.18706E-02  0.91060E-03 -0.18531E-01
 -0.16009E-03 -0.19801E-02 -0.18531E-01
 -0.94388E-03 -0.23490E-02 -0.18531E-01
  0.78526E-03 -0.17074E-02 -0.18531E-01
  0.17208E-02 -0.14906E-02 -0.18531E-01
  0.32066E-02  0.76539E-03 -0.18531E-01
  0.28045E-02  0.12498E-02 -0.18531E-01
  0.23053E-02  0.18667E-02 -0.18531E-01
 -0.40545E-03  0.28984E-02 -0.18531E-01
 -0.12092E-02  0.27184E-02 -0.18531E-01
 -0.19446E-02  0.24631E-02 -0.18531E-01
 -0.25027E-02  0.22359E-02 -0.18531E-01
 -0.26366E-02  0.16503E-02 -0.18531E-01
 -0.27655E-02  0.87623E-03 -0.18531E-01
 -0.21130E-02 -0.21374E-02 -0.18531E-01
 -0.16089E-02 -0.26932E-02 -0.18531E-01
 -0.11944E-02 -0.31291E-02 -0.18531E-01
 -0.58816E-03 -0.30382E-02 -0.18531E-01
  0.20709E-03 -0.28748E-02 -0.18531E-01
  0.10571E-02 -0.26436E-02 -0.18531E-01
  0.18415E-02 -0.23717E-02 -0.18531E-01
  0.24550E-02 -0.21472E-02 -0.18531E-01
  0.26025E-02 -0.15100E-02 -0.18531E-01
  0.37964E-02  0.93572E-03 -0.18531E-01
  0.39100E-02  0.00000E+00 -0.18531E-01
  0.34621E-02  0.18171E-02 -0.18531E-01
  0.29267E-02  0.25928E-02 -0.18531E-01
  0.22211E-02  0.32179E-02 -0.18531E-01
  0.13865E-02  0.36559E-02 -0.18531E-01
  0.47130E-03  0.38815E-02 -0.18531E-01
 -0.47130E-03  0.38815E-02 -0.18531E-01
 -0.13865E-02  0.36559E-02 -0.18531E-01
 -0.22211E-02  0.32179E-02 -0.18531E-01
 -0.29267E-02  0.25928E-02 -0.18531E-01
 -0.34621E-02  0.18171E-02 -0.18531E-01
 -0.37964E-02  0.93572E-03 -0.18531E-01
 -0.39100E-02 -0.47884E-18 -0.18531E-01
 -0.37964E-02 -0.93572E-03 -0.18531E-01
 -0.34621E-02 -0.18171E-02 -0.18531E-01
 -0.29267E-02 -0.25928E-02 -0.18531E-01
 -0.22211E-02 -0.32179E-02 -0.18531E-01
 -0.13865E-02 -0.36559E-02 -0.18531E-01
 -0.47130E-03 -0.38815E-02 -0.18531E-01
  0.47130E-03 -0.38815E-02 -0.18531E-01
  0.13865E-02 -0.36559E-02 -0.18531E-01
  0.22211E-02 -0.32179E-02 -0.18531E-01
  0.29267E-02 -0.25928E-02 -0.18531E-01
  0.34621E-02 -0.18171E-02 -0.18531E-01
  0.37964E-02 -0.93572E-03 -0.18531E-01
  0.10371E-02  0.67625E-03 -0.17552E-01
  0.17441E-02  0.12348E-02 -0.17552E-01
  0.23169E-02  0.59465E-03 -0.17552E-01
  0.16685E-02 -0.33323E-03 -0.17552E-01
  0.30376E-02  0.15100E-03 -0.17552E-01
  0.27812E-02 -0.67347E-03 -0.17552E-01
  0.12844E-02  0.18423E-02 -0.17552E-01
  0.64992E-03  0.14636E-02 -0.17552E-01
  0.12600E-03  0.30622E-03 -0.17552E-01
 -0.12933E-03  0.11777E-02 -0.17552E-01
  0.94301E-03  0.22755E-02 -0.17552E-01
  0.11306E-02  0.28260E-02 -0.17552E-01
  0.17467E-02  0.24247E-02 -0.17552E-01
  0.40556E-03  0.21687E-02 -0.17552E-01
  0.39769E-03  0.29351E-02 -0.17552E-01
 -0.76515E-03 -0.10042E-02 -0.17552E-01
 -0.86670E-03  0.83825E-04 -0.17552E-01
  0.45850E-03 -0.69882E-03 -0.17552E-01
 -0.18318E-02 -0.71112E-03 -0.17552E-01
 -0.18434E-02  0.83490E-04 -0.17552E-01
 -0.27236E-02 -0.77763E-03 -0.17552E-01
 -0.28011E-02  0.42353E-04 -0.17552E-01
 -0.25374E-02 -0.15192E-02 -0.17552E-01
 -0.19313E-02 -0.13223E-02 -0.17552E-01
 -0.99277E-03  0.99661E-03 -0.17552E-01
 -0.14401E-02 -0.17322E-02 -0.17552E-01
 -0.31454E-03  0.20237E-02 -0.17552E-01
 -0.11047E-02  0.18607E-02 -0.17552E-01
 -0.18842E-02  0.17175E-02 -0.17552E-01
 -0.18705E-02  0.91084E-03 -0.17552E-01
 -0.16036E-03 -0.19801E-02 -0.17552E-01
 -0.94448E-03 -0.23491E-02 -0.17552E-01
  0.78460E-03 -0.17074E-02 -0.17552E-01
  0.17208E-02 -0.14909E-02 -0.17552E-01
  0.32070E-02  0.76640E-03 -0.17552E-01
  0.28045E-02  0.12503E-02 -0.17552E-01
  0.23052E-02  0.18667E-02 -0.17552E-01
 -0.40531E-03  0.28974E-02 -0.17552E-01
 -0.12092E-02  0.27179E-02 -0.17552E-01
 -0.19445E-02  0.24629E-02 -0.17552E-01
 -0.25027E-02  0.22359E-02 -0.17552E-01
 -0.26366E-02  0.16503E-02 -0.17552E-01
 -0.27652E-02  0.87650E-03 -0.17552E-01
 -0.21132E-02 -0.21374E-02 -0.17552E-01
 -0.16090E-02 -0.26933E-02 -0.17552E-01
 -0.11946E-02 -0.31291E-02 -0.17552E-01
 -0.58851E-03 -0.30382E-02 -0.17552E-01
  0.20668E-03 -0.28749E-02 -0.17552E-01
  0.10567E-02 -0.26439E-02 -0.17552E-01
  0.18416E-02 -0.23719E-02 -0.17552E-01
  0.24551E-02 -0.21478E-02 -0.17552E-01
  0.26026E-02 -0.15099E-02 -0.17552E-01
  0.37964E-02  0.93572E-03 -0.17552E-01
  0.39100E-02  0.00000E+00 -0.17552E-01
  0.34621E-02  0.18171E-02 -0.17552E-01
  0.29267E-02  0.25928E-02 -0.17552E-01
  0.22211E-02  0.32179E-02 -0.17552E-01
  0.13865E-02  0.36559E-02 -0.17552E-01
  0.47130E-03  0.38815E-02 -0.17552E-01
 -0.47130E-03  0.38815E-02 -0.17552E-01
 -0.13865E-02  0.36559E-02 -0.17552E-01
 -0.22211E-02  0.32179E-02 -0.17552E-01
 -0.29267E-02  0.25928E-02 -0.17552E-01
 -0.34621E-02  0.18171E-02 -0.17552E-01
 -0.37964E-02  0.93572E-03 -0.17552E-01
 -0.39100E-02 -0.47884E-18 -0.17552E-01
 -0.37964E-02 -0.93572E-03 -0.17552E-01
 -0.34621E-02 -0.18171E-02 -0.17552E-01
 -0.29267E-02 -0.25928E-02 -0.17552E-01
 -0.22211E-02 -0.32179E-02 -0.17552E-01
 -0.13865E-02 -0.36559E-02 -0.17552E-01
 -0.47130E-03 -0.38815E-02 -0.17552E-01
  0.47130E-03 -0.38815E-02 -0.17552E-01
  0.13865E-02 -0.36559E-02 -0.17552E-01
  0.22211E-02 -0.32179E-02 -0.17552E-01
  0.29267E-02 -0.25928E-02 -0.17552E-01
  0.34621E-02 -0.18171E-02 -0.17552E-01
  0.37964E-02 -0.93572E-03 -0.17552E-01
  0.10370E-02  0.67680E-03 -0.16573E-01
  0.17439E-02  0.12354E-02 -0.16573E-01
  0.23168E-02  0.59517E-03 -0.16573E-01
  0.16683E-02 -0.33247E-03 -0.16573E-01
  0.30375E-02  0.15136E-03 -0.16573E-01
  0.27815E-02 -0.67298E-03 -0.16573E-01
  0.12843E-02  0.18425E-02 -0.16573E-01
  0.64967E-03  0.14646E-02 -0.16573E-01
  0.12573E-03  0.30737E-03 -0.16573E-01
 -0.12952E-03  0.11795E-02 -0.16573E-01
  0.94268E-03  0.22757E-02 -0.16573E-01
  0.11303E-02  0.28255E-02 -0.16573E-01
  0.17463E-02  0.24248E-02 -0.16573E-01
  0.40550E-03  0.21687E-02 -0.16573E-01
  0.39767E-03  0.29348E-02 -0.16573E-01
 -0.76551E-03 -0.10043E-02 -0.16573E-01
 -0.86680E-03  0.84634E-04 -0.16573E-01
  0.45806E-03 -0.69810E-03 -0.16573E-01
 -0.18321E-02 -0.71098E-03 -0.16573E-01
 -0.18433E-02  0.83614E-04 -0.16573E-01
 -0.27236E-02 -0.77746E-03 -0.16573E-01
 -0.28009E-02  0.42626E-04 -0.16573E-01
 -0.25375E-02 -0.15191E-02 -0.16573E-01
 -0.19317E-02 -0.13223E-02 -0.16573E-01
 -0.99262E-03  0.99797E-03 -0.16573E-01
 -0.14405E-02 -0.17322E-02 -0.16573E-01
 -0.31434E-03  0.20240E-02 -0.16573E-01
 -0.11044E-02  0.18606E-02 -0.16573E-01
 -0.18842E-02  0.17175E-02 -0.16573E-01
 -0.18704E-02  0.91108E-03 -0.16573E-01
 -0.16064E-03 -0.19802E-02 -0.16573E-01
 -0.94508E-03 -0.23491E-02 -0.16573E-01
  0.78394E-03 -0.17074E-02 -0.16573E-01
  0.17208E-02 -0.14911E-02 -0.16573E-01
  0.32073E-02  0.76740E-03 -0.16573E-01
  0.28045E-02  0.12507E-02 -0.16573E-01
  0.23051E-02  0.18668E-02 -0.16573E-01
 -0.40517E-03  0.28963E-02 -0.16573E-01
 -0.12092E-02  0.27174E-02 -0.16573E-01
 -0.19445E-02  0.24627E-02 -0.16573E-01
 -0.25026E-02  0.22358E-02 -0.16573E-01
 -0.26365E-02  0.16503E-02 -0.16573E-01
 -0.27649E-02  0.87676E-03 -0.16573E-01
 -0.21133E-02 -0.21374E-02 -0.16573E-01
 -0.16090E-02 -0.26933E-02 -0.16573E-01
 -0.11947E-02 -0.31291E-02 -0.16573E-01
 -0.58886E-03 -0.30382E-02 -0.16573E-01
  0.20627E-03 -0.28749E-02 -0.16573E-01
  0.10564E-02 -0.26442E-02 -0.16573E-01
  0.18416E-02 -0.23721E-02 -0.16573E-01
  0.24553E-02 -0.21483E-02 -0.16573E-01
  0.26027E-02 -0.15097E-02 -0.16573E-01
  0.37964E-02  0.93572E-03 -0.16573E-01
  0.39100E-02  0.00000E+00 -0.16573E-01
  0.34621E-02  0.18171E-02 -0.16573E-01
  0.29267E-02  0.25928E-02 -0.16573E-01
  0.22211E-02  0.32179E-02 -0.16573E-01
  0.13865E-02  0.36559E-02 -0.16573E-01
  0.47130E-03  0.38815E-02 -0.16573E-01
 -0.47130E-03  0.38815E-02 -0.16573E-01
 -0.13865E-02  0.36559E-02 -0.16573E-01
 -0.22211E-02  0.32179E-02 -0.16573E-01
 -0.29267E-02  0.25928E-02 -0.16573E-01
 -0.34621E-02  0.18171E-02 -0.16573E-01
 -0.37964E-02  0.93572E-03 -0.16573E-01
 -0.39100E-02 -0.47884E-18 -0.16573E-01
 -0.37964E-02 -0.93572E-03 -0.16573E-01
 -0.34621E-02 -0.18171E-02 -0.16573E-01
 -0.29267E-02 -0.25928E-02 -0.16573E-01
 -0.22211E-02 -0.32179E-02 -0.16573E-01
 -0.13865E-02 -0.36559E-02 -0.16573E-01
 -0.47130E-03 -0.38815E-02 -0.16573E-01
  0.47130E-03 -0.38815E-02 -0.16573E-01
  0.13865E-02 -0.36559E-02 -0.16573E-01
  0.22211E-02 -0.32179E-02 -0.16573E-01
  0.29267E-02 -0.25928E-02 -0.16573E-01
  0.34621E-02 -0.18171E-02 -0.16573E-01
  0.37964E-02 -0.93572E-03 -0.16573E-01
  0.10368E-02  0.67736E-03 -0.15594E-01
  0.17438E-02  0.12361E-02 -0.15594E-01
  0.23167E-02  0.59570E-03 -0.15594E-01
  0.16681E-02 -0.33172E-03 -0.15594E-01
  0.30375E-02  0.15173E-03 -0.15594E-01
  0.27819E-02 -0.67248E-03 -0.15594E-01
  0.12842E-02  0.18427E-02 -0.15594E-01
  0.64943E-03  0.14656E-02 -0.15594E-01
  0.12547E-03  0.30852E-03 -0.15594E-01
 -0.12970E-03  0.11812E-02 -0.15594E-01
  0.94235E-03  0.22758E-02 -0.15594E-01
  0.11300E-02  0.28251E-02 -0.15594E-01
  0.17459E-02  0.24249E-02 -0.15594E-01
  0.40545E-03  0.21688E-02 -0.15594E-01
  0.39766E-03  0.29345E-02 -0.15594E-01
 -0.76586E-03 -0.10044E-02 -0.15594E-01
 -0.86691E-03  0.85443E-04 -0.15594E-01
  0.45761E-03 -0.69737E-03 -0.15594E-01
 -0.18324E-02 -0.71084E-03 -0.15594E-01
 -0.18432E-02  0.83737E-04 -0.15594E-01
 -0.27236E-02 -0.77729E-03 -0.15594E-01
 -0.28006E-02  0.42899E-04 -0.15594E-01
 -0.25377E-02 -0.15191E-02 -0.15594E-01
 -0.19322E-02 -0.13222E-02 -0.15594E-01
 -0.99248E-03  0.99932E-03 -0.15594E-01
 -0.14408E-02 -0.17322E-02 -0.15594E-01
 -0.31414E-03  0.20243E-02 -0.15594E-01
 -0.11040E-02  0.18605E-02 -0.15594E-01
 -0.18841E-02  0.17175E-02 -0.15594E-01
 -0.18703E-02  0.91132E-03 -0.15594E-01
 -0.16091E-03 -0.19802E-02 -0.15594E-01
 -0.94568E-03 -0.23491E-02 -0.15594E-01
  0.78328E-03 -0.17074E-02 -0.15594E-01
  0.17207E-02 -0.14914E-02 -0.15594E-01
  0.32076E-02  0.76841E-03 -0.15594E-01
  0.28044E-02  0.12511E-02 -0.15594E-01
  0.23050E-02  0.18668E-02 -0.15594E-01
 -0.40503E-03  0.28952E-02 -0.15594E-01
 -0.12092E-02  0.27170E-02 -0.15594E-01
 -0.19445E-02  0.24624E-02 -0.15594E-01
 -0.25026E-02  0.22358E-02 -0.15594E-01
 -0.26364E-02  0.16503E-02 -0.15594E-01
 -0.27646E-02  0.87702E-03 -0.15594E-01
 -0.21134E-02 -0.21374E-02 -0.15594E-01
 -0.16091E-02 -0.26933E-02 -0.15594E-01
 -0.11948E-02 -0.31291E-02 -0.15594E-01
 -0.58921E-03 -0.30382E-02 -0.15594E-01
  0.20587E-03 -0.28749E-02 -0.15594E-01
  0.10561E-02 -0.26444E-02 -0.15594E-01
  0.18416E-02 -0.23723E-02 -0.15594E-01
  0.24554E-02 -0.21489E-02 -0.15594E-01
  0.26027E-02 -0.15096E-02 -0.15594E-01
  0.37964E-02  0.93572E-03 -0.15594E-01
  0.39100E-02  0.00000E+00 -0.15594E-01
  0.34621E-02  0.18171E-02 -0.15594E-01
  0.29267E-02  0.25928E-02 -0.15594E-01
  0.22211E-02  0.32179E-02 -0.15594E-01
  0.13865E-02  0.36559E-02 -0.15594E-01
  0.47130E-03  0.38815E-02 -0.15594E-01
 -0.47130E-03  0.38815E-02 -0.15594E-01
 -0.13865E-02  0.36559E-02 -0.15594E-01
 -0.22211E-02  0.32179E-02 -0.15594E-01
 -0.29267E-02  0.25928E-02 -0.15594E-01
 -0.34621E-02  0.18171E-02 -0.15594E-01
 -0.37964E-02  0.93572E-03 -0.15594E-01
 -0.39100E-02 -0.47884E-18 -0.15594E-01
 -0.37964E-02 -0.93572E-03 -0.15594E-01
 -0.34621E-02 -0.18171E-02 -0.15594E-01
 -0.29267E-02 -0.25928E-02 -0.15594E-01
 -0.22211E-02 -0.32179E-02 -0.15594E-01
 -0.13865E-02 -0.36559E-02 -0.15594E-01
 -0.47130E-03 -0.38815E-02 -0.15594E-01
  0.47130E-03 -0.38815E-02 -0.15594E-01
  0.13865E-02 -0.36559E-02 -0.15594E-01
  0.22211E-02 -0.32179E-02 -0.15594E-01
  0.29267E-02 -0.25928E-02 -0.15594E-01
  0.34621E-02 -0.18171E-02 -0.15594E-01
  0.37964E-02 -0.93572E-03 -0.15594E-01
  0.10367E-02  0.67791E-03 -0.14615E-01
  0.17436E-02  0.12368E-02 -0.14615E-01
  0.23166E-02  0.59622E-03 -0.14615E-01
  0.16679E-02 -0.33096E-03 -0.14615E-01
  0.30375E-02  0.15209E-03 -0.14615E-01
  0.27822E-02 -0.67199E-03 -0.14615E-01
  0.12841E-02  0.18429E-02 -0.14615E-01
  0.64918E-03  0.14666E-02 -0.14615E-01
  0.12521E-03  0.30967E-03 -0.14615E-01
 -0.12989E-03  0.11830E-02 -0.14615E-01
  0.94202E-03  0.22759E-02 -0.14615E-01
  0.11296E-02  0.28247E-02 -0.14615E-01
  0.17455E-02  0.24251E-02 -0.14615E-01
  0.40539E-03  0.21688E-02 -0.14615E-01
  0.39764E-03  0.29343E-02 -0.14615E-01
 -0.76621E-03 -0.10046E-02 -0.14615E-01
 -0.86702E-03  0.86253E-04 -0.14615E-01
  0.45716E-03 -0.69665E-03 -0.14615E-01
 -0.18326E-02 -0.71070E-03 -0.14615E-01
 -0.18431E-02  0.83861E-04 -0.14615E-01
 -0.27235E-02 -0.77712E-03 -0.14615E-01
 -0.28003E-02  0.43173E-04 -0.14615E-01
 -0.25379E-02 -0.15190E-02 -0.14615E-01
 -0.19326E-02 -0.13220E-02 -0.14615E-01
 -0.99233E-03  0.10007E-02 -0.14615E-01
 -0.14412E-02 -0.17321E-02 -0.14615E-01
 -0.31394E-03  0.20245E-02 -0.14615E-01
 -0.11037E-02  0.18603E-02 -0.14615E-01
 -0.18841E-02  0.17175E-02 -0.14615E-01
 -0.18701E-02  0.91156E-03 -0.14615E-01
 -0.16119E-03 -0.19802E-02 -0.14615E-01
 -0.94628E-03 -0.23491E-02 -0.14615E-01
  0.78262E-03 -0.17074E-02 -0.14615E-01
  0.17207E-02 -0.14916E-02 -0.14615E-01
  0.32079E-02  0.76941E-03 -0.14615E-01
  0.28044E-02  0.12515E-02 -0.14615E-01
  0.23049E-02  0.18668E-02 -0.14615E-01
 -0.40490E-03  0.28942E-02 -0.14615E-01
 -0.12093E-02  0.27165E-02 -0.14615E-01
 -0.19444E-02  0.24622E-02 -0.14615E-01
 -0.25026E-02  0.22358E-02 -0.14615E-01
 -0.26363E-02  0.16503E-02 -0.14615E-01
 -0.27643E-02  0.87728E-03 -0.14615E-01
 -0.21136E-02 -0.21374E-02 -0.14615E-01
 -0.16091E-02 -0.26933E-02 -0.14615E-01
 -0.11949E-02 -0.31291E-02 -0.14615E-01
 -0.58956E-03 -0.30382E-02 -0.14615E-01
  0.20546E-03 -0.28749E-02 -0.14615E-01
  0.10558E-02 -0.26447E-02 -0.14615E-01
  0.18417E-02 -0.23725E-02 -0.14615E-01
  0.24555E-02 -0.21494E-02 -0.14615E-01
  0.26028E-02 -0.15095E-02 -0.14615E-01
  0.37964E-02  0.93572E-03 -0.14615E-01
  0.39100E-02  0.00000E+00 -0.14615E-01
  0.34621E-02  0.18171E-02 -0.14615E-01
  0.29267E-02  0.25928E-02 -0.14615E-01
  0.22211E-02  0.32179E-02 -0.14615E-01
  0.13865E-02  0.36559E-02 -0.14615E-01
  0.47130E-03  0.38815E-02 -0.14615E-01
 -0.47130E-03  0.38815E-02 -0.14615E-01
 -0.13865E-02  0.36559E-02 -0.14615E-01
 -0.22211E-02  0.32179E-02 -0.14615E-01
 -0.29267E-02  0.25928E-02 -0.14615E-01
 -0.34621E-02  0.18171E-02 -0.14615E-01
 -0.37964E-02  0.93572E-03 -0.14615E-01
 -0.39100E-02 -0.47884E-18 -0.14615E-01
 -0.37964E-02 -0.93572E-03 -0.14615E-01
 -0.34621E-02 -0.18171E-02 -0.14615E-01
 -0.29267E-02 -0.25928E-02 -0.14615E-01
 -0.22211E-02 -0.32179E-02 -0.14615E-01
 -0.13865E-02 -0.36559E-02 -0.14615E-01
 -0.47130E-03 -0.38815E-02 -0.14615E-01
  0.47130E-03 -0.38815E-02 -0.14615E-01
  0.13865E-02 -0.36559E-02 -0.14615E-01
  0.22211E-02 -0.32179E-02 -0.14615E-01
  0.29267E-02 -0.25928E-02 -0.14615E-01
  0.34621E-02 -0.18171E-02 -0.14615E-01
  0.37964E-02 -0.93572E-03 -0.14615E-01
  0.10366E-02  0.67847E-03 -0.13635E-01
  0.17434E-02  0.12374E-02 -0.13635E-01
  0.23164E-02  0.59674E-03 -0.13635E-01
  0.16677E-02 -0.33021E-03 -0.13635E-01
  0.30375E-02  0.15245E-03 -0.13635E-01
  0.27825E-02 -0.67150E-03 -0.13635E-01
  0.12840E-02  0.18430E-02 -0.13635E-01
  0.64894E-03  0.14676E-02 -0.13635E-01
  0.12495E-03  0.31081E-03 -0.13635E-01
 -0.13007E-03  0.11847E-02 -0.13635E-01
  0.94169E-03  0.22761E-02 -0.13635E-01
  0.11293E-02  0.28242E-02 -0.13635E-01
  0.17451E-02  0.24252E-02 -0.13635E-01
  0.40534E-03  0.21688E-02 -0.13635E-01
  0.39762E-03  0.29340E-02 -0.13635E-01
 -0.76657E-03 -0.10047E-02 -0.13635E-01
 -0.86713E-03  0.87062E-04 -0.13635E-01
  0.45671E-03 -0.69592E-03 -0.13635E-01
 -0.18329E-02 -0.71056E-03 -0.13635E-01
 -0.18430E-02  0.83985E-04 -0.13635E-01
 -0.27235E-02 -0.77695E-03 -0.13635E-01
 -0.28001E-02  0.43446E-04 -0.13635E-01
 -0.25380E-02 -0.15190E-02 -0.13635E-01
 -0.19330E-02 -0.13219E-02 -0.13635E-01
 -0.99219E-03  0.10020E-02 -0.13635E-01
 -0.14415E-02 -0.17321E-02 -0.13635E-01
 -0.31374E-03  0.20248E-02 -0.13635E-01
 -0.11033E-02  0.18602E-02 -0.13635E-01
 -0.18840E-02  0.17175E-02 -0.13635E-01
 -0.18700E-02  0.91180E-03 -0.13635E-01
 -0.16146E-03 -0.19803E-02 -0.13635E-01
 -0.94687E-03 -0.23491E-02 -0.13635E-01
  0.78195E-03 -0.17073E-02 -0.13635E-01
  0.17207E-02 -0.14919E-02 -0.13635E-01
  0.32083E-02  0.77042E-03 -0.13635E-01
  0.28044E-02  0.12520E-02 -0.13635E-01
  0.23048E-02  0.18669E-02 -0.13635E-01
 -0.40476E-03  0.28931E-02 -0.13635E-01
 -0.12093E-02  0.27160E-02 -0.13635E-01
 -0.19444E-02  0.24620E-02 -0.13635E-01
 -0.25026E-02  0.22358E-02 -0.13635E-01
 -0.26362E-02  0.16503E-02 -0.13635E-01
 -0.27640E-02  0.87754E-03 -0.13635E-01
 -0.21137E-02 -0.21374E-02 -0.13635E-01
 -0.16091E-02 -0.26933E-02 -0.13635E-01
 -0.11950E-02 -0.31291E-02 -0.13635E-01
 -0.58991E-03 -0.30382E-02 -0.13635E-01
  0.20505E-03 -0.28749E-02 -0.13635E-01
  0.10555E-02 -0.26450E-02 -0.13635E-01
  0.18417E-02 -0.23727E-02 -0.13635E-01
  0.24556E-02 -0.21500E-02 -0.13635E-01
  0.26029E-02 -0.15094E-02 -0.13635E-01
  0.37964E-02  0.93572E-03 -0.13635E-01
  0.39100E-02  0.00000E+00 -0.13635E-01
  0.34621E-02  0.18171E-02 -0.13635E-01
  0.29267E-02  0.25928E-02 -0.13635E-01
  0.22211E-02  0.32179E-02 -0.13635E-01
  0.13865E-02  0.36559E-02 -0.13635E-01
  0.47130E-03  0.38815E-02 -0.13635E-01
 -0.47130E-03  0.38815E-02 -0.13635E-01
 -0.13865E-02  0.36559E-02 -0.13635E-01
 -0.22211E-02  0.32179E-02 -0.13635E-01
 -0.29267E-02  0.25928E-02 -0.13635E-01
 -0.34621E-02  0.18171E-02 -0.13635E-01
 -0.37964E-02  0.93572E-03 -0.13635E-01
 -0.39100E-02  0.39516E-17 -0.13635E-01
 -0.37964E-02 -0.93572E-03 -0.13635E-01
 -0.34621E-02 -0.18171E-02 -0.13635E-01
 -0.29267E-02 -0.25928E-02 -0.13635E-01
 -0.22211E-02 -0.32179E-02 -0.13635E-01
 -0.13865E-02 -0.36559E-02 -0.13635E-01
 -0.47130E-03 -0.38815E-02 -0.13635E-01
  0.47130E-03 -0.38815E-02 -0.13635E-01
  0.13865E-02 -0.36559E-02 -0.13635E-01
  0.22211E-02 -0.32179E-02 -0.13635E-01
  0.29267E-02 -0.25928E-02 -0.13635E-01
  0.34621E-02 -0.18171E-02 -0.13635E-01
  0.37964E-02 -0.93572E-03 -0.13635E-01
  0.10365E-02  0.67902E-03 -0.12656E-01
  0.17432E-02  0.12381E-02 -0.12656E-01
  0.23163E-02  0.59727E-03 -0.12656E-01
  0.16675E-02 -0.32945E-03 -0.12656E-01
  0.30374E-02  0.15282E-03 -0.12656E-01
  0.27829E-02 -0.67100E-03 -0.12656E-01
  0.12839E-02  0.18432E-02 -0.12656E-01
  0.64869E-03  0.14686E-02 -0.12656E-01
  0.12468E-03  0.31196E-03 -0.12656E-01
 -0.13026E-03  0.11865E-02 -0.12656E-01
  0.94135E-03  0.22762E-02 -0.12656E-01
  0.11289E-02  0.28238E-02 -0.12656E-01
  0.17447E-02  0.24254E-02 -0.12656E-01
  0.40528E-03  0.21688E-02 -0.12656E-01
  0.39760E-03  0.29337E-02 -0.12656E-01
 -0.76692E-03 -0.10049E-02 -0.12656E-01
 -0.86724E-03  0.87871E-04 -0.12656E-01
  0.45626E-03 -0.69519E-03 -0.12656E-01
 -0.18332E-02 -0.71042E-03 -0.12656E-01
 -0.18430E-02  0.84108E-04 -0.12656E-01
 -0.27235E-02 -0.77678E-03 -0.12656E-01
 -0.27998E-02  0.43720E-04 -0.12656E-01
 -0.25382E-02 -0.15189E-02 -0.12656E-01
 -0.19334E-02 -0.13219E-02 -0.12656E-01
 -0.99205E-03  0.10034E-02 -0.12656E-01
 -0.14419E-02 -0.17320E-02 -0.12656E-01
 -0.31354E-03  0.20251E-02 -0.12656E-01
 -0.11030E-02  0.18601E-02 -0.12656E-01
 -0.18840E-02  0.17175E-02 -0.12656E-01
 -0.18699E-02  0.91204E-03 -0.12656E-01
 -0.16174E-03 -0.19803E-02 -0.12656E-01
 -0.94747E-03 -0.23492E-02 -0.12656E-01
  0.78129E-03 -0.17073E-02 -0.12656E-01
  0.17206E-02 -0.14921E-02 -0.12656E-01
  0.32086E-02  0.77142E-03 -0.12656E-01
  0.28044E-02  0.12524E-02 -0.12656E-01
  0.23047E-02  0.18669E-02 -0.12656E-01
 -0.40462E-03  0.28920E-02 -0.12656E-01
 -0.12093E-02  0.27155E-02 -0.12656E-01
 -0.19444E-02  0.24618E-02 -0.12656E-01
 -0.25025E-02  0.22358E-02 -0.12656E-01
 -0.26361E-02  0.16503E-02 -0.12656E-01
 -0.27637E-02  0.87781E-03 -0.12656E-01
 -0.21139E-02 -0.21374E-02 -0.12656E-01
 -0.16092E-02 -0.26934E-02 -0.12656E-01
 -0.11951E-02 -0.31291E-02 -0.12656E-01
 -0.59025E-03 -0.30382E-02 -0.12656E-01
  0.20465E-03 -0.28749E-02 -0.12656E-01
  0.10552E-02 -0.26452E-02 -0.12656E-01
  0.18418E-02 -0.23729E-02 -0.12656E-01
  0.24558E-02 -0.21505E-02 -0.12656E-01
  0.26030E-02 -0.15093E-02 -0.12656E-01
  0.37964E-02  0.93572E-03 -0.12656E-01
  0.39100E-02  0.00000E+00 -0.12656E-01
  0.34621E-02  0.18171E-02 -0.12656E-01
  0.29267E-02  0.25928E-02 -0.12656E-01
  0.22211E-02  0.32179E-02 -0.12656E-01
  0.13865E-02  0.36559E-02 -0.12656E-01
  0.47130E-03  0.38815E-02 -0.12656E-01
 -0.47130E-03  0.38815E-02 -0.12656E-01
 -0.13865E-02  0.36559E-02 -0.12656E-01
 -0.22211E-02  0.32179E-02 -0.12656E-01
 -0.29267E-02  0.25928E-02 -0.12656E-01
 -0.34621E-02  0.18171E-02 -0.12656E-01
 -0.37964E-02  0.93572E-03 -0.12656E-01
 -0.39100E-02 -0.47884E-18 -0.12656E-01
 -0.37964E-02 -0.93572E-03 -0.12656E-01
 -0.34621E-02 -0.18171E-02 -0.12656E-01
 -0.29267E-02 -0.25928E-02 -0.12656E-01
 -0.22211E-02 -0.32179E-02 -0.12656E-01
 -0.13865E-02 -0.36559E-02 -0.12656E-01
 -0.47130E-03 -0.38815E-02 -0.12656E-01
  0.47130E-03 -0.38815E-02 -0.12656E-01
  0.13865E-02 -0.36559E-02 -0.12656E-01
  0.22211E-02 -0.32179E-02 -0.12656E-01
  0.29267E-02 -0.25928E-02 -0.12656E-01
  0.34621E-02 -0.18171E-02 -0.12656E-01
  0.37964E-02 -0.93572E-03 -0.12656E-01
  0.10364E-02  0.67958E-03 -0.11677E-01
  0.17430E-02  0.12387E-02 -0.11677E-01
  0.23162E-02  0.59779E-03 -0.11677E-01
  0.16672E-02 -0.32870E-03 -0.11677E-01
  0.30374E-02  0.15318E-03 -0.11677E-01
  0.27832E-02 -0.67051E-03 -0.11677E-01
  0.12838E-02  0.18434E-02 -0.11677E-01
  0.64845E-03  0.14696E-02 -0.11677E-01
  0.12442E-03  0.31311E-03 -0.11677E-01
 -0.13044E-03  0.11882E-02 -0.11677E-01
  0.94102E-03  0.22763E-02 -0.11677E-01
  0.11286E-02  0.28233E-02 -0.11677E-01
  0.17443E-02  0.24255E-02 -0.11677E-01
  0.40523E-03  0.21689E-02 -0.11677E-01
  0.39759E-03  0.29335E-02 -0.11677E-01
 -0.76727E-03 -0.10050E-02 -0.11677E-01
 -0.86735E-03  0.88681E-04 -0.11677E-01
  0.45582E-03 -0.69447E-03 -0.11677E-01
 -0.18335E-02 -0.71028E-03 -0.11677E-01
 -0.18429E-02  0.84232E-04 -0.11677E-01
 -0.27235E-02 -0.77661E-03 -0.11677E-01
 -0.27995E-02  0.43993E-04 -0.11677E-01
 -0.25383E-02 -0.15189E-02 -0.11677E-01
 -0.19339E-02 -0.13218E-02 -0.11677E-01
 -0.99190E-03  0.10048E-02 -0.11677E-01
 -0.14422E-02 -0.17320E-02 -0.11677E-01
 -0.31334E-03  0.20254E-02 -0.11677E-01
 -0.11026E-02  0.18599E-02 -0.11677E-01
 -0.18839E-02  0.17175E-02 -0.11677E-01
 -0.18697E-02  0.91228E-03 -0.11677E-01
 -0.16201E-03 -0.19803E-02 -0.11677E-01
 -0.94807E-03 -0.23492E-02 -0.11677E-01
  0.78063E-03 -0.17073E-02 -0.11677E-01
  0.17206E-02 -0.14923E-02 -0.11677E-01
  0.32089E-02  0.77243E-03 -0.11677E-01
  0.28043E-02  0.12528E-02 -0.11677E-01
  0.23046E-02  0.18670E-02 -0.11677E-01
 -0.40448E-03  0.28910E-02 -0.11677E-01
 -0.12093E-02  0.27151E-02 -0.11677E-01
 -0.19443E-02  0.24615E-02 -0.11677E-01
 -0.25025E-02  0.22358E-02 -0.11677E-01
 -0.26360E-02  0.16503E-02 -0.11677E-01
 -0.27633E-02  0.87807E-03 -0.11677E-01
 -0.21140E-02 -0.21374E-02 -0.11677E-01
 -0.16092E-02 -0.26934E-02 -0.11677E-01
 -0.11953E-02 -0.31291E-02 -0.11677E-01
 -0.59060E-03 -0.30382E-02 -0.11677E-01
  0.20424E-03 -0.28749E-02 -0.11677E-01
  0.10549E-02 -0.26455E-02 -0.11677E-01
  0.18418E-02 -0.23732E-02 -0.11677E-01
  0.24559E-02 -0.21511E-02 -0.11677E-01
  0.26030E-02 -0.15092E-02 -0.11677E-01
  0.37964E-02  0.93572E-03 -0.11677E-01
  0.39100E-02  0.00000E+00 -0.11677E-01
  0.34621E-02  0.18171E-02 -0.11677E-01
  0.29267E-02  0.25928E-02 -0.11677E-01
  0.22211E-02  0.32179E-02 -0.11677E-01
  0.13865E-02  0.36559E-02 -0.11677E-01
  0.47130E-03  0.38815E-02 -0.11677E-01
 -0.47130E-03  0.38815E-02 -0.11677E-01
 -0.13865E-02  0.36559E-02 -0.11677E-01
 -0.22211E-02  0.32179E-02 -0.11677E-01
 -0.29267E-02  0.25928E-02 -0.11677E-01
 -0.34621E-02  0.18171E-02 -0.11677E-01
 -0.37964E-02  0.93572E-03 -0.11677E-01
 -0.39100E-02  0.22152E-17 -0.11677E-01
 -0.37964E-02 -0.93572E-03 -0.11677E-01
 -0.34621E-02 -0.18171E-02 -0.11677E-01
 -0.29267E-02 -0.25928E-02 -0.11677E-01
 -0.22211E-02 -0.32179E-02 -0.11677E-01
 -0.13865E-02 -0.36559E-02 -0.11677E-01
 -0.47130E-03 -0.38815E-02 -0.11677E-01
  0.47130E-03 -0.38815E-02 -0.11677E-01
  0.13865E-02 -0.36559E-02 -0.11677E-01
  0.22211E-02 -0.32179E-02 -0.11677E-01
  0.29267E-02 -0.25928E-02 -0.11677E-01
  0.34621E-02 -0.18171E-02 -0.11677E-01
  0.37964E-02 -0.93572E-03 -0.11677E-01
  0.10363E-02  0.68013E-03 -0.10698E-01
  0.17429E-02  0.12394E-02 -0.10698E-01
  0.23161E-02  0.59831E-03 -0.10698E-01
  0.16670E-02 -0.32794E-03 -0.10698E-01
  0.30374E-02  0.15354E-03 -0.10698E-01
  0.27836E-02 -0.67002E-03 -0.10698E-01
  0.12837E-02  0.18436E-02 -0.10698E-01
  0.64820E-03  0.14706E-02 -0.10698E-01
  0.12416E-03  0.31426E-03 -0.10698E-01
 -0.13063E-03  0.11900E-02 -0.10698E-01
  0.94069E-03  0.22765E-02 -0.10698E-01
  0.11282E-02  0.28229E-02 -0.10698E-01
  0.17439E-02  0.24257E-02 -0.10698E-01
  0.40518E-03  0.21689E-02 -0.10698E-01
  0.39757E-03  0.29332E-02 -0.10698E-01
 -0.76763E-03 -0.10051E-02 -0.10698E-01
 -0.86746E-03  0.89490E-04 -0.10698E-01
  0.45537E-03 -0.69374E-03 -0.10698E-01
 -0.18338E-02 -0.71013E-03 -0.10698E-01
 -0.18428E-02  0.84355E-04 -0.10698E-01
 -0.27234E-02 -0.77644E-03 -0.10698E-01
 -0.27992E-02  0.44266E-04 -0.10698E-01
 -0.25385E-02 -0.15188E-02 -0.10698E-01
 -0.19343E-02 -0.13216E-02 -0.10698E-01
 -0.99176E-03  0.10061E-02 -0.10698E-01
 -0.14425E-02 -0.17320E-02 -0.10698E-01
 -0.31314E-03  0.20257E-02 -0.10698E-01
 -0.11023E-02  0.18598E-02 -0.10698E-01
 -0.18839E-02  0.17175E-02 -0.10698E-01
 -0.18696E-02  0.91252E-03 -0.10698E-01
 -0.16229E-03 -0.19803E-02 -0.10698E-01
 -0.94867E-03 -0.23492E-02 -0.10698E-01
  0.77997E-03 -0.17073E-02 -0.10698E-01
  0.17205E-02 -0.14926E-02 -0.10698E-01
  0.32092E-02  0.77343E-03 -0.10698E-01
  0.28043E-02  0.12533E-02 -0.10698E-01
  0.23044E-02  0.18670E-02 -0.10698E-01
 -0.40434E-03  0.28899E-02 -0.10698E-01
 -0.12093E-02  0.27146E-02 -0.10698E-01
 -0.19443E-02  0.24613E-02 -0.10698E-01
 -0.25025E-02  0.22358E-02 -0.10698E-01
 -0.26359E-02  0.16503E-02 -0.10698E-01
 -0.27630E-02  0.87833E-03 -0.10698E-01
 -0.21141E-02 -0.21374E-02 -0.10698E-01
 -0.16093E-02 -0.26934E-02 -0.10698E-01
 -0.11954E-02 -0.31291E-02 -0.10698E-01
 -0.59095E-03 -0.30382E-02 -0.10698E-01
  0.20384E-03 -0.28750E-02 -0.10698E-01
  0.10546E-02 -0.26458E-02 -0.10698E-01
  0.18419E-02 -0.23734E-02 -0.10698E-01
  0.24560E-02 -0.21516E-02 -0.10698E-01
  0.26031E-02 -0.15091E-02 -0.10698E-01
  0.37964E-02  0.93572E-03 -0.10698E-01
  0.39100E-02  0.00000E+00 -0.10698E-01
  0.34621E-02  0.18171E-02 -0.10698E-01
  0.29267E-02  0.25928E-02 -0.10698E-01
  0.22211E-02  0.32179E-02 -0.10698E-01
  0.13865E-02  0.36559E-02 -0.10698E-01
  0.47130E-03  0.38815E-02 -0.10698E-01
 -0.47130E-03  0.38815E-02 -0.10698E-01
 -0.13865E-02  0.36559E-02 -0.10698E-01
 -0.22211E-02  0.32179E-02 -0.10698E-01
 -0.29267E-02  0.25928E-02 -0.10698E-01
 -0.34621E-02  0.18171E-02 -0.10698E-01
 -0.37964E-02  0.93572E-03 -0.10698E-01
 -0.39100E-02 -0.47884E-18 -0.10698E-01
 -0.37964E-02 -0.93572E-03 -0.10698E-01
 -0.34621E-02 -0.18171E-02 -0.10698E-01
 -0.29267E-02 -0.25928E-02 -0.10698E-01
 -0.22211E-02 -0.32179E-02 -0.10698E-01
 -0.13865E-02 -0.36559E-02 -0.10698E-01
 -0.47130E-03 -0.38815E-02 -0.10698E-01
  0.47130E-03 -0.38815E-02 -0.10698E-01
  0.13865E-02 -0.36559E-02 -0.10698E-01
  0.22211E-02 -0.32179E-02 -0.10698E-01
  0.29267E-02 -0.25928E-02 -0.10698E-01
  0.34621E-02 -0.18171E-02 -0.10698E-01
  0.37964E-02 -0.93572E-03 -0.10698E-01
  0.10362E-02  0.68068E-03 -0.97188E-02
  0.17427E-02  0.12401E-02 -0.97188E-02
  0.23160E-02  0.59884E-03 -0.97188E-02
  0.16668E-02 -0.32719E-03 -0.97188E-02
  0.30373E-02  0.15391E-03 -0.97188E-02
  0.27839E-02 -0.66953E-03 -0.97188E-02
  0.12836E-02  0.18438E-02 -0.97188E-02
  0.64796E-03  0.14716E-02 -0.97188E-02
  0.12390E-03  0.31541E-03 -0.97188E-02
 -0.13082E-03  0.11917E-02 -0.97188E-02
  0.94036E-03  0.22766E-02 -0.97188E-02
  0.11279E-02  0.28225E-02 -0.97188E-02
  0.17435E-02  0.24258E-02 -0.97188E-02
  0.40512E-03  0.21690E-02 -0.97188E-02
  0.39755E-03  0.29330E-02 -0.97188E-02
 -0.76798E-03 -0.10053E-02 -0.97188E-02
 -0.86756E-03  0.90299E-04 -0.97188E-02
  0.45492E-03 -0.69302E-03 -0.97188E-02
 -0.18341E-02 -0.70999E-03 -0.97188E-02
 -0.18427E-02  0.84479E-04 -0.97188E-02
 -0.27234E-02 -0.77627E-03 -0.97188E-02
 -0.27990E-02  0.44540E-04 -0.97188E-02
 -0.25386E-02 -0.15188E-02 -0.97188E-02
 -0.19347E-02 -0.13215E-02 -0.97188E-02
 -0.99161E-03  0.10075E-02 -0.97188E-02
 -0.14429E-02 -0.17319E-02 -0.97188E-02
 -0.31294E-03  0.20260E-02 -0.97188E-02
 -0.11019E-02  0.18597E-02 -0.97188E-02
 -0.18838E-02  0.17175E-02 -0.97188E-02
 -0.18695E-02  0.91276E-03 -0.97188E-02
 -0.16256E-03 -0.19804E-02 -0.97188E-02
 -0.94927E-03 -0.23493E-02 -0.97188E-02
  0.77931E-03 -0.17073E-02 -0.97188E-02
  0.17205E-02 -0.14928E-02 -0.97188E-02
  0.32096E-02  0.77444E-03 -0.97188E-02
  0.28043E-02  0.12537E-02 -0.97188E-02
  0.23043E-02  0.18670E-02 -0.97188E-02
 -0.40420E-03  0.28888E-02 -0.97188E-02
 -0.12093E-02  0.27141E-02 -0.97188E-02
 -0.19443E-02  0.24611E-02 -0.97188E-02
 -0.25024E-02  0.22358E-02 -0.97188E-02
 -0.26358E-02  0.16503E-02 -0.97188E-02
 -0.27627E-02  0.87859E-03 -0.97188E-02
 -0.21143E-02 -0.21374E-02 -0.97188E-02
 -0.16093E-02 -0.26934E-02 -0.97188E-02
 -0.11955E-02 -0.31291E-02 -0.97188E-02
 -0.59130E-03 -0.30382E-02 -0.97188E-02
  0.20343E-03 -0.28750E-02 -0.97188E-02
  0.10543E-02 -0.26460E-02 -0.97188E-02
  0.18419E-02 -0.23736E-02 -0.97188E-02
  0.24561E-02 -0.21521E-02 -0.97188E-02
  0.26032E-02 -0.15090E-02 -0.97188E-02
  0.37964E-02  0.93572E-03 -0.97188E-02
  0.39100E-02  0.00000E+00 -0.97188E-02
  0.34621E-02  0.18171E-02 -0.97188E-02
  0.29267E-02  0.25928E-02 -0.97188E-02
  0.22211E-02  0.32179E-02 -0.97188E-02
  0.13865E-02  0.36559E-02 -0.97188E-02
  0.47130E-03  0.38815E-02 -0.97188E-02
 -0.47130E-03  0.38815E-02 -0.97188E-02
 -0.13865E-02  0.36559E-02 -0.97188E-02
 -0.22211E-02  0.32179E-02 -0.97188E-02
 -0.29267E-02  0.25928E-02 -0.97188E-02
 -0.34621E-02  0.18171E-02 -0.97188E-02
 -0.37964E-02  0.93572E-03 -0.97188E-02
 -0.39100E-02  0.22152E-17 -0.97188E-02
 -0.37964E-02 -0.93572E-03 -0.97188E-02
 -0.34621E-02 -0.18171E-02 -0.97188E-02
 -0.29267E-02 -0.25928E-02 -0.97188E-02
 -0.22211E-02 -0.32179E-02 -0.97188E-02
 -0.13865E-02 -0.36559E-02 -0.97188E-02
 -0.47130E-03 -0.38815E-02 -0.97188E-02
  0.47130E-03 -0.38815E-02 -0.97188E-02
  0.13865E-02 -0.36559E-02 -0.97188E-02
  0.22211E-02 -0.32179E-02 -0.97188E-02
  0.29267E-02 -0.25928E-02 -0.97188E-02
  0.34621E-02 -0.18171E-02 -0.97188E-02
  0.37964E-02 -0.93572E-03 -0.97188E-02
  0.10360E-02  0.68124E-03 -0.87397E-02
  0.17425E-02  0.12407E-02 -0.87397E-02
  0.23158E-02  0.59936E-03 -0.87397E-02
  0.16666E-02 -0.32643E-03 -0.87397E-02
  0.30373E-02  0.15427E-03 -0.87397E-02
  0.27842E-02 -0.66903E-03 -0.87397E-02
  0.12835E-02  0.18440E-02 -0.87397E-02
  0.64771E-03  0.14727E-02 -0.87397E-02
  0.12363E-03  0.31656E-03 -0.87397E-02
 -0.13100E-03  0.11935E-02 -0.87397E-02
  0.94003E-03  0.22767E-02 -0.87397E-02
  0.11276E-02  0.28220E-02 -0.87397E-02
  0.17432E-02  0.24260E-02 -0.87397E-02
  0.40507E-03  0.21690E-02 -0.87397E-02
  0.39754E-03  0.29327E-02 -0.87397E-02
 -0.76834E-03 -0.10054E-02 -0.87397E-02
 -0.86767E-03  0.91108E-04 -0.87397E-02
  0.45447E-03 -0.69229E-03 -0.87397E-02
 -0.18344E-02 -0.70985E-03 -0.87397E-02
 -0.18426E-02  0.84602E-04 -0.87397E-02
 -0.27234E-02 -0.77610E-03 -0.87397E-02
 -0.27987E-02  0.44813E-04 -0.87397E-02
 -0.25388E-02 -0.15187E-02 -0.87397E-02
 -0.19352E-02 -0.13215E-02 -0.87397E-02
 -0.99147E-03  0.10088E-02 -0.87397E-02
 -0.14433E-02 -0.17319E-02 -0.87397E-02
 -0.31274E-03  0.20262E-02 -0.87397E-02
 -0.11016E-02  0.18595E-02 -0.87397E-02
 -0.18838E-02  0.17175E-02 -0.87397E-02
 -0.18694E-02  0.91300E-03 -0.87397E-02
 -0.16284E-03 -0.19804E-02 -0.87397E-02
 -0.94986E-03 -0.23493E-02 -0.87397E-02
  0.77865E-03 -0.17073E-02 -0.87397E-02
  0.17205E-02 -0.14931E-02 -0.87397E-02
  0.32099E-02  0.77544E-03 -0.87397E-02
  0.28042E-02  0.12541E-02 -0.87397E-02
  0.23042E-02  0.18671E-02 -0.87397E-02
 -0.40407E-03  0.28877E-02 -0.87397E-02
 -0.12093E-02  0.27137E-02 -0.87397E-02
 -0.19442E-02  0.24609E-02 -0.87397E-02
 -0.25024E-02  0.22358E-02 -0.87397E-02
 -0.26358E-02  0.16503E-02 -0.87397E-02
 -0.27624E-02  0.87885E-03 -0.87397E-02
 -0.21144E-02 -0.21374E-02 -0.87397E-02
 -0.16094E-02 -0.26934E-02 -0.87397E-02
 -0.11956E-02 -0.31291E-02 -0.87397E-02
 -0.59165E-03 -0.30382E-02 -0.87397E-02
  0.20302E-03 -0.28750E-02 -0.87397E-02
  0.10540E-02 -0.26463E-02 -0.87397E-02
  0.18419E-02 -0.23738E-02 -0.87397E-02
  0.24563E-02 -0.21527E-02 -0.87397E-02
  0.26033E-02 -0.15088E-02 -0.87397E-02
  0.37964E-02  0.93572E-03 -0.87397E-02
  0.39100E-02  0.00000E+00 -0.87397E-02
  0.34621E-02  0.18171E-02 -0.87397E-02
  0.29267E-02  0.25928E-02 -0.87397E-02
  0.22211E-02  0.32179E-02 -0.87397E-02
  0.13865E-02  0.36559E-02 -0.87397E-02
  0.47130E-03  0.38815E-02 -0.87397E-02
 -0.47130E-03  0.38815E-02 -0.87397E-02
 -0.13865E-02  0.36559E-02 -0.87397E-02
 -0.22211E-02  0.32179E-02 -0.87397E-02
 -0.29267E-02  0.25928E-02 -0.87397E-02
 -0.34621E-02  0.18171E-02 -0.87397E-02
 -0.37964E-02  0.93572E-03 -0.87397E-02
 -0.39100E-02 -0.47884E-18 -0.87397E-02
 -0.37964E-02 -0.93572E-03 -0.87397E-02
 -0.34621E-02 -0.18171E-02 -0.87397E-02
 -0.29267E-02 -0.25928E-02 -0.87397E-02
 -0.22211E-02 -0.32179E-02 -0.87397E-02
 -0.13865E-02 -0.36559E-02 -0.87397E-02
 -0.47130E-03 -0.38815E-02 -0.87397E-02
  0.47130E-03 -0.38815E-02 -0.87397E-02
  0.13865E-02 -0.36559E-02 -0.87397E-02
  0.22211E-02 -0.32179E-02 -0.87397E-02
  0.29267E-02 -0.25928E-02 -0.87397E-02
  0.34621E-02 -0.18171E-02 -0.87397E-02
  0.37964E-02 -0.93572E-03 -0.87397E-02
  0.10359E-02  0.68179E-03 -0.77605E-02
  0.17423E-02  0.12414E-02 -0.77605E-02
  0.23157E-02  0.59988E-03 -0.77605E-02
  0.16664E-02 -0.32568E-03 -0.77605E-02
  0.30373E-02  0.15463E-03 -0.77605E-02
  0.27846E-02 -0.66854E-03 -0.77605E-02
  0.12834E-02  0.18442E-02 -0.77605E-02
  0.64747E-03  0.14736E-02 -0.77605E-02
  0.12337E-03  0.31770E-03 -0.77605E-02
 -0.13118E-03  0.11952E-02 -0.77605E-02
  0.93970E-03  0.22768E-02 -0.77605E-02
  0.11272E-02  0.28216E-02 -0.77605E-02
  0.17428E-02  0.24261E-02 -0.77605E-02
  0.40501E-03  0.21690E-02 -0.77605E-02
  0.39752E-03  0.29324E-02 -0.77605E-02
 -0.76869E-03 -0.10056E-02 -0.77605E-02
 -0.86778E-03  0.91918E-04 -0.77605E-02
  0.45402E-03 -0.69156E-03 -0.77605E-02
 -0.18347E-02 -0.70971E-03 -0.77605E-02
 -0.18425E-02  0.84726E-04 -0.77605E-02
 -0.27234E-02 -0.77593E-03 -0.77605E-02
 -0.27984E-02  0.45086E-04 -0.77605E-02
 -0.25389E-02 -0.15187E-02 -0.77605E-02
 -0.19356E-02 -0.13213E-02 -0.77605E-02
 -0.99133E-03  0.10102E-02 -0.77605E-02
 -0.14436E-02 -0.17318E-02 -0.77605E-02
 -0.31254E-03  0.20265E-02 -0.77605E-02
 -0.11013E-02  0.18594E-02 -0.77605E-02
 -0.18837E-02  0.17175E-02 -0.77605E-02
 -0.18692E-02  0.91324E-03 -0.77605E-02
 -0.16311E-03 -0.19804E-02 -0.77605E-02
 -0.95046E-03 -0.23493E-02 -0.77605E-02
  0.77799E-03 -0.17073E-02 -0.77605E-02
  0.17204E-02 -0.14933E-02 -0.77605E-02
  0.32102E-02  0.77645E-03 -0.77605E-02
  0.28042E-02  0.12545E-02 -0.77605E-02
  0.23041E-02  0.18671E-02 -0.77605E-02
 -0.40393E-03  0.28867E-02 -0.77605E-02
 -0.12093E-02  0.27132E-02 -0.77605E-02
 -0.19442E-02  0.24606E-02 -0.77605E-02
 -0.25024E-02  0.22358E-02 -0.77605E-02
 -0.26357E-02  0.16503E-02 -0.77605E-02
 -0.27621E-02  0.87912E-03 -0.77605E-02
 -0.21146E-02 -0.21374E-02 -0.77605E-02
 -0.16094E-02 -0.26935E-02 -0.77605E-02
 -0.11957E-02 -0.31291E-02 -0.77605E-02
 -0.59200E-03 -0.30381E-02 -0.77605E-02
  0.20262E-03 -0.28750E-02 -0.77605E-02
  0.10536E-02 -0.26466E-02 -0.77605E-02
  0.18420E-02 -0.23740E-02 -0.77605E-02
  0.24564E-02 -0.21533E-02 -0.77605E-02
  0.26033E-02 -0.15087E-02 -0.77605E-02
  0.37964E-02  0.93572E-03 -0.77605E-02
  0.39100E-02  0.00000E+00 -0.77605E-02
  0.34621E-02  0.18171E-02 -0.77605E-02
  0.29267E-02  0.25928E-02 -0.77605E-02
  0.22211E-02  0.32179E-02 -0.77605E-02
  0.13865E-02  0.36559E-02 -0.77605E-02
  0.47130E-03  0.38815E-02 -0.77605E-02
 -0.47130E-03  0.38815E-02 -0.77605E-02
 -0.13865E-02  0.36559E-02 -0.77605E-02
 -0.22211E-02  0.32179E-02 -0.77605E-02
 -0.29267E-02  0.25928E-02 -0.77605E-02
 -0.34621E-02  0.18171E-02 -0.77605E-02
 -0.37964E-02  0.93572E-03 -0.77605E-02
 -0.39100E-02 -0.47884E-18 -0.77605E-02
 -0.37964E-02 -0.93572E-03 -0.77605E-02
 -0.34621E-02 -0.18171E-02 -0.77605E-02
 -0.29267E-02 -0.25928E-02 -0.77605E-02
 -0.22211E-02 -0.32179E-02 -0.77605E-02
 -0.13865E-02 -0.36559E-02 -0.77605E-02
 -0.47130E-03 -0.38815E-02 -0.77605E-02
  0.47130E-03 -0.38815E-02 -0.77605E-02
  0.13865E-02 -0.36559E-02 -0.77605E-02
  0.22211E-02 -0.32179E-02 -0.77605E-02
  0.29267E-02 -0.25928E-02 -0.77605E-02
  0.34621E-02 -0.18171E-02 -0.77605E-02
  0.37964E-02 -0.93572E-03 -0.77605E-02
  0.10358E-02  0.68235E-03 -0.67813E-02
  0.17422E-02  0.12421E-02 -0.67813E-02
  0.23156E-02  0.60041E-03 -0.67813E-02
  0.16662E-02 -0.32493E-03 -0.67813E-02
  0.30373E-02  0.15500E-03 -0.67813E-02
  0.27849E-02 -0.66805E-03 -0.67813E-02
  0.12833E-02  0.18444E-02 -0.67813E-02
  0.64722E-03  0.14747E-02 -0.67813E-02
  0.12311E-03  0.31885E-03 -0.67813E-02
 -0.13137E-03  0.11970E-02 -0.67813E-02
  0.93937E-03  0.22770E-02 -0.67813E-02
  0.11269E-02  0.28211E-02 -0.67813E-02
  0.17424E-02  0.24262E-02 -0.67813E-02
  0.40496E-03  0.21691E-02 -0.67813E-02
  0.39750E-03  0.29322E-02 -0.67813E-02
 -0.76904E-03 -0.10057E-02 -0.67813E-02
 -0.86789E-03  0.92727E-04 -0.67813E-02
  0.45358E-03 -0.69084E-03 -0.67813E-02
 -0.18350E-02 -0.70957E-03 -0.67813E-02
 -0.18424E-02  0.84849E-04 -0.67813E-02
 -0.27233E-02 -0.77576E-03 -0.67813E-02
 -0.27981E-02  0.45359E-04 -0.67813E-02
 -0.25391E-02 -0.15186E-02 -0.67813E-02
 -0.19360E-02 -0.13212E-02 -0.67813E-02
 -0.99118E-03  0.10115E-02 -0.67813E-02
 -0.14440E-02 -0.17318E-02 -0.67813E-02
 -0.31234E-03  0.20268E-02 -0.67813E-02
 -0.11009E-02  0.18593E-02 -0.67813E-02
 -0.18836E-02  0.17175E-02 -0.67813E-02
 -0.18691E-02  0.91347E-03 -0.67813E-02
 -0.16339E-03 -0.19804E-02 -0.67813E-02
 -0.95106E-03 -0.23493E-02 -0.67813E-02
  0.77733E-03 -0.17073E-02 -0.67813E-02
  0.17204E-02 -0.14936E-02 -0.67813E-02
  0.32105E-02  0.77745E-03 -0.67813E-02
  0.28042E-02  0.12550E-02 -0.67813E-02
  0.23040E-02  0.18671E-02 -0.67813E-02
 -0.40379E-03  0.28856E-02 -0.67813E-02
 -0.12093E-02  0.27127E-02 -0.67813E-02
 -0.19441E-02  0.24604E-02 -0.67813E-02
 -0.25023E-02  0.22358E-02 -0.67813E-02
 -0.26356E-02  0.16503E-02 -0.67813E-02
 -0.27618E-02  0.87938E-03 -0.67813E-02
 -0.21147E-02 -0.21374E-02 -0.67813E-02
 -0.16094E-02 -0.26935E-02 -0.67813E-02
 -0.11958E-02 -0.31291E-02 -0.67813E-02
 -0.59235E-03 -0.30381E-02 -0.67813E-02
  0.20221E-03 -0.28750E-02 -0.67813E-02
  0.10533E-02 -0.26468E-02 -0.67813E-02
  0.18420E-02 -0.23742E-02 -0.67813E-02
  0.24565E-02 -0.21538E-02 -0.67813E-02
  0.26034E-02 -0.15086E-02 -0.67813E-02
  0.37964E-02  0.93572E-03 -0.67813E-02
  0.39100E-02  0.00000E+00 -0.67813E-02
  0.34621E-02  0.18171E-02 -0.67813E-02
  0.29267E-02  0.25928E-02 -0.67813E-02
  0.22211E-02  0.32179E-02 -0.67813E-02
  0.13865E-02  0.36559E-02 -0.67813E-02
  0.47130E-03  0.38815E-02 -0.67813E-02
 -0.47130E-03  0.38815E-02 -0.67813E-02
 -0.13865E-02  0.36559E-02 -0.67813E-02
 -0.22211E-02  0.32179E-02 -0.67813E-02
 -0.29267E-02  0.25928E-02 -0.67813E-02
 -0.34621E-02  0.18171E-02 -0.67813E-02
 -0.37964E-02  0.93572E-03 -0.67813E-02
 -0.39100E-02 -0.47884E-18 -0.67813E-02
 -0.37964E-02 -0.93572E-03 -0.67813E-02
 -0.34621E-02 -0.18171E-02 -0.67813E-02
 -0.29267E-02 -0.25928E-02 -0.67813E-02
 -0.22211E-02 -0.32179E-02 -0.67813E-02
 -0.13865E-02 -0.36559E-02 -0.67813E-02
 -0.47130E-03 -0.38815E-02 -0.67813E-02
  0.47130E-03 -0.38815E-02 -0.67813E-02
  0.13865E-02 -0.36559E-02 -0.67813E-02
  0.22211E-02 -0.32179E-02 -0.67813E-02
  0.29267E-02 -0.25928E-02 -0.67813E-02
  0.34621E-02 -0.18171E-02 -0.67813E-02
  0.37964E-02 -0.93572E-03 -0.67813E-02
  0.10357E-02  0.68290E-03 -0.58022E-02
  0.17420E-02  0.12427E-02 -0.58022E-02
  0.23155E-02  0.60093E-03 -0.58022E-02
  0.16660E-02 -0.32417E-03 -0.58022E-02
  0.30372E-02  0.15536E-03 -0.58022E-02
  0.27853E-02 -0.66755E-03 -0.58022E-02
  0.12832E-02  0.18445E-02 -0.58022E-02
  0.64698E-03  0.14757E-02 -0.58022E-02
  0.12285E-03  0.32000E-03 -0.58022E-02
 -0.13155E-03  0.11987E-02 -0.58022E-02
  0.93903E-03  0.22771E-02 -0.58022E-02
  0.11266E-02  0.28207E-02 -0.58022E-02
  0.17420E-02  0.24264E-02 -0.58022E-02
  0.40490E-03  0.21691E-02 -0.58022E-02
  0.39749E-03  0.29319E-02 -0.58022E-02
 -0.76940E-03 -0.10058E-02 -0.58022E-02
 -0.86800E-03  0.93536E-04 -0.58022E-02
  0.45313E-03 -0.69011E-03 -0.58022E-02
 -0.18353E-02 -0.70943E-03 -0.58022E-02
 -0.18423E-02  0.84973E-04 -0.58022E-02
 -0.27233E-02 -0.77559E-03 -0.58022E-02
 -0.27979E-02  0.45633E-04 -0.58022E-02
 -0.25393E-02 -0.15186E-02 -0.58022E-02
 -0.19365E-02 -0.13212E-02 -0.58022E-02
 -0.99104E-03  0.10129E-02 -0.58022E-02
 -0.14443E-02 -0.17318E-02 -0.58022E-02
 -0.31214E-03  0.20271E-02 -0.58022E-02
 -0.11006E-02  0.18592E-02 -0.58022E-02
 -0.18836E-02  0.17175E-02 -0.58022E-02
 -0.18690E-02  0.91371E-03 -0.58022E-02
 -0.16366E-03 -0.19805E-02 -0.58022E-02
 -0.95166E-03 -0.23493E-02 -0.58022E-02
  0.77667E-03 -0.17073E-02 -0.58022E-02
  0.17203E-02 -0.14938E-02 -0.58022E-02
  0.32109E-02  0.77846E-03 -0.58022E-02
  0.28042E-02  0.12554E-02 -0.58022E-02
  0.23039E-02  0.18672E-02 -0.58022E-02
 -0.40365E-03  0.28845E-02 -0.58022E-02
 -0.12093E-02  0.27122E-02 -0.58022E-02
 -0.19441E-02  0.24602E-02 -0.58022E-02
 -0.25023E-02  0.22358E-02 -0.58022E-02
 -0.26355E-02  0.16502E-02 -0.58022E-02
 -0.27615E-02  0.87964E-03 -0.58022E-02
 -0.21148E-02 -0.21374E-02 -0.58022E-02
 -0.16095E-02 -0.26935E-02 -0.58022E-02
 -0.11960E-02 -0.31291E-02 -0.58022E-02
 -0.59270E-03 -0.30381E-02 -0.58022E-02
  0.20180E-03 -0.28750E-02 -0.58022E-02
  0.10530E-02 -0.26471E-02 -0.58022E-02
  0.18421E-02 -0.23744E-02 -0.58022E-02
  0.24566E-02 -0.21543E-02 -0.58022E-02
  0.26035E-02 -0.15085E-02 -0.58022E-02
  0.37964E-02  0.93572E-03 -0.58022E-02
  0.39100E-02  0.00000E+00 -0.58022E-02
  0.34621E-02  0.18171E-02 -0.58022E-02
  0.29267E-02  0.25928E-02 -0.58022E-02
  0.22211E-02  0.32179E-02 -0.58022E-02
  0.13865E-02  0.36559E-02 -0.58022E-02
  0.47130E-03  0.38815E-02 -0.58022E-02
 -0.47130E-03  0.38815E-02 -0.58022E-02
 -0.13865E-02  0.36559E-02 -0.58022E-02
 -0.22211E-02  0.32179E-02 -0.58022E-02
 -0.29267E-02  0.25928E-02 -0.58022E-02
 -0.34621E-02  0.18171E-02 -0.58022E-02
 -0.37964E-02  0.93572E-03 -0.58022E-02
 -0.39100E-02 -0.47884E-18 -0.58022E-02
 -0.37964E-02 -0.93572E-03 -0.58022E-02
 -0.34621E-02 -0.18171E-02 -0.58022E-02
 -0.29267E-02 -0.25928E-02 -0.58022E-02
 -0.22211E-02 -0.32179E-02 -0.58022E-02
 -0.13865E-02 -0.36559E-02 -0.58022E-02
 -0.47130E-03 -0.38815E-02 -0.58022E-02
  0.47130E-03 -0.38815E-02 -0.58022E-02
  0.13865E-02 -0.36559E-02 -0.58022E-02
  0.22211E-02 -0.32179E-02 -0.58022E-02
  0.29267E-02 -0.25928E-02 -0.58022E-02
  0.34621E-02 -0.18171E-02 -0.58022E-02
  0.37964E-02 -0.93572E-03 -0.58022E-02
  0.10356E-02  0.68346E-03 -0.48230E-02
  0.17418E-02  0.12434E-02 -0.48230E-02
  0.23153E-02  0.60145E-03 -0.48230E-02
  0.16657E-02 -0.32342E-03 -0.48230E-02
  0.30372E-02  0.15572E-03 -0.48230E-02
  0.27856E-02 -0.66706E-03 -0.48230E-02
  0.12830E-02  0.18447E-02 -0.48230E-02
  0.64673E-03  0.14767E-02 -0.48230E-02
  0.12259E-03  0.32115E-03 -0.48230E-02
 -0.13174E-03  0.12005E-02 -0.48230E-02
  0.93870E-03  0.22772E-02 -0.48230E-02
  0.11262E-02  0.28203E-02 -0.48230E-02
  0.17416E-02  0.24265E-02 -0.48230E-02
  0.40485E-03  0.21691E-02 -0.48230E-02
  0.39747E-03  0.29316E-02 -0.48230E-02
 -0.76975E-03 -0.10060E-02 -0.48230E-02
 -0.86811E-03  0.94345E-04 -0.48230E-02
  0.45268E-03 -0.68939E-03 -0.48230E-02
 -0.18356E-02 -0.70929E-03 -0.48230E-02
 -0.18422E-02  0.85096E-04 -0.48230E-02
 -0.27233E-02 -0.77542E-03 -0.48230E-02
 -0.27976E-02  0.45906E-04 -0.48230E-02
 -0.25394E-02 -0.15185E-02 -0.48230E-02
 -0.19369E-02 -0.13211E-02 -0.48230E-02
 -0.99090E-03  0.10142E-02 -0.48230E-02
 -0.14446E-02 -0.17317E-02 -0.48230E-02
 -0.31194E-03  0.20274E-02 -0.48230E-02
 -0.11002E-02  0.18590E-02 -0.48230E-02
 -0.18835E-02  0.17175E-02 -0.48230E-02
 -0.18689E-02  0.91395E-03 -0.48230E-02
 -0.16394E-03 -0.19805E-02 -0.48230E-02
 -0.95226E-03 -0.23494E-02 -0.48230E-02
  0.77601E-03 -0.17073E-02 -0.48230E-02
  0.17203E-02 -0.14941E-02 -0.48230E-02
  0.32112E-02  0.77946E-03 -0.48230E-02
  0.28042E-02  0.12558E-02 -0.48230E-02
  0.23038E-02  0.18672E-02 -0.48230E-02
 -0.40352E-03  0.28835E-02 -0.48230E-02
 -0.12093E-02  0.27118E-02 -0.48230E-02
 -0.19441E-02  0.24600E-02 -0.48230E-02
 -0.25023E-02  0.22358E-02 -0.48230E-02
 -0.26354E-02  0.16502E-02 -0.48230E-02
 -0.27612E-02  0.87990E-03 -0.48230E-02
 -0.21150E-02 -0.21374E-02 -0.48230E-02
 -0.16095E-02 -0.26935E-02 -0.48230E-02
 -0.11961E-02 -0.31291E-02 -0.48230E-02
 -0.59305E-03 -0.30381E-02 -0.48230E-02
  0.20140E-03 -0.28750E-02 -0.48230E-02
  0.10527E-02 -0.26474E-02 -0.48230E-02
  0.18421E-02 -0.23746E-02 -0.48230E-02
  0.24568E-02 -0.21549E-02 -0.48230E-02
  0.26036E-02 -0.15084E-02 -0.48230E-02
  0.37964E-02  0.93572E-03 -0.48230E-02
  0.39100E-02  0.00000E+00 -0.48230E-02
  0.34621E-02  0.18171E-02 -0.48230E-02
  0.29267E-02  0.25928E-02 -0.48230E-02
  0.22211E-02  0.32179E-02 -0.48230E-02
  0.13865E-02  0.36559E-02 -0.48230E-02
  0.47130E-03  0.38815E-02 -0.48230E-02
 -0.47130E-03  0.38815E-02 -0.48230E-02
 -0.13865E-02  0.36559E-02 -0.48230E-02
 -0.22211E-02  0.32179E-02 -0.48230E-02
 -0.29267E-02  0.25928E-02 -0.48230E-02
 -0.34621E-02  0.18171E-02 -0.48230E-02
 -0.37964E-02  0.93572E-03 -0.48230E-02
 -0.39100E-02  0.22152E-17 -0.48230E-02
 -0.37964E-02 -0.93572E-03 -0.48230E-02
 -0.34621E-02 -0.18171E-02 -0.48230E-02
 -0.29267E-02 -0.25928E-02 -0.48230E-02
 -0.22211E-02 -0.32179E-02 -0.48230E-02
 -0.13865E-02 -0.36559E-02 -0.48230E-02
 -0.47130E-03 -0.38815E-02 -0.48230E-02
  0.47130E-03 -0.38815E-02 -0.48230E-02
  0.13865E-02 -0.36559E-02 -0.48230E-02
  0.22211E-02 -0.32179E-02 -0.48230E-02
  0.29267E-02 -0.25928E-02 -0.48230E-02
  0.34621E-02 -0.18171E-02 -0.48230E-02
  0.37964E-02 -0.93572E-03 -0.48230E-02
  0.10355E-02  0.68401E-03 -0.38438E-02
  0.17416E-02  0.12440E-02 -0.38438E-02
  0.23152E-02  0.60198E-03 -0.38438E-02
  0.16655E-02 -0.32266E-03 -0.38438E-02
  0.30372E-02  0.15609E-03 -0.38438E-02
  0.27860E-02 -0.66657E-03 -0.38438E-02
  0.12829E-02  0.18449E-02 -0.38438E-02
  0.64649E-03  0.14777E-02 -0.38438E-02
  0.12232E-03  0.32230E-03 -0.38438E-02
 -0.13193E-03  0.12022E-02 -0.38438E-02
  0.93837E-03  0.22774E-02 -0.38438E-02
  0.11259E-02  0.28198E-02 -0.38438E-02
  0.17412E-02  0.24267E-02 -0.38438E-02
  0.40480E-03  0.21692E-02 -0.38438E-02
  0.39745E-03  0.29314E-02 -0.38438E-02
 -0.77011E-03 -0.10061E-02 -0.38438E-02
 -0.86822E-03  0.95155E-04 -0.38438E-02
  0.45223E-03 -0.68866E-03 -0.38438E-02
 -0.18359E-02 -0.70915E-03 -0.38438E-02
 -0.18421E-02  0.85220E-04 -0.38438E-02
 -0.27232E-02 -0.77525E-03 -0.38438E-02
 -0.27973E-02  0.46180E-04 -0.38438E-02
 -0.25396E-02 -0.15185E-02 -0.38438E-02
 -0.19373E-02 -0.13210E-02 -0.38438E-02
 -0.99075E-03  0.10156E-02 -0.38438E-02
 -0.14450E-02 -0.17317E-02 -0.38438E-02
 -0.31173E-03  0.20277E-02 -0.38438E-02
 -0.10999E-02  0.18589E-02 -0.38438E-02
 -0.18835E-02  0.17175E-02 -0.38438E-02
 -0.18687E-02  0.91419E-03 -0.38438E-02
 -0.16421E-03 -0.19805E-02 -0.38438E-02
 -0.95285E-03 -0.23494E-02 -0.38438E-02
  0.77535E-03 -0.17073E-02 -0.38438E-02
  0.17202E-02 -0.14943E-02 -0.38438E-02
  0.32115E-02  0.78047E-03 -0.38438E-02
  0.28041E-02  0.12563E-02 -0.38438E-02
  0.23037E-02  0.18672E-02 -0.38438E-02
 -0.40338E-03  0.28824E-02 -0.38438E-02
 -0.12093E-02  0.27113E-02 -0.38438E-02
 -0.19440E-02  0.24597E-02 -0.38438E-02
 -0.25023E-02  0.22358E-02 -0.38438E-02
 -0.26353E-02  0.16502E-02 -0.38438E-02
 -0.27609E-02  0.88016E-03 -0.38438E-02
 -0.21151E-02 -0.21374E-02 -0.38438E-02
 -0.16096E-02 -0.26935E-02 -0.38438E-02
 -0.11962E-02 -0.31291E-02 -0.38438E-02
 -0.59340E-03 -0.30381E-02 -0.38438E-02
  0.20099E-03 -0.28751E-02 -0.38438E-02
  0.10524E-02 -0.26476E-02 -0.38438E-02
  0.18422E-02 -0.23748E-02 -0.38438E-02
  0.24569E-02 -0.21554E-02 -0.38438E-02
  0.26036E-02 -0.15083E-02 -0.38438E-02
  0.37964E-02  0.93572E-03 -0.38438E-02
  0.39100E-02  0.00000E+00 -0.38438E-02
  0.34621E-02  0.18171E-02 -0.38438E-02
  0.29267E-02  0.25928E-02 -0.38438E-02
  0.22211E-02  0.32179E-02 -0.38438E-02
  0.13865E-02  0.36559E-02 -0.38438E-02
  0.47130E-03  0.38815E-02 -0.38438E-02
 -0.47130E-03  0.38815E-02 -0.38438E-02
 -0.13865E-02  0.36559E-02 -0.38438E-02
 -0.22211E-02  0.32179E-02 -0.38438E-02
 -0.29267E-02  0.25928E-02 -0.38438E-02
 -0.34621E-02  0.18171E-02 -0.38438E-02
 -0.37964E-02  0.93572E-03 -0.38438E-02
 -0.39100E-02 -0.47884E-18 -0.38438E-02
 -0.37964E-02 -0.93572E-03 -0.38438E-02
 -0.34621E-02 -0.18171E-02 -0.38438E-02
 -0.29267E-02 -0.25928E-02 -0.38438E-02
 -0.22211E-02 -0.32179E-02 -0.38438E-02
 -0.13865E-02 -0.36559E-02 -0.38438E-02
 -0.47130E-03 -0.38815E-02 -0.38438E-02
  0.47130E-03 -0.38815E-02 -0.38438E-02
  0.13865E-02 -0.36559E-02 -0.38438E-02
  0.22211E-02 -0.32179E-02 -0.38438E-02
  0.29267E-02 -0.25928E-02 -0.38438E-02
  0.34621E-02 -0.18171E-02 -0.38438E-02
  0.37964E-02 -0.93572E-03 -0.38438E-02
  0.10354E-02  0.68457E-03 -0.28647E-02
  0.17414E-02  0.12447E-02 -0.28647E-02
  0.23151E-02  0.60250E-03 -0.28647E-02
  0.16653E-02 -0.32191E-03 -0.28647E-02
  0.30372E-02  0.15645E-03 -0.28647E-02
  0.27863E-02 -0.66607E-03 -0.28647E-02
  0.12829E-02  0.18451E-02 -0.28647E-02
  0.64624E-03  0.14787E-02 -0.28647E-02
  0.12206E-03  0.32345E-03 -0.28647E-02
 -0.13211E-03  0.12040E-02 -0.28647E-02
  0.93804E-03  0.22775E-02 -0.28647E-02
  0.11255E-02  0.28194E-02 -0.28647E-02
  0.17408E-02  0.24268E-02 -0.28647E-02
  0.40474E-03  0.21692E-02 -0.28647E-02
  0.39744E-03  0.29311E-02 -0.28647E-02
 -0.77046E-03 -0.10062E-02 -0.28647E-02
 -0.86832E-03  0.95964E-04 -0.28647E-02
  0.45179E-03 -0.68793E-03 -0.28647E-02
 -0.18362E-02 -0.70901E-03 -0.28647E-02
 -0.18420E-02  0.85343E-04 -0.28647E-02
 -0.27232E-02 -0.77507E-03 -0.28647E-02
 -0.27970E-02  0.46453E-04 -0.28647E-02
 -0.25397E-02 -0.15184E-02 -0.28647E-02
 -0.19377E-02 -0.13209E-02 -0.28647E-02
 -0.99061E-03  0.10169E-02 -0.28647E-02
 -0.14453E-02 -0.17316E-02 -0.28647E-02
 -0.31153E-03  0.20280E-02 -0.28647E-02
 -0.10995E-02  0.18588E-02 -0.28647E-02
 -0.18834E-02  0.17175E-02 -0.28647E-02
 -0.18686E-02  0.91443E-03 -0.28647E-02
 -0.16449E-03 -0.19806E-02 -0.28647E-02
 -0.95345E-03 -0.23494E-02 -0.28647E-02
  0.77469E-03 -0.17073E-02 -0.28647E-02
  0.17202E-02 -0.14945E-02 -0.28647E-02
  0.32119E-02  0.78148E-03 -0.28647E-02
  0.28041E-02  0.12567E-02 -0.28647E-02
  0.23036E-02  0.18673E-02 -0.28647E-02
 -0.40324E-03  0.28813E-02 -0.28647E-02
 -0.12093E-02  0.27108E-02 -0.28647E-02
 -0.19440E-02  0.24595E-02 -0.28647E-02
 -0.25022E-02  0.22358E-02 -0.28647E-02
 -0.26352E-02  0.16502E-02 -0.28647E-02
 -0.27606E-02  0.88043E-03 -0.28647E-02
 -0.21152E-02 -0.21374E-02 -0.28647E-02
 -0.16096E-02 -0.26936E-02 -0.28647E-02
 -0.11963E-02 -0.31291E-02 -0.28647E-02
 -0.59375E-03 -0.30381E-02 -0.28647E-02
  0.20059E-03 -0.28751E-02 -0.28647E-02
  0.10521E-02 -0.26479E-02 -0.28647E-02
  0.18422E-02 -0.23750E-02 -0.28647E-02
  0.24570E-02 -0.21560E-02 -0.28647E-02
  0.26037E-02 -0.15082E-02 -0.28647E-02
  0.37964E-02  0.93572E-03 -0.28647E-02
  0.39100E-02  0.00000E+00 -0.28647E-02
  0.34621E-02  0.18171E-02 -0.28647E-02
  0.29267E-02  0.25928E-02 -0.28647E-02
  0.22211E-02  0.32179E-02 -0.28647E-02
  0.13865E-02  0.36559E-02 -0.28647E-02
  0.47130E-03  0.38815E-02 -0.28647E-02
 -0.47130E-03  0.38815E-02 -0.28647E-02
 -0.13865E-02  0.36559E-02 -0.28647E-02
 -0.22211E-02  0.32179E-02 -0.28647E-02
 -0.29267E-02  0.25928E-02 -0.28647E-02
 -0.34621E-02  0.18171E-02 -0.28647E-02
 -0.37964E-02  0.93572E-03 -0.28647E-02
 -0.39100E-02 -0.47884E-18 -0.28647E-02
 -0.37964E-02 -0.93572E-03 -0.28647E-02
 -0.34621E-02 -0.18171E-02 -0.28647E-02
 -0.29267E-02 -0.25928E-02 -0.28647E-02
 -0.22211E-02 -0.32179E-02 -0.28647E-02
 -0.13865E-02 -0.36559E-02 -0.28647E-02
 -0.47130E-03 -0.38815E-02 -0.28647E-02
  0.47130E-03 -0.38815E-02 -0.28647E-02
  0.13865E-02 -0.36559E-02 -0.28647E-02
  0.22211E-02 -0.32179E-02 -0.28647E-02
  0.29267E-02 -0.25928E-02 -0.28647E-02
  0.34621E-02 -0.18171E-02 -0.28647E-02
  0.37964E-02 -0.93572E-03 -0.28647E-02
  0.10352E-02  0.68512E-03 -0.18855E-02
  0.17413E-02  0.12454E-02 -0.18855E-02
  0.23150E-02  0.60302E-03 -0.18855E-02
  0.16651E-02 -0.32115E-03 -0.18855E-02
  0.30371E-02  0.15681E-03 -0.18855E-02
  0.27866E-02 -0.66558E-03 -0.18855E-02
  0.12827E-02  0.18453E-02 -0.18855E-02
  0.64600E-03  0.14797E-02 -0.18855E-02
  0.12180E-03  0.32459E-03 -0.18855E-02
 -0.13230E-03  0.12058E-02 -0.18855E-02
  0.93771E-03  0.22776E-02 -0.18855E-02
  0.11252E-02  0.28189E-02 -0.18855E-02
  0.17404E-02  0.24270E-02 -0.18855E-02
  0.40469E-03  0.21693E-02 -0.18855E-02
  0.39742E-03  0.29308E-02 -0.18855E-02
 -0.77081E-03 -0.10064E-02 -0.18855E-02
 -0.86843E-03  0.96773E-04 -0.18855E-02
  0.45134E-03 -0.68721E-03 -0.18855E-02
 -0.18365E-02 -0.70887E-03 -0.18855E-02
 -0.18419E-02  0.85467E-04 -0.18855E-02
 -0.27232E-02 -0.77490E-03 -0.18855E-02
 -0.27968E-02  0.46726E-04 -0.18855E-02
 -0.25399E-02 -0.15184E-02 -0.18855E-02
 -0.19382E-02 -0.13208E-02 -0.18855E-02
 -0.99046E-03  0.10183E-02 -0.18855E-02
 -0.14457E-02 -0.17316E-02 -0.18855E-02
 -0.31133E-03  0.20283E-02 -0.18855E-02
 -0.10992E-02  0.18586E-02 -0.18855E-02
 -0.18834E-02  0.17175E-02 -0.18855E-02
 -0.18685E-02  0.91467E-03 -0.18855E-02
 -0.16476E-03 -0.19806E-02 -0.18855E-02
 -0.95405E-03 -0.23494E-02 -0.18855E-02
  0.77402E-03 -0.17073E-02 -0.18855E-02
  0.17202E-02 -0.14948E-02 -0.18855E-02
  0.32122E-02  0.78248E-03 -0.18855E-02
  0.28041E-02  0.12571E-02 -0.18855E-02
  0.23034E-02  0.18673E-02 -0.18855E-02
 -0.40310E-03  0.28802E-02 -0.18855E-02
 -0.12093E-02  0.27103E-02 -0.18855E-02
 -0.19440E-02  0.24593E-02 -0.18855E-02
 -0.25022E-02  0.22358E-02 -0.18855E-02
 -0.26351E-02  0.16502E-02 -0.18855E-02
 -0.27602E-02  0.88069E-03 -0.18855E-02
 -0.21154E-02 -0.21374E-02 -0.18855E-02
 -0.16097E-02 -0.26936E-02 -0.18855E-02
 -0.11964E-02 -0.31291E-02 -0.18855E-02
 -0.59409E-03 -0.30381E-02 -0.18855E-02
  0.20018E-03 -0.28751E-02 -0.18855E-02
  0.10518E-02 -0.26482E-02 -0.18855E-02
  0.18422E-02 -0.23752E-02 -0.18855E-02
  0.24571E-02 -0.21565E-02 -0.18855E-02
  0.26038E-02 -0.15081E-02 -0.18855E-02
  0.37964E-02  0.93572E-03 -0.18855E-02
  0.39100E-02  0.00000E+00 -0.18855E-02
  0.34621E-02  0.18171E-02 -0.18855E-02
  0.29267E-02  0.25928E-02 -0.18855E-02
  0.22211E-02  0.32179E-02 -0.18855E-02
  0.13865E-02  0.36559E-02 -0.18855E-02
  0.47130E-03  0.38815E-02 -0.18855E-02
 -0.47130E-03  0.38815E-02 -0.18855E-02
 -0.13865E-02  0.36559E-02 -0.18855E-02
 -0.22211E-02  0.32179E-02 -0.18855E-02
 -0.29267E-02  0.25928E-02 -0.18855E-02
 -0.34621E-02  0.18171E-02 -0.18855E-02
 -0.37964E-02  0.93572E-03 -0.18855E-02
 -0.39100E-02 -0.47884E-18 -0.18855E-02
 -0.37964E-02 -0.93572E-03 -0.18855E-02
 -0.34621E-02 -0.18171E-02 -0.18855E-02
 -0.29267E-02 -0.25928E-02 -0.18855E-02
 -0.22211E-02 -0.32179E-02 -0.18855E-02
 -0.13865E-02 -0.36559E-02 -0.18855E-02
 -0.47130E-03 -0.38815E-02 -0.18855E-02
  0.47130E-03 -0.38815E-02 -0.18855E-02
  0.13865E-02 -0.36559E-02 -0.18855E-02
  0.22211E-02 -0.32179E-02 -0.18855E-02
  0.29267E-02 -0.25928E-02 -0.18855E-02
  0.34621E-02 -0.18171E-02 -0.18855E-02
  0.37964E-02 -0.93572E-03 -0.18855E-02
  0.10351E-02  0.68567E-03 -0.90633E-03
  0.17411E-02  0.12460E-02 -0.90633E-03
  0.23149E-02  0.60355E-03 -0.90633E-03
  0.16649E-02 -0.32040E-03 -0.90633E-03
  0.30371E-02  0.15718E-03 -0.90633E-03
  0.27870E-02 -0.66509E-03 -0.90633E-03
  0.12826E-02  0.18455E-02 -0.90633E-03
  0.64575E-03  0.14807E-02 -0.90633E-03
  0.12154E-03  0.32574E-03 -0.90633E-03
 -0.13248E-03  0.12075E-02 -0.90633E-03
  0.93738E-03  0.22777E-02 -0.90633E-03
  0.11249E-02  0.28185E-02 -0.90633E-03
  0.17400E-02  0.24271E-02 -0.90633E-03
  0.40463E-03  0.21693E-02 -0.90633E-03
  0.39740E-03  0.29306E-02 -0.90633E-03
 -0.77117E-03 -0.10065E-02 -0.90633E-03
 -0.86854E-03  0.97583E-04 -0.90633E-03
  0.45089E-03 -0.68648E-03 -0.90633E-03
 -0.18368E-02 -0.70873E-03 -0.90633E-03
 -0.18418E-02  0.85591E-04 -0.90633E-03
 -0.27232E-02 -0.77474E-03 -0.90633E-03
 -0.27965E-02  0.47000E-04 -0.90633E-03
 -0.25400E-02 -0.15183E-02 -0.90633E-03
 -0.19386E-02 -0.13207E-02 -0.90633E-03
 -0.99032E-03  0.10197E-02 -0.90633E-03
 -0.14460E-02 -0.17316E-02 -0.90633E-03
 -0.31113E-03  0.20285E-02 -0.90633E-03
 -0.10988E-02  0.18585E-02 -0.90633E-03
 -0.18833E-02  0.17175E-02 -0.90633E-03
 -0.18683E-02  0.91491E-03 -0.90633E-03
 -0.16504E-03 -0.19806E-02 -0.90633E-03
 -0.95465E-03 -0.23495E-02 -0.90633E-03
  0.77336E-03 -0.17073E-02 -0.90633E-03
  0.17201E-02 -0.14950E-02 -0.90633E-03
  0.32125E-02  0.78348E-03 -0.90633E-03
  0.28041E-02  0.12576E-02 -0.90633E-03
  0.23033E-02  0.18674E-02 -0.90633E-03
 -0.40296E-03  0.28792E-02 -0.90633E-03
 -0.12093E-02  0.27099E-02 -0.90633E-03
 -0.19439E-02  0.24591E-02 -0.90633E-03
 -0.25022E-02  0.22358E-02 -0.90633E-03
 -0.26350E-02  0.16502E-02 -0.90633E-03
 -0.27599E-02  0.88095E-03 -0.90633E-03
 -0.21155E-02 -0.21374E-02 -0.90633E-03
 -0.16097E-02 -0.26936E-02 -0.90633E-03
 -0.11965E-02 -0.31290E-02 -0.90633E-03
 -0.59444E-03 -0.30381E-02 -0.90633E-03
  0.19977E-03 -0.28751E-02 -0.90633E-03
  0.10515E-02 -0.26484E-02 -0.90633E-03
  0.18423E-02 -0.23754E-02 -0.90633E-03
  0.24573E-02 -0.21571E-02 -0.90633E-03
  0.26039E-02 -0.15080E-02 -0.90633E-03
  0.37964E-02  0.93572E-03 -0.90633E-03
  0.39100E-02  0.00000E+00 -0.90633E-03
  0.34621E-02  0.18171E-02 -0.90633E-03
  0.29267E-02  0.25928E-02 -0.90633E-03
  0.22211E-02  0.32179E-02 -0.90633E-03
  0.13865E-02  0.36559E-02 -0.90633E-03
  0.47130E-03  0.38815E-02 -0.90633E-03
 -0.47130E-03  0.38815E-02 -0.90633E-03
 -0.13865E-02  0.36559E-02 -0.90633E-03
 -0.22211E-02  0.32179E-02 -0.90633E-03
 -0.29267E-02  0.25928E-02 -0.90633E-03
 -0.34621E-02  0.18171E-02 -0.90633E-03
 -0.37964E-02  0.93572E-03 -0.90633E-03
 -0.39100E-02  0.47884E-18 -0.90633E-03
 -0.37964E-02 -0.93572E-03 -0.90633E-03
 -0.34621E-02 -0.18171E-02 -0.90633E-03
 -0.29267E-02 -0.25928E-02 -0.90633E-03
 -0.22211E-02 -0.32179E-02 -0.90633E-03
 -0.13865E-02 -0.36559E-02 -0.90633E-03
 -0.47130E-03 -0.38815E-02 -0.90633E-03
  0.47130E-03 -0.38815E-02 -0.90633E-03
  0.13865E-02 -0.36559E-02 -0.90633E-03
  0.22211E-02 -0.32179E-02 -0.90633E-03
  0.29267E-02 -0.25928E-02 -0.90633E-03
  0.34621E-02 -0.18171E-02 -0.90633E-03
  0.37964E-02 -0.93572E-03 -0.90633E-03
  
CELLS       3486               17724
       1       0
       1       1
       1       2
       1       3
       1       4
       1       5
       1       6
       1       7
       1       8
       1       9
       1      10
       1      11
       1      12
       1      13
       1      14
       1      15
       1      16
       1      17
       1      18
       1      19
       1      20
       1      21
       1      22
       1      23
       1      24
       1      25
       1      26
       1      27
       1      28
       1      29
       1      30
       1      31
       1      32
       1      33
       1      34
       1      35
       1      36
       1      37
       1      38
       1      39
       1      40
       1      41
       1      42
       1      43
       1      44
       1      45
       1      46
       1      47
       1      48
       1      49
       1      50
       1      51
       1      52
       1      53
       1      54
       1      55
       1      56
       1      57
       1      58
       1      59
       1      60
       1      61
       1      62
       1      63
       1      64
       1      65
       1      66
       1      67
       1      68
       1      69
       1      70
       1      71
       1      72
       1      73
       1      74
       1      75
       1      76
       1      77
       1      78
       1      79
       1      80
       1      81
       1      82
       1      83
       1      84
       1      85
       1      86
       1      87
       1      88
       1      89
       1      90
       1      91
       1      92
       1      93
       1      94
       1      95
       1      96
       1      97
       1      98
       1      99
       1     100
       1     101
       1     102
       1     103
       1     104
       1     105
       1     106
       1     107
       1     108
       1     109
       1     110
       1     111
       1     112
       1     113
       1     114
       1     115
       1     116
       1     117
       1     118
       1     119
       1     120
       1     121
       1     122
       1     123
       1     124
       1     125
       1     126
       1     127
       1     128
       1     129
       1     130
       1     131
       1     132
       1     133
       1     134
       1     135
       1     136
       1     137
       1     138
       1     139
       1     140
       1     141
       1     142
       1     143
       1     144
       1     145
       1     146
       1     147
       1     148
       1     149
       1     150
       1     151
       1     152
       1     153
       1     154
       1     155
       1     156
       1     157
       1     158
       1     159
       1     160
       1     161
       1     162
       1     163
       1     164
       1     165
       1     166
       1     167
       1     168
       1     169
       1     170
       1     171
       1     172
       1     173
       1     174
       1     175
       1     176
       1     177
       1     178
       1     179
       1     180
       1     181
       1     182
       1     183
       1     184
       1     185
       1     186
       1     187
       1     188
       1     189
       1     190
       1     191
       1     192
       1     193
       1     194
       1     195
       1     196
       1     197
       1     198
       1     199
       1     200
       1     201
       1     202
       1     203
       1     204
       1     205
       1     206
       1     207
       1     208
       1     209
       1     210
       1     211
       1     212
       1     213
       1     214
       1     215
       1     216
       1     217
       1     218
       1     219
       1     220
       1     221
       1     222
       1     223
       1     224
       1     225
       1     226
       1     227
       1     228
       1     229
       1     230
       1     231
       1     232
       1     233
       1     234
       1     235
       1     236
       1     237
       1     238
       1     239
       1     240
       1     241
       1     242
       1     243
       1     244
       1     245
       1     246
       1     247
       1     248
       1     249
       1     250
       1     251
       1     252
       1     253
       1     254
       1     255
       1     256
       1     257
       1     258
       1     259
       1     260
       1     261
       1     262
       1     263
       1     264
       1     265
       1     266
       1     267
       1     268
       1     269
       1     270
       1     271
       1     272
       1     273
       1     274
       1     275
       1     276
       1     277
       1     278
       1     279
       1     280
       1     281
       1     282
       1     283
       1     284
       1     285
       1     286
       1     287
       1     288
       1     289
       1     290
       1     291
       1     292
       1     293
       1     294
       1     295
       1     296
       1     297
       1     298
       1     299
       1     300
       1     301
       1     302
       1     303
       1     304
       1     305
       1     306
       1     307
       1     308
       1     309
       1     310
       1     311
       1     312
       1     313
       1     314
       1     315
       1     316
       1     317
       1     318
       1     319
       1     320
       1     321
       1     322
       1     323
       1     324
       1     325
       1     326
       1     327
       1     328
       1     329
       1     330
       1     331
       1     332
       1     333
       1     334
       1     335
       1     336
       1     337
       1     338
       1     339
       1     340
       1     341
       1     342
       1     343
       1     344
       1     345
       1     346
       1     347
       1     348
       1     349
       1     350
       1     351
       1     352
       1     353
       1     354
       1     355
       1     356
       1     357
       1     358
       1     359
       1     360
       1     361
       1     362
       1     363
       1     364
       1     365
       1     366
       1     367
       1     368
       1     369
       1     370
       1     371
       1     372
       1     373
       1     374
       1     375
       1     376
       1     377
       1     378
       1     379
       1     380
       1     381
       1     382
       1     383
       1     384
       1     385
       1     386
       1     387
       1     388
       1     389
       1     390
       1     391
       1     392
       1     393
       1     394
       1     395
       1     396
       1     397
       1     398
       1     399
       1     400
       1     401
       1     402
       1     403
       1     404
       1     405
       1     406
       1     407
       1     408
       1     409
       1     410
       1     411
       1     412
       1     413
       1     414
       1     415
       1     416
       1     417
       1     418
       1     419
       1     420
       1     421
       1     422
       1     423
       1     424
       1     425
       1     426
       1     427
       1     428
       1     429
       1     430
       1     431
       1     432
       1     433
       1     434
       1     435
       1     436
       1     437
       1     438
       1     439
       1     440
       1     441
       1     442
       1     443
       1     444
       1     445
       1     446
       1     447
       1     448
       1     449
       1     450
       1     451
       1     452
       1     453
       1     454
       1     455
       1     456
       1     457
       1     458
       1     459
       1     460
       1     461
       1     462
       1     463
       1     464
       1     465
       1     466
       1     467
       1     468
       1     469
       1     470
       1     471
       1     472
       1     473
       1     474
       1     475
       1     476
       1     477
       1     478
       1     479
       1     480
       1     481
       1     482
       1     483
       1     484
       1     485
       1     486
       1     487
       1     488
       1     489
       1     490
       1     491
       1     492
       1     493
       1     494
       1     495
       1     496
       1     497
       1     498
       1     499
       1     500
       1     501
       1     502
       1     503
       1     504
       1     505
       1     506
       1     507
       1     508
       1     509
       1     510
       1     511
       1     512
       1     513
       1     514
       1     515
       1     516
       1     517
       1     518
       1     519
       1     520
       1     521
       1     522
       1     523
       1     524
       1     525
       1     526
       1     527
       1     528
       1     529
       1     530
       1     531
       1     532
       1     533
       1     534
       1     535
       1     536
       1     537
       1     538
       1     539
       1     540
       1     541
       1     542
       1     543
       1     544
       1     545
       1     546
       1     547
       1     548
       1     549
       1     550
       1     551
       1     552
       1     553
       1     554
       1     555
       1     556
       1     557
       1     558
       1     559
       1     560
       1     561
       1     562
       1     563
       1     564
       1     565
       1     566
       1     567
       1     568
       1     569
       1     570
       1     571
       1     572
       1     573
       1     574
       1     575
       1     576
       1     577
       1     578
       1     579
       1     580
       1     581
       1     582
       1     583
       1     584
       1     585
       1     586
       1     587
       1     588
       1     589
       1     590
       1     591
       1     592
       1     593
       1     594
       1     595
       1     596
       1     597
       1     598
       1     599
       1     600
       1     601
       1     602
       1     603
       1     604
       1     605
       1     606
       1     607
       1     608
       1     609
       1     610
       1     611
       1     612
       1     613
       1     614
       1     615
       1     616
       1     617
       1     618
       1     619
       1     620
       1     621
       1     622
       1     623
       1     624
       1     625
       1     626
       1     627
       1     628
       1     629
       1     630
       1     631
       1     632
       1     633
       1     634
       1     635
       1     636
       1     637
       1     638
       1     639
       1     640
       1     641
       1     642
       1     643
       1     644
       1     645
       1     646
       1     647
       1     648
       1     649
       1     650
       1     651
       1     652
       1     653
       1     654
       1     655
       1     656
       1     657
       1     658
       1     659
       1     660
       1     661
       1     662
       1     663
       1     664
       1     665
       1     666
       1     667
       1     668
       1     669
       1     670
       1     671
       1     672
       1     673
       1     674
       1     675
       1     676
       1     677
       1     678
       1     679
       1     680
       1     681
       1     682
       1     683
       1     684
       1     685
       1     686
       1     687
       1     688
       1     689
       1     690
       1     691
       1     692
       1     693
       1     694
       1     695
       1     696
       1     697
       1     698
       1     699
       1     700
       1     701
       1     702
       1     703
       1     704
       1     705
       1     706
       1     707
       1     708
       1     709
       1     710
       1     711
       1     712
       1     713
       1     714
       1     715
       1     716
       1     717
       1     718
       1     719
       1     720
       1     721
       1     722
       1     723
       1     724
       1     725
       1     726
       1     727
       1     728
       1     729
       1     730
       1     731
       1     732
       1     733
       1     734
       1     735
       1     736
       1     737
       1     738
       1     739
       1     740
       1     741
       1     742
       1     743
       1     744
       1     745
       1     746
       1     747
       1     748
       1     749
       1     750
       1     751
       1     752
       1     753
       1     754
       1     755
       1     756
       1     757
       1     758
       1     759
       1     760
       1     761
       1     762
       1     763
       1     764
       1     765
       1     766
       1     767
       1     768
       1     769
       1     770
       1     771
       1     772
       1     773
       1     774
       1     775
       1     776
       1     777
       1     778
       1     779
       1     780
       1     781
       1     782
       1     783
       1     784
       1     785
       1     786
       1     787
       1     788
       1     789
       1     790
       1     791
       1     792
       1     793
       1     794
       1     795
       1     796
       1     797
       1     798
       1     799
       1     800
       1     801
       1     802
       1     803
       1     804
       1     805
       1     806
       1     807
       1     808
       1     809
       1     810
       1     811
       1     812
       1     813
       1     814
       1     815
       1     816
       1     817
       1     818
       1     819
       1     820
       1     821
       1     822
       1     823
       1     824
       1     825
       1     826
       1     827
       1     828
       1     829
       1     830
       1     831
       1     832
       1     833
       1     834
       1     835
       1     836
       1     837
       1     838
       1     839
       1     840
       1     841
       1     842
       1     843
       1     844
       1     845
       1     846
       1     847
       1     848
       1     849
       1     850
       1     851
       1     852
       1     853
       1     854
       1     855
       1     856
       1     857
       1     858
       1     859
       1     860
       1     861
       1     862
       1     863
       1     864
       1     865
       1     866
       1     867
       1     868
       1     869
       1     870
       1     871
       1     872
       1     873
       1     874
       1     875
       1     876
       1     877
       1     878
       1     879
       1     880
       1     881
       1     882
       1     883
       1     884
       1     885
       1     886
       1     887
       1     888
       1     889
       1     890
       1     891
       1     892
       1     893
       1     894
       1     895
       1     896
       1     897
       1     898
       1     899
       1     900
       1     901
       1     902
       1     903
       1     904
       1     905
       1     906
       1     907
       1     908
       1     909
       1     910
       1     911
       1     912
       1     913
       1     914
       1     915
       1     916
       1     917
       1     918
       1     919
       1     920
       1     921
       1     922
       1     923
       1     924
       1     925
       1     926
       1     927
       1     928
       1     929
       1     930
       1     931
       1     932
       1     933
       1     934
       1     935
       1     936
       1     937
       1     938
       1     939
       1     940
       1     941
       1     942
       1     943
       1     944
       1     945
       1     946
       1     947
       1     948
       1     949
       1     950
       1     951
       1     952
       1     953
       1     954
       1     955
       1     956
       1     957
       1     958
       1     959
       1     960
       1     961
       1     962
       1     963
       1     964
       1     965
       1     966
       1     967
       1     968
       1     969
       1     970
       1     971
       1     972
       1     973
       1     974
       1     975
       1     976
       1     977
       1     978
       1     979
       1     980
       1     981
       1     982
       1     983
       1     984
       1     985
       1     986
       1     987
       1     988
       1     989
       1     990
       1     991
       1     992
       1     993
       1     994
       1     995
       1     996
       1     997
       1     998
       1     999
       1    1000
       1    1001
       1    1002
       1    1003
       1    1004
       1    1005
       1    1006
       1    1007
       1    1008
       1    1009
       1    1010
       1    1011
       1    1012
       1    1013
       1    1014
       1    1015
       1    1016
       1    1017
       1    1018
       1    1019
       1    1020
       1    1021
       1    1022
       1    1023
       1    1024
       1    1025
       1    1026
       1    1027
       1    1028
       1    1029
       1    1030
       1    1031
       1    1032
       1    1033
       1    1034
       1    1035
       1    1036
       1    1037
       1    1038
       1    1039
       1    1040
       1    1041
       1    1042
       1    1043
       1    1044
       1    1045
       1    1046
       1    1047
       1    1048
       1    1049
       1    1050
       1    1051
       1    1052
       1    1053
       1    1054
       1    1055
       1    1056
       1    1057
       1    1058
       1    1059
       1    1060
       1    1061
       1    1062
       1    1063
       1    1064
       1    1065
       1    1066
       1    1067
       1    1068
       1    1069
       1    1070
       1    1071
       1    1072
       1    1073
       1    1074
       1    1075
       1    1076
       1    1077
       1    1078
       1    1079
       1    1080
       1    1081
       1    1082
       1    1083
       1    1084
       1    1085
       1    1086
       1    1087
       1    1088
       1    1089
       1    1090
       1    1091
       1    1092
       1    1093
       1    1094
       1    1095
       1    1096
       1    1097
       1    1098
       1    1099
       1    1100
       1    1101
       1    1102
       1    1103
       1    1104
       1    1105
       1    1106
       1    1107
       1    1108
       1    1109
       1    1110
       1    1111
       1    1112
       1    1113
       1    1114
       1    1115
       1    1116
       1    1117
       1    1118
       1    1119
       1    1120
       1    1121
       1    1122
       1    1123
       1    1124
       1    1125
       1    1126
       1    1127
       1    1128
       1    1129
       1    1130
       1    1131
       1    1132
       1    1133
       1    1134
       1    1135
       1    1136
       1    1137
       1    1138
       1    1139
       1    1140
       1    1141
       1    1142
       1    1143
       1    1144
       1    1145
       1    1146
       1    1147
       1    1148
       1    1149
       1    1150
       1    1151
       1    1152
       1    1153
       1    1154
       1    1155
       1    1156
       1    1157
       1    1158
       1    1159
       1    1160
       1    1161
       1    1162
       1    1163
       1    1164
       1    1165
       1    1166
       1    1167
       1    1168
       1    1169
       1    1170
       1    1171
       1    1172
       1    1173
       1    1174
       1    1175
       1    1176
       1    1177
       1    1178
       1    1179
       1    1180
       1    1181
       1    1182
       1    1183
       1    1184
       1    1185
       1    1186
       1    1187
       1    1188
       1    1189
       1    1190
       1    1191
       1    1192
       1    1193
       1    1194
       1    1195
       1    1196
       1    1197
       1    1198
       1    1199
       1    1200
       1    1201
       1    1202
       1    1203
       1    1204
       1    1205
       1    1206
       1    1207
       1    1208
       1    1209
       1    1210
       1    1211
       1    1212
       1    1213
       1    1214
       1    1215
       1    1216
       1    1217
       1    1218
       1    1219
       1    1220
       1    1221
       1    1222
       1    1223
       1    1224
       1    1225
       1    1226
       1    1227
       1    1228
       1    1229
       1    1230
       1    1231
       1    1232
       1    1233
       1    1234
       1    1235
       1    1236
       1    1237
       1    1238
       1    1239
       1    1240
       1    1241
       1    1242
       1    1243
       1    1244
       1    1245
       1    1246
       1    1247
       1    1248
       1    1249
       1    1250
       1    1251
       1    1252
       1    1253
       1    1254
       1    1255
       1    1256
       1    1257
       1    1258
       1    1259
       1    1260
       1    1261
       1    1262
       1    1263
       1    1264
       1    1265
       1    1266
       1    1267
       1    1268
       1    1269
       1    1270
       1    1271
       1    1272
       1    1273
       1    1274
       1    1275
       1    1276
       1    1277
       1    1278
       1    1279
       1    1280
       1    1281
       1    1282
       1    1283
       1    1284
       1    1285
       1    1286
       1    1287
       1    1288
       1    1289
       1    1290
       1    1291
       1    1292
       1    1293
       1    1294
       1    1295
       1    1296
       1    1297
       1    1298
       1    1299
       1    1300
       1    1301
       1    1302
       1    1303
       1    1304
       1    1305
       1    1306
       1    1307
       1    1308
       1    1309
       1    1310
       1    1311
       1    1312
       1    1313
       1    1314
       1    1315
       1    1316
       1    1317
       1    1318
       1    1319
       1    1320
       1    1321
       1    1322
       1    1323
       1    1324
       1    1325
       1    1326
       1    1327
       1    1328
       1    1329
       1    1330
       1    1331
       1    1332
       1    1333
       1    1334
       1    1335
       1    1336
       1    1337
       1    1338
       1    1339
       1    1340
       1    1341
       1    1342
       1    1343
       1    1344
       1    1345
       1    1346
       1    1347
       1    1348
       1    1349
       1    1350
       1    1351
       1    1352
       1    1353
       1    1354
       1    1355
       1    1356
       1    1357
       1    1358
       1    1359
       1    1360
       1    1361
       1    1362
       1    1363
       1    1364
       1    1365
       1    1366
       1    1367
       1    1368
       1    1369
       1    1370
       1    1371
       1    1372
       1    1373
       1    1374
       1    1375
       1    1376
       1    1377
       1    1378
       1    1379
       1    1380
       1    1381
       1    1382
       1    1383
       1    1384
       1    1385
       1    1386
       1    1387
       1    1388
       1    1389
       1    1390
       1    1391
       1    1392
       1    1393
       1    1394
       1    1395
       1    1396
       1    1397
       1    1398
       1    1399
       1    1400
       1    1401
       1    1402
       1    1403
       1    1404
       1    1405
       1    1406
       1    1407
       1    1408
       1    1409
       1    1410
       1    1411
       1    1412
       1    1413
       1    1414
       1    1415
       1    1416
       1    1417
       1    1418
       1    1419
       1    1420
       1    1421
       1    1422
       1    1423
       1    1424
       1    1425
       1    1426
       1    1427
       1    1428
       1    1429
       1    1430
       1    1431
       1    1432
       1    1433
       1    1434
       1    1435
       1    1436
       1    1437
       1    1438
       1    1439
       1    1440
       1    1441
       1    1442
       1    1443
       1    1444
       1    1445
       1    1446
       1    1447
       1    1448
       1    1449
       1    1450
       1    1451
       1    1452
       1    1453
       1    1454
       1    1455
       1    1456
       1    1457
       1    1458
       1    1459
       1    1460
       1    1461
       1    1462
       1    1463
       1    1464
       1    1465
       1    1466
       1    1467
       1    1468
       1    1469
       1    1470
       1    1471
       1    1472
       1    1473
       1    1474
       1    1475
       1    1476
       1    1477
       1    1478
       1    1479
       1    1480
       1    1481
       1    1482
       1    1483
       1    1484
       1    1485
       1    1486
       1    1487
       1    1488
       1    1489
       1    1490
       1    1491
       1    1492
       1    1493
       1    1494
       1    1495
       1    1496
       1    1497
       1    1498
       1    1499
       1    1500
       1    1501
       1    1502
       1    1503
       1    1504
       1    1505
       1    1506
       1    1507
       1    1508
       1    1509
       1    1510
       1    1511
       1    1512
       1    1513
       1    1514
       1    1515
       1    1516
       1    1517
       1    1518
       1    1519
       1    1520
       1    1521
       1    1522
       1    1523
       1    1524
       1    1525
       1    1526
       1    1527
       1    1528
       1    1529
       1    1530
       1    1531
       1    1532
       1    1533
       1    1534
       1    1535
       1    1536
       1    1537
       1    1538
       1    1539
       1    1540
       1    1541
       1    1542
       1    1543
       1    1544
       1    1545
       1    1546
       1    1547
       1    1548
       1    1549
       1    1550
       1    1551
       1    1552
       1    1553
       1    1554
       1    1555
       1    1556
       1    1557
       1    1558
       1    1559
       1    1560
       1    1561
       1    1562
       1    1563
       1    1564
       1    1565
       1    1566
       1    1567
       1    1568
       1    1569
       1    1570
       1    1571
       1    1572
       1    1573
       1    1574
       1    1575
       1    1576
       1    1577
       1    1578
       1    1579
       1    1580
       1    1581
       1    1582
       1    1583
       1    1584
       1    1585
       1    1586
       1    1587
       1    1588
       1    1589
       1    1590
       1    1591
       1    1592
       1    1593
       1    1594
       1    1595
       1    1596
       1    1597
       1    1598
       1    1599
       1    1600
       1    1601
       1    1602
       1    1603
       1    1604
       1    1605
       1    1606
       1    1607
       1    1608
       1    1609
       1    1610
       1    1611
       1    1612
       1    1613
       1    1614
       1    1615
       1    1616
       1    1617
       1    1618
       1    1619
       1    1620
       1    1621
       1    1622
       1    1623
       1    1624
       1    1625
       1    1626
       1    1627
       1    1628
       1    1629
       1    1630
       1    1631
       1    1632
       1    1633
       1    1634
       1    1635
       1    1636
       1    1637
       1    1638
       1    1639
       1    1640
       1    1641
       1    1642
       1    1643
       1    1644
       1    1645
       1    1646
       1    1647
       1    1648
       1    1649
       1    1650
       1    1651
       1    1652
       1    1653
       1    1654
       1    1655
       1    1656
       1    1657
       1    1658
       1    1659
       1    1660
       1    1661
       1    1662
       1    1663
       1    1664
       1    1665
       1    1666
       1    1667
       1    1668
       1    1669
       1    1670
       1    1671
       1    1672
       1    1673
       1    1674
       1    1675
       1    1676
       1    1677
       1    1678
       1    1679
       1    1680
       1    1681
       1    1682
       1    1683
       1    1684
       1    1685
       1    1686
       1    1687
       1    1688
       1    1689
       1    1690
       1    1691
       1    1692
       1    1693
       1    1694
       1    1695
       1    1696
       1    1697
       1    1698
       1    1699
       1    1700
       1    1701
       1    1702
       1    1703
       1    1704
       1    1705
       1    1706
       1    1707
       1    1708
       1    1709
       1    1710
       1    1711
       1    1712
       1    1713
       1    1714
       1    1715
       1    1716
       1    1717
       1    1718
       1    1719
       1    1720
       1    1721
       1    1722
       1    1723
       1    1724
       1    1725
       1    1726
       1    1727
       1    1728
       1    1729
       1    1730
       1    1731
       1    1732
       1    1733
       1    1734
       1    1735
       1    1736
       1    1737
       1    1738
       1    1739
       1    1740
       1    1741
       1    1742
       1    1743
       1    1744
       1    1745
       1    1746
       1    1747
       1    1748
       1    1749
       1    1750
       1    1751
       1    1752
       1    1753
       1    1754
       1    1755
       1    1756
       1    1757
       1    1758
       1    1759
       1    1760
       1    1761
       1    1762
       1    1763
       1    1764
       1    1765
       1    1766
       1    1767
       1    1768
       1    1769
       1    1770
       1    1771
       1    1772
       1    1773
       1    1774
       1    1775
       1    1776
       1    1777
       1    1778
       1    1779
       1    1780
       1    1781
       1    1782
       1    1783
       1    1784
       1    1785
       1    1786
       1    1787
       1    1788
       1    1789
       1    1790
       1    1791
       1    1792
       1    1793
       1    1794
       1    1795
       1    1796
       1    1797
       1    1798
       1    1799
       1    1800
       1    1801
       1    1802
       1    1803
       1    1804
       1    1805
       1    1806
       1    1807
       1    1808
       1    1809
       1    1810
       1    1811
       1    1812
       1    1813
       1    1814
       1    1815
       1    1816
       1    1817
       1    1818
       1    1819
       1    1820
       1    1821
       1    1822
       1    1823
       1    1824
       1    1825
       1    1826
       1    1827
       1    1828
       1    1829
       1    1830
       1    1831
       1    1832
       1    1833
       1    1834
       1    1835
       1    1836
       1    1837
       1    1838
       1    1839
       1    1840
       1    1841
       1    1842
       1    1843
       1    1844
       1    1845
       1    1846
       1    1847
       1    1848
       1    1849
       1    1850
       1    1851
       1    1852
       1    1853
       1    1854
       1    1855
       1    1856
       1    1857
       1    1858
       1    1859
       1    1860
       1    1861
       1    1862
       1    1863
       1    1864
       1    1865
       1    1866
       1    1867
       1    1868
       1    1869
       1    1870
       1    1871
       1    1872
       1    1873
       1    1874
       1    1875
       1    1876
       1    1877
       1    1878
       1    1879
       1    1880
       1    1881
       1    1882
       1    1883
       1    1884
       1    1885
       1    1886
       1    1887
       1    1888
       1    1889
       1    1890
       1    1891
       1    1892
       1    1893
       1    1894
       1    1895
       1    1896
       1    1897
       1    1898
       1    1899
       1    1900
       1    1901
       1    1902
       1    1903
       1    1904
       1    1905
       1    1906
       1    1907
       1    1908
       1    1909
       1    1910
       1    1911
       1    1912
       1    1913
       1    1914
       1    1915
       1    1916
       1    1917
       1    1918
       1    1919
       1    1920
       1    1921
       1    1922
       1    1923
       1    1924
       1    1925
       1    1926
       1    1927
       1    1928
       1    1929
       1    1930
       1    1931
       1    1932
       1    1933
       1    1934
       1    1935
       1    1936
       1    1937
       1    1938
       1    1939
       1    1940
       1    1941
       1    1942
       1    1943
       1    1944
       1    1945
       1    1946
       1    1947
       1    1948
       1    1949
       8       0       1       2       3       4       5       6       7
       8       2       8       9       3       6      10      11       7
       8      12       1       0      13      14       5       4      15
       8       0      16      17      13       4      18      19      15
       8      20      21      22      12      23      24      25      14
       8      26      27      21      20      28      29      24      23
       8      13      26      20      12      15      28      23      14
       8      30      31      16      32      33      34      18      35
       8      36      37      31      30      38      39      34      33
       8      40      41      37      36      42      43      39      38
       8      44      40      36      45      46      42      38      47
       8      48      17      16      31      49      19      18      34
       8      30      50      45      36      33      51      47      38
       8       0       3      32      16       4       7      35      18
       8      52      26      13      17      53      28      15      19
       8      54      52      17      48      55      53      19      49
       8      56      54      48      57      58      55      49      59
       8      37      57      48      31      39      59      49      34
       8      60      61      50      30      62      63      51      33
       8      64      60      30      32      65      62      33      35
       8      66      64      32       3      67      65      35       7
       8      68       8       2      69      70      10       6      71
       8      72      69       2       1      73      71       6       5
       8      22      72       1      12      25      73       5      14
       8      74      27      26      52      75      29      28      53
       8      76      74      52      54      77      75      53      55
       8      78      76      54      56      79      77      55      58
       8      80      78      56      81      82      79      58      83
       8      84      81      56      57      85      83      58      59
       8      41      84      57      37      43      85      59      39
       8      86      44      45      50      87      46      47      51
       8      88      86      50      61      89      87      51      63
       8      90      88      61      91      92      89      63      93
       8      94      91      61      60      95      93      63      62
       8      96      94      60      64      97      95      62      65
       8      98      96      64      66      99      97      65      67
       8     100      98      66     101     102      99      67     103
       8       9     101      66       3      11     103      67       7
       8     104     105       8      68     106     107      10      70
       8     108     104      68      69     109     106      70      71
       8     110     108      69      72     111     109      71      73
       8     112     110      72      22     113     111      73      25
       8     114     112      22      21     115     113      25      24
       8     116     114      21      27     117     115      24      29
       8     118     116      27      74     119     117      29      75
       8     120     118      74      76     121     119      75      77
       8     122     120      76      78     123     121      77      79
       8     124     122      78      80     125     123      79      82
       8     126     124      80      81     127     125      82      83
       8     128     126      81      84     129     127      83      85
       8     130     128      84      41     131     129      85      43
       8     132     130      41      40     133     131      43      42
       8     134     132      40      44     135     133      42      46
       8     136     134      44      86     137     135      46      87
       8     138     136      86      88     139     137      87      89
       8     140     138      88      90     141     139      89      92
       8     142     140      90      91     143     141      92      93
       8     144     142      91      94     145     143      93      95
       8     146     144      94      96     147     145      95      97
       8     148     146      96      98     149     147      97      99
       8     150     148      98     100     151     149      99     102
       8     152     150     100     101     153     151     102     103
       8     154     152     101       9     155     153     103      11
       8     105     154       9       8     107     155      11      10
       8     156     157     158     159       0       1       2       3
       8     158     160     161     159       2       8       9       3
       8     162     157     156     163      12       1       0      13
       8     156     164     165     163       0      16      17      13
       8     166     167     168     162      20      21      22      12
       8     169     170     167     166      26      27      21      20
       8     163     169     166     162      13      26      20      12
       8     171     172     164     173      30      31      16      32
       8     174     175     172     171      36      37      31      30
       8     176     177     175     174      40      41      37      36
       8     178     176     174     179      44      40      36      45
       8     180     165     164     172      48      17      16      31
       8     171     181     179     174      30      50      45      36
       8     156     159     173     164       0       3      32      16
       8     182     169     163     165      52      26      13      17
       8     183     182     165     180      54      52      17      48
       8     184     183     180     185      56      54      48      57
       8     175     185     180     172      37      57      48      31
       8     186     187     181     171      60      61      50      30
       8     188     186     171     173      64      60      30      32
       8     189     188     173     159      66      64      32       3
       8     190     160     158     191      68       8       2      69
       8     192     191     158     157      72      69       2       1
       8     168     192     157     162      22      72       1      12
       8     193     170     169     182      74      27      26      52
       8     194     193     182     183      76      74      52      54
       8     195     194     183     184      78      76      54      56
       8     196     195     184     197      80      78      56      81
       8     198     197     184     185      84      81      56      57
       8     177     198     185     175      41      84      57      37
       8     199     178     179     181      86      44      45      50
       8     200     199     181     187      88      86      50      61
       8     201     200     187     202      90      88      61      91
       8     203     202     187     186      94      91      61      60
       8     204     203     186     188      96      94      60      64
       8     205     204     188     189      98      96      64      66
       8     206     205     189     207     100      98      66     101
       8     161     207     189     159       9     101      66       3
       8     208     209     160     190     104     105       8      68
       8     210     208     190     191     108     104      68      69
       8     211     210     191     192     110     108      69      72
       8     212     211     192     168     112     110      72      22
       8     213     212     168     167     114     112      22      21
       8     214     213     167     170     116     114      21      27
       8     215     214     170     193     118     116      27      74
       8     216     215     193     194     120     118      74      76
       8     217     216     194     195     122     120      76      78
       8     218     217     195     196     124     122      78      80
       8     219     218     196     197     126     124      80      81
       8     220     219     197     198     128     126      81      84
       8     221     220     198     177     130     128      84      41
       8     222     221     177     176     132     130      41      40
       8     223     222     176     178     134     132      40      44
       8     224     223     178     199     136     134      44      86
       8     225     224     199     200     138     136      86      88
       8     226     225     200     201     140     138      88      90
       8     227     226     201     202     142     140      90      91
       8     228     227     202     203     144     142      91      94
       8     229     228     203     204     146     144      94      96
       8     230     229     204     205     148     146      96      98
       8     231     230     205     206     150     148      98     100
       8     232     231     206     207     152     150     100     101
       8     233     232     207     161     154     152     101       9
       8     209     233     161     160     105     154       9       8
       8     234     235     236     237     156     157     158     159
       8     236     238     239     237     158     160     161     159
       8     240     235     234     241     162     157     156     163
       8     234     242     243     241     156     164     165     163
       8     244     245     246     240     166     167     168     162
       8     247     248     245     244     169     170     167     166
       8     241     247     244     240     163     169     166     162
       8     249     250     242     251     171     172     164     173
       8     252     253     250     249     174     175     172     171
       8     254     255     253     252     176     177     175     174
       8     256     254     252     257     178     176     174     179
       8     258     243     242     250     180     165     164     172
       8     249     259     257     252     171     181     179     174
       8     234     237     251     242     156     159     173     164
       8     260     247     241     243     182     169     163     165
       8     261     260     243     258     183     182     165     180
       8     262     261     258     263     184     183     180     185
       8     253     263     258     250     175     185     180     172
       8     264     265     259     249     186     187     181     171
       8     266     264     249     251     188     186     171     173
       8     267     266     251     237     189     188     173     159
       8     268     238     236     269     190     160     158     191
       8     270     269     236     235     192     191     158     157
       8     246     270     235     240     168     192     157     162
       8     271     248     247     260     193     170     169     182
       8     272     271     260     261     194     193     182     183
       8     273     272     261     262     195     194     183     184
       8     274     273     262     275     196     195     184     197
       8     276     275     262     263     198     197     184     185
       8     255     276     263     253     177     198     185     175
       8     277     256     257     259     199     178     179     181
       8     278     277     259     265     200     199     181     187
       8     279     278     265     280     201     200     187     202
       8     281     280     265     264     203     202     187     186
       8     282     281     264     266     204     203     186     188
       8     283     282     266     267     205     204     188     189
       8     284     283     267     285     206     205     189     207
       8     239     285     267     237     161     207     189     159
       8     286     287     238     268     208     209     160     190
       8     288     286     268     269     210     208     190     191
       8     289     288     269     270     211     210     191     192
       8     290     289     270     246     212     211     192     168
       8     291     290     246     245     213     212     168     167
       8     292     291     245     248     214     213     167     170
       8     293     292     248     271     215     214     170     193
       8     294     293     271     272     216     215     193     194
       8     295     294     272     273     217     216     194     195
       8     296     295     273     274     218     217     195     196
       8     297     296     274     275     219     218     196     197
       8     298     297     275     276     220     219     197     198
       8     299     298     276     255     221     220     198     177
       8     300     299     255     254     222     221     177     176
       8     301     300     254     256     223     222     176     178
       8     302     301     256     277     224     223     178     199
       8     303     302     277     278     225     224     199     200
       8     304     303     278     279     226     225     200     201
       8     305     304     279     280     227     226     201     202
       8     306     305     280     281     228     227     202     203
       8     307     306     281     282     229     228     203     204
       8     308     307     282     283     230     229     204     205
       8     309     308     283     284     231     230     205     206
       8     310     309     284     285     232     231     206     207
       8     311     310     285     239     233     232     207     161
       8     287     311     239     238     209     233     161     160
       8     312     313     314     315     234     235     236     237
       8     314     316     317     315     236     238     239     237
       8     318     313     312     319     240     235     234     241
       8     312     320     321     319     234     242     243     241
       8     322     323     324     318     244     245     246     240
       8     325     326     323     322     247     248     245     244
       8     319     325     322     318     241     247     244     240
       8     327     328     320     329     249     250     242     251
       8     330     331     328     327     252     253     250     249
       8     332     333     331     330     254     255     253     252
       8     334     332     330     335     256     254     252     257
       8     336     321     320     328     258     243     242     250
       8     327     337     335     330     249     259     257     252
       8     312     315     329     320     234     237     251     242
       8     338     325     319     321     260     247     241     243
       8     339     338     321     336     261     260     243     258
       8     340     339     336     341     262     261     258     263
       8     331     341     336     328     253     263     258     250
       8     342     343     337     327     264     265     259     249
       8     344     342     327     329     266     264     249     251
       8     345     344     329     315     267     266     251     237
       8     346     316     314     347     268     238     236     269
       8     348     347     314     313     270     269     236     235
       8     324     348     313     318     246     270     235     240
       8     349     326     325     338     271     248     247     260
       8     350     349     338     339     272     271     260     261
       8     351     350     339     340     273     272     261     262
       8     352     351     340     353     274     273     262     275
       8     354     353     340     341     276     275     262     263
       8     333     354     341     331     255     276     263     253
       8     355     334     335     337     277     256     257     259
       8     356     355     337     343     278     277     259     265
       8     357     356     343     358     279     278     265     280
       8     359     358     343     342     281     280     265     264
       8     360     359     342     344     282     281     264     266
       8     361     360     344     345     283     282     266     267
       8     362     361     345     363     284     283     267     285
       8     317     363     345     315     239     285     267     237
       8     364     365     316     346     286     287     238     268
       8     366     364     346     347     288     286     268     269
       8     367     366     347     348     289     288     269     270
       8     368     367     348     324     290     289     270     246
       8     369     368     324     323     291     290     246     245
       8     370     369     323     326     292     291     245     248
       8     371     370     326     349     293     292     248     271
       8     372     371     349     350     294     293     271     272
       8     373     372     350     351     295     294     272     273
       8     374     373     351     352     296     295     273     274
       8     375     374     352     353     297     296     274     275
       8     376     375     353     354     298     297     275     276
       8     377     376     354     333     299     298     276     255
       8     378     377     333     332     300     299     255     254
       8     379     378     332     334     301     300     254     256
       8     380     379     334     355     302     301     256     277
       8     381     380     355     356     303     302     277     278
       8     382     381     356     357     304     303     278     279
       8     383     382     357     358     305     304     279     280
       8     384     383     358     359     306     305     280     281
       8     385     384     359     360     307     306     281     282
       8     386     385     360     361     308     307     282     283
       8     387     386     361     362     309     308     283     284
       8     388     387     362     363     310     309     284     285
       8     389     388     363     317     311     310     285     239
       8     365     389     317     316     287     311     239     238
       8     390     391     392     393     312     313     314     315
       8     392     394     395     393     314     316     317     315
       8     396     391     390     397     318     313     312     319
       8     390     398     399     397     312     320     321     319
       8     400     401     402     396     322     323     324     318
       8     403     404     401     400     325     326     323     322
       8     397     403     400     396     319     325     322     318
       8     405     406     398     407     327     328     320     329
       8     408     409     406     405     330     331     328     327
       8     410     411     409     408     332     333     331     330
       8     412     410     408     413     334     332     330     335
       8     414     399     398     406     336     321     320     328
       8     405     415     413     408     327     337     335     330
       8     390     393     407     398     312     315     329     320
       8     416     403     397     399     338     325     319     321
       8     417     416     399     414     339     338     321     336
       8     418     417     414     419     340     339     336     341
       8     409     419     414     406     331     341     336     328
       8     420     421     415     405     342     343     337     327
       8     422     420     405     407     344     342     327     329
       8     423     422     407     393     345     344     329     315
       8     424     394     392     425     346     316     314     347
       8     426     425     392     391     348     347     314     313
       8     402     426     391     396     324     348     313     318
       8     427     404     403     416     349     326     325     338
       8     428     427     416     417     350     349     338     339
       8     429     428     417     418     351     350     339     340
       8     430     429     418     431     352     351     340     353
       8     432     431     418     419     354     353     340     341
       8     411     432     419     409     333     354     341     331
       8     433     412     413     415     355     334     335     337
       8     434     433     415     421     356     355     337     343
       8     435     434     421     436     357     356     343     358
       8     437     436     421     420     359     358     343     342
       8     438     437     420     422     360     359     342     344
       8     439     438     422     423     361     360     344     345
       8     440     439     423     441     362     361     345     363
       8     395     441     423     393     317     363     345     315
       8     442     443     394     424     364     365     316     346
       8     444     442     424     425     366     364     346     347
       8     445     444     425     426     367     366     347     348
       8     446     445     426     402     368     367     348     324
       8     447     446     402     401     369     368     324     323
       8     448     447     401     404     370     369     323     326
       8     449     448     404     427     371     370     326     349
       8     450     449     427     428     372     371     349     350
       8     451     450     428     429     373     372     350     351
       8     452     451     429     430     374     373     351     352
       8     453     452     430     431     375     374     352     353
       8     454     453     431     432     376     375     353     354
       8     455     454     432     411     377     376     354     333
       8     456     455     411     410     378     377     333     332
       8     457     456     410     412     379     378     332     334
       8     458     457     412     433     380     379     334     355
       8     459     458     433     434     381     380     355     356
       8     460     459     434     435     382     381     356     357
       8     461     460     435     436     383     382     357     358
       8     462     461     436     437     384     383     358     359
       8     463     462     437     438     385     384     359     360
       8     464     463     438     439     386     385     360     361
       8     465     464     439     440     387     386     361     362
       8     466     465     440     441     388     387     362     363
       8     467     466     441     395     389     388     363     317
       8     443     467     395     394     365     389     317     316
       8     468     469     470     471     390     391     392     393
       8     470     472     473     471     392     394     395     393
       8     474     469     468     475     396     391     390     397
       8     468     476     477     475     390     398     399     397
       8     478     479     480     474     400     401     402     396
       8     481     482     479     478     403     404     401     400
       8     475     481     478     474     397     403     400     396
       8     483     484     476     485     405     406     398     407
       8     486     487     484     483     408     409     406     405
       8     488     489     487     486     410     411     409     408
       8     490     488     486     491     412     410     408     413
       8     492     477     476     484     414     399     398     406
       8     483     493     491     486     405     415     413     408
       8     468     471     485     476     390     393     407     398
       8     494     481     475     477     416     403     397     399
       8     495     494     477     492     417     416     399     414
       8     496     495     492     497     418     417     414     419
       8     487     497     492     484     409     419     414     406
       8     498     499     493     483     420     421     415     405
       8     500     498     483     485     422     420     405     407
       8     501     500     485     471     423     422     407     393
       8     502     472     470     503     424     394     392     425
       8     504     503     470     469     426     425     392     391
       8     480     504     469     474     402     426     391     396
       8     505     482     481     494     427     404     403     416
       8     506     505     494     495     428     427     416     417
       8     507     506     495     496     429     428     417     418
       8     508     507     496     509     430     429     418     431
       8     510     509     496     497     432     431     418     419
       8     489     510     497     487     411     432     419     409
       8     511     490     491     493     433     412     413     415
       8     512     511     493     499     434     433     415     421
       8     513     512     499     514     435     434     421     436
       8     515     514     499     498     437     436     421     420
       8     516     515     498     500     438     437     420     422
       8     517     516     500     501     439     438     422     423
       8     518     517     501     519     440     439     423     441
       8     473     519     501     471     395     441     423     393
       8     520     521     472     502     442     443     394     424
       8     522     520     502     503     444     442     424     425
       8     523     522     503     504     445     444     425     426
       8     524     523     504     480     446     445     426     402
       8     525     524     480     479     447     446     402     401
       8     526     525     479     482     448     447     401     404
       8     527     526     482     505     449     448     404     427
       8     528     527     505     506     450     449     427     428
       8     529     528     506     507     451     450     428     429
       8     530     529     507     508     452     451     429     430
       8     531     530     508     509     453     452     430     431
       8     532     531     509     510     454     453     431     432
       8     533     532     510     489     455     454     432     411
       8     534     533     489     488     456     455     411     410
       8     535     534     488     490     457     456     410     412
       8     536     535     490     511     458     457     412     433
       8     537     536     511     512     459     458     433     434
       8     538     537     512     513     460     459     434     435
       8     539     538     513     514     461     460     435     436
       8     540     539     514     515     462     461     436     437
       8     541     540     515     516     463     462     437     438
       8     542     541     516     517     464     463     438     439
       8     543     542     517     518     465     464     439     440
       8     544     543     518     519     466     465     440     441
       8     545     544     519     473     467     466     441     395
       8     521     545     473     472     443     467     395     394
       8     546     547     548     549     468     469     470     471
       8     548     550     551     549     470     472     473     471
       8     552     547     546     553     474     469     468     475
       8     546     554     555     553     468     476     477     475
       8     556     557     558     552     478     479     480     474
       8     559     560     557     556     481     482     479     478
       8     553     559     556     552     475     481     478     474
       8     561     562     554     563     483     484     476     485
       8     564     565     562     561     486     487     484     483
       8     566     567     565     564     488     489     487     486
       8     568     566     564     569     490     488     486     491
       8     570     555     554     562     492     477     476     484
       8     561     571     569     564     483     493     491     486
       8     546     549     563     554     468     471     485     476
       8     572     559     553     555     494     481     475     477
       8     573     572     555     570     495     494     477     492
       8     574     573     570     575     496     495     492     497
       8     565     575     570     562     487     497     492     484
       8     576     577     571     561     498     499     493     483
       8     578     576     561     563     500     498     483     485
       8     579     578     563     549     501     500     485     471
       8     580     550     548     581     502     472     470     503
       8     582     581     548     547     504     503     470     469
       8     558     582     547     552     480     504     469     474
       8     583     560     559     572     505     482     481     494
       8     584     583     572     573     506     505     494     495
       8     585     584     573     574     507     506     495     496
       8     586     585     574     587     508     507     496     509
       8     588     587     574     575     510     509     496     497
       8     567     588     575     565     489     510     497     487
       8     589     568     569     571     511     490     491     493
       8     590     589     571     577     512     511     493     499
       8     591     590     577     592     513     512     499     514
       8     593     592     577     576     515     514     499     498
       8     594     593     576     578     516     515     498     500
       8     595     594     578     579     517     516     500     501
       8     596     595     579     597     518     517     501     519
       8     551     597     579     549     473     519     501     471
       8     598     599     550     580     520     521     472     502
       8     600     598     580     581     522     520     502     503
       8     601     600     581     582     523     522     503     504
       8     602     601     582     558     524     523     504     480
       8     603     602     558     557     525     524     480     479
       8     604     603     557     560     526     525     479     482
       8     605     604     560     583     527     526     482     505
       8     606     605     583     584     528     527     505     506
       8     607     606     584     585     529     528     506     507
       8     608     607     585     586     530     529     507     508
       8     609     608     586     587     531     530     508     509
       8     610     609     587     588     532     531     509     510
       8     611     610     588     567     533     532     510     489
       8     612     611     567     566     534     533     489     488
       8     613     612     566     568     535     534     488     490
       8     614     613     568     589     536     535     490     511
       8     615     614     589     590     537     536     511     512
       8     616     615     590     591     538     537     512     513
       8     617     616     591     592     539     538     513     514
       8     618     617     592     593     540     539     514     515
       8     619     618     593     594     541     540     515     516
       8     620     619     594     595     542     541     516     517
       8     621     620     595     596     543     542     517     518
       8     622     621     596     597     544     543     518     519
       8     623     622     597     551     545     544     519     473
       8     599     623     551     550     521     545     473     472
       8     624     625     626     627     546     547     548     549
       8     626     628     629     627     548     550     551     549
       8     630     625     624     631     552     547     546     553
       8     624     632     633     631     546     554     555     553
       8     634     635     636     630     556     557     558     552
       8     637     638     635     634     559     560     557     556
       8     631     637     634     630     553     559     556     552
       8     639     640     632     641     561     562     554     563
       8     642     643     640     639     564     565     562     561
       8     644     645     643     642     566     567     565     564
       8     646     644     642     647     568     566     564     569
       8     648     633     632     640     570     555     554     562
       8     639     649     647     642     561     571     569     564
       8     624     627     641     632     546     549     563     554
       8     650     637     631     633     572     559     553     555
       8     651     650     633     648     573     572     555     570
       8     652     651     648     653     574     573     570     575
       8     643     653     648     640     565     575     570     562
       8     654     655     649     639     576     577     571     561
       8     656     654     639     641     578     576     561     563
       8     657     656     641     627     579     578     563     549
       8     658     628     626     659     580     550     548     581
       8     660     659     626     625     582     581     548     547
       8     636     660     625     630     558     582     547     552
       8     661     638     637     650     583     560     559     572
       8     662     661     650     651     584     583     572     573
       8     663     662     651     652     585     584     573     574
       8     664     663     652     665     586     585     574     587
       8     666     665     652     653     588     587     574     575
       8     645     666     653     643     567     588     575     565
       8     667     646     647     649     589     568     569     571
       8     668     667     649     655     590     589     571     577
       8     669     668     655     670     591     590     577     592
       8     671     670     655     654     593     592     577     576
       8     672     671     654     656     594     593     576     578
       8     673     672     656     657     595     594     578     579
       8     674     673     657     675     596     595     579     597
       8     629     675     657     627     551     597     579     549
       8     676     677     628     658     598     599     550     580
       8     678     676     658     659     600     598     580     581
       8     679     678     659     660     601     600     581     582
       8     680     679     660     636     602     601     582     558
       8     681     680     636     635     603     602     558     557
       8     682     681     635     638     604     603     557     560
       8     683     682     638     661     605     604     560     583
       8     684     683     661     662     606     605     583     584
       8     685     684     662     663     607     606     584     585
       8     686     685     663     664     608     607     585     586
       8     687     686     664     665     609     608     586     587
       8     688     687     665     666     610     609     587     588
       8     689     688     666     645     611     610     588     567
       8     690     689     645     644     612     611     567     566
       8     691     690     644     646     613     612     566     568
       8     692     691     646     667     614     613     568     589
       8     693     692     667     668     615     614     589     590
       8     694     693     668     669     616     615     590     591
       8     695     694     669     670     617     616     591     592
       8     696     695     670     671     618     617     592     593
       8     697     696     671     672     619     618     593     594
       8     698     697     672     673     620     619     594     595
       8     699     698     673     674     621     620     595     596
       8     700     699     674     675     622     621     596     597
       8     701     700     675     629     623     622     597     551
       8     677     701     629     628     599     623     551     550
       8     702     703     704     705     624     625     626     627
       8     704     706     707     705     626     628     629     627
       8     708     703     702     709     630     625     624     631
       8     702     710     711     709     624     632     633     631
       8     712     713     714     708     634     635     636     630
       8     715     716     713     712     637     638     635     634
       8     709     715     712     708     631     637     634     630
       8     717     718     710     719     639     640     632     641
       8     720     721     718     717     642     643     640     639
       8     722     723     721     720     644     645     643     642
       8     724     722     720     725     646     644     642     647
       8     726     711     710     718     648     633     632     640
       8     717     727     725     720     639     649     647     642
       8     702     705     719     710     624     627     641     632
       8     728     715     709     711     650     637     631     633
       8     729     728     711     726     651     650     633     648
       8     730     729     726     731     652     651     648     653
       8     721     731     726     718     643     653     648     640
       8     732     733     727     717     654     655     649     639
       8     734     732     717     719     656     654     639     641
       8     735     734     719     705     657     656     641     627
       8     736     706     704     737     658     628     626     659
       8     738     737     704     703     660     659     626     625
       8     714     738     703     708     636     660     625     630
       8     739     716     715     728     661     638     637     650
       8     740     739     728     729     662     661     650     651
       8     741     740     729     730     663     662     651     652
       8     742     741     730     743     664     663     652     665
       8     744     743     730     731     666     665     652     653
       8     723     744     731     721     645     666     653     643
       8     745     724     725     727     667     646     647     649
       8     746     745     727     733     668     667     649     655
       8     747     746     733     748     669     668     655     670
       8     749     748     733     732     671     670     655     654
       8     750     749     732     734     672     671     654     656
       8     751     750     734     735     673     672     656     657
       8     752     751     735     753     674     673     657     675
       8     707     753     735     705     629     675     657     627
       8     754     755     706     736     676     677     628     658
       8     756     754     736     737     678     676     658     659
       8     757     756     737     738     679     678     659     660
       8     758     757     738     714     680     679     660     636
       8     759     758     714     713     681     680     636     635
       8     760     759     713     716     682     681     635     638
       8     761     760     716     739     683     682     638     661
       8     762     761     739     740     684     683     661     662
       8     763     762     740     741     685     684     662     663
       8     764     763     741     742     686     685     663     664
       8     765     764     742     743     687     686     664     665
       8     766     765     743     744     688     687     665     666
       8     767     766     744     723     689     688     666     645
       8     768     767     723     722     690     689     645     644
       8     769     768     722     724     691     690     644     646
       8     770     769     724     745     692     691     646     667
       8     771     770     745     746     693     692     667     668
       8     772     771     746     747     694     693     668     669
       8     773     772     747     748     695     694     669     670
       8     774     773     748     749     696     695     670     671
       8     775     774     749     750     697     696     671     672
       8     776     775     750     751     698     697     672     673
       8     777     776     751     752     699     698     673     674
       8     778     777     752     753     700     699     674     675
       8     779     778     753     707     701     700     675     629
       8     755     779     707     706     677     701     629     628
       8     780     781     782     783     702     703     704     705
       8     782     784     785     783     704     706     707     705
       8     786     781     780     787     708     703     702     709
       8     780     788     789     787     702     710     711     709
       8     790     791     792     786     712     713     714     708
       8     793     794     791     790     715     716     713     712
       8     787     793     790     786     709     715     712     708
       8     795     796     788     797     717     718     710     719
       8     798     799     796     795     720     721     718     717
       8     800     801     799     798     722     723     721     720
       8     802     800     798     803     724     722     720     725
       8     804     789     788     796     726     711     710     718
       8     795     805     803     798     717     727     725     720
       8     780     783     797     788     702     705     719     710
       8     806     793     787     789     728     715     709     711
       8     807     806     789     804     729     728     711     726
       8     808     807     804     809     730     729     726     731
       8     799     809     804     796     721     731     726     718
       8     810     811     805     795     732     733     727     717
       8     812     810     795     797     734     732     717     719
       8     813     812     797     783     735     734     719     705
       8     814     784     782     815     736     706     704     737
       8     816     815     782     781     738     737     704     703
       8     792     816     781     786     714     738     703     708
       8     817     794     793     806     739     716     715     728
       8     818     817     806     807     740     739     728     729
       8     819     818     807     808     741     740     729     730
       8     820     819     808     821     742     741     730     743
       8     822     821     808     809     744     743     730     731
       8     801     822     809     799     723     744     731     721
       8     823     802     803     805     745     724     725     727
       8     824     823     805     811     746     745     727     733
       8     825     824     811     826     747     746     733     748
       8     827     826     811     810     749     748     733     732
       8     828     827     810     812     750     749     732     734
       8     829     828     812     813     751     750     734     735
       8     830     829     813     831     752     751     735     753
       8     785     831     813     783     707     753     735     705
       8     832     833     784     814     754     755     706     736
       8     834     832     814     815     756     754     736     737
       8     835     834     815     816     757     756     737     738
       8     836     835     816     792     758     757     738     714
       8     837     836     792     791     759     758     714     713
       8     838     837     791     794     760     759     713     716
       8     839     838     794     817     761     760     716     739
       8     840     839     817     818     762     761     739     740
       8     841     840     818     819     763     762     740     741
       8     842     841     819     820     764     763     741     742
       8     843     842     820     821     765     764     742     743
       8     844     843     821     822     766     765     743     744
       8     845     844     822     801     767     766     744     723
       8     846     845     801     800     768     767     723     722
       8     847     846     800     802     769     768     722     724
       8     848     847     802     823     770     769     724     745
       8     849     848     823     824     771     770     745     746
       8     850     849     824     825     772     771     746     747
       8     851     850     825     826     773     772     747     748
       8     852     851     826     827     774     773     748     749
       8     853     852     827     828     775     774     749     750
       8     854     853     828     829     776     775     750     751
       8     855     854     829     830     777     776     751     752
       8     856     855     830     831     778     777     752     753
       8     857     856     831     785     779     778     753     707
       8     833     857     785     784     755     779     707     706
       8     858     859     860     861     780     781     782     783
       8     860     862     863     861     782     784     785     783
       8     864     859     858     865     786     781     780     787
       8     858     866     867     865     780     788     789     787
       8     868     869     870     864     790     791     792     786
       8     871     872     869     868     793     794     791     790
       8     865     871     868     864     787     793     790     786
       8     873     874     866     875     795     796     788     797
       8     876     877     874     873     798     799     796     795
       8     878     879     877     876     800     801     799     798
       8     880     878     876     881     802     800     798     803
       8     882     867     866     874     804     789     788     796
       8     873     883     881     876     795     805     803     798
       8     858     861     875     866     780     783     797     788
       8     884     871     865     867     806     793     787     789
       8     885     884     867     882     807     806     789     804
       8     886     885     882     887     808     807     804     809
       8     877     887     882     874     799     809     804     796
       8     888     889     883     873     810     811     805     795
       8     890     888     873     875     812     810     795     797
       8     891     890     875     861     813     812     797     783
       8     892     862     860     893     814     784     782     815
       8     894     893     860     859     816     815     782     781
       8     870     894     859     864     792     816     781     786
       8     895     872     871     884     817     794     793     806
       8     896     895     884     885     818     817     806     807
       8     897     896     885     886     819     818     807     808
       8     898     897     886     899     820     819     808     821
       8     900     899     886     887     822     821     808     809
       8     879     900     887     877     801     822     809     799
       8     901     880     881     883     823     802     803     805
       8     902     901     883     889     824     823     805     811
       8     903     902     889     904     825     824     811     826
       8     905     904     889     888     827     826     811     810
       8     906     905     888     890     828     827     810     812
       8     907     906     890     891     829     828     812     813
       8     908     907     891     909     830     829     813     831
       8     863     909     891     861     785     831     813     783
       8     910     911     862     892     832     833     784     814
       8     912     910     892     893     834     832     814     815
       8     913     912     893     894     835     834     815     816
       8     914     913     894     870     836     835     816     792
       8     915     914     870     869     837     836     792     791
       8     916     915     869     872     838     837     791     794
       8     917     916     872     895     839     838     794     817
       8     918     917     895     896     840     839     817     818
       8     919     918     896     897     841     840     818     819
       8     920     919     897     898     842     841     819     820
       8     921     920     898     899     843     842     820     821
       8     922     921     899     900     844     843     821     822
       8     923     922     900     879     845     844     822     801
       8     924     923     879     878     846     845     801     800
       8     925     924     878     880     847     846     800     802
       8     926     925     880     901     848     847     802     823
       8     927     926     901     902     849     848     823     824
       8     928     927     902     903     850     849     824     825
       8     929     928     903     904     851     850     825     826
       8     930     929     904     905     852     851     826     827
       8     931     930     905     906     853     852     827     828
       8     932     931     906     907     854     853     828     829
       8     933     932     907     908     855     854     829     830
       8     934     933     908     909     856     855     830     831
       8     935     934     909     863     857     856     831     785
       8     911     935     863     862     833     857     785     784
       8     936     937     938     939     858     859     860     861
       8     938     940     941     939     860     862     863     861
       8     942     937     936     943     864     859     858     865
       8     936     944     945     943     858     866     867     865
       8     946     947     948     942     868     869     870     864
       8     949     950     947     946     871     872     869     868
       8     943     949     946     942     865     871     868     864
       8     951     952     944     953     873     874     866     875
       8     954     955     952     951     876     877     874     873
       8     956     957     955     954     878     879     877     876
       8     958     956     954     959     880     878     876     881
       8     960     945     944     952     882     867     866     874
       8     951     961     959     954     873     883     881     876
       8     936     939     953     944     858     861     875     866
       8     962     949     943     945     884     871     865     867
       8     963     962     945     960     885     884     867     882
       8     964     963     960     965     886     885     882     887
       8     955     965     960     952     877     887     882     874
       8     966     967     961     951     888     889     883     873
       8     968     966     951     953     890     888     873     875
       8     969     968     953     939     891     890     875     861
       8     970     940     938     971     892     862     860     893
       8     972     971     938     937     894     893     860     859
       8     948     972     937     942     870     894     859     864
       8     973     950     949     962     895     872     871     884
       8     974     973     962     963     896     895     884     885
       8     975     974     963     964     897     896     885     886
       8     976     975     964     977     898     897     886     899
       8     978     977     964     965     900     899     886     887
       8     957     978     965     955     879     900     887     877
       8     979     958     959     961     901     880     881     883
       8     980     979     961     967     902     901     883     889
       8     981     980     967     982     903     902     889     904
       8     983     982     967     966     905     904     889     888
       8     984     983     966     968     906     905     888     890
       8     985     984     968     969     907     906     890     891
       8     986     985     969     987     908     907     891     909
       8     941     987     969     939     863     909     891     861
       8     988     989     940     970     910     911     862     892
       8     990     988     970     971     912     910     892     893
       8     991     990     971     972     913     912     893     894
       8     992     991     972     948     914     913     894     870
       8     993     992     948     947     915     914     870     869
       8     994     993     947     950     916     915     869     872
       8     995     994     950     973     917     916     872     895
       8     996     995     973     974     918     917     895     896
       8     997     996     974     975     919     918     896     897
       8     998     997     975     976     920     919     897     898
       8     999     998     976     977     921     920     898     899
       8    1000     999     977     978     922     921     899     900
       8    1001    1000     978     957     923     922     900     879
       8    1002    1001     957     956     924     923     879     878
       8    1003    1002     956     958     925     924     878     880
       8    1004    1003     958     979     926     925     880     901
       8    1005    1004     979     980     927     926     901     902
       8    1006    1005     980     981     928     927     902     903
       8    1007    1006     981     982     929     928     903     904
       8    1008    1007     982     983     930     929     904     905
       8    1009    1008     983     984     931     930     905     906
       8    1010    1009     984     985     932     931     906     907
       8    1011    1010     985     986     933     932     907     908
       8    1012    1011     986     987     934     933     908     909
       8    1013    1012     987     941     935     934     909     863
       8     989    1013     941     940     911     935     863     862
       8    1014    1015    1016    1017     936     937     938     939
       8    1016    1018    1019    1017     938     940     941     939
       8    1020    1015    1014    1021     942     937     936     943
       8    1014    1022    1023    1021     936     944     945     943
       8    1024    1025    1026    1020     946     947     948     942
       8    1027    1028    1025    1024     949     950     947     946
       8    1021    1027    1024    1020     943     949     946     942
       8    1029    1030    1022    1031     951     952     944     953
       8    1032    1033    1030    1029     954     955     952     951
       8    1034    1035    1033    1032     956     957     955     954
       8    1036    1034    1032    1037     958     956     954     959
       8    1038    1023    1022    1030     960     945     944     952
       8    1029    1039    1037    1032     951     961     959     954
       8    1014    1017    1031    1022     936     939     953     944
       8    1040    1027    1021    1023     962     949     943     945
       8    1041    1040    1023    1038     963     962     945     960
       8    1042    1041    1038    1043     964     963     960     965
       8    1033    1043    1038    1030     955     965     960     952
       8    1044    1045    1039    1029     966     967     961     951
       8    1046    1044    1029    1031     968     966     951     953
       8    1047    1046    1031    1017     969     968     953     939
       8    1048    1018    1016    1049     970     940     938     971
       8    1050    1049    1016    1015     972     971     938     937
       8    1026    1050    1015    1020     948     972     937     942
       8    1051    1028    1027    1040     973     950     949     962
       8    1052    1051    1040    1041     974     973     962     963
       8    1053    1052    1041    1042     975     974     963     964
       8    1054    1053    1042    1055     976     975     964     977
       8    1056    1055    1042    1043     978     977     964     965
       8    1035    1056    1043    1033     957     978     965     955
       8    1057    1036    1037    1039     979     958     959     961
       8    1058    1057    1039    1045     980     979     961     967
       8    1059    1058    1045    1060     981     980     967     982
       8    1061    1060    1045    1044     983     982     967     966
       8    1062    1061    1044    1046     984     983     966     968
       8    1063    1062    1046    1047     985     984     968     969
       8    1064    1063    1047    1065     986     985     969     987
       8    1019    1065    1047    1017     941     987     969     939
       8    1066    1067    1018    1048     988     989     940     970
       8    1068    1066    1048    1049     990     988     970     971
       8    1069    1068    1049    1050     991     990     971     972
       8    1070    1069    1050    1026     992     991     972     948
       8    1071    1070    1026    1025     993     992     948     947
       8    1072    1071    1025    1028     994     993     947     950
       8    1073    1072    1028    1051     995     994     950     973
       8    1074    1073    1051    1052     996     995     973     974
       8    1075    1074    1052    1053     997     996     974     975
       8    1076    1075    1053    1054     998     997     975     976
       8    1077    1076    1054    1055     999     998     976     977
       8    1078    1077    1055    1056    1000     999     977     978
       8    1079    1078    1056    1035    1001    1000     978     957
       8    1080    1079    1035    1034    1002    1001     957     956
       8    1081    1080    1034    1036    1003    1002     956     958
       8    1082    1081    1036    1057    1004    1003     958     979
       8    1083    1082    1057    1058    1005    1004     979     980
       8    1084    1083    1058    1059    1006    1005     980     981
       8    1085    1084    1059    1060    1007    1006     981     982
       8    1086    1085    1060    1061    1008    1007     982     983
       8    1087    1086    1061    1062    1009    1008     983     984
       8    1088    1087    1062    1063    1010    1009     984     985
       8    1089    1088    1063    1064    1011    1010     985     986
       8    1090    1089    1064    1065    1012    1011     986     987
       8    1091    1090    1065    1019    1013    1012     987     941
       8    1067    1091    1019    1018     989    1013     941     940
       8    1092    1093    1094    1095    1014    1015    1016    1017
       8    1094    1096    1097    1095    1016    1018    1019    1017
       8    1098    1093    1092    1099    1020    1015    1014    1021
       8    1092    1100    1101    1099    1014    1022    1023    1021
       8    1102    1103    1104    1098    1024    1025    1026    1020
       8    1105    1106    1103    1102    1027    1028    1025    1024
       8    1099    1105    1102    1098    1021    1027    1024    1020
       8    1107    1108    1100    1109    1029    1030    1022    1031
       8    1110    1111    1108    1107    1032    1033    1030    1029
       8    1112    1113    1111    1110    1034    1035    1033    1032
       8    1114    1112    1110    1115    1036    1034    1032    1037
       8    1116    1101    1100    1108    1038    1023    1022    1030
       8    1107    1117    1115    1110    1029    1039    1037    1032
       8    1092    1095    1109    1100    1014    1017    1031    1022
       8    1118    1105    1099    1101    1040    1027    1021    1023
       8    1119    1118    1101    1116    1041    1040    1023    1038
       8    1120    1119    1116    1121    1042    1041    1038    1043
       8    1111    1121    1116    1108    1033    1043    1038    1030
       8    1122    1123    1117    1107    1044    1045    1039    1029
       8    1124    1122    1107    1109    1046    1044    1029    1031
       8    1125    1124    1109    1095    1047    1046    1031    1017
       8    1126    1096    1094    1127    1048    1018    1016    1049
       8    1128    1127    1094    1093    1050    1049    1016    1015
       8    1104    1128    1093    1098    1026    1050    1015    1020
       8    1129    1106    1105    1118    1051    1028    1027    1040
       8    1130    1129    1118    1119    1052    1051    1040    1041
       8    1131    1130    1119    1120    1053    1052    1041    1042
       8    1132    1131    1120    1133    1054    1053    1042    1055
       8    1134    1133    1120    1121    1056    1055    1042    1043
       8    1113    1134    1121    1111    1035    1056    1043    1033
       8    1135    1114    1115    1117    1057    1036    1037    1039
       8    1136    1135    1117    1123    1058    1057    1039    1045
       8    1137    1136    1123    1138    1059    1058    1045    1060
       8    1139    1138    1123    1122    1061    1060    1045    1044
       8    1140    1139    1122    1124    1062    1061    1044    1046
       8    1141    1140    1124    1125    1063    1062    1046    1047
       8    1142    1141    1125    1143    1064    1063    1047    1065
       8    1097    1143    1125    1095    1019    1065    1047    1017
       8    1144    1145    1096    1126    1066    1067    1018    1048
       8    1146    1144    1126    1127    1068    1066    1048    1049
       8    1147    1146    1127    1128    1069    1068    1049    1050
       8    1148    1147    1128    1104    1070    1069    1050    1026
       8    1149    1148    1104    1103    1071    1070    1026    1025
       8    1150    1149    1103    1106    1072    1071    1025    1028
       8    1151    1150    1106    1129    1073    1072    1028    1051
       8    1152    1151    1129    1130    1074    1073    1051    1052
       8    1153    1152    1130    1131    1075    1074    1052    1053
       8    1154    1153    1131    1132    1076    1075    1053    1054
       8    1155    1154    1132    1133    1077    1076    1054    1055
       8    1156    1155    1133    1134    1078    1077    1055    1056
       8    1157    1156    1134    1113    1079    1078    1056    1035
       8    1158    1157    1113    1112    1080    1079    1035    1034
       8    1159    1158    1112    1114    1081    1080    1034    1036
       8    1160    1159    1114    1135    1082    1081    1036    1057
       8    1161    1160    1135    1136    1083    1082    1057    1058
       8    1162    1161    1136    1137    1084    1083    1058    1059
       8    1163    1162    1137    1138    1085    1084    1059    1060
       8    1164    1163    1138    1139    1086    1085    1060    1061
       8    1165    1164    1139    1140    1087    1086    1061    1062
       8    1166    1165    1140    1141    1088    1087    1062    1063
       8    1167    1166    1141    1142    1089    1088    1063    1064
       8    1168    1167    1142    1143    1090    1089    1064    1065
       8    1169    1168    1143    1097    1091    1090    1065    1019
       8    1145    1169    1097    1096    1067    1091    1019    1018
       8    1170    1171    1172    1173    1092    1093    1094    1095
       8    1172    1174    1175    1173    1094    1096    1097    1095
       8    1176    1171    1170    1177    1098    1093    1092    1099
       8    1170    1178    1179    1177    1092    1100    1101    1099
       8    1180    1181    1182    1176    1102    1103    1104    1098
       8    1183    1184    1181    1180    1105    1106    1103    1102
       8    1177    1183    1180    1176    1099    1105    1102    1098
       8    1185    1186    1178    1187    1107    1108    1100    1109
       8    1188    1189    1186    1185    1110    1111    1108    1107
       8    1190    1191    1189    1188    1112    1113    1111    1110
       8    1192    1190    1188    1193    1114    1112    1110    1115
       8    1194    1179    1178    1186    1116    1101    1100    1108
       8    1185    1195    1193    1188    1107    1117    1115    1110
       8    1170    1173    1187    1178    1092    1095    1109    1100
       8    1196    1183    1177    1179    1118    1105    1099    1101
       8    1197    1196    1179    1194    1119    1118    1101    1116
       8    1198    1197    1194    1199    1120    1119    1116    1121
       8    1189    1199    1194    1186    1111    1121    1116    1108
       8    1200    1201    1195    1185    1122    1123    1117    1107
       8    1202    1200    1185    1187    1124    1122    1107    1109
       8    1203    1202    1187    1173    1125    1124    1109    1095
       8    1204    1174    1172    1205    1126    1096    1094    1127
       8    1206    1205    1172    1171    1128    1127    1094    1093
       8    1182    1206    1171    1176    1104    1128    1093    1098
       8    1207    1184    1183    1196    1129    1106    1105    1118
       8    1208    1207    1196    1197    1130    1129    1118    1119
       8    1209    1208    1197    1198    1131    1130    1119    1120
       8    1210    1209    1198    1211    1132    1131    1120    1133
       8    1212    1211    1198    1199    1134    1133    1120    1121
       8    1191    1212    1199    1189    1113    1134    1121    1111
       8    1213    1192    1193    1195    1135    1114    1115    1117
       8    1214    1213    1195    1201    1136    1135    1117    1123
       8    1215    1214    1201    1216    1137    1136    1123    1138
       8    1217    1216    1201    1200    1139    1138    1123    1122
       8    1218    1217    1200    1202    1140    1139    1122    1124
       8    1219    1218    1202    1203    1141    1140    1124    1125
       8    1220    1219    1203    1221    1142    1141    1125    1143
       8    1175    1221    1203    1173    1097    1143    1125    1095
       8    1222    1223    1174    1204    1144    1145    1096    1126
       8    1224    1222    1204    1205    1146    1144    1126    1127
       8    1225    1224    1205    1206    1147    1146    1127    1128
       8    1226    1225    1206    1182    1148    1147    1128    1104
       8    1227    1226    1182    1181    1149    1148    1104    1103
       8    1228    1227    1181    1184    1150    1149    1103    1106
       8    1229    1228    1184    1207    1151    1150    1106    1129
       8    1230    1229    1207    1208    1152    1151    1129    1130
       8    1231    1230    1208    1209    1153    1152    1130    1131
       8    1232    1231    1209    1210    1154    1153    1131    1132
       8    1233    1232    1210    1211    1155    1154    1132    1133
       8    1234    1233    1211    1212    1156    1155    1133    1134
       8    1235    1234    1212    1191    1157    1156    1134    1113
       8    1236    1235    1191    1190    1158    1157    1113    1112
       8    1237    1236    1190    1192    1159    1158    1112    1114
       8    1238    1237    1192    1213    1160    1159    1114    1135
       8    1239    1238    1213    1214    1161    1160    1135    1136
       8    1240    1239    1214    1215    1162    1161    1136    1137
       8    1241    1240    1215    1216    1163    1162    1137    1138
       8    1242    1241    1216    1217    1164    1163    1138    1139
       8    1243    1242    1217    1218    1165    1164    1139    1140
       8    1244    1243    1218    1219    1166    1165    1140    1141
       8    1245    1244    1219    1220    1167    1166    1141    1142
       8    1246    1245    1220    1221    1168    1167    1142    1143
       8    1247    1246    1221    1175    1169    1168    1143    1097
       8    1223    1247    1175    1174    1145    1169    1097    1096
       8    1248    1249    1250    1251    1170    1171    1172    1173
       8    1250    1252    1253    1251    1172    1174    1175    1173
       8    1254    1249    1248    1255    1176    1171    1170    1177
       8    1248    1256    1257    1255    1170    1178    1179    1177
       8    1258    1259    1260    1254    1180    1181    1182    1176
       8    1261    1262    1259    1258    1183    1184    1181    1180
       8    1255    1261    1258    1254    1177    1183    1180    1176
       8    1263    1264    1256    1265    1185    1186    1178    1187
       8    1266    1267    1264    1263    1188    1189    1186    1185
       8    1268    1269    1267    1266    1190    1191    1189    1188
       8    1270    1268    1266    1271    1192    1190    1188    1193
       8    1272    1257    1256    1264    1194    1179    1178    1186
       8    1263    1273    1271    1266    1185    1195    1193    1188
       8    1248    1251    1265    1256    1170    1173    1187    1178
       8    1274    1261    1255    1257    1196    1183    1177    1179
       8    1275    1274    1257    1272    1197    1196    1179    1194
       8    1276    1275    1272    1277    1198    1197    1194    1199
       8    1267    1277    1272    1264    1189    1199    1194    1186
       8    1278    1279    1273    1263    1200    1201    1195    1185
       8    1280    1278    1263    1265    1202    1200    1185    1187
       8    1281    1280    1265    1251    1203    1202    1187    1173
       8    1282    1252    1250    1283    1204    1174    1172    1205
       8    1284    1283    1250    1249    1206    1205    1172    1171
       8    1260    1284    1249    1254    1182    1206    1171    1176
       8    1285    1262    1261    1274    1207    1184    1183    1196
       8    1286    1285    1274    1275    1208    1207    1196    1197
       8    1287    1286    1275    1276    1209    1208    1197    1198
       8    1288    1287    1276    1289    1210    1209    1198    1211
       8    1290    1289    1276    1277    1212    1211    1198    1199
       8    1269    1290    1277    1267    1191    1212    1199    1189
       8    1291    1270    1271    1273    1213    1192    1193    1195
       8    1292    1291    1273    1279    1214    1213    1195    1201
       8    1293    1292    1279    1294    1215    1214    1201    1216
       8    1295    1294    1279    1278    1217    1216    1201    1200
       8    1296    1295    1278    1280    1218    1217    1200    1202
       8    1297    1296    1280    1281    1219    1218    1202    1203
       8    1298    1297    1281    1299    1220    1219    1203    1221
       8    1253    1299    1281    1251    1175    1221    1203    1173
       8    1300    1301    1252    1282    1222    1223    1174    1204
       8    1302    1300    1282    1283    1224    1222    1204    1205
       8    1303    1302    1283    1284    1225    1224    1205    1206
       8    1304    1303    1284    1260    1226    1225    1206    1182
       8    1305    1304    1260    1259    1227    1226    1182    1181
       8    1306    1305    1259    1262    1228    1227    1181    1184
       8    1307    1306    1262    1285    1229    1228    1184    1207
       8    1308    1307    1285    1286    1230    1229    1207    1208
       8    1309    1308    1286    1287    1231    1230    1208    1209
       8    1310    1309    1287    1288    1232    1231    1209    1210
       8    1311    1310    1288    1289    1233    1232    1210    1211
       8    1312    1311    1289    1290    1234    1233    1211    1212
       8    1313    1312    1290    1269    1235    1234    1212    1191
       8    1314    1313    1269    1268    1236    1235    1191    1190
       8    1315    1314    1268    1270    1237    1236    1190    1192
       8    1316    1315    1270    1291    1238    1237    1192    1213
       8    1317    1316    1291    1292    1239    1238    1213    1214
       8    1318    1317    1292    1293    1240    1239    1214    1215
       8    1319    1318    1293    1294    1241    1240    1215    1216
       8    1320    1319    1294    1295    1242    1241    1216    1217
       8    1321    1320    1295    1296    1243    1242    1217    1218
       8    1322    1321    1296    1297    1244    1243    1218    1219
       8    1323    1322    1297    1298    1245    1244    1219    1220
       8    1324    1323    1298    1299    1246    1245    1220    1221
       8    1325    1324    1299    1253    1247    1246    1221    1175
       8    1301    1325    1253    1252    1223    1247    1175    1174
       8    1326    1327    1328    1329    1248    1249    1250    1251
       8    1328    1330    1331    1329    1250    1252    1253    1251
       8    1332    1327    1326    1333    1254    1249    1248    1255
       8    1326    1334    1335    1333    1248    1256    1257    1255
       8    1336    1337    1338    1332    1258    1259    1260    1254
       8    1339    1340    1337    1336    1261    1262    1259    1258
       8    1333    1339    1336    1332    1255    1261    1258    1254
       8    1341    1342    1334    1343    1263    1264    1256    1265
       8    1344    1345    1342    1341    1266    1267    1264    1263
       8    1346    1347    1345    1344    1268    1269    1267    1266
       8    1348    1346    1344    1349    1270    1268    1266    1271
       8    1350    1335    1334    1342    1272    1257    1256    1264
       8    1341    1351    1349    1344    1263    1273    1271    1266
       8    1326    1329    1343    1334    1248    1251    1265    1256
       8    1352    1339    1333    1335    1274    1261    1255    1257
       8    1353    1352    1335    1350    1275    1274    1257    1272
       8    1354    1353    1350    1355    1276    1275    1272    1277
       8    1345    1355    1350    1342    1267    1277    1272    1264
       8    1356    1357    1351    1341    1278    1279    1273    1263
       8    1358    1356    1341    1343    1280    1278    1263    1265
       8    1359    1358    1343    1329    1281    1280    1265    1251
       8    1360    1330    1328    1361    1282    1252    1250    1283
       8    1362    1361    1328    1327    1284    1283    1250    1249
       8    1338    1362    1327    1332    1260    1284    1249    1254
       8    1363    1340    1339    1352    1285    1262    1261    1274
       8    1364    1363    1352    1353    1286    1285    1274    1275
       8    1365    1364    1353    1354    1287    1286    1275    1276
       8    1366    1365    1354    1367    1288    1287    1276    1289
       8    1368    1367    1354    1355    1290    1289    1276    1277
       8    1347    1368    1355    1345    1269    1290    1277    1267
       8    1369    1348    1349    1351    1291    1270    1271    1273
       8    1370    1369    1351    1357    1292    1291    1273    1279
       8    1371    1370    1357    1372    1293    1292    1279    1294
       8    1373    1372    1357    1356    1295    1294    1279    1278
       8    1374    1373    1356    1358    1296    1295    1278    1280
       8    1375    1374    1358    1359    1297    1296    1280    1281
       8    1376    1375    1359    1377    1298    1297    1281    1299
       8    1331    1377    1359    1329    1253    1299    1281    1251
       8    1378    1379    1330    1360    1300    1301    1252    1282
       8    1380    1378    1360    1361    1302    1300    1282    1283
       8    1381    1380    1361    1362    1303    1302    1283    1284
       8    1382    1381    1362    1338    1304    1303    1284    1260
       8    1383    1382    1338    1337    1305    1304    1260    1259
       8    1384    1383    1337    1340    1306    1305    1259    1262
       8    1385    1384    1340    1363    1307    1306    1262    1285
       8    1386    1385    1363    1364    1308    1307    1285    1286
       8    1387    1386    1364    1365    1309    1308    1286    1287
       8    1388    1387    1365    1366    1310    1309    1287    1288
       8    1389    1388    1366    1367    1311    1310    1288    1289
       8    1390    1389    1367    1368    1312    1311    1289    1290
       8    1391    1390    1368    1347    1313    1312    1290    1269
       8    1392    1391    1347    1346    1314    1313    1269    1268
       8    1393    1392    1346    1348    1315    1314    1268    1270
       8    1394    1393    1348    1369    1316    1315    1270    1291
       8    1395    1394    1369    1370    1317    1316    1291    1292
       8    1396    1395    1370    1371    1318    1317    1292    1293
       8    1397    1396    1371    1372    1319    1318    1293    1294
       8    1398    1397    1372    1373    1320    1319    1294    1295
       8    1399    1398    1373    1374    1321    1320    1295    1296
       8    1400    1399    1374    1375    1322    1321    1296    1297
       8    1401    1400    1375    1376    1323    1322    1297    1298
       8    1402    1401    1376    1377    1324    1323    1298    1299
       8    1403    1402    1377    1331    1325    1324    1299    1253
       8    1379    1403    1331    1330    1301    1325    1253    1252
       8    1404    1405    1406    1407    1326    1327    1328    1329
       8    1406    1408    1409    1407    1328    1330    1331    1329
       8    1410    1405    1404    1411    1332    1327    1326    1333
       8    1404    1412    1413    1411    1326    1334    1335    1333
       8    1414    1415    1416    1410    1336    1337    1338    1332
       8    1417    1418    1415    1414    1339    1340    1337    1336
       8    1411    1417    1414    1410    1333    1339    1336    1332
       8    1419    1420    1412    1421    1341    1342    1334    1343
       8    1422    1423    1420    1419    1344    1345    1342    1341
       8    1424    1425    1423    1422    1346    1347    1345    1344
       8    1426    1424    1422    1427    1348    1346    1344    1349
       8    1428    1413    1412    1420    1350    1335    1334    1342
       8    1419    1429    1427    1422    1341    1351    1349    1344
       8    1404    1407    1421    1412    1326    1329    1343    1334
       8    1430    1417    1411    1413    1352    1339    1333    1335
       8    1431    1430    1413    1428    1353    1352    1335    1350
       8    1432    1431    1428    1433    1354    1353    1350    1355
       8    1423    1433    1428    1420    1345    1355    1350    1342
       8    1434    1435    1429    1419    1356    1357    1351    1341
       8    1436    1434    1419    1421    1358    1356    1341    1343
       8    1437    1436    1421    1407    1359    1358    1343    1329
       8    1438    1408    1406    1439    1360    1330    1328    1361
       8    1440    1439    1406    1405    1362    1361    1328    1327
       8    1416    1440    1405    1410    1338    1362    1327    1332
       8    1441    1418    1417    1430    1363    1340    1339    1352
       8    1442    1441    1430    1431    1364    1363    1352    1353
       8    1443    1442    1431    1432    1365    1364    1353    1354
       8    1444    1443    1432    1445    1366    1365    1354    1367
       8    1446    1445    1432    1433    1368    1367    1354    1355
       8    1425    1446    1433    1423    1347    1368    1355    1345
       8    1447    1426    1427    1429    1369    1348    1349    1351
       8    1448    1447    1429    1435    1370    1369    1351    1357
       8    1449    1448    1435    1450    1371    1370    1357    1372
       8    1451    1450    1435    1434    1373    1372    1357    1356
       8    1452    1451    1434    1436    1374    1373    1356    1358
       8    1453    1452    1436    1437    1375    1374    1358    1359
       8    1454    1453    1437    1455    1376    1375    1359    1377
       8    1409    1455    1437    1407    1331    1377    1359    1329
       8    1456    1457    1408    1438    1378    1379    1330    1360
       8    1458    1456    1438    1439    1380    1378    1360    1361
       8    1459    1458    1439    1440    1381    1380    1361    1362
       8    1460    1459    1440    1416    1382    1381    1362    1338
       8    1461    1460    1416    1415    1383    1382    1338    1337
       8    1462    1461    1415    1418    1384    1383    1337    1340
       8    1463    1462    1418    1441    1385    1384    1340    1363
       8    1464    1463    1441    1442    1386    1385    1363    1364
       8    1465    1464    1442    1443    1387    1386    1364    1365
       8    1466    1465    1443    1444    1388    1387    1365    1366
       8    1467    1466    1444    1445    1389    1388    1366    1367
       8    1468    1467    1445    1446    1390    1389    1367    1368
       8    1469    1468    1446    1425    1391    1390    1368    1347
       8    1470    1469    1425    1424    1392    1391    1347    1346
       8    1471    1470    1424    1426    1393    1392    1346    1348
       8    1472    1471    1426    1447    1394    1393    1348    1369
       8    1473    1472    1447    1448    1395    1394    1369    1370
       8    1474    1473    1448    1449    1396    1395    1370    1371
       8    1475    1474    1449    1450    1397    1396    1371    1372
       8    1476    1475    1450    1451    1398    1397    1372    1373
       8    1477    1476    1451    1452    1399    1398    1373    1374
       8    1478    1477    1452    1453    1400    1399    1374    1375
       8    1479    1478    1453    1454    1401    1400    1375    1376
       8    1480    1479    1454    1455    1402    1401    1376    1377
       8    1481    1480    1455    1409    1403    1402    1377    1331
       8    1457    1481    1409    1408    1379    1403    1331    1330
       8    1482    1483    1484    1485    1404    1405    1406    1407
       8    1484    1486    1487    1485    1406    1408    1409    1407
       8    1488    1483    1482    1489    1410    1405    1404    1411
       8    1482    1490    1491    1489    1404    1412    1413    1411
       8    1492    1493    1494    1488    1414    1415    1416    1410
       8    1495    1496    1493    1492    1417    1418    1415    1414
       8    1489    1495    1492    1488    1411    1417    1414    1410
       8    1497    1498    1490    1499    1419    1420    1412    1421
       8    1500    1501    1498    1497    1422    1423    1420    1419
       8    1502    1503    1501    1500    1424    1425    1423    1422
       8    1504    1502    1500    1505    1426    1424    1422    1427
       8    1506    1491    1490    1498    1428    1413    1412    1420
       8    1497    1507    1505    1500    1419    1429    1427    1422
       8    1482    1485    1499    1490    1404    1407    1421    1412
       8    1508    1495    1489    1491    1430    1417    1411    1413
       8    1509    1508    1491    1506    1431    1430    1413    1428
       8    1510    1509    1506    1511    1432    1431    1428    1433
       8    1501    1511    1506    1498    1423    1433    1428    1420
       8    1512    1513    1507    1497    1434    1435    1429    1419
       8    1514    1512    1497    1499    1436    1434    1419    1421
       8    1515    1514    1499    1485    1437    1436    1421    1407
       8    1516    1486    1484    1517    1438    1408    1406    1439
       8    1518    1517    1484    1483    1440    1439    1406    1405
       8    1494    1518    1483    1488    1416    1440    1405    1410
       8    1519    1496    1495    1508    1441    1418    1417    1430
       8    1520    1519    1508    1509    1442    1441    1430    1431
       8    1521    1520    1509    1510    1443    1442    1431    1432
       8    1522    1521    1510    1523    1444    1443    1432    1445
       8    1524    1523    1510    1511    1446    1445    1432    1433
       8    1503    1524    1511    1501    1425    1446    1433    1423
       8    1525    1504    1505    1507    1447    1426    1427    1429
       8    1526    1525    1507    1513    1448    1447    1429    1435
       8    1527    1526    1513    1528    1449    1448    1435    1450
       8    1529    1528    1513    1512    1451    1450    1435    1434
       8    1530    1529    1512    1514    1452    1451    1434    1436
       8    1531    1530    1514    1515    1453    1452    1436    1437
       8    1532    1531    1515    1533    1454    1453    1437    1455
       8    1487    1533    1515    1485    1409    1455    1437    1407
       8    1534    1535    1486    1516    1456    1457    1408    1438
       8    1536    1534    1516    1517    1458    1456    1438    1439
       8    1537    1536    1517    1518    1459    1458    1439    1440
       8    1538    1537    1518    1494    1460    1459    1440    1416
       8    1539    1538    1494    1493    1461    1460    1416    1415
       8    1540    1539    1493    1496    1462    1461    1415    1418
       8    1541    1540    1496    1519    1463    1462    1418    1441
       8    1542    1541    1519    1520    1464    1463    1441    1442
       8    1543    1542    1520    1521    1465    1464    1442    1443
       8    1544    1543    1521    1522    1466    1465    1443    1444
       8    1545    1544    1522    1523    1467    1466    1444    1445
       8    1546    1545    1523    1524    1468    1467    1445    1446
       8    1547    1546    1524    1503    1469    1468    1446    1425
       8    1548    1547    1503    1502    1470    1469    1425    1424
       8    1549    1548    1502    1504    1471    1470    1424    1426
       8    1550    1549    1504    1525    1472    1471    1426    1447
       8    1551    1550    1525    1526    1473    1472    1447    1448
       8    1552    1551    1526    1527    1474    1473    1448    1449
       8    1553    1552    1527    1528    1475    1474    1449    1450
       8    1554    1553    1528    1529    1476    1475    1450    1451
       8    1555    1554    1529    1530    1477    1476    1451    1452
       8    1556    1555    1530    1531    1478    1477    1452    1453
       8    1557    1556    1531    1532    1479    1478    1453    1454
       8    1558    1557    1532    1533    1480    1479    1454    1455
       8    1559    1558    1533    1487    1481    1480    1455    1409
       8    1535    1559    1487    1486    1457    1481    1409    1408
       8    1560    1561    1562    1563    1482    1483    1484    1485
       8    1562    1564    1565    1563    1484    1486    1487    1485
       8    1566    1561    1560    1567    1488    1483    1482    1489
       8    1560    1568    1569    1567    1482    1490    1491    1489
       8    1570    1571    1572    1566    1492    1493    1494    1488
       8    1573    1574    1571    1570    1495    1496    1493    1492
       8    1567    1573    1570    1566    1489    1495    1492    1488
       8    1575    1576    1568    1577    1497    1498    1490    1499
       8    1578    1579    1576    1575    1500    1501    1498    1497
       8    1580    1581    1579    1578    1502    1503    1501    1500
       8    1582    1580    1578    1583    1504    1502    1500    1505
       8    1584    1569    1568    1576    1506    1491    1490    1498
       8    1575    1585    1583    1578    1497    1507    1505    1500
       8    1560    1563    1577    1568    1482    1485    1499    1490
       8    1586    1573    1567    1569    1508    1495    1489    1491
       8    1587    1586    1569    1584    1509    1508    1491    1506
       8    1588    1587    1584    1589    1510    1509    1506    1511
       8    1579    1589    1584    1576    1501    1511    1506    1498
       8    1590    1591    1585    1575    1512    1513    1507    1497
       8    1592    1590    1575    1577    1514    1512    1497    1499
       8    1593    1592    1577    1563    1515    1514    1499    1485
       8    1594    1564    1562    1595    1516    1486    1484    1517
       8    1596    1595    1562    1561    1518    1517    1484    1483
       8    1572    1596    1561    1566    1494    1518    1483    1488
       8    1597    1574    1573    1586    1519    1496    1495    1508
       8    1598    1597    1586    1587    1520    1519    1508    1509
       8    1599    1598    1587    1588    1521    1520    1509    1510
       8    1600    1599    1588    1601    1522    1521    1510    1523
       8    1602    1601    1588    1589    1524    1523    1510    1511
       8    1581    1602    1589    1579    1503    1524    1511    1501
       8    1603    1582    1583    1585    1525    1504    1505    1507
       8    1604    1603    1585    1591    1526    1525    1507    1513
       8    1605    1604    1591    1606    1527    1526    1513    1528
       8    1607    1606    1591    1590    1529    1528    1513    1512
       8    1608    1607    1590    1592    1530    1529    1512    1514
       8    1609    1608    1592    1593    1531    1530    1514    1515
       8    1610    1609    1593    1611    1532    1531    1515    1533
       8    1565    1611    1593    1563    1487    1533    1515    1485
       8    1612    1613    1564    1594    1534    1535    1486    1516
       8    1614    1612    1594    1595    1536    1534    1516    1517
       8    1615    1614    1595    1596    1537    1536    1517    1518
       8    1616    1615    1596    1572    1538    1537    1518    1494
       8    1617    1616    1572    1571    1539    1538    1494    1493
       8    1618    1617    1571    1574    1540    1539    1493    1496
       8    1619    1618    1574    1597    1541    1540    1496    1519
       8    1620    1619    1597    1598    1542    1541    1519    1520
       8    1621    1620    1598    1599    1543    1542    1520    1521
       8    1622    1621    1599    1600    1544    1543    1521    1522
       8    1623    1622    1600    1601    1545    1544    1522    1523
       8    1624    1623    1601    1602    1546    1545    1523    1524
       8    1625    1624    1602    1581    1547    1546    1524    1503
       8    1626    1625    1581    1580    1548    1547    1503    1502
       8    1627    1626    1580    1582    1549    1548    1502    1504
       8    1628    1627    1582    1603    1550    1549    1504    1525
       8    1629    1628    1603    1604    1551    1550    1525    1526
       8    1630    1629    1604    1605    1552    1551    1526    1527
       8    1631    1630    1605    1606    1553    1552    1527    1528
       8    1632    1631    1606    1607    1554    1553    1528    1529
       8    1633    1632    1607    1608    1555    1554    1529    1530
       8    1634    1633    1608    1609    1556    1555    1530    1531
       8    1635    1634    1609    1610    1557    1556    1531    1532
       8    1636    1635    1610    1611    1558    1557    1532    1533
       8    1637    1636    1611    1565    1559    1558    1533    1487
       8    1613    1637    1565    1564    1535    1559    1487    1486
       8    1638    1639    1640    1641    1560    1561    1562    1563
       8    1640    1642    1643    1641    1562    1564    1565    1563
       8    1644    1639    1638    1645    1566    1561    1560    1567
       8    1638    1646    1647    1645    1560    1568    1569    1567
       8    1648    1649    1650    1644    1570    1571    1572    1566
       8    1651    1652    1649    1648    1573    1574    1571    1570
       8    1645    1651    1648    1644    1567    1573    1570    1566
       8    1653    1654    1646    1655    1575    1576    1568    1577
       8    1656    1657    1654    1653    1578    1579    1576    1575
       8    1658    1659    1657    1656    1580    1581    1579    1578
       8    1660    1658    1656    1661    1582    1580    1578    1583
       8    1662    1647    1646    1654    1584    1569    1568    1576
       8    1653    1663    1661    1656    1575    1585    1583    1578
       8    1638    1641    1655    1646    1560    1563    1577    1568
       8    1664    1651    1645    1647    1586    1573    1567    1569
       8    1665    1664    1647    1662    1587    1586    1569    1584
       8    1666    1665    1662    1667    1588    1587    1584    1589
       8    1657    1667    1662    1654    1579    1589    1584    1576
       8    1668    1669    1663    1653    1590    1591    1585    1575
       8    1670    1668    1653    1655    1592    1590    1575    1577
       8    1671    1670    1655    1641    1593    1592    1577    1563
       8    1672    1642    1640    1673    1594    1564    1562    1595
       8    1674    1673    1640    1639    1596    1595    1562    1561
       8    1650    1674    1639    1644    1572    1596    1561    1566
       8    1675    1652    1651    1664    1597    1574    1573    1586
       8    1676    1675    1664    1665    1598    1597    1586    1587
       8    1677    1676    1665    1666    1599    1598    1587    1588
       8    1678    1677    1666    1679    1600    1599    1588    1601
       8    1680    1679    1666    1667    1602    1601    1588    1589
       8    1659    1680    1667    1657    1581    1602    1589    1579
       8    1681    1660    1661    1663    1603    1582    1583    1585
       8    1682    1681    1663    1669    1604    1603    1585    1591
       8    1683    1682    1669    1684    1605    1604    1591    1606
       8    1685    1684    1669    1668    1607    1606    1591    1590
       8    1686    1685    1668    1670    1608    1607    1590    1592
       8    1687    1686    1670    1671    1609    1608    1592    1593
       8    1688    1687    1671    1689    1610    1609    1593    1611
       8    1643    1689    1671    1641    1565    1611    1593    1563
       8    1690    1691    1642    1672    1612    1613    1564    1594
       8    1692    1690    1672    1673    1614    1612    1594    1595
       8    1693    1692    1673    1674    1615    1614    1595    1596
       8    1694    1693    1674    1650    1616    1615    1596    1572
       8    1695    1694    1650    1649    1617    1616    1572    1571
       8    1696    1695    1649    1652    1618    1617    1571    1574
       8    1697    1696    1652    1675    1619    1618    1574    1597
       8    1698    1697    1675    1676    1620    1619    1597    1598
       8    1699    1698    1676    1677    1621    1620    1598    1599
       8    1700    1699    1677    1678    1622    1621    1599    1600
       8    1701    1700    1678    1679    1623    1622    1600    1601
       8    1702    1701    1679    1680    1624    1623    1601    1602
       8    1703    1702    1680    1659    1625    1624    1602    1581
       8    1704    1703    1659    1658    1626    1625    1581    1580
       8    1705    1704    1658    1660    1627    1626    1580    1582
       8    1706    1705    1660    1681    1628    1627    1582    1603
       8    1707    1706    1681    1682    1629    1628    1603    1604
       8    1708    1707    1682    1683    1630    1629    1604    1605
       8    1709    1708    1683    1684    1631    1630    1605    1606
       8    1710    1709    1684    1685    1632    1631    1606    1607
       8    1711    1710    1685    1686    1633    1632    1607    1608
       8    1712    1711    1686    1687    1634    1633    1608    1609
       8    1713    1712    1687    1688    1635    1634    1609    1610
       8    1714    1713    1688    1689    1636    1635    1610    1611
       8    1715    1714    1689    1643    1637    1636    1611    1565
       8    1691    1715    1643    1642    1613    1637    1565    1564
       8    1716    1717    1718    1719    1638    1639    1640    1641
       8    1718    1720    1721    1719    1640    1642    1643    1641
       8    1722    1717    1716    1723    1644    1639    1638    1645
       8    1716    1724    1725    1723    1638    1646    1647    1645
       8    1726    1727    1728    1722    1648    1649    1650    1644
       8    1729    1730    1727    1726    1651    1652    1649    1648
       8    1723    1729    1726    1722    1645    1651    1648    1644
       8    1731    1732    1724    1733    1653    1654    1646    1655
       8    1734    1735    1732    1731    1656    1657    1654    1653
       8    1736    1737    1735    1734    1658    1659    1657    1656
       8    1738    1736    1734    1739    1660    1658    1656    1661
       8    1740    1725    1724    1732    1662    1647    1646    1654
       8    1731    1741    1739    1734    1653    1663    1661    1656
       8    1716    1719    1733    1724    1638    1641    1655    1646
       8    1742    1729    1723    1725    1664    1651    1645    1647
       8    1743    1742    1725    1740    1665    1664    1647    1662
       8    1744    1743    1740    1745    1666    1665    1662    1667
       8    1735    1745    1740    1732    1657    1667    1662    1654
       8    1746    1747    1741    1731    1668    1669    1663    1653
       8    1748    1746    1731    1733    1670    1668    1653    1655
       8    1749    1748    1733    1719    1671    1670    1655    1641
       8    1750    1720    1718    1751    1672    1642    1640    1673
       8    1752    1751    1718    1717    1674    1673    1640    1639
       8    1728    1752    1717    1722    1650    1674    1639    1644
       8    1753    1730    1729    1742    1675    1652    1651    1664
       8    1754    1753    1742    1743    1676    1675    1664    1665
       8    1755    1754    1743    1744    1677    1676    1665    1666
       8    1756    1755    1744    1757    1678    1677    1666    1679
       8    1758    1757    1744    1745    1680    1679    1666    1667
       8    1737    1758    1745    1735    1659    1680    1667    1657
       8    1759    1738    1739    1741    1681    1660    1661    1663
       8    1760    1759    1741    1747    1682    1681    1663    1669
       8    1761    1760    1747    1762    1683    1682    1669    1684
       8    1763    1762    1747    1746    1685    1684    1669    1668
       8    1764    1763    1746    1748    1686    1685    1668    1670
       8    1765    1764    1748    1749    1687    1686    1670    1671
       8    1766    1765    1749    1767    1688    1687    1671    1689
       8    1721    1767    1749    1719    1643    1689    1671    1641
       8    1768    1769    1720    1750    1690    1691    1642    1672
       8    1770    1768    1750    1751    1692    1690    1672    1673
       8    1771    1770    1751    1752    1693    1692    1673    1674
       8    1772    1771    1752    1728    1694    1693    1674    1650
       8    1773    1772    1728    1727    1695    1694    1650    1649
       8    1774    1773    1727    1730    1696    1695    1649    1652
       8    1775    1774    1730    1753    1697    1696    1652    1675
       8    1776    1775    1753    1754    1698    1697    1675    1676
       8    1777    1776    1754    1755    1699    1698    1676    1677
       8    1778    1777    1755    1756    1700    1699    1677    1678
       8    1779    1778    1756    1757    1701    1700    1678    1679
       8    1780    1779    1757    1758    1702    1701    1679    1680
       8    1781    1780    1758    1737    1703    1702    1680    1659
       8    1782    1781    1737    1736    1704    1703    1659    1658
       8    1783    1782    1736    1738    1705    1704    1658    1660
       8    1784    1783    1738    1759    1706    1705    1660    1681
       8    1785    1784    1759    1760    1707    1706    1681    1682
       8    1786    1785    1760    1761    1708    1707    1682    1683
       8    1787    1786    1761    1762    1709    1708    1683    1684
       8    1788    1787    1762    1763    1710    1709    1684    1685
       8    1789    1788    1763    1764    1711    1710    1685    1686
       8    1790    1789    1764    1765    1712    1711    1686    1687
       8    1791    1790    1765    1766    1713    1712    1687    1688
       8    1792    1791    1766    1767    1714    1713    1688    1689
       8    1793    1792    1767    1721    1715    1714    1689    1643
       8    1769    1793    1721    1720    1691    1715    1643    1642
       8    1794    1795    1796    1797    1716    1717    1718    1719
       8    1796    1798    1799    1797    1718    1720    1721    1719
       8    1800    1795    1794    1801    1722    1717    1716    1723
       8    1794    1802    1803    1801    1716    1724    1725    1723
       8    1804    1805    1806    1800    1726    1727    1728    1722
       8    1807    1808    1805    1804    1729    1730    1727    1726
       8    1801    1807    1804    1800    1723    1729    1726    1722
       8    1809    1810    1802    1811    1731    1732    1724    1733
       8    1812    1813    1810    1809    1734    1735    1732    1731
       8    1814    1815    1813    1812    1736    1737    1735    1734
       8    1816    1814    1812    1817    1738    1736    1734    1739
       8    1818    1803    1802    1810    1740    1725    1724    1732
       8    1809    1819    1817    1812    1731    1741    1739    1734
       8    1794    1797    1811    1802    1716    1719    1733    1724
       8    1820    1807    1801    1803    1742    1729    1723    1725
       8    1821    1820    1803    1818    1743    1742    1725    1740
       8    1822    1821    1818    1823    1744    1743    1740    1745
       8    1813    1823    1818    1810    1735    1745    1740    1732
       8    1824    1825    1819    1809    1746    1747    1741    1731
       8    1826    1824    1809    1811    1748    1746    1731    1733
       8    1827    1826    1811    1797    1749    1748    1733    1719
       8    1828    1798    1796    1829    1750    1720    1718    1751
       8    1830    1829    1796    1795    1752    1751    1718    1717
       8    1806    1830    1795    1800    1728    1752    1717    1722
       8    1831    1808    1807    1820    1753    1730    1729    1742
       8    1832    1831    1820    1821    1754    1753    1742    1743
       8    1833    1832    1821    1822    1755    1754    1743    1744
       8    1834    1833    1822    1835    1756    1755    1744    1757
       8    1836    1835    1822    1823    1758    1757    1744    1745
       8    1815    1836    1823    1813    1737    1758    1745    1735
       8    1837    1816    1817    1819    1759    1738    1739    1741
       8    1838    1837    1819    1825    1760    1759    1741    1747
       8    1839    1838    1825    1840    1761    1760    1747    1762
       8    1841    1840    1825    1824    1763    1762    1747    1746
       8    1842    1841    1824    1826    1764    1763    1746    1748
       8    1843    1842    1826    1827    1765    1764    1748    1749
       8    1844    1843    1827    1845    1766    1765    1749    1767
       8    1799    1845    1827    1797    1721    1767    1749    1719
       8    1846    1847    1798    1828    1768    1769    1720    1750
       8    1848    1846    1828    1829    1770    1768    1750    1751
       8    1849    1848    1829    1830    1771    1770    1751    1752
       8    1850    1849    1830    1806    1772    1771    1752    1728
       8    1851    1850    1806    1805    1773    1772    1728    1727
       8    1852    1851    1805    1808    1774    1773    1727    1730
       8    1853    1852    1808    1831    1775    1774    1730    1753
       8    1854    1853    1831    1832    1776    1775    1753    1754
       8    1855    1854    1832    1833    1777    1776    1754    1755
       8    1856    1855    1833    1834    1778    1777    1755    1756
       8    1857    1856    1834    1835    1779    1778    1756    1757
       8    1858    1857    1835    1836    1780    1779    1757    1758
       8    1859    1858    1836    1815    1781    1780    1758    1737
       8    1860    1859    1815    1814    1782    1781    1737    1736
       8    1861    1860    1814    1816    1783    1782    1736    1738
       8    1862    1861    1816    1837    1784    1783    1738    1759
       8    1863    1862    1837    1838    1785    1784    1759    1760
       8    1864    1863    1838    1839    1786    1785    1760    1761
       8    1865    1864    1839    1840    1787    1786    1761    1762
       8    1866    1865    1840    1841    1788    1787    1762    1763
       8    1867    1866    1841    1842    1789    1788    1763    1764
       8    1868    1867    1842    1843    1790    1789    1764    1765
       8    1869    1868    1843    1844    1791    1790    1765    1766
       8    1870    1869    1844    1845    1792    1791    1766    1767
       8    1871    1870    1845    1799    1793    1792    1767    1721
       8    1847    1871    1799    1798    1769    1793    1721    1720
       8    1872    1873    1874    1875    1794    1795    1796    1797
       8    1874    1876    1877    1875    1796    1798    1799    1797
       8    1878    1873    1872    1879    1800    1795    1794    1801
       8    1872    1880    1881    1879    1794    1802    1803    1801
       8    1882    1883    1884    1878    1804    1805    1806    1800
       8    1885    1886    1883    1882    1807    1808    1805    1804
       8    1879    1885    1882    1878    1801    1807    1804    1800
       8    1887    1888    1880    1889    1809    1810    1802    1811
       8    1890    1891    1888    1887    1812    1813    1810    1809
       8    1892    1893    1891    1890    1814    1815    1813    1812
       8    1894    1892    1890    1895    1816    1814    1812    1817
       8    1896    1881    1880    1888    1818    1803    1802    1810
       8    1887    1897    1895    1890    1809    1819    1817    1812
       8    1872    1875    1889    1880    1794    1797    1811    1802
       8    1898    1885    1879    1881    1820    1807    1801    1803
       8    1899    1898    1881    1896    1821    1820    1803    1818
       8    1900    1899    1896    1901    1822    1821    1818    1823
       8    1891    1901    1896    1888    1813    1823    1818    1810
       8    1902    1903    1897    1887    1824    1825    1819    1809
       8    1904    1902    1887    1889    1826    1824    1809    1811
       8    1905    1904    1889    1875    1827    1826    1811    1797
       8    1906    1876    1874    1907    1828    1798    1796    1829
       8    1908    1907    1874    1873    1830    1829    1796    1795
       8    1884    1908    1873    1878    1806    1830    1795    1800
       8    1909    1886    1885    1898    1831    1808    1807    1820
       8    1910    1909    1898    1899    1832    1831    1820    1821
       8    1911    1910    1899    1900    1833    1832    1821    1822
       8    1912    1911    1900    1913    1834    1833    1822    1835
       8    1914    1913    1900    1901    1836    1835    1822    1823
       8    1893    1914    1901    1891    1815    1836    1823    1813
       8    1915    1894    1895    1897    1837    1816    1817    1819
       8    1916    1915    1897    1903    1838    1837    1819    1825
       8    1917    1916    1903    1918    1839    1838    1825    1840
       8    1919    1918    1903    1902    1841    1840    1825    1824
       8    1920    1919    1902    1904    1842    1841    1824    1826
       8    1921    1920    1904    1905    1843    1842    1826    1827
       8    1922    1921    1905    1923    1844    1843    1827    1845
       8    1877    1923    1905    1875    1799    1845    1827    1797
       8    1924    1925    1876    1906    1846    1847    1798    1828
       8    1926    1924    1906    1907    1848    1846    1828    1829
       8    1927    1926    1907    1908    1849    1848    1829    1830
       8    1928    1927    1908    1884    1850    1849    1830    1806
       8    1929    1928    1884    1883    1851    1850    1806    1805
       8    1930    1929    1883    1886    1852    1851    1805    1808
       8    1931    1930    1886    1909    1853    1852    1808    1831
       8    1932    1931    1909    1910    1854    1853    1831    1832
       8    1933    1932    1910    1911    1855    1854    1832    1833
       8    1934    1933    1911    1912    1856    1855    1833    1834
       8    1935    1934    1912    1913    1857    1856    1834    1835
       8    1936    1935    1913    1914    1858    1857    1835    1836
       8    1937    1936    1914    1893    1859    1858    1836    1815
       8    1938    1937    1893    1892    1860    1859    1815    1814
       8    1939    1938    1892    1894    1861    1860    1814    1816
       8    1940    1939    1894    1915    1862    1861    1816    1837
       8    1941    1940    1915    1916    1863    1862    1837    1838
       8    1942    1941    1916    1917    1864    1863    1838    1839
       8    1943    1942    1917    1918    1865    1864    1839    1840
       8    1944    1943    1918    1919    1866    1865    1840    1841
       8    1945    1944    1919    1920    1867    1866    1841    1842
       8    1946    1945    1920    1921    1868    1867    1842    1843
       8    1947    1946    1921    1922    1869    1868    1843    1844
       8    1948    1947    1922    1923    1870    1869    1844    1845
       8    1949    1948    1923    1877    1871    1870    1845    1799
       8    1925    1949    1877    1876    1847    1871    1799    1798
  
CELL_TYPES    3486
       1
       1
       1
       1
       1
       1
       1
       1
       1
       1
       1
       1
       1
       1
       1
       1
       1
       1
       1
       1
       1
       1
       1
       1
       1
       1
       1
       1
       1
       1
       1
       1
       1
       1
       1
       1
       1
       1
       1
       1
       1
       1
       1
       1
       1
       1
       1
       1
       1
       1
       1
       1
       1
       1
       1
       1
       1
       1
       1
       1
       1
       1
       1
       1
       1
       1
       1
       1
       1
       1
       1
       1
       1
       1
       1
       1
       1
       1
       1
       1
       1
       1
       1
       1
       1
       1
       1
       1
       1
       1
       1
       1
       1
       1
       1
       1
       1
       1
       1
       1
       1
       1
       1
       1
       1
       1
       1
       1
       1
       1
       1
       1
       1
       1
       1
       1
       1
       1
       1
       1
       1
       1
       1
       1
       1
       1
       1
       1
       1
       1
       1
       1
       1
       1
       1
       1
       1
       1
       1
       1
       1
       1
       1
       1
       1
       1
       1
       1
       1
       1
       1
       1
       1
       1
       1
       1
       1
       1
       1
       1
       1
       1
       1
       1
       1
       1
       1
       1
       1
       1
       1
       1
       1
       1
       1
       1
       1
       1
       1
       1
       1
       1
       1
       1
       1
       1
       1
       1
       1
       1
       1
       1
       1
       1
       1
       1
       1
       1
       1
       1
       1
       1
       1
       1
       1
       1
       1
       1
       1
       1
       1
       1
       1
       1
       1
       1
       1
       1
       1
       1
       1
       1
       1
       1
       1
       1
       1
       1
       1
       1
       1
       1
       1
       1
       1
       1
       1
       1
       1
       1
       1
       1
       1
       1
       1
       1
       1
       1
       1
       1
       1
       1
       1
       1
       1
       1
       1
       1
       1
       1
       1
       1
       1
       1
       1
       1
       1
       1
       1
       1
       1
       1
       1
       1
       1
       1
       1
       1
       1
       1
       1
       1
       1
       1
       1
       1
       1
       1
       1
       1
       1
       1
       1
       1
       1
       1
       1
       1
       1
       1
       1
       1
       1
       1
       1
       1
       1
       1
       1
       1
       1
       1
       1
       1
       1
       1
       1
       1
       1
       1
       1
       1
       1
       1
       1
       1
       1
       1
       1
       1
       1
       1
       1
       1
       1
       1
       1
       1
       1
       1
       1
       1
       1
       1
       1
       1
       1
       1
       1
       1
       1
       1
       1
       1
       1
       1
       1
       1
       1
       1
       1
       1
       1
       1
       1
       1
       1
       1
       1
       1
       1
       1
       1
       1
       1
       1
       1
       1
       1
       1
       1
       1
       1
       1
       1
       1
       1
       1
       1
       1
       1
       1
       1
       1
       1
       1
       1
       1
       1
       1
       1
       1
       1
       1
       1
       1
       1
       1
       1
       1
       1
       1
       1
       1
       1
       1
       1
       1
       1
       1
       1
       1
       1
       1
       1
       1
       1
       1
       1
       1
       1
       1
       1
       1
       1
       1
       1
       1
       1
       1
       1
       1
       1
       1
       1
       1
       1
       1
       1
       1
       1
       1
       1
       1
       1
       1
       1
       1
       1
       1
       1
       1
       1
       1
       1
       1
       1
       1
       1
       1
       1
       1
       1
       1
       1
       1
       1
       1
       1
       1
       1
       1
       1
       1
       1
       1
       1
       1
       1
       1
       1
       1
       1
       1
       1
       1
       1
       1
       1
       1
       1
       1
       1
       1
       1
       1
       1
       1
       1
       1
       1
       1
       1
       1
       1
       1
       1
       1
       1
       1
       1
       1
       1
       1
       1
       1
       1
       1
       1
       1
       1
       1
       1
       1
       1
       1
       1
       1
       1
       1
       1
       1
       1
       1
       1
       1
       1
       1
       1
       1
       1
       1
       1
       1
       1
       1
       1
       1
       1
       1
       1
       1
       1
       1
       1
       1
       1
       1
       1
       1
       1
       1
       1
       1
       1
       1
       1
       1
       1
       1
       1
       1
       1
       1
       1
       1
       1
       1
       1
       1
       1
       1
       1
       1
       1
       1
       1
       1
       1
       1
       1
       1
       1
       1
       1
       1
       1
       1
       1
       1
       1
       1
       1
       1
       1
       1
       1
       1
       1
       1
       1
       1
       1
       1
       1
       1
       1
       1
       1
       1
       1
       1
       1
       1
       1
       1
       1
       1
       1
       1
       1
       1
       1
       1
       1
       1
       1
       1
       1
       1
       1
       1
       1
       1
       1
       1
       1
       1
       1
       1
       1
       1
       1
       1
       1
       1
       1
       1
       1
       1
       1
       1
       1
       1
       1
       1
       1
       1
       1
       1
       1
       1
       1
       1
       1
       1
       1
       1
       1
       1
       1
       1
       1
       1
       1
       1
       1
       1
       1
       1
       1
       1
       1
       1
       1
       1
       1
       1
       1
       1
       1
       1
       1
       1
       1
       1
       1
       1
       1
       1
       1
       1
       1
       1
       1
       1
       1
       1
       1
       1
       1
       1
       1
       1
       1
       1
       1
       1
       1
       1
       1
       1
       1
       1
       1
       1
       1
       1
       1
       1
       1
       1
       1
       1
       1
       1
       1
       1
       1
       1
       1
       1
       1
       1
       1
       1
       1
       1
       1
       1
       1
       1
       1
       1
       1
       1
       1
       1
       1
       1
       1
       1
       1
       1
       1
       1
       1
       1
       1
       1
       1
       1
       1
       1
       1
       1
       1
       1
       1
       1
       1
       1
       1
       1
       1
       1
       1
       1
       1
       1
       1
       1
       1
       1
       1
       1
       1
       1
       1
       1
       1
       1
       1
       1
       1
       1
       1
       1
       1
       1
       1
       1
       1
       1
       1
       1
       1
       1
       1
       1
       1
       1
       1
       1
       1
       1
       1
       1
       1
       1
       1
       1
       1
       1
       1
       1
       1
       1
       1
       1
       1
       1
       1
       1
       1
       1
       1
       1
       1
       1
       1
       1
       1
       1
       1
       1
       1
       1
       1
       1
       1
       1
       1
       1
       1
       1
       1
       1
       1
       1
       1
       1
       1
       1
       1
       1
       1
       1
       1
       1
       1
       1
       1
       1
       1
       1
       1
       1
       1
       1
       1
       1
       1
       1
       1
       1
       1
       1
       1
       1
       1
       1
       1
       1
       1
       1
       1
       1
       1
       1
       1
       1
       1
       1
       1
       1
       1
       1
       1
       1
       1
       1
       1
       1
       1
       1
       1
       1
       1
       1
       1
       1
       1
       1
       1
       1
       1
       1
       1
       1
       1
       1
       1
       1
       1
       1
       1
       1
       1
       1
       1
       1
       1
       1
       1
       1
       1
       1
       1
       1
       1
       1
       1
       1
       1
       1
       1
       1
       1
       1
       1
       1
       1
       1
       1
       1
       1
       1
       1
       1
       1
       1
       1
       1
       1
       1
       1
       1
       1
       1
       1
       1
       1
       1
       1
       1
       1
       1
       1
       1
       1
       1
       1
       1
       1
       1
       1
       1
       1
       1
       1
       1
       1
       1
       1
       1
       1
       1
       1
       1
       1
       1
       1
       1
       1
       1
       1
       1
       1
       1
       1
       1
       1
       1
       1
       1
       1
       1
       1
       1
       1
       1
       1
       1
       1
       1
       1
       1
       1
       1
       1
       1
       1
       1
       1
       1
       1
       1
       1
       1
       1
       1
       1
       1
       1
       1
       1
       1
       1
       1
       1
       1
       1
       1
       1
       1
       1
       1
       1
       1
       1
       1
       1
       1
       1
       1
       1
       1
       1
       1
       1
       1
       1
       1
       1
       1
       1
       1
       1
       1
       1
       1
       1
       1
       1
       1
       1
       1
       1
       1
       1
       1
       1
       1
       1
       1
       1
       1
       1
       1
       1
       1
       1
       1
       1
       1
       1
       1
       1
       1
       1
       1
       1
       1
       1
       1
       1
       1
       1
       1
       1
       1
       1
       1
       1
       1
       1
       1
       1
       1
       1
       1
       1
       1
       1
       1
       1
       1
       1
       1
       1
       1
       1
       1
       1
       1
       1
       1
       1
       1
       1
       1
       1
       1
       1
       1
       1
       1
       1
       1
       1
       1
       1
       1
       1
       1
       1
       1
       1
       1
       1
       1
       1
       1
       1
       1
       1
       1
       1
       1
       1
       1
       1
       1
       1
       1
       1
       1
       1
       1
       1
       1
       1
       1
       1
       1
       1
       1
       1
       1
       1
       1
       1
       1
       1
       1
       1
       1
       1
       1
       1
       1
       1
       1
       1
       1
       1
       1
       1
       1
       1
       1
       1
       1
       1
       1
       1
       1
       1
       1
       1
       1
       1
       1
       1
       1
       1
       1
       1
       1
       1
       1
       1
       1
       1
       1
       1
       1
       1
       1
       1
       1
       1
       1
       1
       1
       1
       1
       1
       1
       1
       1
       1
       1
       1
       1
       1
       1
       1
       1
       1
       1
       1
       1
       1
       1
       1
       1
       1
       1
       1
       1
       1
       1
       1
       1
       1
       1
       1
       1
       1
       1
       1
       1
       1
       1
       1
       1
       1
       1
       1
       1
       1
       1
       1
       1
       1
       1
       1
       1
       1
       1
       1
       1
       1
       1
       1
       1
       1
       1
       1
       1
       1
       1
       1
       1
       1
       1
       1
       1
       1
       1
       1
       1
       1
       1
       1
       1
       1
       1
       1
       1
       1
       1
       1
       1
       1
       1
       1
       1
       1
       1
       1
       1
       1
       1
       1
       1
       1
       1
       1
       1
       1
       1
       1
       1
       1
       1
       1
       1
       1
       1
       1
       1
       1
       1
       1
       1
       1
       1
       1
       1
       1
       1
       1
       1
       1
       1
       1
       1
       1
       1
       1
       1
       1
       1
       1
       1
       1
       1
       1
       1
       1
       1
       1
       1
       1
       1
       1
       1
       1
       1
       1
       1
       1
       1
       1
       1
       1
       1
       1
       1
       1
       1
       1
       1
       1
       1
       1
       1
       1
       1
       1
       1
       1
       1
       1
       1
       1
       1
       1
       1
       1
       1
       1
       1
       1
       1
       1
       1
       1
       1
       1
       1
       1
       1
       1
       1
       1
       1
       1
       1
       1
       1
       1
       1
       1
       1
       1
       1
       1
       1
       1
       1
       1
       1
       1
       1
       1
       1
       1
       1
       1
       1
       1
       1
       1
       1
       1
       1
       1
       1
       1
       1
       1
       1
       1
       1
       1
       1
       1
       1
       1
       1
       1
       1
       1
       1
       1
       1
       1
       1
       1
       1
       1
       1
       1
       1
       1
       1
       1
       1
       1
       1
       1
       1
       1
       1
       1
       1
       1
       1
       1
       1
       1
       1
       1
       1
       1
       1
       1
       1
       1
       1
       1
       1
       1
       1
       1
       1
       1
       1
       1
       1
       1
       1
       1
       1
       1
       1
       1
       1
       1
       1
       1
       1
       1
       1
       1
       1
       1
       1
       1
       1
       1
       1
       1
       1
       1
       1
       1
       1
       1
       1
       1
       1
       1
       1
       1
       1
       1
       1
       1
       1
       1
       1
       1
       1
       1
       1
       1
       1
       1
       1
       1
       1
       1
       1
       1
       1
       1
       1
       1
       1
       1
       1
       1
       1
       1
       1
       1
       1
       1
       1
       1
       1
       1
       1
       1
       1
       1
       1
       1
       1
       1
       1
       1
       1
       1
       1
       1
       1
       1
       1
       1
       1
       1
       1
       1
       1
       1
       1
       1
       1
       1
       1
       1
       1
       1
       1
       1
       1
       1
       1
       1
       1
       1
       1
       1
       1
       1
       1
       1
       1
       1
       1
       1
       1
       1
       1
       1
       1
       1
       1
       1
       1
       1
       1
       1
       1
       1
       1
       1
       1
       1
       1
       1
       1
       1
       1
       1
       1
       1
       1
       1
       1
       1
       1
       1
       1
       1
       1
       1
       1
       1
       1
       1
       1
       1
       1
       1
       1
       1
       1
       1
       1
       1
       1
       1
       1
       1
       1
       1
       1
       1
       1
       1
       1
       1
       1
       1
       1
       1
       1
       1
       1
       1
       1
       1
       1
       1
       1
       1
       1
       1
       1
       1
       1
       1
       1
       1
       1
       1
       1
       1
       1
       1
       1
       1
       1
       1
       1
       1
       1
       1
       1
       1
       1
       1
       1
       1
       1
       1
       1
       1
       1
       1
       1
       1
       1
       1
       1
       1
       1
       1
       1
       1
       1
       1
       1
       1
       1
       1
       1
       1
       1
       1
       1
       1
       1
       1
       1
       1
       1
       1
       1
       1
       1
       1
       1
       1
       1
       1
       1
       1
       1
       1
       1
       1
       1
       1
       1
       1
       1
       1
       1
       1
       1
       1
       1
       1
       1
       1
       1
       1
       1
       1
       1
       1
       1
       1
       1
       1
       1
       1
       1
       1
       1
       1
       1
       1
       1
       1
       1
       1
       1
       1
       1
       1
       1
       1
       1
       1
       1
       1
       1
       1
       1
       1
       1
       1
       1
       1
       1
       1
       1
       1
       1
       1
       1
       1
       1
       1
       1
       1
       1
       1
       1
       1
       1
       1
       1
       1
       1
       1
       1
       1
       1
       1
       1
      12
      12
      12
      12
      12
      12
      12
      12
      12
      12
      12
      12
      12
      12
      12
      12
      12
      12
      12
      12
      12
      12
      12
      12
      12
      12
      12
      12
      12
      12
      12
      12
      12
      12
      12
      12
      12
      12
      12
      12
      12
      12
      12
      12
      12
      12
      12
      12
      12
      12
      12
      12
      12
      12
      12
      12
      12
      12
      12
      12
      12
      12
      12
      12
      12
      12
      12
      12
      12
      12
      12
      12
      12
      12
      12
      12
      12
      12
      12
      12
      12
      12
      12
      12
      12
      12
      12
      12
      12
      12
      12
      12
      12
      12
      12
      12
      12
      12
      12
      12
      12
      12
      12
      12
      12
      12
      12
      12
      12
      12
      12
      12
      12
      12
      12
      12
      12
      12
      12
      12
      12
      12
      12
      12
      12
      12
      12
      12
      12
      12
      12
      12
      12
      12
      12
      12
      12
      12
      12
      12
      12
      12
      12
      12
      12
      12
      12
      12
      12
      12
      12
      12
      12
      12
      12
      12
      12
      12
      12
      12
      12
      12
      12
      12
      12
      12
      12
      12
      12
      12
      12
      12
      12
      12
      12
      12
      12
      12
      12
      12
      12
      12
      12
      12
      12
      12
      12
      12
      12
      12
      12
      12
      12
      12
      12
      12
      12
      12
      12
      12
      12
      12
      12
      12
      12
      12
      12
      12
      12
      12
      12
      12
      12
      12
      12
      12
      12
      12
      12
      12
      12
      12
      12
      12
      12
      12
      12
      12
      12
      12
      12
      12
      12
      12
      12
      12
      12
      12
      12
      12
      12
      12
      12
      12
      12
      12
      12
      12
      12
      12
      12
      12
      12
      12
      12
      12
      12
      12
      12
      12
      12
      12
      12
      12
      12
      12
      12
      12
      12
      12
      12
      12
      12
      12
      12
      12
      12
      12
      12
      12
      12
      12
      12
      12
      12
      12
      12
      12
      12
      12
      12
      12
      12
      12
      12
      12
      12
      12
      12
      12
      12
      12
      12
      12
      12
      12
      12
      12
      12
      12
      12
      12
      12
      12
      12
      12
      12
      12
      12
      12
      12
      12
      12
      12
      12
      12
      12
      12
      12
      12
      12
      12
      12
      12
      12
      12
      12
      12
      12
      12
      12
      12
      12
      12
      12
      12
      12
      12
      12
      12
      12
      12
      12
      12
      12
      12
      12
      12
      12
      12
      12
      12
      12
      12
      12
      12
      12
      12
      12
      12
      12
      12
      12
      12
      12
      12
      12
      12
      12
      12
      12
      12
      12
      12
      12
      12
      12
      12
      12
      12
      12
      12
      12
      12
      12
      12
      12
      12
      12
      12
      12
      12
      12
      12
      12
      12
      12
      12
      12
      12
      12
      12
      12
      12
      12
      12
      12
      12
      12
      12
      12
      12
      12
      12
      12
      12
      12
      12
      12
      12
      12
      12
      12
      12
      12
      12
      12
      12
      12
      12
      12
      12
      12
      12
      12
      12
      12
      12
      12
      12
      12
      12
      12
      12
      12
      12
      12
      12
      12
      12
      12
      12
      12
      12
      12
      12
      12
      12
      12
      12
      12
      12
      12
      12
      12
      12
      12
      12
      12
      12
      12
      12
      12
      12
      12
      12
      12
      12
      12
      12
      12
      12
      12
      12
      12
      12
      12
      12
      12
      12
      12
      12
      12
      12
      12
      12
      12
      12
      12
      12
      12
      12
      12
      12
      12
      12
      12
      12
      12
      12
      12
      12
      12
      12
      12
      12
      12
      12
      12
      12
      12
      12
      12
      12
      12
      12
      12
      12
      12
      12
      12
      12
      12
      12
      12
      12
      12
      12
      12
      12
      12
      12
      12
      12
      12
      12
      12
      12
      12
      12
      12
      12
      12
      12
      12
      12
      12
      12
      12
      12
      12
      12
      12
      12
      12
      12
      12
      12
      12
      12
      12
      12
      12
      12
      12
      12
      12
      12
      12
      12
      12
      12
      12
      12
      12
      12
      12
      12
      12
      12
      12
      12
      12
      12
      12
      12
      12
      12
      12
      12
      12
      12
      12
      12
      12
      12
      12
      12
      12
      12
      12
      12
      12
      12
      12
      12
      12
      12
      12
      12
      12
      12
      12
      12
      12
      12
      12
      12
      12
      12
      12
      12
      12
      12
      12
      12
      12
      12
      12
      12
      12
      12
      12
      12
      12
      12
      12
      12
      12
      12
      12
      12
      12
      12
      12
      12
      12
      12
      12
      12
      12
      12
      12
      12
      12
      12
      12
      12
      12
      12
      12
      12
      12
      12
      12
      12
      12
      12
      12
      12
      12
      12
      12
      12
      12
      12
      12
      12
      12
      12
      12
      12
      12
      12
      12
      12
      12
      12
      12
      12
      12
      12
      12
      12
      12
      12
      12
      12
      12
      12
      12
      12
      12
      12
      12
      12
      12
      12
      12
      12
      12
      12
      12
      12
      12
      12
      12
      12
      12
      12
      12
      12
      12
      12
      12
      12
      12
      12
      12
      12
      12
      12
      12
      12
      12
      12
      12
      12
      12
      12
      12
      12
      12
      12
      12
      12
      12
      12
      12
      12
      12
      12
      12
      12
      12
      12
      12
      12
      12
      12
      12
      12
      12
      12
      12
      12
      12
      12
      12
      12
      12
      12
      12
      12
      12
      12
      12
      12
      12
      12
      12
      12
      12
      12
      12
      12
      12
      12
      12
      12
      12
      12
      12
      12
      12
      12
      12
      12
      12
      12
      12
      12
      12
      12
      12
      12
      12
      12
      12
      12
      12
      12
      12
      12
      12
      12
      12
      12
      12
      12
      12
      12
      12
      12
      12
      12
      12
      12
      12
      12
      12
      12
      12
      12
      12
      12
      12
      12
      12
      12
      12
      12
      12
      12
      12
      12
      12
      12
      12
      12
      12
      12
      12
      12
      12
      12
      12
      12
      12
      12
      12
      12
      12
      12
      12
      12
      12
      12
      12
      12
      12
      12
      12
      12
      12
      12
      12
      12
      12
      12
      12
      12
      12
      12
      12
      12
      12
      12
      12
      12
      12
      12
      12
      12
      12
      12
      12
      12
      12
      12
      12
      12
      12
      12
      12
      12
      12
      12
      12
      12
      12
      12
      12
      12
      12
      12
      12
      12
      12
      12
      12
      12
      12
      12
      12
      12
      12
      12
      12
      12
      12
      12
      12
      12
      12
      12
      12
      12
      12
      12
      12
      12
      12
      12
      12
      12
      12
      12
      12
      12
      12
      12
      12
      12
      12
      12
      12
      12
      12
      12
      12
      12
      12
      12
      12
      12
      12
      12
      12
      12
      12
      12
      12
      12
      12
      12
      12
      12
      12
      12
      12
      12
      12
      12
      12
      12
      12
      12
      12
      12
      12
      12
      12
      12
      12
      12
      12
      12
      12
      12
      12
      12
      12
      12
      12
      12
      12
      12
      12
      12
      12
      12
      12
      12
      12
      12
      12
      12
      12
      12
      12
      12
      12
      12
      12
      12
      12
      12
      12
      12
      12
      12
      12
      12
      12
      12
      12
      12
      12
      12
      12
      12
      12
      12
      12
      12
      12
      12
      12
      12
      12
      12
      12
      12
      12
      12
      12
      12
      12
      12
      12
      12
      12
      12
      12
      12
      12
      12
      12
      12
      12
      12
      12
      12
      12
      12
      12
      12
      12
      12
      12
      12
      12
      12
      12
      12
      12
      12
      12
      12
      12
      12
      12
      12
      12
      12
      12
      12
      12
      12
      12
      12
      12
      12
      12
      12
      12
      12
      12
      12
      12
      12
      12
      12
      12
      12
      12
      12
      12
      12
      12
      12
      12
      12
      12
      12
      12
      12
      12
      12
      12
      12
      12
      12
      12
      12
      12
      12
      12
      12
      12
      12
      12
      12
      12
      12
      12
      12
      12
      12
      12
      12
      12
      12
      12
      12
      12
      12
      12
      12
      12
      12
      12
      12
      12
      12
      12
      12
      12
      12
      12
      12
      12
      12
      12
      12
      12
      12
      12
      12
      12
      12
      12
      12
      12
      12
      12
      12
      12
      12
      12
      12
      12
      12
      12
      12
      12
      12
      12
      12
      12
      12
      12
      12
      12
      12
      12
      12
      12
      12
      12
      12
      12
      12
      12
      12
      12
      12
      12
      12
      12
      12
      12
      12
      12
      12
      12
      12
      12
      12
      12
      12
      12
      12
      12
      12
      12
      12
      12
      12
      12
      12
      12
      12
      12
      12
      12
      12
      12
      12
      12
      12
      12
      12
      12
      12
      12
      12
      12
      12
      12
      12
      12
      12
      12
      12
      12
      12
      12
      12
      12
      12
      12
      12
      12
      12
      12
      12
      12
      12
      12
      12
      12
      12
      12
      12
      12
      12
      12
      12
      12
      12
      12
      12
      12
      12
      12
      12
      12
      12
      12
      12
      12
      12
      12
      12
      12
      12
      12
      12
      12
      12
      12
      12
      12
      12
      12
      12
      12
      12
      12
      12
      12
      12
      12
      12
      12
      12
      12
      12
      12
      12
      12
      12
      12
      12
      12
      12
      12
      12
      12
      12
      12
      12
      12
      12
      12
      12
      12
      12
      12
      12
      12
      12
      12
      12
      12
      12
      12
      12
      12
      12
      12
      12
      12
      12
      12
      12
      12
      12
      12
      12
      12
      12
      12
      12
      12
      12
      12
      12
      12
      12
      12
      12
      12
      12
      12
      12
      12
      12
      12
      12
      12
      12
      12
      12
      12
      12
      12
      12
      12
      12
      12
      12
      12
      12
      12
      12
      12
      12
      12
      12
      12
      12
      12
      12
      12
      12
      12
      12
      12
      12
      12
      12
      12
      12
      12
      12
      12
      12
      12
      12
      12
      12
      12
      12
      12
      12
      12
      12
      12
      12
      12
      12
      12
      12
      12
      12
      12
      12
      12
      12
      12
      12
      12
      12
      12
      12
      12
      12
      12
      12
      12
      12
      12
      12
      12
      12
      12
      12
      12
      12
      12
      12
      12
      12
      12
      12
      12
      12
      12
      12
      12
      12
      12
      12
      12
      12
      12
      12
      12
      12
      12
      12
      12
      12
      12
      12
      12
      12
      12
      12
      12
      12
      12
      12
      12
      12
      12
      12
      12
      12
      12
      12
      12
      12
  
  
POINT_DATA       1950
  
SCALARS                  material_type  double 1
LOOKUP_TABLE default
                   2
                   2
                   2
                   2
                   2
                   2
                   2
                   2
                   2
                   2
                   2
                   2
                   2
                   2
                   2
                   2
                   2
                   2
                   2
                   2
                   2
                   2
                   2
                   2
                   2
                   2
                   2
                   2
                   2
                   2
                   2
                   2
                   2
                   2
                   2
                   2
                   2
                   2
                   2
                   2
                   2
                   2
                   2
                   2
                   2
                   2
                   2
                   2
                   2
                   2
                   2
                   2
                   2
                   2
                   2
                   2
                   2
                   2
                   2
                   2
                   2
                   2
                   2
                   2
                   2
                   2
                   2
                   2
                   2
                   2
                   2
                   2
                   2
                   2
                   2
                   2
                   2
                   2
                   2
                   2
                   2
                   2
                   2
                   2
                   2
                   2
                   2
                   2
                   2
                   2
                   2
                   2
                   2
                   2
                   2
                   2
                   2
                   2
                   2
                   2
                   2
                   2
                   2
                   2
                   2
                   2
                   2
                   2
                   2
                   2
                   2
                   2
                   2
                   2
                   2
                   2
                   2
                   2
                   2
                   2
                   2
                   2
                   2
                   2
                   2
                   2
                   2
                   2
                   2
                   2
                   2
                   2
                   2
                   2
                   2
                   2
                   2
                   2
                   2
                   2
                   2
                   2
                   2
                   2
                   2
                   2
                   2
                   2
                   2
                   2
                   2
                   2
                   2
                   2
                   2
                   2
                   2
                   2
                   2
                   2
                   2
                   2
                   2
                   2
                   2
                   2
                   2
                   2
                   2
                   2
                   2
                   2
                   2
                   2
                   2
                   2
                   2
                   2
                   2
                   2
                   2
                   2
                   2
                   2
                   2
                   2
                   2
                   2
                   2
                   2
                   2
                   2
                   2
                   2
                   2
                   2
                   2
                   2
                   2
                   2
                   2
                   2
                   2
                   2
                   2
                   2
                   2
                   2
                   2
                   2
                   2
                   2
                   2
                   2
                   2
                   2
                   2
                   2
                   2
                   2
                   2
                   2
                   2
                   2
                   2
                   2
                   2
                   2
                   2
                   2
                   2
                   2
                   2
                   2
                   2
                   2
                   2
                   2
                   2
                   2
                   2
                   2
                   2
                   2
                   2
                   2
                   2
                   2
                   2
                   2
                   2
                   2
                   2
                   2
                   2
                   2
                   2
                   2
                   2
                   2
                   2
                   2
                   2
                   2
                   2
                   2
                   2
                   2
                   2
                   2
                   2
                   2
                   2
                   2
                   2
                   2
                   2
                   2
                   2
                   2
                   2
                   2
                   2
                   2
                   2
                   2
                   2
                   2
                   2
                   2
                   2
                   2
                   2
                   2
                   2
                   2
                   2
                   2
                   2
                   2
                   2
                   2
                   2
                   2
                   2
                   2
                   2
                   2
                   2
                   2
                   2
                   2
                   2
                   2
                   2
                   2
                   2
                   2
                   2
                   2
                   2
                   2
                   2
                   2
                   2
                   2
                   2
                   2
                   2
                   2
                   2
                   2
                   2
                   2
                   2
                   2
                   2
                   2
                   2
                   2
                   2
                   2
                   2
                   2
                   2
                   2
                   2
                   2
                   2
                   2
                   2
                   2
                   2
                   2
                   2
                   2
                   2
                   2
                   2
                   2
                   2
                   2
                   2
                   2
                   2
                   2
                   2
                   2
                   2
                   2
                   2
                   2
                   2
                   2
                   2
                   2
                   2
                   2
                   2
                   2
                   2
                   2
                   2
                   2
                   2
                   2
                   2
                   2
                   2
                   2
                   2
                   2
                   2
                   2
                   2
                   2
                   2
                   2
                   2
                   2
                   2
                   2
                   2
                   2
                   2
                   2
                   2
                   2
                   2
                   2
                   2
                   2
                   2
                   2
                   2
                   2
                   2
                   2
                   2
                   2
                   2
                   2
                   2
                   2
                   2
                   2
                   2
                   2
                   2
                   2
                   2
                   2
                   2
                   2
                   2
                   2
                   2
                   2
                   2
                   2
                   2
                   2
                   2
                   2
                   2
                   2
                   2
                   2
                   2
                   2
                   2
                   2
                   2
                   2
                   2
                   2
                   2
                   2
                   2
                   2
                   2
                   2
                   2
                   2
                   2
                   2
                   2
                   2
                   2
                   2
                   2
                   2
                   2
                   2
                   2
                   2
                   2
                   2
                   2
                   2
                   2
                   2
                   2
                   2
                   2
                   2
                   2
                   2
                   2
                   2
                   2
                   2
                   2
                   2
                   2
                   2
                   2
                   2
                   2
                   2
                   2
                   2
                   2
                   2
                   2
                   2
                   2
                   2
                   2
                   2
                   2
                   2
                   2
                   2
                   2
                   2
                   2
                   2
                   2
                   2
                   2
                   2
                   2
                   2
                   2
                   2
                   2
                   2
                   2
                   2
                   2
                   2
                   2
                   2
                   2
                   2
                   2
                   2
                   2
                   2
                   2
                   2
                   2
                   2
                   2
                   2
                   2
                   2
                   2
                   2
                   2
                   2
                   2
                   2
                   2
                   2
                   2
                   2
                   2
                   2
                   2
                   2
                   2
                   2
                   2
                   2
                   2
                   2
                   2
                   2
                   2
                   2
                   2
                   2
                   2
                   2
                   2
                   2
                   2
                   2
                   2
                   2
                   2
                   2
                   2
                   2
                   2
                   2
                   2
                   2
                   2
                   2
                   2
                   2
                   2
                   2
                   2
                   2
                   2
                   2
                   2
                   2
                   2
                   2
                   2
                   2
                   2
                   2
                   2
                   2
                   2
                   2
                   2
                   2
                   2
                   2
                   2
                   2
                   2
                   2
                   2
                   2
                   2
                   2
                   2
                   2
                   2
                   2
                   2
                   2
                   2
                   2
                   2
                   2
                   2
                   2
                   2
                   2
                   2
                   2
                   2
                   2
                   2
                   2
                   2
                   2
                   2
                   2
                   2
                   2
                   2
                   2
                   2
                   2
                   2
                   2
                   2
                   2
                   2
                   2
                   2
                   2
                   2
                   2
                   2
                   2
                   2
                   2
                   2
                   2
                   2
                   2
                   2
                   2
                   2
                   2
                   2
                   2
                   2
                   2
                   2
                   2
                   2
                   2
                   2
                   2
                   2
                   2
                   2
                   2
                   2
                   2
                   2
                   2
                   2
                   2
                   2
                   2
                   2
                   2
                   2
                   2
                   2
                   2
                   2
                   2
                   2
                   2
                   2
                   2
                   2
                   2
                   2
                   2
                   2
                   2
                   2
                   2
                   2
                   2
                   2
                   2
                   2
                   2
                   2
                   2
                   2
                   2
                   2
                   2
                   2
                   2
                   2
                   2
                   2
                   2
                   2
                   2
                   2
                   2
                   2
                   2
                   2
                   2
                   2
                   2
                   2
                   2
                   2
                   2
                   2
                   2
                   2
                   2
                   2
                   2
                   2
                   2
                   2
                   2
                   2
                   2
                   2
                   2
                   2
                   2
                   2
                   2
                   2
                   2
                   2
                   2
                   2
                   2
                   2
                   2
                   2
                   2
                   2
                   2
                   2
                   2
                   2
                   2
                   2
                   2
                   2
                   2
                   2
                   2
                   2
                   2
                   2
                   2
                   2
                   2
                   2
                   2
                   2
                   2
                   2
                   2
                   2
                   2
                   2
                   2
                   2
                   2
                   2
                   2
                   2
                   2
                   2
                   2
                   2
                   2
                   2
                   2
                   2
                   2
                   2
                   2
                   2
                   2
                   2
                   2
                   2
                   2
                   2
                   2
                   2
                   2
                   2
                   2
                   2
                   2
                   2
                   2
                   2
                   2
                   2
                   2
                   2
                   2
                   2
                   2
                   2
                   2
                   2
                   2
                   2
                   2
                   2
                   2
                   2
                   2
                   2
                   2
                   2
                   2
                   2
                   2
                   2
                   2
                   2
                   2
                   2
                   2
                   2
                   2
                   2
                   2
                   2
                   2
                   2
                   2
                   2
                   2
                   2
                   2
                   2
                   2
                   2
                   2
                   2
                   2
                   2
                   2
                   2
                   2
                   2
                   2
                   2
                   2
                   2
                   2
                   2
                   2
                   2
                   2
                   2
                   2
                   2
                   2
                   2
                   2
                   2
                   2
                   2
                   2
                   2
                   2
                   2
                   2
                   2
                   2
                   2
                   2
                   2
                   2
                   2
                   2
                   2
                   2
                   2
                   2
                   2
                   2
                   2
                   2
                   2
                   2
                   2
                   2
                   2
                   2
                   2
                   2
                   2
                   2
                   2
                   2
                   2
                   2
                   2
                   2
                   2
                   2
                   2
                   2
                   2
                   2
                   2
                   2
                   2
                   2
                   2
                   2
                   2
                   2
                   2
                   2
                   2
                   2
                   2
                   2
                   2
                   2
                   2
                   2
                   2
                   2
                   2
                   2
                   2
                   2
                   2
                   2
                   2
                   2
                   2
                   2
                   2
                   2
                   2
                   2
                   2
                   2
                   2
                   2
                   2
                   2
                   2
                   2
                   2
                   2
                   2
                   2
                   2
                   2
                   2
                   2
                   2
                   2
                   2
                   2
                   2
                   2
                   2
                   2
                   2
                   2
                   2
                   2
                   2
                   2
                   2
                   2
                   2
                   2
                   2
                   2
                   2
                   2
                   2
                   2
                   2
                   2
                   2
                   2
                   2
                   2
                   2
                   2
                   2
                   2
                   2
                   2
                   2
                   2
                   2
                   2
                   2
                   2
                   2
                   2
                   2
                   2
                   2
                   2
                   2
                   2
                   2
                   2
                   2
                   2
                   2
                   2
                   2
                   2
                   2
                   2
                   2
                   2
                   2
                   2
                   2
                   2
                   2
                   2
                   2
                   2
                   2
                   2
                   2
                   2
                   2
                   2
                   2
                   2
                   2
                   2
                   2
                   2
                   2
                   2
                   2
                   2
                   2
                   2
                   2
                   2
                   2
                   2
                   2
                   2
                   2
                   2
                   2
                   2
                   2
                   2
                   2
                   2
                   2
                   2
                   2
                   2
                   2
                   2
                   2
                   2
                   2
                   2
                   2
                   2
                   2
                   2
                   2
                   2
                   2
                   2
                   2
                   2
                   2
                   2
                   2
                   2
                   2
                   2
                   2
                   2
                   2
                   2
                   2
                   2
                   2
                   2
                   2
                   2
                   2
                   2
                   2
                   2
                   2
                   2
                   2
                   2
                   2
                   2
                   2
                   2
                   2
                   2
                   2
                   2
                   2
                   2
                   2
                   2
                   2
                   2
                   2
                   2
                   2
                   2
                   2
                   2
                   2
                   2
                   2
                   2
                   2
                   2
                   2
                   2
                   2
                   2
                   2
                   2
                   2
                   2
                   2
                   2
                   2
                   2
                   2
                   2
                   2
                   2
                   2
                   2
                   2
                   2
                   2
                   2
                   2
                   2
                   2
                   2
                   2
                   2
                   2
                   2
                   2
                   2
                   2
                   2
                   2
                   2
                   2
                   2
                   2
                   2
                   2
                   2
                   2
                   2
                   2
                   2
                   2
                   2
                   2
                   2
                   2
                   2
                   2
                   2
                   2
                   2
                   2
                   2
                   2
                   2
                   2
                   2
                   2
                   2
                   2
                   2
                   2
                   2
                   2
                   2
                   2
                   2
                   2
                   2
                   2
                   2
                   2
                   2
                   2
                   2
                   2
                   2
                   2
                   2
                   2
                   2
                   2
                   2
                   2
                   2
                   2
                   2
                   2
                   2
                   2
                   2
                   2
                   2
                   2
                   2
                   2
                   2
                   2
                   2
                   2
                   2
                   2
                   2
                   2
                   2
                   2
                   2
                   2
                   2
                   2
                   2
                   2
                   2
                   2
                   2
                   2
                   2
                   2
                   2
                   2
                   2
                   2
                   2
                   2
                   2
                   2
                   2
                   2
                   2
                   2
                   2
                   2
                   2
                   2
                   2
                   2
                   2
                   2
                   2
                   2
                   2
                   2
                   2
                   2
                   2
                   2
                   2
                   2
                   2
                   2
                   2
                   2
                   2
                   2
                   2
                   2
                   2
                   2
                   2
                   2
                   2
                   2
                   2
                   2
                   2
                   2
                   2
                   2
                   2
                   2
                   2
                   2
                   2
                   2
                   2
                   2
                   2
                   2
                   2
                   2
                   2
                   2
                   2
                   2
                   2
                   2
                   2
                   2
                   2
                   2
                   2
                   2
                   2
                   2
                   2
                   2
                   2
                   2
                   2
                   2
                   2
                   2
                   2
                   2
                   2
                   2
                   2
                   2
                   2
                   2
                   2
                   2
                   2
                   2
                   2
                   2
                   2
                   2
                   2
                   2
                   2
                   2
                   2
                   2
                   2
                   2
                   2
                   2
                   2
                   2
                   2
                   2
                   2
                   2
                   2
                   2
                   2
                   2
                   2
                   2
                   2
                   2
                   2
                   2
                   2
                   2
                   2
                   2
                   2
                   2
                   2
                   2
                   2
                   2
                   2
                   2
                   2
                   2
                   2
                   2
                   2
                   2
                   2
                   2
                   2
                   2
                   2
                   2
                   2
                   2
                   2
                   2
                   2
                   2
                   2
                   2
                   2
                   2
                   2
                   2
                   2
                   2
                   2
                   2
                   2
                   2
                   2
                   2
                   2
                   2
                   2
                   2
                   2
                   2
                   2
                   2
                   2
                   2
                   2
                   2
                   2
                   2
                   2
                   2
                   2
                   2
                   2
                   2
                   2
                   2
                   2
                   2
                   2
                   2
                   2
                   2
                   2
                   2
                   2
                   2
                   2
                   2
                   2
                   2
                   2
                   2
                   2
                   2
                   2
                   2
                   2
                   2
                   2
                   2
                   2
                   2
                   2
                   2
                   2
                   2
                   2
                   2
                   2
                   2
                   2
                   2
                   2
                   2
                   2
                   2
                   2
                   2
                   2
                   2
                   2
                   2
                   2
                   2
                   2
                   2
                   2
                   2
                   2
                   2
                   2
                   2
                   2
                   2
                   2
                   2
                   2
                   2
                   2
                   2
                   2
                   2
                   2
                   2
                   2
                   2
                   2
                   2
                   2
                   2
                   2
                   2
                   2
                   2
                   2
                   2
                   2
                   2
                   2
                   2
                   2
                   2
                   2
                   2
                   2
                   2
                   2
                   2
                   2
                   2
                   2
                   2
                   2
                   2
                   2
                   2
                   2
                   2
                   2
                   2
                   2
                   2
                   2
                   2
                   2
                   2
                   2
                   2
                   2
                   2
                   2
                   2
                   2
                   2
                   2
                   2
                   2
                   2
                   2
                   2
                   2
                   2
                   2
                   2
                   2
                   2
                   2
                   2
                   2
                   2
                   2
                   2
                   2
                   2
                   2
                   2
                   2
                   2
                   2
                   2
                   2
                   2
                   2
                   2
                   2
                   2
                   2
                   2
                   2
                   2
                   2
                   2
                   2
                   2
                   2
                   2
                   2
                   2
                   2
                   2
                   2
                   2
                   2
                   2
                   2
                   2
                   2
                   2
                   2
                   2
                   2
                   2
                   2
                   2
                   2
                   2
                   2
                   2
                   2
                   2
                   2
                   2
                   2
                   2
                   2
                   2
                   2
                   2
                   2
                   2
                   2
                   2
                   2
                   2
                   2
                   2
                   2
                   2
                   2
                   2
                   2
                   2
                   2
                   2
                   2
                   2
                   2
                   2
                   2
                   2
                   2
                   2
                   2
                   2
                   2
                   2
                   2
                   2
                   2
                   2
                   2
                   2
                   2
                   2
                   2
                   2
                   2
                   2
                   2
                   2
                   2
                   2
                   2
                   2
                   2
                   2
                   2
                   2
                   2
                   2
                   2
                   2
                   2
                   2
                   2
                   2
                   2
                   2
                   2
                   2
                   2
                   2
                   2
                   2
                   2
                   2
                   2
                   2
                   2
                   2
                   2
                   2
                   2
                   2
                   2
                   2
                   2
                   2
                   2
                   2
                   2
                   2
                   2
                   2
                   2
                   2
                   2
                   2
                   2
                   2
                   2
                   2
                   2
                   2
                   2
                   2
                   2
                   2
                   2
                   2
                   2
                   2
                   2
                   2
                   2
                   2
                   2
                   2
                   2
                   2
                   2
                   2
                   2
                   2
                   2
                   2
                   2
                   2
                   2
                   2
                   2
                   2
                   2
                   2
                   2
                   2
                   2
                   2
                   2
                   2
                   2
                   2
                   2
                   2
                   2
                   2
                   2
                   2
                   2
                   2
                   2
                   2
                   2
                   2
                   2
                   2
                   2
                   2
                   2
                   2
                   2
                   2
                   2
                   2
                   2
                   2
                   2
                   2
                   2
                   2
                   2
                   2
                   2
                   2
                   2
                   2
                   2
                   2
                   2
                   2
                   2
                   2
                   2
                   2
                   2
                   2
                   2
                   2
                   2
                   2
                   2
                   2
                   2
                   2
                   2
                   2
                   2
                   2
                   2
                   2
                   2
                   2
                   2
                   2
                   2
                   2
                   2
                   2
                   2
                   2
                   2
                   2
                   2
                   2
                   2
                   2
                   2
                   2
                   2
                   2
                   2
                   2
                   2
                   2
                   2
                   2
                   2
                   2
                   2
                   2
                   2
                   2
                   2
                   2
                   2
                   2
                   2
                   2
                   2
                   2
                   2
                   2
                   2
                   2
                   2
                   2
                   2
                   2
                   2
                   2
                   2
                   2
                   2
                   2
                   2
                   2
                   2
                   2
                   2
                   2
                   2
                   2
                   2
                   2
                   2
                   2
                   2
                   2
                   2
                   2
                   2
                   2
                   2
                   2
                   2
                   2
                   2
  
SCALARS                        node_id  double 1
LOOKUP_TABLE default
                   1
                   2
                   3
                   4
                   5
                   6
                   7
                   8
                   9
                  10
                  11
                  12
                  13
                  14
                  15
                  16
                  17
                  18
                  19
                  20
                  21
                  22
                  23
                  24
                  25
                  26
                  27
                  28
                  29
                  30
                  31
                  32
                  33
                  34
                  35
                  36
                  37
                  38
                  39
                  40
                  41
                  42
                  43
                  44
                  45
                  46
                  47
                  48
                  49
                  50
                  51
                  52
                  53
                  54
                  55
                  56
                  57
                  58
                  59
                  60
                  61
                  62
                  63
                  64
                  65
                  66
                  67
                  68
                  69
                  70
                  71
                  72
                  73
                  74
                  75
                  76
                  77
                  78
                  79
                  80
                  81
                  82
                  83
                  84
                  85
                  86
                  87
                  88
                  89
                  90
                  91
                  92
                  93
                  94
                  95
                  96
                  97
                  98
                  99
                 100
                 101
                 102
                 103
                 104
                 105
                 106
                 107
                 108
                 109
                 110
                 111
                 112
                 113
                 114
                 115
                 116
                 117
                 118
                 119
                 120
                 121
                 122
                 123
                 124
                 125
                 126
                 127
                 128
                 129
                 130
                 131
                 132
                 133
                 134
                 135
                 136
                 137
                 138
                 139
                 140
                 141
                 142
                 143
                 144
                 145
                 146
                 147
                 148
                 149
                 150
                 151
                 152
                 153
                 154
                 155
                 156
                 157
                 158
                 159
                 160
                 161
                 162
                 163
                 164
                 165
                 166
                 167
                 168
                 169
                 170
                 171
                 172
                 173
                 174
                 175
                 176
                 177
                 178
                 179
                 180
                 181
                 182
                 183
                 184
                 185
                 186
                 187
                 188
                 189
                 190
                 191
                 192
                 193
                 194
                 195
                 196
                 197
                 198
                 199
                 200
                 201
                 202
                 203
                 204
                 205
                 206
                 207
                 208
                 209
                 210
                 211
                 212
                 213
                 214
                 215
                 216
                 217
                 218
                 219
                 220
                 221
                 222
                 223
                 224
                 225
                 226
                 227
                 228
                 229
                 230
                 231
                 232
                 233
                 234
                 235
                 236
                 237
                 238
                 239
                 240
                 241
                 242
                 243
                 244
                 245
                 246
                 247
                 248
                 249
                 250
                 251
                 252
                 253
                 254
                 255
                 256
                 257
                 258
                 259
                 260
                 261
                 262
                 263
                 264
                 265
                 266
                 267
                 268
                 269
                 270
                 271
                 272
                 273
                 274
                 275
                 276
                 277
                 278
                 279
                 280
                 281
                 282
                 283
                 284
                 285
                 286
                 287
                 288
                 289
                 290
                 291
                 292
                 293
                 294
                 295
                 296
                 297
                 298
                 299
                 300
                 301
                 302
                 303
                 304
                 305
                 306
                 307
                 308
                 309
                 310
                 311
                 312
                 313
                 314
                 315
                 316
                 317
                 318
                 319
                 320
                 321
                 322
                 323
                 324
                 325
                 326
                 327
                 328
                 329
                 330
                 331
                 332
                 333
                 334
                 335
                 336
                 337
                 338
                 339
                 340
                 341
                 342
                 343
                 344
                 345
                 346
                 347
                 348
                 349
                 350
                 351
                 352
                 353
                 354
                 355
                 356
                 357
                 358
                 359
                 360
                 361
                 362
                 363
                 364
                 365
                 366
                 367
                 368
                 369
                 370
                 371
                 372
                 373
                 374
                 375
                 376
                 377
                 378
                 379
                 380
                 381
                 382
                 383
                 384
                 385
                 386
                 387
                 388
                 389
                 390
                 391
                 392
                 393
                 394
                 395
                 396
                 397
                 398
                 399
                 400
                 401
                 402
                 403
                 404
                 405
                 406
                 407
                 408
                 409
                 410
                 411
                 412
                 413
                 414
                 415
                 416
                 417
                 418
                 419
                 420
                 421
                 422
                 423
                 424
                 425
                 426
                 427
                 428
                 429
                 430
                 431
                 432
                 433
                 434
                 435
                 436
                 437
                 438
                 439
                 440
                 441
                 442
                 443
                 444
                 445
                 446
                 447
                 448
                 449
                 450
                 451
                 452
                 453
                 454
                 455
                 456
                 457
                 458
                 459
                 460
                 461
                 462
                 463
                 464
                 465
                 466
                 467
                 468
                 469
                 470
                 471
                 472
                 473
                 474
                 475
                 476
                 477
                 478
                 479
                 480
                 481
                 482
                 483
                 484
                 485
                 486
                 487
                 488
                 489
                 490
                 491
                 492
                 493
                 494
                 495
                 496
                 497
                 498
                 499
                 500
                 501
                 502
                 503
                 504
                 505
                 506
                 507
                 508
                 509
                 510
                 511
                 512
                 513
                 514
                 515
                 516
                 517
                 518
                 519
                 520
                 521
                 522
                 523
                 524
                 525
                 526
                 527
                 528
                 529
                 530
                 531
                 532
                 533
                 534
                 535
                 536
                 537
                 538
                 539
                 540
                 541
                 542
                 543
                 544
                 545
                 546
                 547
                 548
                 549
                 550
                 551
                 552
                 553
                 554
                 555
                 556
                 557
                 558
                 559
                 560
                 561
                 562
                 563
                 564
                 565
                 566
                 567
                 568
                 569
                 570
                 571
                 572
                 573
                 574
                 575
                 576
                 577
                 578
                 579
                 580
                 581
                 582
                 583
                 584
                 585
                 586
                 587
                 588
                 589
                 590
                 591
                 592
                 593
                 594
                 595
                 596
                 597
                 598
                 599
                 600
                 601
                 602
                 603
                 604
                 605
                 606
                 607
                 608
                 609
                 610
                 611
                 612
                 613
                 614
                 615
                 616
                 617
                 618
                 619
                 620
                 621
                 622
                 623
                 624
                 625
                 626
                 627
                 628
                 629
                 630
                 631
                 632
                 633
                 634
                 635
                 636
                 637
                 638
                 639
                 640
                 641
                 642
                 643
                 644
                 645
                 646
                 647
                 648
                 649
                 650
                 651
                 652
                 653
                 654
                 655
                 656
                 657
                 658
                 659
                 660
                 661
                 662
                 663
                 664
                 665
                 666
                 667
                 668
                 669
                 670
                 671
                 672
                 673
                 674
                 675
                 676
                 677
                 678
                 679
                 680
                 681
                 682
                 683
                 684
                 685
                 686
                 687
                 688
                 689
                 690
                 691
                 692
                 693
                 694
                 695
                 696
                 697
                 698
                 699
                 700
                 701
                 702
                 703
                 704
                 705
                 706
                 707
                 708
                 709
                 710
                 711
                 712
                 713
                 714
                 715
                 716
                 717
                 718
                 719
                 720
                 721
                 722
                 723
                 724
                 725
                 726
                 727
                 728
                 729
                 730
                 731
                 732
                 733
                 734
                 735
                 736
                 737
                 738
                 739
                 740
                 741
                 742
                 743
                 744
                 745
                 746
                 747
                 748
                 749
                 750
                 751
                 752
                 753
                 754
                 755
                 756
                 757
                 758
                 759
                 760
                 761
                 762
                 763
                 764
                 765
                 766
                 767
                 768
                 769
                 770
                 771
                 772
                 773
                 774
                 775
                 776
                 777
                 778
                 779
                 780
                 781
                 782
                 783
                 784
                 785
                 786
                 787
                 788
                 789
                 790
                 791
                 792
                 793
                 794
                 795
                 796
                 797
                 798
                 799
                 800
                 801
                 802
                 803
                 804
                 805
                 806
                 807
                 808
                 809
                 810
                 811
                 812
                 813
                 814
                 815
                 816
                 817
                 818
                 819
                 820
                 821
                 822
                 823
                 824
                 825
                 826
                 827
                 828
                 829
                 830
                 831
                 832
                 833
                 834
                 835
                 836
                 837
                 838
                 839
                 840
                 841
                 842
                 843
                 844
                 845
                 846
                 847
                 848
                 849
                 850
                 851
                 852
                 853
                 854
                 855
                 856
                 857
                 858
                 859
                 860
                 861
                 862
                 863
                 864
                 865
                 866
                 867
                 868
                 869
                 870
                 871
                 872
                 873
                 874
                 875
                 876
                 877
                 878
                 879
                 880
                 881
                 882
                 883
                 884
                 885
                 886
                 887
                 888
                 889
                 890
                 891
                 892
                 893
                 894
                 895
                 896
                 897
                 898
                 899
                 900
                 901
                 902
                 903
                 904
                 905
                 906
                 907
                 908
                 909
                 910
                 911
                 912
                 913
                 914
                 915
                 916
                 917
                 918
                 919
                 920
                 921
                 922
                 923
                 924
                 925
                 926
                 927
                 928
                 929
                 930
                 931
                 932
                 933
                 934
                 935
                 936
                 937
                 938
                 939
                 940
                 941
                 942
                 943
                 944
                 945
                 946
                 947
                 948
                 949
                 950
                 951
                 952
                 953
                 954
                 955
                 956
                 957
                 958
                 959
                 960
                 961
                 962
                 963
                 964
                 965
                 966
                 967
                 968
                 969
                 970
                 971
                 972
                 973
                 974
                 975
                 976
                 977
                 978
                 979
                 980
                 981
                 982
                 983
                 984
                 985
                 986
                 987
                 988
                 989
                 990
                 991
                 992
                 993
                 994
                 995
                 996
                 997
                 998
                 999
                1000
                1001
                1002
                1003
                1004
                1005
                1006
                1007
                1008
                1009
                1010
                1011
                1012
                1013
                1014
                1015
                1016
                1017
                1018
                1019
                1020
                1021
                1022
                1023
                1024
                1025
                1026
                1027
                1028
                1029
                1030
                1031
                1032
                1033
                1034
                1035
                1036
                1037
                1038
                1039
                1040
                1041
                1042
                1043
                1044
                1045
                1046
                1047
                1048
                1049
                1050
                1051
                1052
                1053
                1054
                1055
                1056
                1057
                1058
                1059
                1060
                1061
                1062
                1063
                1064
                1065
                1066
                1067
                1068
                1069
                1070
                1071
                1072
                1073
                1074
                1075
                1076
                1077
                1078
                1079
                1080
                1081
                1082
                1083
                1084
                1085
                1086
                1087
                1088
                1089
                1090
                1091
                1092
                1093
                1094
                1095
                1096
                1097
                1098
                1099
                1100
                1101
                1102
                1103
                1104
                1105
                1106
                1107
                1108
                1109
                1110
                1111
                1112
                1113
                1114
                1115
                1116
                1117
                1118
                1119
                1120
                1121
                1122
                1123
                1124
                1125
                1126
                1127
                1128
                1129
                1130
                1131
                1132
                1133
                1134
                1135
                1136
                1137
                1138
                1139
                1140
                1141
                1142
                1143
                1144
                1145
                1146
                1147
                1148
                1149
                1150
                1151
                1152
                1153
                1154
                1155
                1156
                1157
                1158
                1159
                1160
                1161
                1162
                1163
                1164
                1165
                1166
                1167
                1168
                1169
                1170
                1171
                1172
                1173
                1174
                1175
                1176
                1177
                1178
                1179
                1180
                1181
                1182
                1183
                1184
                1185
                1186
                1187
                1188
                1189
                1190
                1191
                1192
                1193
                1194
                1195
                1196
                1197
                1198
                1199
                1200
                1201
                1202
                1203
                1204
                1205
                1206
                1207
                1208
                1209
                1210
                1211
                1212
                1213
                1214
                1215
                1216
                1217
                1218
                1219
                1220
                1221
                1222
                1223
                1224
                1225
                1226
                1227
                1228
                1229
                1230
                1231
                1232
                1233
                1234
                1235
                1236
                1237
                1238
                1239
                1240
                1241
                1242
                1243
                1244
                1245
                1246
                1247
                1248
                1249
                1250
                1251
                1252
                1253
                1254
                1255
                1256
                1257
                1258
                1259
                1260
                1261
                1262
                1263
                1264
                1265
                1266
                1267
                1268
                1269
                1270
                1271
                1272
                1273
                1274
                1275
                1276
                1277
                1278
                1279
                1280
                1281
                1282
                1283
                1284
                1285
                1286
                1287
                1288
                1289
                1290
                1291
                1292
                1293
                1294
                1295
                1296
                1297
                1298
                1299
                1300
                1301
                1302
                1303
                1304
                1305
                1306
                1307
                1308
                1309
                1310
                1311
                1312
                1313
                1314
                1315
                1316
                1317
                1318
                1319
                1320
                1321
                1322
                1323
                1324
                1325
                1326
                1327
                1328
                1329
                1330
                1331
                1332
                1333
                1334
                1335
                1336
                1337
                1338
                1339
                1340
                1341
                1342
                1343
                1344
                1345
                1346
                1347
                1348
                1349
                1350
                1351
                1352
                1353
                1354
                1355
                1356
                1357
                1358
                1359
                1360
                1361
                1362
                1363
                1364
                1365
                1366
                1367
                1368
                1369
                1370
                1371
                1372
                1373
                1374
                1375
                1376
                1377
                1378
                1379
                1380
                1381
                1382
                1383
                1384
                1385
                1386
                1387
                1388
                1389
                1390
                1391
                1392
                1393
                1394
                1395
                1396
                1397
                1398
                1399
                1400
                1401
                1402
                1403
                1404
                1405
                1406
                1407
                1408
                1409
                1410
                1411
                1412
                1413
                1414
                1415
                1416
                1417
                1418
                1419
                1420
                1421
                1422
                1423
                1424
                1425
                1426
                1427
                1428
                1429
                1430
                1431
                1432
                1433
                1434
                1435
                1436
                1437
                1438
                1439
                1440
                1441
                1442
                1443
                1444
                1445
                1446
                1447
                1448
                1449
                1450
                1451
                1452
                1453
                1454
                1455
                1456
                1457
                1458
                1459
                1460
                1461
                1462
                1463
                1464
                1465
                1466
                1467
                1468
                1469
                1470
                1471
                1472
                1473
                1474
                1475
                1476
                1477
                1478
                1479
                1480
                1481
                1482
                1483
                1484
                1485
                1486
                1487
                1488
                1489
                1490
                1491
                1492
                1493
                1494
                1495
                1496
                1497
                1498
                1499
                1500
                1501
                1502
                1503
                1504
                1505
                1506
                1507
                1508
                1509
                1510
                1511
                1512
                1513
                1514
                1515
                1516
                1517
                1518
                1519
                1520
                1521
                1522
                1523
                1524
                1525
                1526
                1527
                1528
                1529
                1530
                1531
                1532
                1533
                1534
                1535
                1536
                1537
                1538
                1539
                1540
                1541
                1542
                1543
                1544
                1545
                1546
                1547
                1548
                1549
                1550
                1551
                1552
                1553
                1554
                1555
                1556
                1557
                1558
                1559
                1560
                1561
                1562
                1563
                1564
                1565
                1566
                1567
                1568
                1569
                1570
                1571
                1572
                1573
                1574
                1575
                1576
                1577
                1578
                1579
                1580
                1581
                1582
                1583
                1584
                1585
                1586
                1587
                1588
                1589
                1590
                1591
                1592
                1593
                1594
                1595
                1596
                1597
                1598
                1599
                1600
                1601
                1602
                1603
                1604
                1605
                1606
                1607
                1608
                1609
                1610
                1611
                1612
                1613
                1614
                1615
                1616
                1617
                1618
                1619
                1620
                1621
                1622
                1623
                1624
                1625
                1626
                1627
                1628
                1629
                1630
                1631
                1632
                1633
                1634
                1635
                1636
                1637
                1638
                1639
                1640
                1641
                1642
                1643
                1644
                1645
                1646
                1647
                1648
                1649
                1650
                1651
                1652
                1653
                1654
                1655
                1656
                1657
                1658
                1659
                1660
                1661
                1662
                1663
                1664
                1665
                1666
                1667
                1668
                1669
                1670
                1671
                1672
                1673
                1674
                1675
                1676
                1677
                1678
                1679
                1680
                1681
                1682
                1683
                1684
                1685
                1686
                1687
                1688
                1689
                1690
                1691
                1692
                1693
                1694
                1695
                1696
                1697
                1698
                1699
                1700
                1701
                1702
                1703
                1704
                1705
                1706
                1707
                1708
                1709
                1710
                1711
                1712
                1713
                1714
                1715
                1716
                1717
                1718
                1719
                1720
                1721
                1722
                1723
                1724
                1725
                1726
                1727
                1728
                1729
                1730
                1731
                1732
                1733
                1734
                1735
                1736
                1737
                1738
                1739
                1740
                1741
                1742
                1743
                1744
                1745
                1746
                1747
                1748
                1749
                1750
                1751
                1752
                1753
                1754
                1755
                1756
                1757
                1758
                1759
                1760
                1761
                1762
                1763
                1764
                1765
                1766
                1767
                1768
                1769
                1770
                1771
                1772
                1773
                1774
                1775
                1776
                1777
                1778
                1779
                1780
                1781
                1782
                1783
                1784
                1785
                1786
                1787
                1788
                1789
                1790
                1791
                1792
                1793
                1794
                1795
                1796
                1797
                1798
                1799
                1800
                1801
                1802
                1803
                1804
                1805
                1806
                1807
                1808
                1809
                1810
                1811
                1812
                1813
                1814
                1815
                1816
                1817
                1818
                1819
                1820
                1821
                1822
                1823
                1824
                1825
                1826
                1827
                1828
                1829
                1830
                1831
                1832
                1833
                1834
                1835
                1836
                1837
                1838
                1839
                1840
                1841
                1842
                1843
                1844
                1845
                1846
                1847
                1848
                1849
                1850
                1851
                1852
                1853
                1854
                1855
                1856
                1857
                1858
                1859
                1860
                1861
                1862
                1863
                1864
                1865
                1866
                1867
                1868
                1869
                1870
                1871
                1872
                1873
                1874
                1875
                1876
                1877
                1878
                1879
                1880
                1881
                1882
                1883
                1884
                1885
                1886
                1887
                1888
                1889
                1890
                1891
                1892
                1893
                1894
                1895
                1896
                1897
                1898
                1899
                1900
                1901
                1902
                1903
                1904
                1905
                1906
                1907
                1908
                1909
                1910
                1911
                1912
                1913
                1914
                1915
                1916
                1917
                1918
                1919
                1920
                1921
                1922
                1923
                1924
                1925
                1926
                1927
                1928
                1929
                1930
                1931
                1932
                1933
                1934
                1935
                1936
                1937
                1938
                1939
                1940
                1941
                1942
                1943
                1944
                1945
                1946
                1947
                1948
                1949
                1950
  
SCALARS                         bodyid  double 1
LOOKUP_TABLE default
                   1
                   1
                   1
                   1
                   1
                   1
                   1
                   1
                   1
                   1
                   1
                   1
                   1
                   1
                   1
                   1
                   1
                   1
                   1
                   1
                   1
                   1
                   1
                   1
                   1
                   1
                   1
                   1
                   1
                   1
                   1
                   1
                   1
                   1
                   1
                   1
                   1
                   1
                   1
                   1
                   1
                   1
                   1
                   1
                   1
                   1
                   1
                   1
                   1
                   1
                   1
                   1
                   1
                   1
                   1
                   1
                   1
                   1
                   1
                   1
                   1
                   1
                   1
                   1
                   1
                   1
                   1
                   1
                   1
                   1
                   1
                   1
                   1
                   1
                   1
                   1
                   1
                   1
                   1
                   1
                   1
                   1
                   1
                   1
                   1
                   1
                   1
                   1
                   1
                   1
                   1
                   1
                   1
                   1
                   1
                   1
                   1
                   1
                   1
                   1
                   1
                   1
                   1
                   1
                   1
                   1
                   1
                   1
                   1
                   1
                   1
                   1
                   1
                   1
                   1
                   1
                   1
                   1
                   1
                   1
                   1
                   1
                   1
                   1
                   1
                   1
                   1
                   1
                   1
                   1
                   1
                   1
                   1
                   1
                   1
                   1
                   1
                   1
                   1
                   1
                   1
                   1
                   1
                   1
                   1
                   1
                   1
                   1
                   1
                   1
                   1
                   1
                   1
                   1
                   1
                   1
                   1
                   1
                   1
                   1
                   1
                   1
                   1
                   1
                   1
                   1
                   1
                   1
                   1
                   1
                   1
                   1
                   1
                   1
                   1
                   1
                   1
                   1
                   1
                   1
                   1
                   1
                   1
                   1
                   1
                   1
                   1
                   1
                   1
                   1
                   1
                   1
                   1
                   1
                   1
                   1
                   1
                   1
                   1
                   1
                   1
                   1
                   1
                   1
                   1
                   1
                   1
                   1
                   1
                   1
                   1
                   1
                   1
                   1
                   1
                   1
                   1
                   1
                   1
                   1
                   1
                   1
                   1
                   1
                   1
                   1
                   1
                   1
                   1
                   1
                   1
                   1
                   1
                   1
                   1
                   1
                   1
                   1
                   1
                   1
                   1
                   1
                   1
                   1
                   1
                   1
                   1
                   1
                   1
                   1
                   1
                   1
                   1
                   1
                   1
                   1
                   1
                   1
                   1
                   1
                   1
                   1
                   1
                   1
                   1
                   1
                   1
                   1
                   1
                   1
                   1
                   1
                   1
                   1
                   1
                   1
                   1
                   1
                   1
                   1
                   1
                   1
                   1
                   1
                   1
                   1
                   1
                   1
                   1
                   1
                   1
                   1
                   1
                   1
                   1
                   1
                   1
                   1
                   1
                   1
                   1
                   1
                   1
                   1
                   1
                   1
                   1
                   1
                   1
                   1
                   1
                   1
                   1
                   1
                   1
                   1
                   1
                   1
                   1
                   1
                   1
                   1
                   1
                   1
                   1
                   1
                   1
                   1
                   1
                   1
                   1
                   1
                   1
                   1
                   1
                   1
                   1
                   1
                   1
                   1
                   1
                   1
                   1
                   1
                   1
                   1
                   1
                   1
                   1
                   1
                   1
                   1
                   1
                   1
                   1
                   1
                   1
                   1
                   1
                   1
                   1
                   1
                   1
                   1
                   1
                   1
                   1
                   1
                   1
                   1
                   1
                   1
                   1
                   1
                   1
                   1
                   1
                   1
                   1
                   1
                   1
                   1
                   1
                   1
                   1
                   1
                   1
                   1
                   1
                   1
                   1
                   1
                   1
                   1
                   1
                   1
                   1
                   1
                   1
                   1
                   1
                   1
                   1
                   1
                   1
                   1
                   1
                   1
                   1
                   1
                   1
                   1
                   1
                   1
                   1
                   1
                   1
                   1
                   1
                   1
                   1
                   1
                   1
                   1
                   1
                   1
                   1
                   1
                   1
                   1
                   1
                   1
                   1
                   1
                   1
                   1
                   1
                   1
                   1
                   1
                   1
                   1
                   1
                   1
                   1
                   1
                   1
                   1
                   1
                   1
                   1
                   1
                   1
                   1
                   1
                   1
                   1
                   1
                   1
                   1
                   1
                   1
                   1
                   1
                   1
                   1
                   1
                   1
                   1
                   1
                   1
                   1
                   1
                   1
                   1
                   1
                   1
                   1
                   1
                   1
                   1
                   1
                   1
                   1
                   1
                   1
                   1
                   1
                   1
                   1
                   1
                   1
                   1
                   1
                   1
                   1
                   1
                   1
                   1
                   1
                   1
                   1
                   1
                   1
                   1
                   1
                   1
                   1
                   1
                   1
                   1
                   1
                   1
                   1
                   1
                   1
                   1
                   1
                   1
                   1
                   1
                   1
                   1
                   1
                   1
                   1
                   1
                   1
                   1
                   1
                   1
                   1
                   1
                   1
                   1
                   1
                   1
                   1
                   1
                   1
                   1
                   1
                   1
                   1
                   1
                   1
                   1
                   1
                   1
                   1
                   1
                   1
                   1
                   1
                   1
                   1
                   1
                   1
                   1
                   1
                   1
                   1
                   1
                   1
                   1
                   1
                   1
                   1
                   1
                   1
                   1
                   1
                   1
                   1
                   1
                   1
                   1
                   1
                   1
                   1
                   1
                   1
                   1
                   1
                   1
                   1
                   1
                   1
                   1
                   1
                   1
                   1
                   1
                   1
                   1
                   1
                   1
                   1
                   1
                   1
                   1
                   1
                   1
                   1
                   1
                   1
                   1
                   1
                   1
                   1
                   1
                   1
                   1
                   1
                   1
                   1
                   1
                   1
                   1
                   1
                   1
                   1
                   1
                   1
                   1
                   1
                   1
                   1
                   1
                   1
                   1
                   1
                   1
                   1
                   1
                   1
                   1
                   1
                   1
                   1
                   1
                   1
                   1
                   1
                   1
                   1
                   1
                   1
                   1
                   1
                   1
                   1
                   1
                   1
                   1
                   1
                   1
                   1
                   1
                   1
                   1
                   1
                   1
                   1
                   1
                   1
                   1
                   1
                   1
                   1
                   1
                   1
                   1
                   1
                   1
                   1
                   1
                   1
                   1
                   1
                   1
                   1
                   1
                   1
                   1
                   1
                   1
                   1
                   1
                   1
                   1
                   1
                   1
                   1
                   1
                   1
                   1
                   1
                   1
                   1
                   1
                   1
                   1
                   1
                   1
                   1
                   1
                   1
                   1
                   1
                   1
                   1
                   1
                   1
                   1
                   1
                   1
                   1
                   1
                   1
                   1
                   1
                   1
                   1
                   1
                   1
                   1
                   1
                   1
                   1
                   1
                   1
                   1
                   1
                   1
                   1
                   1
                   1
                   1
                   1
                   1
                   1
                   1
                   1
                   1
                   1
                   1
                   1
                   1
                   1
                   1
                   1
                   1
                   1
                   1
                   1
                   1
                   1
                   1
                   1
                   1
                   1
                   1
                   1
                   1
                   1
                   1
                   1
                   1
                   1
                   1
                   1
                   1
                   1
                   1
                   1
                   1
                   1
                   1
                   1
                   1
                   1
                   1
                   1
                   1
                   1
                   1
                   1
                   1
                   1
                   1
                   1
                   1
                   1
                   1
                   1
                   1
                   1
                   1
                   1
                   1
                   1
                   1
                   1
                   1
                   1
                   1
                   1
                   1
                   1
                   1
                   1
                   1
                   1
                   1
                   1
                   1
                   1
                   1
                   1
                   1
                   1
                   1
                   1
                   1
                   1
                   1
                   1
                   1
                   1
                   1
                   1
                   1
                   1
                   1
                   1
                   1
                   1
                   1
                   1
                   1
                   1
                   1
                   1
                   1
                   1
                   1
                   1
                   1
                   1
                   1
                   1
                   1
                   1
                   1
                   1
                   1
                   1
                   1
                   1
                   1
                   1
                   1
                   1
                   1
                   1
                   1
                   1
                   1
                   1
                   1
                   1
                   1
                   1
                   1
                   1
                   1
                   1
                   1
                   1
                   1
                   1
                   1
                   1
                   1
                   1
                   1
                   1
                   1
                   1
                   1
                   1
                   1
                   1
                   1
                   1
                   1
                   1
                   1
                   1
                   1
                   1
                   1
                   1
                   1
                   1
                   1
                   1
                   1
                   1
                   1
                   1
                   1
                   1
                   1
                   1
                   1
                   1
                   1
                   1
                   1
                   1
                   1
                   1
                   1
                   1
                   1
                   1
                   1
                   1
                   1
                   1
                   1
                   1
                   1
                   1
                   1
                   1
                   1
                   1
                   1
                   1
                   1
                   1
                   1
                   1
                   1
                   1
                   1
                   1
                   1
                   1
                   1
                   1
                   1
                   1
                   1
                   1
                   1
                   1
                   1
                   1
                   1
                   1
                   1
                   1
                   1
                   1
                   1
                   1
                   1
                   1
                   1
                   1
                   1
                   1
                   1
                   1
                   1
                   1
                   1
                   1
                   1
                   1
                   1
                   1
                   1
                   1
                   1
                   1
                   1
                   1
                   1
                   1
                   1
                   1
                   1
                   1
                   1
                   1
                   1
                   1
                   1
                   1
                   1
                   1
                   1
                   1
                   1
                   1
                   1
                   1
                   1
                   1
                   1
                   1
                   1
                   1
                   1
                   1
                   1
                   1
                   1
                   1
                   1
                   1
                   1
                   1
                   1
                   1
                   1
                   1
                   1
                   1
                   1
                   1
                   1
                   1
                   1
                   1
                   1
                   1
                   1
                   1
                   1
                   1
                   1
                   1
                   1
                   1
                   1
                   1
                   1
                   1
                   1
                   1
                   1
                   1
                   1
                   1
                   1
                   1
                   1
                   1
                   1
                   1
                   1
                   1
                   1
                   1
                   1
                   1
                   1
                   1
                   1
                   1
                   1
                   1
                   1
                   1
                   1
                   1
                   1
                   1
                   1
                   1
                   1
                   1
                   1
                   1
                   1
                   1
                   1
                   1
                   1
                   1
                   1
                   1
                   1
                   1
                   1
                   1
                   1
                   1
                   1
                   1
                   1
                   1
                   1
                   1
                   1
                   1
                   1
                   1
                   1
                   1
                   1
                   1
                   1
                   1
                   1
                   1
                   1
                   1
                   1
                   1
                   1
                   1
                   1
                   1
                   1
                   1
                   1
                   1
                   1
                   1
                   1
                   1
                   1
                   1
                   1
                   1
                   1
                   1
                   1
                   1
                   1
                   1
                   1
                   1
                   1
                   1
                   1
                   1
                   1
                   1
                   1
                   1
                   1
                   1
                   1
                   1
                   1
                   1
                   1
                   1
                   1
                   1
                   1
                   1
                   1
                   1
                   1
                   1
                   1
                   1
                   1
                   1
                   1
                   1
                   1
                   1
                   1
                   1
                   1
                   1
                   1
                   1
                   1
                   1
                   1
                   1
                   1
                   1
                   1
                   1
                   1
                   1
                   1
                   1
                   1
                   1
                   1
                   1
                   1
                   1
                   1
                   1
                   1
                   1
                   1
                   1
                   1
                   1
                   1
                   1
                   1
                   1
                   1
                   1
                   1
                   1
                   1
                   1
                   1
                   1
                   1
                   1
                   1
                   1
                   1
                   1
                   1
                   1
                   1
                   1
                   1
                   1
                   1
                   1
                   1
                   1
                   1
                   1
                   1
                   1
                   1
                   1
                   1
                   1
                   1
                   1
                   1
                   1
                   1
                   1
                   1
                   1
                   1
                   1
                   1
                   1
                   1
                   1
                   1
                   1
                   1
                   1
                   1
                   1
                   1
                   1
                   1
                   1
                   1
                   1
                   1
                   1
                   1
                   1
                   1
                   1
                   1
                   1
                   1
                   1
                   1
                   1
                   1
                   1
                   1
                   1
                   1
                   1
                   1
                   1
                   1
                   1
                   1
                   1
                   1
                   1
                   1
                   1
                   1
                   1
                   1
                   1
                   1
                   1
                   1
                   1
                   1
                   1
                   1
                   1
                   1
                   1
                   1
                   1
                   1
                   1
                   1
                   1
                   1
                   1
                   1
                   1
                   1
                   1
                   1
                   1
                   1
                   1
                   1
                   1
                   1
                   1
                   1
                   1
                   1
                   1
                   1
                   1
                   1
                   1
                   1
                   1
                   1
                   1
                   1
                   1
                   1
                   1
                   1
                   1
                   1
                   1
                   1
                   1
                   1
                   1
                   1
                   1
                   1
                   1
                   1
                   1
                   1
                   1
                   1
                   1
                   1
                   1
                   1
                   1
                   1
                   1
                   1
                   1
                   1
                   1
                   1
                   1
                   1
                   1
                   1
                   1
                   1
                   1
                   1
                   1
                   1
                   1
                   1
                   1
                   1
                   1
                   1
                   1
                   1
                   1
                   1
                   1
                   1
                   1
                   1
                   1
                   1
                   1
                   1
                   1
                   1
                   1
                   1
                   1
                   1
                   1
                   1
                   1
                   1
                   1
                   1
                   1
                   1
                   1
                   1
                   1
                   1
                   1
                   1
                   1
                   1
                   1
                   1
                   1
                   1
                   1
                   1
                   1
                   1
                   1
                   1
                   1
                   1
                   1
                   1
                   1
                   1
                   1
                   1
                   1
                   1
                   1
                   1
                   1
                   1
                   1
                   1
                   1
                   1
                   1
                   1
                   1
                   1
                   1
                   1
                   1
                   1
                   1
                   1
                   1
                   1
                   1
                   1
                   1
                   1
                   1
                   1
                   1
                   1
                   1
                   1
                   1
                   1
                   1
                   1
                   1
                   1
                   1
                   1
                   1
                   1
                   1
                   1
                   1
                   1
                   1
                   1
                   1
                   1
                   1
                   1
                   1
                   1
                   1
                   1
                   1
                   1
                   1
                   1
                   1
                   1
                   1
                   1
                   1
                   1
                   1
                   1
                   1
                   1
                   1
                   1
                   1
                   1
                   1
                   1
                   1
                   1
                   1
                   1
                   1
                   1
                   1
                   1
                   1
                   1
                   1
                   1
                   1
                   1
                   1
                   1
                   1
                   1
                   1
                   1
                   1
                   1
                   1
                   1
                   1
                   1
                   1
                   1
                   1
                   1
                   1
                   1
                   1
                   1
                   1
                   1
                   1
                   1
                   1
                   1
                   1
                   1
                   1
                   1
                   1
                   1
                   1
                   1
                   1
                   1
                   1
                   1
                   1
                   1
                   1
                   1
                   1
                   1
                   1
                   1
                   1
                   1
                   1
                   1
                   1
                   1
                   1
                   1
                   1
                   1
                   1
                   1
                   1
                   1
                   1
                   1
                   1
                   1
                   1
                   1
                   1
                   1
                   1
                   1
                   1
                   1
                   1
                   1
                   1
                   1
                   1
                   1
                   1
                   1
                   1
                   1
                   1
                   1
                   1
                   1
                   1
                   1
                   1
                   1
                   1
                   1
                   1
                   1
                   1
                   1
                   1
                   1
                   1
                   1
                   1
                   1
                   1
                   1
                   1
                   1
                   1
                   1
                   1
                   1
                   1
                   1
                   1
                   1
                   1
                   1
                   1
                   1
                   1
                   1
                   1
                   1
                   1
                   1
                   1
                   1
                   1
                   1
                   1
                   1
                   1
                   1
                   1
                   1
                   1
                   1
                   1
                   1
                   1
                   1
                   1
                   1
                   1
                   1
                   1
                   1
                   1
                   1
                   1
                   1
                   1
                   1
                   1
                   1
                   1
                   1
                   1
                   1
                   1
                   1
                   1
                   1
                   1
                   1
                   1
                   1
                   1
                   1
                   1
                   1
                   1
                   1
                   1
                   1
                   1
                   1
                   1
                   1
                   1
                   1
                   1
                   1
                   1
                   1
                   1
                   1
                   1
                   1
                   1
                   1
                   1
                   1
                   1
                   1
                   1
                   1
                   1
                   1
                   1
                   1
                   1
                   1
                   1
                   1
                   1
                   1
                   1
                   1
                   1
                   1
                   1
                   1
                   1
                   1
                   1
                   1
                   1
                   1
                   1
                   1
                   1
                   1
                   1
                   1
                   1
                   1
                   1
                   1
                   1
                   1
                   1
                   1
                   1
                   1
                   1
                   1
                   1
                   1
                   1
                   1
                   1
                   1
                   1
                   1
                   1
                   1
                   1
                   1
                   1
                   1
                   1
                   1
                   1
                   1
                   1
                   1
                   1
                   1
                   1
                   1
                   1
                   1
                   1
                   1
                   1
                   1
                   1
                   1
                   1
                   1
                   1
                   1
                   1
                   1
                   1
                   1
                   1
                   1
                   1
                   1
                   1
                   1
                   1
                   1
                   1
                   1
                   1
                   1
                   1
                   1
                   1
                   1
                   1
                   1
                   1
                   1
                   1
                   1
                   1
                   1
                   1
                   1
                   1
                   1
                   1
                   1
                   1
                   1
                   1
                   1
                   1
                   1
                   1
                   1
                   1
                   1
                   1
                   1
                   1
                   1
                   1
                   1
                   1
                   1
                   1
                   1
                   1
                   1
                   1
                   1
                   1
                   1
                   1
                   1
                   1
                   1
                   1
                   1
                   1
                   1
                   1
                   1
                   1
                   1
                   1
                   1
                   1
                   1
                   1
                   1
                   1
                   1
                   1
                   1
                   1
                   1
                   1
                   1
                   1
                   1
                   1
                   1
                   1
                   1
                   1
                   1
                   1
                   1
                   1
                   1
                   1
                   1
                   1
                   1
                   1
                   1
                   1
                   1
                   1
                   1
                   1
                   1
                   1
                   1
                   1
                   1
                   1
                   1
                   1
                   1
                   1
                   1
                   1
                   1
                   1
                   1
                   1
                   1
                   1
                   1
                   1
                   1
                   1
                   1
                   1
                   1
                   1
                   1
                   1
  
SCALARS                  material_type  double 1
LOOKUP_TABLE default
                   2
                   2
                   2
                   2
                   2
                   2
                   2
                   2
                   2
                   2
                   2
                   2
                   2
                   2
                   2
                   2
                   2
                   2
                   2
                   2
                   2
                   2
                   2
                   2
                   2
                   2
                   2
                   2
                   2
                   2
                   2
                   2
                   2
                   2
                   2
                   2
                   2
                   2
                   2
                   2
                   2
                   2
                   2
                   2
                   2
                   2
                   2
                   2
                   2
                   2
                   2
                   2
                   2
                   2
                   2
                   2
                   2
                   2
                   2
                   2
                   2
                   2
                   2
                   2
                   2
                   2
                   2
                   2
                   2
                   2
                   2
                   2
                   2
                   2
                   2
                   2
                   2
                   2
                   2
                   2
                   2
                   2
                   2
                   2
                   2
                   2
                   2
                   2
                   2
                   2
                   2
                   2
                   2
                   2
                   2
                   2
                   2
                   2
                   2
                   2
                   2
                   2
                   2
                   2
                   2
                   2
                   2
                   2
                   2
                   2
                   2
                   2
                   2
                   2
                   2
                   2
                   2
                   2
                   2
                   2
                   2
                   2
                   2
                   2
                   2
                   2
                   2
                   2
                   2
                   2
                   2
                   2
                   2
                   2
                   2
                   2
                   2
                   2
                   2
                   2
                   2
                   2
                   2
                   2
                   2
                   2
                   2
                   2
                   2
                   2
                   2
                   2
                   2
                   2
                   2
                   2
                   2
                   2
                   2
                   2
                   2
                   2
                   2
                   2
                   2
                   2
                   2
                   2
                   2
                   2
                   2
                   2
                   2
                   2
                   2
                   2
                   2
                   2
                   2
                   2
                   2
                   2
                   2
                   2
                   2
                   2
                   2
                   2
                   2
                   2
                   2
                   2
                   2
                   2
                   2
                   2
                   2
                   2
                   2
                   2
                   2
                   2
                   2
                   2
                   2
                   2
                   2
                   2
                   2
                   2
                   2
                   2
                   2
                   2
                   2
                   2
                   2
                   2
                   2
                   2
                   2
                   2
                   2
                   2
                   2
                   2
                   2
                   2
                   2
                   2
                   2
                   2
                   2
                   2
                   2
                   2
                   2
                   2
                   2
                   2
                   2
                   2
                   2
                   2
                   2
                   2
                   2
                   2
                   2
                   2
                   2
                   2
                   2
                   2
                   2
                   2
                   2
                   2
                   2
                   2
                   2
                   2
                   2
                   2
                   2
                   2
                   2
                   2
                   2
                   2
                   2
                   2
                   2
                   2
                   2
                   2
                   2
                   2
                   2
                   2
                   2
                   2
                   2
                   2
                   2
                   2
                   2
                   2
                   2
                   2
                   2
                   2
                   2
                   2
                   2
                   2
                   2
                   2
                   2
                   2
                   2
                   2
                   2
                   2
                   2
                   2
                   2
                   2
                   2
                   2
                   2
                   2
                   2
                   2
                   2
                   2
                   2
                   2
                   2
                   2
                   2
                   2
                   2
                   2
                   2
                   2
                   2
                   2
                   2
                   2
                   2
                   2
                   2
                   2
                   2
                   2
                   2
                   2
                   2
                   2
                   2
                   2
                   2
                   2
                   2
                   2
                   2
                   2
                   2
                   2
                   2
                   2
                   2
                   2
                   2
                   2
                   2
                   2
                   2
                   2
                   2
                   2
                   2
                   2
                   2
                   2
                   2
                   2
                   2
                   2
                   2
                   2
                   2
                   2
                   2
                   2
                   2
                   2
                   2
                   2
                   2
                   2
                   2
                   2
                   2
                   2
                   2
                   2
                   2
                   2
                   2
                   2
                   2
                   2
                   2
                   2
                   2
                   2
                   2
                   2
                   2
                   2
                   2
                   2
                   2
                   2
                   2
                   2
                   2
                   2
                   2
                   2
                   2
                   2
                   2
                   2
                   2
                   2
                   2
                   2
                   2
                   2
                   2
                   2
                   2
                   2
                   2
                   2
                   2
                   2
                   2
                   2
                   2
                   2
                   2
                   2
                   2
                   2
                   2
                   2
                   2
                   2
                   2
                   2
                   2
                   2
                   2
                   2
                   2
                   2
                   2
                   2
                   2
                   2
                   2
                   2
                   2
                   2
                   2
                   2
                   2
                   2
                   2
                   2
                   2
                   2
                   2
                   2
                   2
                   2
                   2
                   2
                   2
                   2
                   2
                   2
                   2
                   2
                   2
                   2
                   2
                   2
                   2
                   2
                   2
                   2
                   2
                   2
                   2
                   2
                   2
                   2
                   2
                   2
                   2
                   2
                   2
                   2
                   2
                   2
                   2
                   2
                   2
                   2
                   2
                   2
                   2
                   2
                   2
                   2
                   2
                   2
                   2
                   2
                   2
                   2
                   2
                   2
                   2
                   2
                   2
                   2
                   2
                   2
                   2
                   2
                   2
                   2
                   2
                   2
                   2
                   2
                   2
                   2
                   2
                   2
                   2
                   2
                   2
                   2
                   2
                   2
                   2
                   2
                   2
                   2
                   2
                   2
                   2
                   2
                   2
                   2
                   2
                   2
                   2
                   2
                   2
                   2
                   2
                   2
                   2
                   2
                   2
                   2
                   2
                   2
                   2
                   2
                   2
                   2
                   2
                   2
                   2
                   2
                   2
                   2
                   2
                   2
                   2
                   2
                   2
                   2
                   2
                   2
                   2
                   2
                   2
                   2
                   2
                   2
                   2
                   2
                   2
                   2
                   2
                   2
                   2
                   2
                   2
                   2
                   2
                   2
                   2
                   2
                   2
                   2
                   2
                   2
                   2
                   2
                   2
                   2
                   2
                   2
                   2
                   2
                   2
                   2
                   2
                   2
                   2
                   2
                   2
                   2
                   2
                   2
                   2
                   2
                   2
                   2
                   2
                   2
                   2
                   2
                   2
                   2
                   2
                   2
                   2
                   2
                   2
                   2
                   2
                   2
                   2
                   2
                   2
                   2
                   2
                   2
                   2
                   2
                   2
                   2
                   2
                   2
                   2
                   2
                   2
                   2
                   2
                   2
                   2
                   2
                   2
                   2
                   2
                   2
                   2
                   2
                   2
                   2
                   2
                   2
                   2
                   2
                   2
                   2
                   2
                   2
                   2
                   2
                   2
                   2
                   2
                   2
                   2
                   2
                   2
                   2
                   2
                   2
                   2
                   2
                   2
                   2
                   2
                   2
                   2
                   2
                   2
                   2
                   2
                   2
                   2
                   2
                   2
                   2
                   2
                   2
                   2
                   2
                   2
                   2
                   2
                   2
                   2
                   2
                   2
                   2
                   2
                   2
                   2
                   2
                   2
                   2
                   2
                   2
                   2
                   2
                   2
                   2
                   2
                   2
                   2
                   2
                   2
                   2
                   2
                   2
                   2
                   2
                   2
                   2
                   2
                   2
                   2
                   2
                   2
                   2
                   2
                   2
                   2
                   2
                   2
                   2
                   2
                   2
                   2
                   2
                   2
                   2
                   2
                   2
                   2
                   2
                   2
                   2
                   2
                   2
                   2
                   2
                   2
                   2
                   2
                   2
                   2
                   2
                   2
                   2
                   2
                   2
                   2
                   2
                   2
                   2
                   2
                   2
                   2
                   2
                   2
                   2
                   2
                   2
                   2
                   2
                   2
                   2
                   2
                   2
                   2
                   2
                   2
                   2
                   2
                   2
                   2
                   2
                   2
                   2
                   2
                   2
                   2
                   2
                   2
                   2
                   2
                   2
                   2
                   2
                   2
                   2
                   2
                   2
                   2
                   2
                   2
                   2
                   2
                   2
                   2
                   2
                   2
                   2
                   2
                   2
                   2
                   2
                   2
                   2
                   2
                   2
                   2
                   2
                   2
                   2
                   2
                   2
                   2
                   2
                   2
                   2
                   2
                   2
                   2
                   2
                   2
                   2
                   2
                   2
                   2
                   2
                   2
                   2
                   2
                   2
                   2
                   2
                   2
                   2
                   2
                   2
                   2
                   2
                   2
                   2
                   2
                   2
                   2
                   2
                   2
                   2
                   2
                   2
                   2
                   2
                   2
                   2
                   2
                   2
                   2
                   2
                   2
                   2
                   2
                   2
                   2
                   2
                   2
                   2
                   2
                   2
                   2
                   2
                   2
                   2
                   2
                   2
                   2
                   2
                   2
                   2
                   2
                   2
                   2
                   2
                   2
                   2
                   2
                   2
                   2
                   2
                   2
                   2
                   2
                   2
                   2
                   2
                   2
                   2
                   2
                   2
                   2
                   2
                   2
                   2
                   2
                   2
                   2
                   2
                   2
                   2
                   2
                   2
                   2
                   2
                   2
                   2
                   2
                   2
                   2
                   2
                   2
                   2
                   2
                   2
                   2
                   2
                   2
                   2
                   2
                   2
                   2
                   2
                   2
                   2
                   2
                   2
                   2
                   2
                   2
                   2
                   2
                   2
                   2
                   2
                   2
                   2
                   2
                   2
                   2
                   2
                   2
                   2
                   2
                   2
                   2
                   2
                   2
                   2
                   2
                   2
                   2
                   2
                   2
                   2
                   2
                   2
                   2
                   2
                   2
                   2
                   2
                   2
                   2
                   2
                   2
                   2
                   2
                   2
                   2
                   2
                   2
                   2
                   2
                   2
                   2
                   2
                   2
                   2
                   2
                   2
                   2
                   2
                   2
                   2
                   2
                   2
                   2
                   2
                   2
                   2
                   2
                   2
                   2
                   2
                   2
                   2
                   2
                   2
                   2
                   2
                   2
                   2
                   2
                   2
                   2
                   2
                   2
                   2
                   2
                   2
                   2
                   2
                   2
                   2
                   2
                   2
                   2
                   2
                   2
                   2
                   2
                   2
                   2
                   2
                   2
                   2
                   2
                   2
                   2
                   2
                   2
                   2
                   2
                   2
                   2
                   2
                   2
                   2
                   2
                   2
                   2
                   2
                   2
                   2
                   2
                   2
                   2
                   2
                   2
                   2
                   2
                   2
                   2
                   2
                   2
                   2
                   2
                   2
                   2
                   2
                   2
                   2
                   2
                   2
                   2
                   2
                   2
                   2
                   2
                   2
                   2
                   2
                   2
                   2
                   2
                   2
                   2
                   2
                   2
                   2
                   2
                   2
                   2
                   2
                   2
                   2
                   2
                   2
                   2
                   2
                   2
                   2
                   2
                   2
                   2
                   2
                   2
                   2
                   2
                   2
                   2
                   2
                   2
                   2
                   2
                   2
                   2
                   2
                   2
                   2
                   2
                   2
                   2
                   2
                   2
                   2
                   2
                   2
                   2
                   2
                   2
                   2
                   2
                   2
                   2
                   2
                   2
                   2
                   2
                   2
                   2
                   2
                   2
                   2
                   2
                   2
                   2
                   2
                   2
                   2
                   2
                   2
                   2
                   2
                   2
                   2
                   2
                   2
                   2
                   2
                   2
                   2
                   2
                   2
                   2
                   2
                   2
                   2
                   2
                   2
                   2
                   2
                   2
                   2
                   2
                   2
                   2
                   2
                   2
                   2
                   2
                   2
                   2
                   2
                   2
                   2
                   2
                   2
                   2
                   2
                   2
                   2
                   2
                   2
                   2
                   2
                   2
                   2
                   2
                   2
                   2
                   2
                   2
                   2
                   2
                   2
                   2
                   2
                   2
                   2
                   2
                   2
                   2
                   2
                   2
                   2
                   2
                   2
                   2
                   2
                   2
                   2
                   2
                   2
                   2
                   2
                   2
                   2
                   2
                   2
                   2
                   2
                   2
                   2
                   2
                   2
                   2
                   2
                   2
                   2
                   2
                   2
                   2
                   2
                   2
                   2
                   2
                   2
                   2
                   2
                   2
                   2
                   2
                   2
                   2
                   2
                   2
                   2
                   2
                   2
                   2
                   2
                   2
                   2
                   2
                   2
                   2
                   2
                   2
                   2
                   2
                   2
                   2
                   2
                   2
                   2
                   2
                   2
                   2
                   2
                   2
                   2
                   2
                   2
                   2
                   2
                   2
                   2
                   2
                   2
                   2
                   2
                   2
                   2
                   2
                   2
                   2
                   2
                   2
                   2
                   2
                   2
                   2
                   2
                   2
                   2
                   2
                   2
                   2
                   2
                   2
                   2
                   2
                   2
                   2
                   2
                   2
                   2
                   2
                   2
                   2
                   2
                   2
                   2
                   2
                   2
                   2
                   2
                   2
                   2
                   2
                   2
                   2
                   2
                   2
                   2
                   2
                   2
                   2
                   2
                   2
                   2
                   2
                   2
                   2
                   2
                   2
                   2
                   2
                   2
                   2
                   2
                   2
                   2
                   2
                   2
                   2
                   2
                   2
                   2
                   2
                   2
                   2
                   2
                   2
                   2
                   2
                   2
                   2
                   2
                   2
                   2
                   2
                   2
                   2
                   2
                   2
                   2
                   2
                   2
                   2
                   2
                   2
                   2
                   2
                   2
                   2
                   2
                   2
                   2
                   2
                   2
                   2
                   2
                   2
                   2
                   2
                   2
                   2
                   2
                   2
                   2
                   2
                   2
                   2
                   2
                   2
                   2
                   2
                   2
                   2
                   2
                   2
                   2
                   2
                   2
                   2
                   2
                   2
                   2
                   2
                   2
                   2
                   2
                   2
                   2
                   2
                   2
                   2
                   2
                   2
                   2
                   2
                   2
                   2
                   2
                   2
                   2
                   2
                   2
                   2
                   2
                   2
                   2
                   2
                   2
                   2
                   2
                   2
                   2
                   2
                   2
                   2
                   2
                   2
                   2
                   2
                   2
                   2
                   2
                   2
                   2
                   2
                   2
                   2
                   2
                   2
                   2
                   2
                   2
                   2
                   2
                   2
                   2
                   2
                   2
                   2
                   2
                   2
                   2
                   2
                   2
                   2
                   2
                   2
                   2
                   2
                   2
                   2
                   2
                   2
                   2
                   2
                   2
                   2
                   2
                   2
                   2
                   2
                   2
                   2
                   2
                   2
                   2
                   2
                   2
                   2
                   2
                   2
                   2
                   2
                   2
                   2
                   2
                   2
                   2
                   2
                   2
                   2
                   2
                   2
                   2
                   2
                   2
                   2
                   2
                   2
                   2
                   2
                   2
                   2
                   2
                   2
                   2
                   2
                   2
                   2
                   2
                   2
                   2
                   2
                   2
                   2
                   2
                   2
                   2
                   2
                   2
                   2
                   2
                   2
                   2
                   2
                   2
                   2
                   2
                   2
                   2
                   2
                   2
                   2
                   2
                   2
                   2
                   2
                   2
                   2
                   2
                   2
                   2
                   2
                   2
                   2
                   2
                   2
                   2
                   2
                   2
                   2
                   2
                   2
                   2
                   2
                   2
                   2
                   2
                   2
                   2
                   2
                   2
                   2
                   2
                   2
                   2
                   2
                   2
                   2
                   2
                   2
                   2
                   2
                   2
                   2
                   2
                   2
                   2
                   2
                   2
                   2
                   2
                   2
                   2
                   2
                   2
                   2
                   2
                   2
                   2
                   2
                   2
                   2
                   2
                   2
                   2
                   2
                   2
                   2
                   2
                   2
                   2
                   2
                   2
                   2
                   2
                   2
                   2
                   2
                   2
                   2
                   2
                   2
                   2
                   2
                   2
                   2
                   2
                   2
                   2
                   2
                   2
                   2
                   2
                   2
                   2
                   2
                   2
                   2
                   2
                   2
                   2
                   2
                   2
                   2
                   2
                   2
                   2
                   2
                   2
                   2
                   2
                   2
                   2
                   2
                   2
                   2
                   2
                   2
                   2
                   2
                   2
                   2
                   2
                   2
                   2
                   2
                   2
                   2
                   2
                   2
                   2
                   2
                   2
                   2
                   2
                   2
                   2
                   2
                   2
                   2
                   2
                   2
                   2
                   2
                   2
                   2
                   2
                   2
                   2
                   2
                   2
                   2
                   2
                   2
                   2
                   2
                   2
                   2
                   2
                   2
                   2
                   2
                   2
                   2
                   2
                   2
                   2
                   2
                   2
                   2
                   2
                   2
                   2
                   2
                   2
                   2
                   2
                   2
                   2
                   2
                   2
                   2
                   2
                   2
                   2
                   2
                   2
                   2
                   2
                   2
                   2
                   2
                   2
                   2
                   2
                   2
                   2
                   2
                   2
                   2
                   2
                   2
                   2
                   2
                   2
                   2
                   2
                   2
                   2
                   2
                   2
                   2
                   2
                   2
                   2
                   2
                   2
                   2
                   2
                   2
                   2
                   2
                   2
                   2
                   2
                   2
                   2
                   2
                   2
                   2
                   2
                   2
                   2
                   2
                   2
                   2
                   2
                   2
                   2
                   2
                   2
                   2
                   2
                   2
                   2
                   2
                   2
                   2
                   2
                   2
                   2
                   2
                   2
                   2
                   2
                   2
                   2
                   2
                   2
                   2
                   2
                   2
                   2
                   2
                   2
                   2
                   2
                   2
                   2
                   2
                   2
                   2
                   2
                   2
                   2
                   2
                   2
                   2
                   2
                   2
                   2
                   2
                   2
                   2
                   2
                   2
                   2
                   2
                   2
                   2
                   2
                   2
                   2
                   2
                   2
                   2
                   2
                   2
                   2
                   2
                   2
                   2
                   2
                   2
                   2
                   2
                   2
                   2
                   2
                   2
                   2
                   2
                   2
                   2
                   2
                   2
                   2
                   2
                   2
                   2
                   2
                   2
                   2
                   2
                   2
                   2
                   2
                   2
                   2
                   2
                   2
                   2
                   2
                   2
                   2
                   2
                   2
                   2
                   2
                   2
                   2
                   2
                   2
                   2
                   2
                   2
                   2
                   2
                   2
                   2
                   2
                   2
                   2
                   2
                   2
                   2
                   2
                   2
                   2
  
SCALARS                       fixity_x  double 1
LOOKUP_TABLE default
                   0
                   0
                   0
                   0
                   0
                   0
                   0
                   0
                   0
                   0
                   0
                   0
                   0
                   0
                   0
                   0
                   0
                   0
                   0
                   0
                   0
                   0
                   0
                   0
                   0
                   0
                   0
                   0
                   0
                   0
                   0
                   0
                   0
                   0
                   0
                   0
                   0
                   0
                   0
                   0
                   0
                   0
                   0
                   0
                   0
                   0
                   0
                   0
                   0
                   0
                   0
                   0
                   0
                   0
                   0
                   0
                   0
                   0
                   0
                   0
                   0
                   0
                   0
                   0
                   0
                   0
                   0
                   0
                   0
                   0
                   0
                   0
                   0
                   0
                   0
                   0
                   0
                   0
                   0
                   0
                   0
                   0
                   0
                   0
                   0
                   0
                   0
                   0
                   0
                   0
                   0
                   0
                   0
                   0
                   0
                   0
                   0
                   0
                   0
                   0
                   0
                   0
                   0
                   0
                   0
                   0
                   0
                   0
                   0
                   0
                   0
                   0
                   0
                   0
                   0
                   0
                   0
                   0
                   0
                   0
                   0
                   0
                   0
                   0
                   0
                   0
                   0
                   0
                   0
                   0
                   0
                   0
                   0
                   0
                   0
                   0
                   0
                   0
                   0
                   0
                   0
                   0
                   0
                   0
                   0
                   0
                   0
                   0
                   0
                   0
                   0
                   0
                   0
                   0
                   0
                   0
                   0
                   0
                   0
                   0
                   0
                   0
                   0
                   0
                   0
                   0
                   0
                   0
                   0
                   0
                   0
                   0
                   0
                   0
                   0
                   0
                   0
                   0
                   0
                   0
                   0
                   0
                   0
                   0
                   0
                   0
                   0
                   0
                   0
                   0
                   0
                   0
                   0
                   0
                   0
                   0
                   0
                   0
                   0
                   0
                   0
                   0
                   0
                   0
                   0
                   0
                   0
                   0
                   0
                   0
                   0
                   0
                   0
                   0
                   0
                   0
                   0
                   0
                   0
                   0
                   0
                   0
                   0
                   0
                   0
                   0
                   0
                   0
                   0
                   0
                   0
                   0
                   0
                   0
                   0
                   0
                   0
                   0
                   0
                   0
                   0
                   0
                   0
                   0
                   0
                   0
                   0
                   0
                   0
                   0
                   0
                   0
                   0
                   0
                   0
                   0
                   0
                   0
                   0
                   0
                   0
                   0
                   0
                   0
                   0
                   0
                   0
                   0
                   0
                   0
                   0
                   0
                   0
                   0
                   0
                   0
                   0
                   0
                   0
                   0
                   0
                   0
                   0
                   0
                   0
                   0
                   0
                   0
                   0
                   0
                   0
                   0
                   0
                   0
                   0
                   0
                   0
                   0
                   0
                   0
                   0
                   0
                   0
                   0
                   0
                   0
                   0
                   0
                   0
                   0
                   0
                   0
                   0
                   0
                   0
                   0
                   0
                   0
                   0
                   0
                   0
                   0
                   0
                   0
                   0
                   0
                   0
                   0
                   0
                   0
                   0
                   0
                   0
                   0
                   0
                   0
                   0
                   0
                   0
                   0
                   0
                   0
                   0
                   0
                   0
                   0
                   0
                   0
                   0
                   0
                   0
                   0
                   0
                   0
                   0
                   0
                   0
                   0
                   0
                   0
                   0
                   0
                   0
                   0
                   0
                   0
                   0
                   0
                   0
                   0
                   0
                   0
                   0
                   0
                   0
                   0
                   0
                   0
                   0
                   0
                   0
                   0
                   0
                   0
                   0
                   0
                   0
                   0
                   0
                   0
                   0
                   0
                   0
                   0
                   0
                   0
                   0
                   0
                   0
                   0
                   0
                   0
                   0
                   0
                   0
                   0
                   0
                   0
                   0
                   0
                   0
                   0
                   0
                   0
                   0
                   0
                   0
                   0
                   0
                   0
                   0
                   0
                   0
                   0
                   0
                   0
                   0
                   0
                   0
                   0
                   0
                   0
                   0
                   0
                   0
                   0
                   0
                   0
                   0
                   0
                   0
                   0
                   0
                   0
                   0
                   0
                   0
                   0
                   0
                   0
                   0
                   0
                   0
                   0
                   0
                   0
                   0
                   0
                   0
                   0
                   0
                   0
                   0
                   0
                   0
                   0
                   0
                   0
                   0
                   0
                   0
                   0
                   0
                   0
                   0
                   0
                   0
                   0
                   0
                   0
                   0
                   0
                   0
                   0
                   0
                   0
                   0
                   0
                   0
                   0
                   0
                   0
                   0
                   0
                   0
                   0
                   0
                   0
                   0
                   0
                   0
                   0
                   0
                   0
                   0
                   0
                   0
                   0
                   0
                   0
                   0
                   0
                   0
                   0
                   0
                   0
                   0
                   0
                   0
                   0
                   0
                   0
                   0
                   0
                   0
                   0
                   0
                   0
                   0
                   0
                   0
                   0
                   0
                   0
                   0
                   0
                   0
                   0
                   0
                   0
                   0
                   0
                   0
                   0
                   0
                   0
                   0
                   0
                   0
                   0
                   0
                   0
                   0
                   0
                   0
                   0
                   0
                   0
                   0
                   0
                   0
                   0
                   0
                   0
                   0
                   0
                   0
                   0
                   0
                   0
                   0
                   0
                   0
                   0
                   0
                   0
                   0
                   0
                   0
                   0
                   0
                   0
                   0
                   0
                   0
                   0
                   0
                   0
                   0
                   0
                   0
                   0
                   0
                   0
                   0
                   0
                   0
                   0
                   0
                   0
                   0
                   0
                   0
                   0
                   0
                   0
                   0
                   0
                   0
                   0
                   0
                   0
                   0
                   0
                   0
                   0
                   0
                   0
                   0
                   0
                   0
                   0
                   0
                   0
                   0
                   0
                   0
                   0
                   0
                   0
                   0
                   0
                   0
                   0
                   0
                   0
                   0
                   0
                   0
                   0
                   0
                   0
                   0
                   0
                   0
                   0
                   0
                   0
                   0
                   0
                   0
                   0
                   0
                   0
                   0
                   0
                   0
                   0
                   0
                   0
                   0
                   0
                   0
                   0
                   0
                   0
                   0
                   0
                   0
                   0
                   0
                   0
                   0
                   0
                   0
                   0
                   0
                   0
                   0
                   0
                   0
                   0
                   0
                   0
                   0
                   0
                   0
                   0
                   0
                   0
                   0
                   0
                   0
                   0
                   0
                   0
                   0
                   0
                   0
                   0
                   0
                   0
                   0
                   0
                   0
                   0
                   0
                   0
                   0
                   0
                   0
                   0
                   0
                   0
                   0
                   0
                   0
                   0
                   0
                   0
                   0
                   0
                   0
                   0
                   0
                   0
                   0
                   0
                   0
                   0
                   0
                   0
                   0
                   0
                   0
                   0
                   0
                   0
                   0
                   0
                   0
                   0
                   0
                   0
                   0
                   0
                   0
                   0
                   0
                   0
                   0
                   0
                   0
                   0
                   0
                   0
                   0
                   0
                   0
                   0
                   0
                   0
                   0
                   0
                   0
                   0
                   0
                   0
                   0
                   0
                   0
                   0
                   0
                   0
                   0
                   0
                   0
                   0
                   0
                   0
                   0
                   0
                   0
                   0
                   0
                   0
                   0
                   0
                   0
                   0
                   0
                   0
                   0
                   0
                   0
                   0
                   0
                   0
                   0
                   0
                   0
                   0
                   0
                   0
                   0
                   0
                   0
                   0
                   0
                   0
                   0
                   0
                   0
                   0
                   0
                   0
                   0
                   0
                   0
                   0
                   0
                   0
                   0
                   0
                   0
                   0
                   0
                   0
                   0
                   0
                   0
                   0
                   0
                   0
                   0
                   0
                   0
                   0
                   0
                   0
                   0
                   0
                   0
                   0
                   0
                   0
                   0
                   0
                   0
                   0
                   0
                   0
                   0
                   0
                   0
                   0
                   0
                   0
                   0
                   0
                   0
                   0
                   0
                   0
                   0
                   0
                   0
                   0
                   0
                   0
                   0
                   0
                   0
                   0
                   0
                   0
                   0
                   0
                   0
                   0
                   0
                   0
                   0
                   0
                   0
                   0
                   0
                   0
                   0
                   0
                   0
                   0
                   0
                   0
                   0
                   0
                   0
                   0
                   0
                   0
                   0
                   0
                   0
                   0
                   0
                   0
                   0
                   0
                   0
                   0
                   0
                   0
                   0
                   0
                   0
                   0
                   0
                   0
                   0
                   0
                   0
                   0
                   0
                   0
                   0
                   0
                   0
                   0
                   0
                   0
                   0
                   0
                   0
                   0
                   0
                   0
                   0
                   0
                   0
                   0
                   0
                   0
                   0
                   0
                   0
                   0
                   0
                   0
                   0
                   0
                   0
                   0
                   0
                   0
                   0
                   0
                   0
                   0
                   0
                   0
                   0
                   0
                   0
                   0
                   0
                   0
                   0
                   0
                   0
                   0
                   0
                   0
                   0
                   0
                   0
                   0
                   0
                   0
                   0
                   0
                   0
                   0
                   0
                   0
                   0
                   0
                   0
                   0
                   0
                   0
                   0
                   0
                   0
                   0
                   0
                   0
                   0
                   0
                   0
                   0
                   0
                   0
                   0
                   0
                   0
                   0
                   0
                   0
                   0
                   0
                   0
                   0
                   0
                   0
                   0
                   0
                   0
                   0
                   0
                   0
                   0
                   0
                   0
                   0
                   0
                   0
                   0
                   0
                   0
                   0
                   0
                   0
                   0
                   0
                   0
                   0
                   0
                   0
                   0
                   0
                   0
                   0
                   0
                   0
                   0
                   0
                   0
                   0
                   0
                   0
                   0
                   0
                   0
                   0
                   0
                   0
                   0
                   0
                   0
                   0
                   0
                   0
                   0
                   0
                   0
                   0
                   0
                   0
                   0
                   0
                   0
                   0
                   0
                   0
                   0
                   0
                   0
                   0
                   0
                   0
                   0
                   0
                   0
                   0
                   0
                   0
                   0
                   0
                   0
                   0
                   0
                   0
                   0
                   0
                   0
                   0
                   0
                   0
                   0
                   0
                   0
                   0
                   0
                   0
                   0
                   0
                   0
                   0
                   0
                   0
                   0
                   0
                   0
                   0
                   0
                   0
                   0
                   0
                   0
                   0
                   0
                   0
                   0
                   0
                   0
                   0
                   0
                   0
                   0
                   0
                   0
                   0
                   0
                   0
                   0
                   0
                   0
                   0
                   0
                   0
                   0
                   0
                   0
                   0
                   0
                   0
                   0
                   0
                   0
                   0
                   0
                   0
                   0
                   0
                   0
                   0
                   0
                   0
                   0
                   0
                   0
                   0
                   0
                   0
                   0
                   0
                   0
                   0
                   0
                   0
                   0
                   0
                   0
                   0
                   0
                   0
                   0
                   0
                   0
                   0
                   0
                   0
                   0
                   0
                   0
                   0
                   0
                   0
                   0
                   0
                   0
                   0
                   0
                   0
                   0
                   0
                   0
                   0
                   0
                   0
                   0
                   0
                   0
                   0
                   0
                   0
                   0
                   0
                   0
                   0
                   0
                   0
                   0
                   0
                   0
                   0
                   0
                   0
                   0
                   0
                   0
                   0
                   0
                   0
                   0
                   0
                   0
                   0
                   0
                   0
                   0
                   0
                   0
                   0
                   0
                   0
                   0
                   0
                   0
                   0
                   0
                   0
                   0
                   0
                   0
                   0
                   0
                   0
                   0
                   0
                   0
                   0
                   0
                   0
                   0
                   0
                   0
                   0
                   0
                   0
                   0
                   0
                   0
                   0
                   0
                   0
                   0
                   0
                   0
                   0
                   0
                   0
                   0
                   0
                   0
                   0
                   0
                   0
                   0
                   0
                   0
                   0
                   0
                   0
                   0
                   0
                   0
                   0
                   0
                   0
                   0
                   0
                   0
                   0
                   0
                   0
                   0
                   0
                   0
                   0
                   0
                   0
                   0
                   0
                   0
                   0
                   0
                   0
                   0
                   0
                   0
                   0
                   0
                   0
                   0
                   0
                   0
                   0
                   0
                   0
                   0
                   0
                   0
                   0
                   0
                   0
                   0
                   0
                   0
                   0
                   0
                   0
                   0
                   0
                   0
                   0
                   0
                   0
                   0
                   0
                   0
                   0
                   0
                   0
                   0
                   0
                   0
                   0
                   0
                   0
                   0
                   0
                   0
                   0
                   0
                   0
                   0
                   0
                   0
                   0
                   0
                   0
                   0
                   0
                   0
                   0
                   0
                   0
                   0
                   0
                   0
                   0
                   0
                   0
                   0
                   0
                   0
                   0
                   0
                   0
                   0
                   0
                   0
                   0
                   0
                   0
                   0
                   0
                   0
                   0
                   0
                   0
                   0
                   0
                   0
                   0
                   0
                   0
                   0
                   0
                   0
                   0
                   0
                   0
                   0
                   0
                   0
                   0
                   0
                   0
                   0
                   0
                   0
                   0
                   0
                   0
                   0
                   0
                   0
                   0
                   0
                   0
                   0
                   0
                   0
                   0
                   0
                   0
                   0
                   0
                   0
                   0
                   0
                   0
                   0
                   0
                   0
                   0
                   0
                   0
                   0
                   0
                   0
                   0
                   0
                   0
                   0
                   0
                   0
                   0
                   0
                   0
                   0
                   0
                   0
                   0
                   0
                   0
                   0
                   0
                   0
                   0
                   0
                   0
                   0
                   0
                   0
                   0
                   0
                   0
                   0
                   0
                   0
                   0
                   0
                   0
                   0
                   0
                   0
                   0
                   0
                   0
                   0
                   0
                   0
                   0
                   0
                   0
                   0
                   0
                   0
                   0
                   0
                   0
                   0
                   0
                   0
                   0
                   0
                   0
                   0
                   0
                   0
                   0
                   0
                   0
                   0
                   0
                   0
                   0
                   0
                   0
                   0
                   0
                   0
                   0
                   0
                   0
                   0
                   0
                   0
                   0
                   0
                   0
                   0
                   0
                   0
                   0
                   0
                   0
                   0
                   0
                   0
                   0
                   0
                   0
                   0
                   0
                   0
                   0
                   0
                   0
                   0
                   0
                   0
                   0
                   0
                   0
                   0
                   0
                   0
                   0
                   0
                   0
                   0
                   0
                   0
                   0
                   0
                   0
                   0
                   0
                   0
                   0
                   0
                   0
                   0
                   0
                   0
                   0
                   0
                   0
                   0
                   0
                   0
                   0
                   0
                   0
                   0
                   0
                   0
                   0
                   0
                   0
                   0
                   0
                   0
                   0
                   0
                   0
                   0
                   0
                   0
                   0
                   0
                   0
                   0
                   0
                   0
                   0
                   0
                   0
                   0
                   0
                   0
                   0
                   0
                   0
                   0
                   0
                   0
                   0
                   0
                   0
                   0
                   0
                   0
                   0
                   0
                   0
                   0
                   0
                   0
                   0
                   0
                   0
                   0
                   0
                   0
                   0
                   0
                   0
                   0
                   0
                   0
                   0
                   0
                   0
                   0
                   0
                   0
                   0
                   0
                   0
                   0
                   0
                   0
                   0
                   0
                   0
                   0
                   0
                   0
                   0
                   0
                   0
                   0
                   0
                   0
                   0
                   0
                   0
                   0
                   0
                   0
                   0
                   0
                   0
                   0
                   0
                   0
                   0
                   0
                   0
                   0
                   0
                   0
                   0
                   0
                   0
                   0
                   0
                   0
                   0
                   0
                   0
                   0
                   0
                   0
                   0
                   0
                   0
                   0
                   0
                   0
                   0
                   0
                   0
                   0
                   0
                   0
                   0
                   0
                   0
                   0
                   0
                   0
                   0
                   0
                   0
                   0
                   0
                   0
                   0
                   0
                   0
                   0
                   0
                   0
                   0
                   0
                   0
                   0
                   0
                   0
                   0
                   0
                   0
                   0
                   0
                   0
                   0
                   0
                   0
                   0
                   0
                   0
                   0
                   0
                   0
                   0
                   0
                   0
                   0
                   0
                   0
                   0
                   0
                   0
                   0
                   0
                   0
                   0
                   0
                   0
                   0
                   0
                   0
                   0
                   0
                   0
                   0
                   0
                   0
                   0
                   0
                   0
                   0
                   0
                   0
                   0
                   0
                   0
                   0
                   0
                   0
                   0
                   0
                   0
                   0
                   0
                   0
                   0
                   0
                   0
                   0
                   0
                   0
                   0
                   0
                   0
                   0
                   0
                   0
                   0
                   0
                   0
                   0
                   0
                   0
                   0
                   0
                   0
                   0
                   0
                   0
                   0
                   0
                   0
                   0
                   0
                   0
                   0
                   0
                   0
                   0
                   0
                   0
                   0
                   0
                   0
                   0
                   0
                   0
                   0
                   0
                   0
                   0
                   0
                   0
                   0
                   0
                   0
                   0
                   0
                   0
                   0
                   0
                   0
                   0
                   0
                   0
                   0
                   0
                   0
                   0
                   0
                   0
                   0
                   0
                   0
                   0
                   0
                   0
                   0
                   0
                   0
                   0
                   0
                   0
                   0
                   0
                   0
                   0
                   0
                   0
                   0
                   0
                   0
                   0
                   0
                   0
                   0
                   0
                   0
                   0
                   0
                   0
                   0
                   0
                   0
                   0
                   0
                   0
                   0
                   0
                   0
                   0
                   0
                   0
                   0
                   0
                   0
                   0
                   0
                   0
                   0
                   0
                   0
                   0
                   0
                   0
                   0
                   0
                   0
                   0
                   0
                   0
                   0
                   0
                   0
                   0
                   0
                   0
                   0
                   0
                   0
                   0
                   0
                   0
                   0
                   0
                   0
                   0
                   0
                   0
                   0
                   0
                   0
                   0
                   0
                   0
                   0
                   0
                   0
                   0
                   0
                   0
                   0
                   0
                   0
                   0
                   0
                   0
                   0
                   0
                   0
                   0
                   0
                   0
  
SCALARS                       fixity_y  double 1
LOOKUP_TABLE default
                   0
                   0
                   0
                   0
                   0
                   0
                   0
                   0
                   0
                   0
                   0
                   0
                   0
                   0
                   0
                   0
                   0
                   0
                   0
                   0
                   0
                   0
                   0
                   0
                   0
                   0
                   0
                   0
                   0
                   0
                   0
                   0
                   0
                   0
                   0
                   0
                   0
                   0
                   0
                   0
                   0
                   0
                   0
                   0
                   0
                   0
                   0
                   0
                   0
                   0
                   0
                   0
                   0
                   0
                   0
                   0
                   0
                   0
                   0
                   0
                   0
                   0
                   0
                   0
                   0
                   0
                   0
                   0
                   0
                   0
                   0
                   0
                   0
                   0
                   0
                   0
                   0
                   0
                   0
                   0
                   0
                   0
                   0
                   0
                   0
                   0
                   0
                   0
                   0
                   0
                   0
                   0
                   0
                   0
                   0
                   0
                   0
                   0
                   0
                   0
                   0
                   0
                   0
                   0
                   0
                   0
                   0
                   0
                   0
                   0
                   0
                   0
                   0
                   0
                   0
                   0
                   0
                   0
                   0
                   0
                   0
                   0
                   0
                   0
                   0
                   0
                   0
                   0
                   0
                   0
                   0
                   0
                   0
                   0
                   0
                   0
                   0
                   0
                   0
                   0
                   0
                   0
                   0
                   0
                   0
                   0
                   0
                   0
                   0
                   0
                   0
                   0
                   0
                   0
                   0
                   0
                   0
                   0
                   0
                   0
                   0
                   0
                   0
                   0
                   0
                   0
                   0
                   0
                   0
                   0
                   0
                   0
                   0
                   0
                   0
                   0
                   0
                   0
                   0
                   0
                   0
                   0
                   0
                   0
                   0
                   0
                   0
                   0
                   0
                   0
                   0
                   0
                   0
                   0
                   0
                   0
                   0
                   0
                   0
                   0
                   0
                   0
                   0
                   0
                   0
                   0
                   0
                   0
                   0
                   0
                   0
                   0
                   0
                   0
                   0
                   0
                   0
                   0
                   0
                   0
                   0
                   0
                   0
                   0
                   0
                   0
                   0
                   0
                   0
                   0
                   0
                   0
                   0
                   0
                   0
                   0
                   0
                   0
                   0
                   0
                   0
                   0
                   0
                   0
                   0
                   0
                   0
                   0
                   0
                   0
                   0
                   0
                   0
                   0
                   0
                   0
                   0
                   0
                   0
                   0
                   0
                   0
                   0
                   0
                   0
                   0
                   0
                   0
                   0
                   0
                   0
                   0
                   0
                   0
                   0
                   0
                   0
                   0
                   0
                   0
                   0
                   0
                   0
                   0
                   0
                   0
                   0
                   0
                   0
                   0
                   0
                   0
                   0
                   0
                   0
                   0
                   0
                   0
                   0
                   0
                   0
                   0
                   0
                   0
                   0
                   0
                   0
                   0
                   0
                   0
                   0
                   0
                   0
                   0
                   0
                   0
                   0
                   0
                   0
                   0
                   0
                   0
                   0
                   0
                   0
                   0
                   0
                   0
                   0
                   0
                   0
                   0
                   0
                   0
                   0
                   0
                   0
                   0
                   0
                   0
                   0
                   0
                   0
                   0
                   0
                   0
                   0
                   0
                   0
                   0
                   0
                   0
                   0
                   0
                   0
                   0
                   0
                   0
                   0
                   0
                   0
                   0
                   0
                   0
                   0
                   0
                   0
                   0
                   0
                   0
                   0
                   0
                   0
                   0
                   0
                   0
                   0
                   0
                   0
                   0
                   0
                   0
                   0
                   0
                   0
                   0
                   0
                   0
                   0
                   0
                   0
                   0
                   0
                   0
                   0
                   0
                   0
                   0
                   0
                   0
                   0
                   0
                   0
                   0
                   0
                   0
                   0
                   0
                   0
                   0
                   0
                   0
                   0
                   0
                   0
                   0
                   0
                   0
                   0
                   0
                   0
                   0
                   0
                   0
                   0
                   0
                   0
                   0
                   0
                   0
                   0
                   0
                   0
                   0
                   0
                   0
                   0
                   0
                   0
                   0
                   0
                   0
                   0
                   0
                   0
                   0
                   0
                   0
                   0
                   0
                   0
                   0
                   0
                   0
                   0
                   0
                   0
                   0
                   0
                   0
                   0
                   0
                   0
                   0
                   0
                   0
                   0
                   0
                   0
                   0
                   0
                   0
                   0
                   0
                   0
                   0
                   0
                   0
                   0
                   0
                   0
                   0
                   0
                   0
                   0
                   0
                   0
                   0
                   0
                   0
                   0
                   0
                   0
                   0
                   0
                   0
                   0
                   0
                   0
                   0
                   0
                   0
                   0
                   0
                   0
                   0
                   0
                   0
                   0
                   0
                   0
                   0
                   0
                   0
                   0
                   0
                   0
                   0
                   0
                   0
                   0
                   0
                   0
                   0
                   0
                   0
                   0
                   0
                   0
                   0
                   0
                   0
                   0
                   0
                   0
                   0
                   0
                   0
                   0
                   0
                   0
                   0
                   0
                   0
                   0
                   0
                   0
                   0
                   0
                   0
                   0
                   0
                   0
                   0
                   0
                   0
                   0
                   0
                   0
                   0
                   0
                   0
                   0
                   0
                   0
                   0
                   0
                   0
                   0
                   0
                   0
                   0
                   0
                   0
                   0
                   0
                   0
                   0
                   0
                   0
                   0
                   0
                   0
                   0
                   0
                   0
                   0
                   0
                   0
                   0
                   0
                   0
                   0
                   0
                   0
                   0
                   0
                   0
                   0
                   0
                   0
                   0
                   0
                   0
                   0
                   0
                   0
                   0
                   0
                   0
                   0
                   0
                   0
                   0
                   0
                   0
                   0
                   0
                   0
                   0
                   0
                   0
                   0
                   0
                   0
                   0
                   0
                   0
                   0
                   0
                   0
                   0
                   0
                   0
                   0
                   0
                   0
                   0
                   0
                   0
                   0
                   0
                   0
                   0
                   0
                   0
                   0
                   0
                   0
                   0
                   0
                   0
                   0
                   0
                   0
                   0
                   0
                   0
                   0
                   0
                   0
                   0
                   0
                   0
                   0
                   0
                   0
                   0
                   0
                   0
                   0
                   0
                   0
                   0
                   0
                   0
                   0
                   0
                   0
                   0
                   0
                   0
                   0
                   0
                   0
                   0
                   0
                   0
                   0
                   0
                   0
                   0
                   0
                   0
                   0
                   0
                   0
                   0
                   0
                   0
                   0
                   0
                   0
                   0
                   0
                   0
                   0
                   0
                   0
                   0
                   0
                   0
                   0
                   0
                   0
                   0
                   0
                   0
                   0
                   0
                   0
                   0
                   0
                   0
                   0
                   0
                   0
                   0
                   0
                   0
                   0
                   0
                   0
                   0
                   0
                   0
                   0
                   0
                   0
                   0
                   0
                   0
                   0
                   0
                   0
                   0
                   0
                   0
                   0
                   0
                   0
                   0
                   0
                   0
                   0
                   0
                   0
                   0
                   0
                   0
                   0
                   0
                   0
                   0
                   0
                   0
                   0
                   0
                   0
                   0
                   0
                   0
                   0
                   0
                   0
                   0
                   0
                   0
                   0
                   0
                   0
                   0
                   0
                   0
                   0
                   0
                   0
                   0
                   0
                   0
                   0
                   0
                   0
                   0
                   0
                   0
                   0
                   0
                   0
                   0
                   0
                   0
                   0
                   0
                   0
                   0
                   0
                   0
                   0
                   0
                   0
                   0
                   0
                   0
                   0
                   0
                   0
                   0
                   0
                   0
                   0
                   0
                   0
                   0
                   0
                   0
                   0
                   0
                   0
                   0
                   0
                   0
                   0
                   0
                   0
                   0
                   0
                   0
                   0
                   0
                   0
                   0
                   0
                   0
                   0
                   0
                   0
                   0
                   0
                   0
                   0
                   0
                   0
                   0
                   0
                   0
                   0
                   0
                   0
                   0
                   0
                   0
                   0
                   0
                   0
                   0
                   0
                   0
                   0
                   0
                   0
                   0
                   0
                   0
                   0
                   0
                   0
                   0
                   0
                   0
                   0
                   0
                   0
                   0
                   0
                   0
                   0
                   0
                   0
                   0
                   0
                   0
                   0
                   0
                   0
                   0
                   0
                   0
                   0
                   0
                   0
                   0
                   0
                   0
                   0
                   0
                   0
                   0
                   0
                   0
                   0
                   0
                   0
                   0
                   0
                   0
                   0
                   0
                   0
                   0
                   0
                   0
                   0
                   0
                   0
                   0
                   0
                   0
                   0
                   0
                   0
                   0
                   0
                   0
                   0
                   0
                   0
                   0
                   0
                   0
                   0
                   0
                   0
                   0
                   0
                   0
                   0
                   0
                   0
                   0
                   0
                   0
                   0
                   0
                   0
                   0
                   0
                   0
                   0
                   0
                   0
                   0
                   0
                   0
                   0
                   0
                   0
                   0
                   0
                   0
                   0
                   0
                   0
                   0
                   0
                   0
                   0
                   0
                   0
                   0
                   0
                   0
                   0
                   0
                   0
                   0
                   0
                   0
                   0
                   0
                   0
                   0
                   0
                   0
                   0
                   0
                   0
                   0
                   0
                   0
                   0
                   0
                   0
                   0
                   0
                   0
                   0
                   0
                   0
                   0
                   0
                   0
                   0
                   0
                   0
                   0
                   0
                   0
                   0
                   0
                   0
                   0
                   0
                   0
                   0
                   0
                   0
                   0
                   0
                   0
                   0
                   0
                   0
                   0
                   0
                   0
                   0
                   0
                   0
                   0
                   0
                   0
                   0
                   0
                   0
                   0
                   0
                   0
                   0
                   0
                   0
                   0
                   0
                   0
                   0
                   0
                   0
                   0
                   0
                   0
                   0
                   0
                   0
                   0
                   0
                   0
                   0
                   0
                   0
                   0
                   0
                   0
                   0
                   0
                   0
                   0
                   0
                   0
                   0
                   0
                   0
                   0
                   0
                   0
                   0
                   0
                   0
                   0
                   0
                   0
                   0
                   0
                   0
                   0
                   0
                   0
                   0
                   0
                   0
                   0
                   0
                   0
                   0
                   0
                   0
                   0
                   0
                   0
                   0
                   0
                   0
                   0
                   0
                   0
                   0
                   0
                   0
                   0
                   0
                   0
                   0
                   0
                   0
                   0
                   0
                   0
                   0
                   0
                   0
                   0
                   0
                   0
                   0
                   0
                   0
                   0
                   0
                   0
                   0
                   0
                   0
                   0
                   0
                   0
                   0
                   0
                   0
                   0
                   0
                   0
                   0
                   0
                   0
                   0
                   0
                   0
                   0
                   0
                   0
                   0
                   0
                   0
                   0
                   0
                   0
                   0
                   0
                   0
                   0
                   0
                   0
                   0
                   0
                   0
                   0
                   0
                   0
                   0
                   0
                   0
                   0
                   0
                   0
                   0
                   0
                   0
                   0
                   0
                   0
                   0
                   0
                   0
                   0
                   0
                   0
                   0
                   0
                   0
                   0
                   0
                   0
                   0
                   0
                   0
                   0
                   0
                   0
                   0
                   0
                   0
                   0
                   0
                   0
                   0
                   0
                   0
                   0
                   0
                   0
                   0
                   0
                   0
                   0
                   0
                   0
                   0
                   0
                   0
                   0
                   0
                   0
                   0
                   0
                   0
                   0
                   0
                   0
                   0
                   0
                   0
                   0
                   0
                   0
                   0
                   0
                   0
                   0
                   0
                   0
                   0
                   0
                   0
                   0
                   0
                   0
                   0
                   0
                   0
                   0
                   0
                   0
                   0
                   0
                   0
                   0
                   0
                   0
                   0
                   0
                   0
                   0
                   0
                   0
                   0
                   0
                   0
                   0
                   0
                   0
                   0
                   0
                   0
                   0
                   0
                   0
                   0
                   0
                   0
                   0
                   0
                   0
                   0
                   0
                   0
                   0
                   0
                   0
                   0
                   0
                   0
                   0
                   0
                   0
                   0
                   0
                   0
                   0
                   0
                   0
                   0
                   0
                   0
                   0
                   0
                   0
                   0
                   0
                   0
                   0
                   0
                   0
                   0
                   0
                   0
                   0
                   0
                   0
                   0
                   0
                   0
                   0
                   0
                   0
                   0
                   0
                   0
                   0
                   0
                   0
                   0
                   0
                   0
                   0
                   0
                   0
                   0
                   0
                   0
                   0
                   0
                   0
                   0
                   0
                   0
                   0
                   0
                   0
                   0
                   0
                   0
                   0
                   0
                   0
                   0
                   0
                   0
                   0
                   0
                   0
                   0
                   0
                   0
                   0
                   0
                   0
                   0
                   0
                   0
                   0
                   0
                   0
                   0
                   0
                   0
                   0
                   0
                   0
                   0
                   0
                   0
                   0
                   0
                   0
                   0
                   0
                   0
                   0
                   0
                   0
                   0
                   0
                   0
                   0
                   0
                   0
                   0
                   0
                   0
                   0
                   0
                   0
                   0
                   0
                   0
                   0
                   0
                   0
                   0
                   0
                   0
                   0
                   0
                   0
                   0
                   0
                   0
                   0
                   0
                   0
                   0
                   0
                   0
                   0
                   0
                   0
                   0
                   0
                   0
                   0
                   0
                   0
                   0
                   0
                   0
                   0
                   0
                   0
                   0
                   0
                   0
                   0
                   0
                   0
                   0
                   0
                   0
                   0
                   0
                   0
                   0
                   0
                   0
                   0
                   0
                   0
                   0
                   0
                   0
                   0
                   0
                   0
                   0
                   0
                   0
                   0
                   0
                   0
                   0
                   0
                   0
                   0
                   0
                   0
                   0
                   0
                   0
                   0
                   0
                   0
                   0
                   0
                   0
                   0
                   0
                   0
                   0
                   0
                   0
                   0
                   0
                   0
                   0
                   0
                   0
                   0
                   0
                   0
                   0
                   0
                   0
                   0
                   0
                   0
                   0
                   0
                   0
                   0
                   0
                   0
                   0
                   0
                   0
                   0
                   0
                   0
                   0
                   0
                   0
                   0
                   0
                   0
                   0
                   0
                   0
                   0
                   0
                   0
                   0
                   0
                   0
                   0
                   0
                   0
                   0
                   0
                   0
                   0
                   0
                   0
                   0
                   0
                   0
                   0
                   0
                   0
                   0
                   0
                   0
                   0
                   0
                   0
                   0
                   0
                   0
                   0
                   0
                   0
                   0
                   0
                   0
                   0
                   0
                   0
                   0
                   0
                   0
                   0
                   0
                   0
                   0
                   0
                   0
                   0
                   0
                   0
                   0
                   0
                   0
                   0
                   0
                   0
                   0
                   0
                   0
                   0
                   0
                   0
                   0
                   0
                   0
                   0
                   0
                   0
                   0
                   0
                   0
                   0
                   0
                   0
                   0
                   0
                   0
                   0
                   0
                   0
                   0
                   0
                   0
                   0
                   0
                   0
                   0
                   0
                   0
                   0
                   0
                   0
                   0
                   0
                   0
                   0
                   0
                   0
                   0
                   0
                   0
                   0
                   0
                   0
                   0
                   0
                   0
                   0
                   0
                   0
                   0
                   0
                   0
                   0
                   0
                   0
                   0
                   0
                   0
                   0
                   0
                   0
                   0
                   0
                   0
                   0
                   0
                   0
                   0
                   0
                   0
                   0
                   0
                   0
                   0
                   0
                   0
                   0
                   0
                   0
                   0
                   0
                   0
                   0
                   0
                   0
                   0
                   0
                   0
                   0
                   0
                   0
                   0
                   0
                   0
                   0
                   0
                   0
                   0
                   0
                   0
                   0
                   0
                   0
                   0
                   0
                   0
                   0
                   0
                   0
                   0
                   0
                   0
                   0
                   0
                   0
                   0
                   0
                   0
                   0
                   0
                   0
                   0
                   0
                   0
                   0
                   0
                   0
                   0
                   0
                   0
                   0
                   0
                   0
                   0
                   0
                   0
                   0
                   0
                   0
                   0
                   0
                   0
                   0
                   0
                   0
                   0
                   0
                   0
                   0
                   0
                   0
                   0
                   0
                   0
                   0
                   0
                   0
                   0
                   0
                   0
                   0
                   0
                   0
                   0
                   0
                   0
                   0
                   0
                   0
                   0
                   0
                   0
                   0
                   0
                   0
                   0
                   0
                   0
                   0
                   0
                   0
                   0
                   0
                   0
                   0
                   0
                   0
                   0
                   0
                   0
                   0
                   0
                   0
                   0
                   0
                   0
                   0
                   0
                   0
                   0
                   0
                   0
                   0
                   0
                   0
                   0
                   0
                   0
                   0
                   0
                   0
                   0
                   0
                   0
                   0
                   0
                   0
                   0
                   0
                   0
                   0
                   0
                   0
                   0
                   0
                   0
                   0
                   0
                   0
                   0
                   0
                   0
                   0
                   0
                   0
                   0
                   0
                   0
                   0
                   0
                   0
                   0
                   0
                   0
                   0
                   0
                   0
                   0
                   0
                   0
                   0
                   0
                   0
                   0
                   0
                   0
                   0
                   0
                   0
                   0
                   0
                   0
                   0
                   0
                   0
                   0
                   0
                   0
                   0
                   0
                   0
                   0
                   0
                   0
                   0
                   0
                   0
                   0
                   0
                   0
                   0
                   0
                   0
                   0
                   0
                   0
                   0
                   0
                   0
                   0
                   0
                   0
                   0
                   0
                   0
                   0
                   0
                   0
                   0
                   0
                   0
                   0
                   0
                   0
                   0
                   0
                   0
                   0
                   0
                   0
                   0
                   0
                   0
                   0
                   0
                   0
                   0
                   0
                   0
                   0
                   0
                   0
                   0
                   0
                   0
                   0
                   0
                   0
                   0
                   0
                   0
                   0
                   0
                   0
                   0
                   0
                   0
                   0
                   0
                   0
                   0
                   0
                   0
                   0
                   0
                   0
                   0
                   0
                   0
                   0
                   0
                   0
                   0
                   0
  
SCALARS                       fixity_z  double 1
LOOKUP_TABLE default
                   0
                   0
                   0
                   0
                   1
                   1
                   1
                   1
                   0
                   0
                   1
                   1
                   0
                   0
                   1
                   1
                   0
                   0
                   1
                   1
                   0
                   0
                   0
                   1
                   1
                   1
                   0
                   0
                   1
                   1
                   0
                   0
                   0
                   1
                   1
                   1
                   0
                   0
                   1
                   1
                   0
                   0
                   1
                   1
                   0
                   0
                   1
                   1
                   0
                   1
                   0
                   1
                   0
                   1
                   0
                   1
                   0
                   0
                   1
                   1
                   0
                   0
                   1
                   1
                   0
                   1
                   0
                   1
                   0
                   0
                   1
                   1
                   0
                   1
                   0
                   1
                   0
                   1
                   0
                   1
                   0
                   0
                   1
                   1
                   0
                   1
                   0
                   1
                   0
                   1
                   0
                   0
                   1
                   1
                   0
                   1
                   0
                   1
                   0
                   1
                   0
                   0
                   1
                   1
                   0
                   0
                   1
                   1
                   0
                   1
                   0
                   1
                   0
                   1
                   0
                   1
                   0
                   1
                   0
                   1
                   0
                   1
                   0
                   1
                   0
                   1
                   0
                   1
                   0
                   1
                   0
                   1
                   0
                   1
                   0
                   1
                   0
                   1
                   0
                   1
                   0
                   1
                   0
                   1
                   0
                   1
                   0
                   1
                   0
                   1
                   0
                   1
                   0
                   1
                   0
                   1
                   0
                   0
                   0
                   0
                   0
                   0
                   0
                   0
                   0
                   0
                   0
                   0
                   0
                   0
                   0
                   0
                   0
                   0
                   0
                   0
                   0
                   0
                   0
                   0
                   0
                   0
                   0
                   0
                   0
                   0
                   0
                   0
                   0
                   0
                   0
                   0
                   0
                   0
                   0
                   0
                   0
                   0
                   0
                   0
                   0
                   0
                   0
                   0
                   0
                   0
                   0
                   0
                   0
                   0
                   0
                   0
                   0
                   0
                   0
                   0
                   0
                   0
                   0
                   0
                   0
                   0
                   0
                   0
                   0
                   0
                   0
                   0
                   0
                   0
                   0
                   0
                   0
                   0
                   0
                   0
                   0
                   0
                   0
                   0
                   0
                   0
                   0
                   0
                   0
                   0
                   0
                   0
                   0
                   0
                   0
                   0
                   0
                   0
                   0
                   0
                   0
                   0
                   0
                   0
                   0
                   0
                   0
                   0
                   0
                   0
                   0
                   0
                   0
                   0
                   0
                   0
                   0
                   0
                   0
                   0
                   0
                   0
                   0
                   0
                   0
                   0
                   0
                   0
                   0
                   0
                   0
                   0
                   0
                   0
                   0
                   0
                   0
                   0
                   0
                   0
                   0
                   0
                   0
                   0
                   0
                   0
                   0
                   0
                   0
                   0
                   0
                   0
                   0
                   0
                   0
                   0
                   0
                   0
                   0
                   0
                   0
                   0
                   0
                   0
                   0
                   0
                   0
                   0
                   0
                   0
                   0
                   0
                   0
                   0
                   0
                   0
                   0
                   0
                   0
                   0
                   0
                   0
                   0
                   0
                   0
                   0
                   0
                   0
                   0
                   0
                   0
                   0
                   0
                   0
                   0
                   0
                   0
                   0
                   0
                   0
                   0
                   0
                   0
                   0
                   0
                   0
                   0
                   0
                   0
                   0
                   0
                   0
                   0
                   0
                   0
                   0
                   0
                   0
                   0
                   0
                   0
                   0
                   0
                   0
                   0
                   0
                   0
                   0
                   0
                   0
                   0
                   0
                   0
                   0
                   0
                   0
                   0
                   0
                   0
                   0
                   0
                   0
                   0
                   0
                   0
                   0
                   0
                   0
                   0
                   0
                   0
                   0
                   0
                   0
                   0
                   0
                   0
                   0
                   0
                   0
                   0
                   0
                   0
                   0
                   0
                   0
                   0
                   0
                   0
                   0
                   0
                   0
                   0
                   0
                   0
                   0
                   0
                   0
                   0
                   0
                   0
                   0
                   0
                   0
                   0
                   0
                   0
                   0
                   0
                   0
                   0
                   0
                   0
                   0
                   0
                   0
                   0
                   0
                   0
                   0
                   0
                   0
                   0
                   0
                   0
                   0
                   0
                   0
                   0
                   0
                   0
                   0
                   0
                   0
                   0
                   0
                   0
                   0
                   0
                   0
                   0
                   0
                   0
                   0
                   0
                   0
                   0
                   0
                   0
                   0
                   0
                   0
                   0
                   0
                   0
                   0
                   0
                   0
                   0
                   0
                   0
                   0
                   0
                   0
                   0
                   0
                   0
                   0
                   0
                   0
                   0
                   0
                   0
                   0
                   0
                   0
                   0
                   0
                   0
                   0
                   0
                   0
                   0
                   0
                   0
                   0
                   0
                   0
                   0
                   0
                   0
                   0
                   0
                   0
                   0
                   0
                   0
                   0
                   0
                   0
                   0
                   0
                   0
                   0
                   0
                   0
                   0
                   0
                   0
                   0
                   0
                   0
                   0
                   0
                   0
                   0
                   0
                   0
                   0
                   0
                   0
                   0
                   0
                   0
                   0
                   0
                   0
                   0
                   0
                   0
                   0
                   0
                   0
                   0
                   0
                   0
                   0
                   0
                   0
                   0
                   0
                   0
                   0
                   0
                   0
                   0
                   0
                   0
                   0
                   0
                   0
                   0
                   0
                   0
                   0
                   0
                   0
                   0
                   0
                   0
                   0
                   0
                   0
                   0
                   0
                   0
                   0
                   0
                   0
                   0
                   0
                   0
                   0
                   0
                   0
                   0
                   0
                   0
                   0
                   0
                   0
                   0
                   0
                   0
                   0
                   0
                   0
                   0
                   0
                   0
                   0
                   0
                   0
                   0
                   0
                   0
                   0
                   0
                   0
                   0
                   0
                   0
                   0
                   0
                   0
                   0
                   0
                   0
                   0
                   0
                   0
                   0
                   0
                   0
                   0
                   0
                   0
                   0
                   0
                   0
                   0
                   0
                   0
                   0
                   0
                   0
                   0
                   0
                   0
                   0
                   0
                   0
                   0
                   0
                   0
                   0
                   0
                   0
                   0
                   0
                   0
                   0
                   0
                   0
                   0
                   0
                   0
                   0
                   0
                   0
                   0
                   0
                   0
                   0
                   0
                   0
                   0
                   0
                   0
                   0
                   0
                   0
                   0
                   0
                   0
                   0
                   0
                   0
                   0
                   0
                   0
                   0
                   0
                   0
                   0
                   0
                   0
                   0
                   0
                   0
                   0
                   0
                   0
                   0
                   0
                   0
                   0
                   0
                   0
                   0
                   0
                   0
                   0
                   0
                   0
                   0
                   0
                   0
                   0
                   0
                   0
                   0
                   0
                   0
                   0
                   0
                   0
                   0
                   0
                   0
                   0
                   0
                   0
                   0
                   0
                   0
                   0
                   0
                   0
                   0
                   0
                   0
                   0
                   0
                   0
                   0
                   0
                   0
                   0
                   0
                   0
                   0
                   0
                   0
                   0
                   0
                   0
                   0
                   0
                   0
                   0
                   0
                   0
                   0
                   0
                   0
                   0
                   0
                   0
                   0
                   0
                   0
                   0
                   0
                   0
                   0
                   0
                   0
                   0
                   0
                   0
                   0
                   0
                   0
                   0
                   0
                   0
                   0
                   0
                   0
                   0
                   0
                   0
                   0
                   0
                   0
                   0
                   0
                   0
                   0
                   0
                   0
                   0
                   0
                   0
                   0
                   0
                   0
                   0
                   0
                   0
                   0
                   0
                   0
                   0
                   0
                   0
                   0
                   0
                   0
                   0
                   0
                   0
                   0
                   0
                   0
                   0
                   0
                   0
                   0
                   0
                   0
                   0
                   0
                   0
                   0
                   0
                   0
                   0
                   0
                   0
                   0
                   0
                   0
                   0
                   0
                   0
                   0
                   0
                   0
                   0
                   0
                   0
                   0
                   0
                   0
                   0
                   0
                   0
                   0
                   0
                   0
                   0
                   0
                   0
                   0
                   0
                   0
                   0
                   0
                   0
                   0
                   0
                   0
                   0
                   0
                   0
                   0
                   0
                   0
                   0
                   0
                   0
                   0
                   0
                   0
                   0
                   0
                   0
                   0
                   0
                   0
                   0
                   0
                   0
                   0
                   0
                   0
                   0
                   0
                   0
                   0
                   0
                   0
                   0
                   0
                   0
                   0
                   0
                   0
                   0
                   0
                   0
                   0
                   0
                   0
                   0
                   0
                   0
                   0
                   0
                   0
                   0
                   0
                   0
                   0
                   0
                   0
                   0
                   0
                   0
                   0
                   0
                   0
                   0
                   0
                   0
                   0
                   0
                   0
                   0
                   0
                   0
                   0
                   0
                   0
                   0
                   0
                   0
                   0
                   0
                   0
                   0
                   0
                   0
                   0
                   0
                   0
                   0
                   0
                   0
                   0
                   0
                   0
                   0
                   0
                   0
                   0
                   0
                   0
                   0
                   0
                   0
                   0
                   0
                   0
                   0
                   0
                   0
                   0
                   0
                   0
                   0
                   0
                   0
                   0
                   0
                   0
                   0
                   0
                   0
                   0
                   0
                   0
                   0
                   0
                   0
                   0
                   0
                   0
                   0
                   0
                   0
                   0
                   0
                   0
                   0
                   0
                   0
                   0
                   0
                   0
                   0
                   0
                   0
                   0
                   0
                   0
                   0
                   0
                   0
                   0
                   0
                   0
                   0
                   0
                   0
                   0
                   0
                   0
                   0
                   0
                   0
                   0
                   0
                   0
                   0
                   0
                   0
                   0
                   0
                   0
                   0
                   0
                   0
                   0
                   0
                   0
                   0
                   0
                   0
                   0
                   0
                   0
                   0
                   0
                   0
                   0
                   0
                   0
                   0
                   0
                   0
                   0
                   0
                   0
                   0
                   0
                   0
                   0
                   0
                   0
                   0
                   0
                   0
                   0
                   0
                   0
                   0
                   0
                   0
                   0
                   0
                   0
                   0
                   0
                   0
                   0
                   0
                   0
                   0
                   0
                   0
                   0
                   0
                   0
                   0
                   0
                   0
                   0
                   0
                   0
                   0
                   0
                   0
                   0
                   0
                   0
                   0
                   0
                   0
                   0
                   0
                   0
                   0
                   0
                   0
                   0
                   0
                   0
                   0
                   0
                   0
                   0
                   0
                   0
                   0
                   0
                   0
                   0
                   0
                   0
                   0
                   0
                   0
                   0
                   0
                   0
                   0
                   0
                   0
                   0
                   0
                   0
                   0
                   0
                   0
                   0
                   0
                   0
                   0
                   0
                   0
                   0
                   0
                   0
                   0
                   0
                   0
                   0
                   0
                   0
                   0
                   0
                   0
                   0
                   0
                   0
                   0
                   0
                   0
                   0
                   0
                   0
                   0
                   0
                   0
                   0
                   0
                   0
                   0
                   0
                   0
                   0
                   0
                   0
                   0
                   0
                   0
                   0
                   0
                   0
                   0
                   0
                   0
                   0
                   0
                   0
                   0
                   0
                   0
                   0
                   0
                   0
                   0
                   0
                   0
                   0
                   0
                   0
                   0
                   0
                   0
                   0
                   0
                   0
                   0
                   0
                   0
                   0
                   0
                   0
                   0
                   0
                   0
                   0
                   0
                   0
                   0
                   0
                   0
                   0
                   0
                   0
                   0
                   0
                   0
                   0
                   0
                   0
                   0
                   0
                   0
                   0
                   0
                   0
                   0
                   0
                   0
                   0
                   0
                   0
                   0
                   0
                   0
                   0
                   0
                   0
                   0
                   0
                   0
                   0
                   0
                   0
                   0
                   0
                   0
                   0
                   0
                   0
                   0
                   0
                   0
                   0
                   0
                   0
                   0
                   0
                   0
                   0
                   0
                   0
                   0
                   0
                   0
                   0
                   0
                   0
                   0
                   0
                   0
                   0
                   0
                   0
                   0
                   0
                   0
                   0
                   0
                   0
                   0
                   0
                   0
                   0
                   0
                   0
                   0
                   0
                   0
                   0
                   0
                   0
                   0
                   0
                   0
                   0
                   0
                   0
                   0
                   0
                   0
                   0
                   0
                   0
                   0
                   0
                   0
                   0
                   0
                   0
                   0
                   0
                   0
                   0
                   0
                   0
                   0
                   0
                   0
                   0
                   0
                   0
                   0
                   0
                   0
                   0
                   0
                   0
                   0
                   0
                   0
                   0
                   0
                   0
                   0
                   0
                   0
                   0
                   0
                   0
                   0
                   0
                   0
                   0
                   0
                   0
                   0
                   0
                   0
                   0
                   0
                   0
                   0
                   0
                   0
                   0
                   0
                   0
                   0
                   0
                   0
                   0
                   0
                   0
                   0
                   0
                   0
                   0
                   0
                   0
                   0
                   0
                   0
                   0
                   0
                   0
                   0
                   0
                   0
                   0
                   0
                   0
                   0
                   0
                   0
                   0
                   0
                   0
                   0
                   0
                   0
                   0
                   0
                   0
                   0
                   0
                   0
                   0
                   0
                   0
                   0
                   0
                   0
                   0
                   0
                   0
                   0
                   0
                   0
                   0
                   0
                   0
                   0
                   0
                   0
                   0
                   0
                   0
                   0
                   0
                   0
                   0
                   0
                   0
                   0
                   0
                   0
                   0
                   0
                   0
                   0
                   0
                   0
                   0
                   0
                   0
                   0
                   0
                   0
                   0
                   0
                   0
                   0
                   0
                   0
                   0
                   0
                   0
                   0
                   0
                   0
                   0
                   0
                   0
                   0
                   0
                   0
                   0
                   0
                   0
                   0
                   0
                   0
                   0
                   0
                   0
                   0
                   0
                   0
                   0
                   0
                   0
                   0
                   0
                   0
                   0
                   0
                   0
                   0
                   0
                   0
                   0
                   0
                   0
                   0
                   0
                   0
                   0
                   0
                   0
                   0
                   0
                   0
                   0
                   0
                   0
                   0
                   0
                   0
                   0
                   0
                   0
                   0
                   0
                   0
                   0
                   0
                   0
                   0
                   0
                   0
                   0
                   0
                   0
                   0
                   0
                   0
                   0
                   0
                   0
                   0
                   0
                   0
                   0
                   0
                   0
                   0
                   0
                   0
                   0
                   0
                   0
                   0
                   0
                   0
                   0
                   0
                   0
                   0
                   0
                   0
                   0
                   0
                   0
                   0
                   0
                   0
                   0
                   0
                   0
                   0
                   0
                   0
                   0
                   0
                   0
                   0
                   0
                   0
                   0
                   0
                   0
                   0
                   0
                   0
                   0
                   0
                   0
                   0
                   0
                   0
                   0
                   0
                   0
                   0
                   0
                   0
                   0
                   0
                   0
                   0
                   0
                   0
                   0
                   0
                   0
                   0
                   0
                   0
                   0
                   0
                   0
                   0
                   0
                   0
                   0
                   0
                   0
                   0
                   0
                   0
                   0
                   0
                   0
                   0
                   0
                   0
                   0
                   0
                   0
                   0
                   0
                   0
                   0
                   0
                   0
                   0
                   0
                   0
                   0
                   0
                   0
                   0
                   0
                   0
                   0
                   0
                   0
                   0
                   0
                   0
                   0
                   0
                   0
                   0
                   0
                   0
                   0
                   0
                   0
                   0
                   0
                   0
                   0
                   0
                   0
                   0
                   0
                   0
                   0
                   0
                   0
                   0
                   0
                   0
                   0
                   0
                   0
                   0
                   0
                   0
                   0
                   0
                   0
                   0
                   0
                   0
                   0
                   0
                   0
                   0
                   0
                   0
                   0
                   0
                   0
                   0
                   0
                   0
                   0
                   0
                   0
                   0
                   0
                   0
                   0
                   0
                   0
                   0
                   0
                   0
                   0
                   0
                   0
                   0
                   0
                   0
                   0
                   0
                   0
                   0
                   0
                   0
                   0
                   0
                   0
                   0
                   0
                   0
                   0
                   0
                   0
                   0
                   0
                   0
                   0
                   0
                   0
                   0
                   0
                   0
                   0
                   0
                   0
                   0
                   0
                   0
                   0
                   0
                   0
                   0
                   0
                   0
                   0
                   0
                   0
                   0
                   0
                   0
                   0
                   0
                   0
                   0
                   0
                   0
                   0
                   0
                   0
                   0
                   0
                   0
                   0
                   0
                   0
                   0
                   0
                   0
                   0
                   0
                   0
                   0
                   0
                   0
                   0
                   0
                   0
                   0
                   0
                   0
                   0
                   0
                   0
                   0
                   0
                   0
                   0
                   0
                   0
                   0
                   0
                   0
                   0
                   0
                   0
                   0
                   0
                   0
                   0
                   0
                   0
                   0
                   0
                   0
                   0
                   0
                   0
                   0
                   0
                   0
                   0
                   0
                   0
                   0
                   0
                   0
                   0
                   0
                   0
                   0
                   0
                   0
                   0
                   0
                   0
                   0
                   0
                   0
                   0
                   0
                   0
                   0
                   0
                   0
                   0
                   0
                   0
                   0
                   0
                   0
                   0
                   0
                   0
                   0
                   0
                   0
                   0
                   0
                   0
                   0
                   0
                   0
                   0
                   0
                   0
                   0
                   0
                   0
                   0
                   0
                   0
                   0
                   0
                   0
                   0
                   0
                   0
                   0
                   0
                   0
                   0
                   0
                   0
                   0
                   0
                   0
                   0
                   0
                   0
                   0
                   0
                   0
                   0
                   0
                   0
                   0
                   0
                   0
                   0
                   0
                   0
                   0
                   0
                   0
                   0
                   0
                   0
                   0
                   0
                   0
                   0
                   0
                   0
                   0
                   0
                   0
                   0
                   0
                   0
                   0
                   0
                   0
                   0
                   0
                   0
                   0
                   0
                   0
                   0
                   0
                   0
                   0
                   0
                   0
                   0
  
SCALARS                         Ispace  double 1
LOOKUP_TABLE default
                  12
                  12
                  12
                  12
                  12
                  12
                  12
                  12
                  12
                  12
                  12
                  12
                  12
                  11
                  12
                  11
                  11
                  11
                  11
                  11
                  11
                  12
                  12
                  11
                  12
                  12
                  11
                  11
                  11
                  11
                  11
                  11
                  11
                  11
                  11
                  11
                  11
                  11
                  11
                  11
                  11
                  11
                  11
                  11
                  11
                  11
                  11
                  11
                  11
                  11
                  11
                  11
                  11
                  11
                  11
                  11
                  11
                  11
                  11
                  11
                  11
                  11
                  11
                  11
                  11
                  11
                  12
                  12
                  12
                  12
                  12
                  12
                  12
                  12
                  11
                  11
                  11
                  11
                  11
                  11
                  11
                  11
                  11
                  11
                  11
                  11
                  11
                  11
                  11
                  11
                  11
                  11
                  11
                  11
                  11
                  11
                  12
                  12
                  12
                  12
                  12
                  12
                  12
                  12
                  12
                  12
                  12
                  12
                  12
                  12
                  12
                  12
                  12
                  12
                  12
                  12
                  11
                  11
                  11
                  11
                  11
                  11
                  11
                  11
                  11
                  11
                  11
                  11
                  11
                  11
                  11
                  11
                  11
                  11
                  11
                  11
                  11
                  11
                  11
                  11
                  11
                  11
                  11
                  11
                  11
                  11
                  12
                  12
                  12
                  12
                  12
                  12
                  12
                  12
                  12
                  12
                  12
                  12
                  12
                  12
                  12
                  12
                  12
                  11
                  11
                  11
                  11
                  12
                  12
                  11
                  11
                  11
                  11
                  11
                  11
                  11
                  11
                  11
                  11
                  11
                  11
                  11
                  11
                  11
                  11
                  11
                  11
                  11
                  11
                  12
                  12
                  12
                  12
                  11
                  11
                  11
                  11
                  11
                  11
                  11
                  11
                  11
                  11
                  11
                  12
                  12
                  12
                  12
                  12
                  12
                  12
                  12
                  12
                  12
                  11
                  11
                  11
                  11
                  11
                  11
                  11
                  11
                  11
                  11
                  11
                  11
                  11
                  11
                  11
                  12
                  12
                  12
                  12
                  12
                  12
                  12
                  12
                  12
                  12
                  12
                  12
                  11
                  11
                  11
                  11
                  12
                  12
                  11
                  11
                  11
                  11
                  11
                  11
                  11
                  11
                  11
                  11
                  11
                  11
                  11
                  11
                  11
                  11
                  11
                  11
                  11
                  11
                  12
                  12
                  12
                  12
                  11
                  11
                  11
                  11
                  11
                  11
                  11
                  11
                  11
                  11
                  11
                  12
                  12
                  12
                  12
                  12
                  12
                  12
                  12
                  12
                  12
                  11
                  11
                  11
                  11
                  11
                  11
                  11
                  11
                  11
                  11
                  11
                  11
                  11
                  11
                  11
                  12
                  12
                  12
                  12
                  12
                  12
                  12
                  12
                  12
                  12
                  12
                  12
                  11
                  11
                  11
                  11
                  12
                  12
                  11
                  11
                  11
                  11
                  11
                  11
                  11
                  11
                  11
                  11
                  11
                  11
                  11
                  11
                  11
                  11
                  11
                  11
                  11
                  11
                  12
                  12
                  12
                  12
                  11
                  11
                  11
                  11
                  11
                  11
                  11
                  11
                  11
                  11
                  11
                  12
                  12
                  12
                  12
                  12
                  12
                  12
                  12
                  12
                  12
                  11
                  11
                  11
                  11
                  11
                  11
                  11
                  11
                  11
                  11
                  11
                  11
                  11
                  11
                  11
                  12
                  12
                  12
                  12
                  12
                  12
                  12
                  12
                  12
                  12
                  12
                  12
                  11
                  11
                  11
                  11
                  12
                  12
                  11
                  11
                  11
                  11
                  11
                  11
                  11
                  11
                  11
                  11
                  11
                  11
                  11
                  11
                  11
                  11
                  11
                  11
                  11
                  11
                  12
                  12
                  12
                  12
                  11
                  11
                  11
                  11
                  11
                  11
                  11
                  11
                  11
                  11
                  11
                  12
                  12
                  12
                  12
                  12
                  12
                  12
                  12
                  12
                  12
                  11
                  11
                  11
                  11
                  11
                  11
                  11
                  11
                  11
                  11
                  11
                  11
                  11
                  11
                  11
                  12
                  12
                  12
                  12
                  12
                  12
                  12
                  12
                  12
                  12
                  12
                  12
                  11
                  11
                  11
                  11
                  12
                  12
                  11
                  11
                  11
                  11
                  11
                  11
                  11
                  11
                  11
                  11
                  11
                  11
                  11
                  11
                  11
                  11
                  11
                  11
                  11
                  11
                  12
                  12
                  12
                  12
                  11
                  11
                  11
                  11
                  11
                  11
                  11
                  11
                  11
                  11
                  11
                  12
                  12
                  12
                  12
                  12
                  12
                  12
                  12
                  12
                  12
                  11
                  11
                  11
                  11
                  11
                  11
                  11
                  11
                  11
                  11
                  11
                  11
                  11
                  11
                  11
                  12
                  12
                  12
                  12
                  12
                  12
                  12
                  12
                  12
                  12
                  12
                  12
                  11
                  11
                  11
                  11
                  12
                  12
                  11
                  11
                  11
                  11
                  11
                  11
                  11
                  11
                  11
                  11
                  11
                  11
                  11
                  11
                  11
                  11
                  11
                  11
                  11
                  11
                  12
                  12
                  12
                  12
                  11
                  11
                  11
                  11
                  11
                  11
                  11
                  11
                  11
                  11
                  11
                  12
                  12
                  12
                  12
                  12
                  12
                  12
                  12
                  12
                  12
                  11
                  11
                  11
                  11
                  11
                  11
                  11
                  11
                  11
                  11
                  11
                  11
                  11
                  11
                  11
                  12
                  12
                  12
                  12
                  12
                  12
                  12
                  12
                  12
                  12
                  12
                  12
                  11
                  11
                  11
                  11
                  12
                  12
                  11
                  11
                  11
                  11
                  11
                  11
                  11
                  11
                  11
                  11
                  11
                  11
                  11
                  11
                  11
                  11
                  11
                  11
                  11
                  11
                  12
                  12
                  12
                  12
                  11
                  11
                  11
                  11
                  11
                  11
                  11
                  11
                  11
                  11
                  11
                  12
                  12
                  12
                  12
                  12
                  12
                  12
                  12
                  12
                  12
                  11
                  11
                  11
                  11
                  11
                  11
                  11
                  11
                  11
                  11
                  11
                  11
                  11
                  11
                  11
                  12
                  12
                  12
                  12
                  12
                  12
                  12
                  12
                  12
                  12
                  12
                  12
                  11
                  11
                  11
                  11
                  12
                  12
                  11
                  11
                  11
                  11
                  11
                  11
                  11
                  11
                  11
                  11
                  11
                  11
                  11
                  11
                  11
                  11
                  11
                  11
                  11
                  11
                  12
                  12
                  12
                  12
                  11
                  11
                  11
                  11
                  11
                  11
                  11
                  11
                  11
                  11
                  11
                  12
                  12
                  12
                  12
                  12
                  12
                  12
                  12
                  12
                  12
                  11
                  11
                  11
                  11
                  11
                  11
                  11
                  11
                  11
                  11
                  11
                  11
                  11
                  11
                  11
                  12
                  12
                  12
                  12
                  12
                  12
                  12
                  12
                  12
                  12
                  12
                  12
                  11
                  11
                  11
                  11
                  12
                  12
                  11
                  11
                  11
                  11
                  11
                  11
                  11
                  11
                  11
                  11
                  11
                  11
                  11
                  11
                  11
                  11
                  11
                  11
                  11
                  11
                  12
                  12
                  12
                  12
                  11
                  11
                  11
                  11
                  11
                  11
                  11
                  11
                  11
                  11
                  11
                  12
                  12
                  12
                  12
                  12
                  12
                  12
                  12
                  12
                  12
                  11
                  11
                  11
                  11
                  11
                  11
                  11
                  11
                  11
                  11
                  11
                  11
                  11
                  11
                  11
                  12
                  12
                  12
                  12
                  12
                  12
                  12
                  12
                  12
                  12
                  12
                  12
                  11
                  11
                  11
                  11
                  12
                  12
                  11
                  11
                  11
                  11
                  11
                  11
                  11
                  11
                  11
                  11
                  11
                  11
                  11
                  11
                  11
                  11
                  11
                  11
                  11
                  11
                  12
                  12
                  12
                  12
                  11
                  11
                  11
                  11
                  11
                  11
                  11
                  11
                  11
                  11
                  11
                  12
                  12
                  12
                  12
                  12
                  12
                  12
                  12
                  12
                  12
                  11
                  11
                  11
                  11
                  11
                  11
                  11
                  11
                  11
                  11
                  11
                  11
                  11
                  11
                  11
                  12
                  12
                  12
                  12
                  12
                  12
                  12
                  12
                  12
                  12
                  12
                  12
                  11
                  11
                  11
                  11
                  12
                  12
                  11
                  11
                  11
                  11
                  11
                  11
                  11
                  11
                  11
                  11
                  11
                  11
                  11
                  11
                  11
                  11
                  11
                  11
                  11
                  11
                  12
                  12
                  12
                  12
                  11
                  11
                  11
                  11
                  11
                  11
                  11
                  11
                  11
                  11
                  11
                  12
                  12
                  12
                  12
                  12
                  12
                  12
                  12
                  12
                  12
                  11
                  11
                  11
                  11
                  11
                  11
                  11
                  11
                  11
                  11
                  11
                  11
                  11
                  11
                  11
                  12
                  12
                  12
                  12
                  12
                  12
                  12
                  12
                  12
                  12
                  12
                  12
                  11
                  11
                  11
                  11
                  12
                  12
                  11
                  11
                  11
                  11
                  11
                  11
                  11
                  11
                  11
                  11
                  11
                  11
                  11
                  11
                  11
                  11
                  11
                  11
                  11
                  11
                  12
                  12
                  12
                  12
                  11
                  11
                  11
                  11
                  11
                  11
                  11
                  11
                  11
                  11
                  11
                  12
                  12
                  12
                  12
                  12
                  12
                  12
                  12
                  12
                  12
                  11
                  11
                  11
                  11
                  11
                  11
                  11
                  11
                  11
                  11
                  11
                  11
                  11
                  11
                  11
                  12
                  12
                  12
                  12
                  12
                  12
                  12
                  12
                  12
                  12
                  12
                  12
                  11
                  11
                  11
                  11
                  12
                  12
                  11
                  11
                  11
                  11
                  11
                  11
                  11
                  11
                  11
                  11
                  11
                  11
                  11
                  11
                  11
                  11
                  11
                  11
                  11
                  11
                  12
                  12
                  12
                  12
                  11
                  11
                  11
                  11
                  11
                  11
                  11
                  11
                  11
                  11
                  11
                  12
                  12
                  12
                  12
                  12
                  12
                  12
                  12
                  12
                  12
                  11
                  11
                  11
                  11
                  11
                  11
                  11
                  11
                  11
                  11
                  11
                  11
                  11
                  11
                  11
                  12
                  12
                  12
                  12
                  12
                  12
                  12
                  12
                  12
                  12
                  12
                  12
                  11
                  11
                  11
                  11
                  12
                  12
                  11
                  11
                  11
                  11
                  11
                  11
                  11
                  11
                  11
                  11
                  11
                  11
                  11
                  11
                  11
                  11
                  11
                  11
                  11
                  11
                  12
                  12
                  12
                  12
                  11
                  11
                  11
                  11
                  11
                  11
                  11
                  11
                  11
                  11
                  11
                  12
                  12
                  12
                  12
                  12
                  12
                  12
                  12
                  12
                  12
                  11
                  11
                  11
                  11
                  11
                  11
                  11
                  11
                  11
                  11
                  11
                  11
                  11
                  11
                  11
                  12
                  12
                  12
                  12
                  12
                  12
                  12
                  12
                  12
                  12
                  12
                  12
                  11
                  11
                  11
                  11
                  12
                  12
                  11
                  11
                  11
                  11
                  11
                  11
                  11
                  11
                  11
                  11
                  11
                  11
                  11
                  11
                  11
                  11
                  11
                  11
                  11
                  11
                  12
                  12
                  12
                  12
                  11
                  11
                  11
                  11
                  11
                  11
                  11
                  11
                  11
                  11
                  11
                  12
                  12
                  12
                  12
                  12
                  12
                  12
                  12
                  12
                  12
                  11
                  11
                  11
                  11
                  11
                  11
                  11
                  11
                  11
                  11
                  11
                  11
                  11
                  11
                  11
                  12
                  12
                  12
                  12
                  12
                  12
                  12
                  12
                  12
                  12
                  12
                  12
                  11
                  11
                  11
                  11
                  12
                  12
                  11
                  11
                  11
                  11
                  11
                  11
                  11
                  11
                  11
                  11
                  11
                  11
                  11
                  11
                  11
                  11
                  11
                  11
                  11
                  11
                  12
                  12
                  12
                  12
                  11
                  11
                  11
                  11
                  11
                  11
                  11
                  11
                  11
                  11
                  11
                  12
                  12
                  12
                  12
                  12
                  12
                  12
                  12
                  12
                  12
                  11
                  11
                  11
                  11
                  11
                  11
                  11
                  11
                  11
                  11
                  11
                  11
                  11
                  11
                  11
                  12
                  12
                  12
                  12
                  12
                  12
                  12
                  12
                  12
                  12
                  12
                  12
                  11
                  11
                  11
                  11
                  12
                  12
                  11
                  11
                  11
                  11
                  11
                  11
                  11
                  11
                  11
                  11
                  11
                  11
                  11
                  11
                  11
                  11
                  11
                  11
                  11
                  11
                  12
                  12
                  12
                  12
                  11
                  11
                  11
                  11
                  11
                  11
                  11
                  11
                  11
                  11
                  11
                  12
                  12
                  12
                  12
                  12
                  12
                  12
                  12
                  12
                  12
                  11
                  11
                  11
                  11
                  11
                  11
                  11
                  11
                  11
                  11
                  11
                  11
                  11
                  11
                  11
                  12
                  12
                  12
                  12
                  12
                  12
                  12
                  12
                  12
                  12
                  12
                  12
                  11
                  11
                  11
                  11
                  12
                  12
                  11
                  11
                  11
                  11
                  11
                  11
                  11
                  11
                  11
                  11
                  11
                  11
                  11
                  11
                  11
                  11
                  11
                  11
                  11
                  11
                  12
                  12
                  12
                  12
                  11
                  11
                  11
                  11
                  11
                  11
                  11
                  11
                  11
                  11
                  11
                  12
                  12
                  12
                  12
                  12
                  12
                  12
                  12
                  12
                  12
                  11
                  11
                  11
                  11
                  11
                  11
                  11
                  11
                  11
                  11
                  11
                  11
                  11
                  11
                  11
                  12
                  12
                  12
                  12
                  12
                  12
                  12
                  12
                  12
                  12
                  12
                  12
                  11
                  11
                  11
                  11
                  12
                  12
                  11
                  11
                  11
                  11
                  11
                  11
                  11
                  11
                  11
                  11
                  11
                  11
                  11
                  11
                  11
                  11
                  11
                  11
                  11
                  11
                  12
                  12
                  12
                  12
                  11
                  11
                  11
                  11
                  11
                  11
                  11
                  11
                  11
                  11
                  11
                  12
                  12
                  12
                  12
                  12
                  12
                  12
                  12
                  12
                  12
                  11
                  11
                  11
                  11
                  11
                  11
                  11
                  11
                  11
                  11
                  11
                  11
                  11
                  11
                  11
                  12
                  12
                  12
                  12
                  12
                  12
                  12
                  12
                  12
                  12
                  12
                  12
                  11
                  11
                  11
                  11
                  12
                  12
                  11
                  11
                  11
                  11
                  11
                  11
                  11
                  11
                  11
                  11
                  11
                  11
                  11
                  11
                  11
                  11
                  11
                  11
                  11
                  11
                  12
                  12
                  12
                  12
                  11
                  11
                  11
                  11
                  11
                  11
                  11
                  11
                  11
                  11
                  11
                  12
                  12
                  12
                  12
                  12
                  12
                  12
                  12
                  12
                  12
                  11
                  11
                  11
                  11
                  11
                  11
                  11
                  11
                  11
                  11
                  11
                  11
                  11
                  11
                  11
                  12
                  12
                  12
                  12
                  12
                  12
                  12
                  12
                  12
                  12
                  12
                  12
                  11
                  11
                  11
                  11
                  12
                  12
                  11
                  11
                  11
                  11
                  11
                  11
                  11
                  11
                  11
                  11
                  11
                  11
                  11
                  11
                  11
                  11
                  11
                  11
                  11
                  11
                  12
                  12
                  12
                  12
                  11
                  11
                  11
                  11
                  11
                  11
                  11
                  11
                  11
                  11
                  11
                  12
                  12
                  12
                  12
                  12
                  12
                  12
                  12
                  12
                  12
                  11
                  11
                  11
                  11
                  11
                  11
                  11
                  11
                  11
                  11
                  11
                  11
                  11
                  11
                  11
                  12
                  12
                  12
                  12
                  12
                  12
                  12
                  12
                  12
                  12
                  12
                  12
                  11
                  11
                  11
                  11
                  12
                  12
                  11
                  11
                  11
                  11
                  11
                  11
                  11
                  11
                  11
                  11
                  11
                  11
                  11
                  11
                  11
                  11
                  11
                  11
                  11
                  11
                  12
                  12
                  12
                  12
                  11
                  11
                  11
                  11
                  11
                  11
                  11
                  11
                  11
                  11
                  11
                  12
                  12
                  12
                  12
                  12
                  12
                  12
                  12
                  12
                  12
                  11
                  11
                  11
                  11
                  11
                  11
                  11
                  11
                  11
                  11
                  11
                  11
                  11
                  11
                  11
                  12
                  12
                  12
                  12
                  12
                  12
                  12
                  12
                  12
                  12
                  12
                  12
                  11
                  11
                  11
                  11
                  12
                  12
                  11
                  11
                  11
                  11
                  11
                  11
                  11
                  11
                  11
                  11
                  11
                  11
                  11
                  11
                  11
                  11
                  11
                  11
                  11
                  11
                  12
                  12
                  12
                  12
                  11
                  11
                  11
                  11
                  11
                  11
                  11
                  11
                  11
                  11
                  11
                  12
                  12
                  12
                  12
                  12
                  12
                  12
                  12
                  12
                  12
                  11
                  11
                  11
                  11
                  11
                  11
                  11
                  11
                  11
                  11
                  11
                  11
                  11
                  11
                  11
                  12
                  12
                  12
                  12
                  12
  
SCALARS                         Jspace  double 1
LOOKUP_TABLE default
                  11
                  12
                  11
                  11
                  11
                  12
                  11
                  11
                  11
                  11
                  11
                  11
                  12
                  12
                  12
                  12
                  11
                  12
                  11
                  12
                  12
                  12
                  12
                  12
                  12
                  12
                  12
                  12
                  12
                  12
                  11
                  11
                  11
                  11
                  11
                  11
                  11
                  11
                  11
                  11
                  11
                  11
                  11
                  11
                  11
                  11
                  11
                  11
                  11
                  11
                  11
                  11
                  12
                  12
                  12
                  12
                  12
                  11
                  12
                  11
                  11
                  11
                  11
                  11
                  11
                  11
                  11
                  11
                  11
                  12
                  11
                  12
                  12
                  12
                  12
                  12
                  12
                  12
                  12
                  12
                  12
                  12
                  12
                  12
                  11
                  11
                  11
                  11
                  11
                  11
                  11
                  11
                  11
                  11
                  11
                  11
                  11
                  11
                  11
                  11
                  11
                  11
                  11
                  11
                  11
                  11
                  11
                  11
                  12
                  12
                  12
                  12
                  12
                  12
                  12
                  12
                  12
                  12
                  12
                  12
                  12
                  12
                  12
                  12
                  12
                  12
                  12
                  12
                  11
                  11
                  11
                  11
                  11
                  11
                  11
                  11
                  11
                  11
                  11
                  11
                  11
                  11
                  11
                  11
                  11
                  11
                  11
                  11
                  11
                  11
                  11
                  11
                  11
                  11
                  11
                  11
                  11
                  12
                  11
                  11
                  11
                  11
                  12
                  12
                  11
                  12
                  12
                  12
                  12
                  12
                  12
                  11
                  11
                  11
                  11
                  11
                  11
                  11
                  11
                  11
                  11
                  11
                  12
                  12
                  12
                  11
                  11
                  11
                  11
                  11
                  11
                  12
                  12
                  12
                  12
                  12
                  12
                  12
                  11
                  11
                  11
                  11
                  11
                  11
                  11
                  11
                  11
                  11
                  11
                  11
                  12
                  12
                  12
                  12
                  12
                  12
                  12
                  12
                  12
                  12
                  11
                  11
                  11
                  11
                  11
                  11
                  11
                  11
                  11
                  11
                  11
                  11
                  11
                  11
                  11
                  12
                  11
                  11
                  11
                  11
                  12
                  12
                  11
                  12
                  12
                  12
                  12
                  12
                  12
                  11
                  11
                  11
                  11
                  11
                  11
                  11
                  11
                  11
                  11
                  11
                  12
                  12
                  12
                  11
                  11
                  11
                  11
                  11
                  11
                  12
                  12
                  12
                  12
                  12
                  12
                  12
                  11
                  11
                  11
                  11
                  11
                  11
                  11
                  11
                  11
                  11
                  11
                  11
                  12
                  12
                  12
                  12
                  12
                  12
                  12
                  12
                  12
                  12
                  11
                  11
                  11
                  11
                  11
                  11
                  11
                  11
                  11
                  11
                  11
                  11
                  11
                  11
                  11
                  12
                  11
                  11
                  11
                  11
                  12
                  12
                  11
                  12
                  12
                  12
                  12
                  12
                  12
                  11
                  11
                  11
                  11
                  11
                  11
                  11
                  11
                  11
                  11
                  11
                  12
                  12
                  12
                  11
                  11
                  11
                  11
                  11
                  11
                  12
                  12
                  12
                  12
                  12
                  12
                  12
                  11
                  11
                  11
                  11
                  11
                  11
                  11
                  11
                  11
                  11
                  11
                  11
                  12
                  12
                  12
                  12
                  12
                  12
                  12
                  12
                  12
                  12
                  11
                  11
                  11
                  11
                  11
                  11
                  11
                  11
                  11
                  11
                  11
                  11
                  11
                  11
                  11
                  12
                  11
                  11
                  11
                  11
                  12
                  12
                  11
                  12
                  12
                  12
                  12
                  12
                  12
                  11
                  11
                  11
                  11
                  11
                  11
                  11
                  11
                  11
                  11
                  11
                  12
                  12
                  12
                  11
                  11
                  11
                  11
                  11
                  11
                  12
                  12
                  12
                  12
                  12
                  12
                  12
                  11
                  11
                  11
                  11
                  11
                  11
                  11
                  11
                  11
                  11
                  11
                  11
                  12
                  12
                  12
                  12
                  12
                  12
                  12
                  12
                  12
                  12
                  11
                  11
                  11
                  11
                  11
                  11
                  11
                  11
                  11
                  11
                  11
                  11
                  11
                  11
                  11
                  12
                  11
                  11
                  11
                  11
                  12
                  12
                  11
                  12
                  12
                  12
                  12
                  12
                  12
                  11
                  11
                  11
                  11
                  11
                  11
                  11
                  11
                  11
                  11
                  11
                  12
                  12
                  12
                  11
                  11
                  11
                  11
                  11
                  11
                  12
                  12
                  12
                  12
                  12
                  12
                  12
                  11
                  11
                  11
                  11
                  11
                  11
                  11
                  11
                  11
                  11
                  11
                  11
                  12
                  12
                  12
                  12
                  12
                  12
                  12
                  12
                  12
                  12
                  11
                  11
                  11
                  11
                  11
                  11
                  11
                  11
                  11
                  11
                  11
                  11
                  11
                  11
                  11
                  12
                  11
                  11
                  11
                  11
                  12
                  12
                  11
                  12
                  12
                  12
                  12
                  12
                  12
                  11
                  11
                  11
                  11
                  11
                  11
                  11
                  11
                  11
                  11
                  11
                  12
                  12
                  12
                  11
                  11
                  11
                  11
                  11
                  11
                  12
                  12
                  12
                  12
                  12
                  12
                  12
                  11
                  11
                  11
                  11
                  11
                  11
                  11
                  11
                  11
                  11
                  11
                  11
                  12
                  12
                  12
                  12
                  12
                  12
                  12
                  12
                  12
                  12
                  11
                  11
                  11
                  11
                  11
                  11
                  11
                  11
                  11
                  11
                  11
                  11
                  11
                  11
                  11
                  12
                  11
                  11
                  11
                  11
                  12
                  12
                  11
                  12
                  12
                  12
                  12
                  12
                  12
                  11
                  11
                  11
                  11
                  11
                  11
                  11
                  11
                  11
                  11
                  11
                  12
                  12
                  12
                  11
                  11
                  11
                  11
                  11
                  11
                  12
                  12
                  12
                  12
                  12
                  12
                  12
                  11
                  11
                  11
                  11
                  11
                  11
                  11
                  11
                  11
                  11
                  11
                  11
                  12
                  12
                  12
                  12
                  12
                  12
                  12
                  12
                  12
                  12
                  11
                  11
                  11
                  11
                  11
                  11
                  11
                  11
                  11
                  11
                  11
                  11
                  11
                  11
                  11
                  12
                  11
                  11
                  11
                  11
                  12
                  12
                  11
                  12
                  12
                  12
                  12
                  12
                  12
                  11
                  11
                  11
                  11
                  11
                  11
                  11
                  11
                  11
                  11
                  11
                  12
                  12
                  12
                  11
                  11
                  11
                  11
                  11
                  11
                  12
                  12
                  12
                  12
                  12
                  12
                  12
                  11
                  11
                  11
                  11
                  11
                  11
                  11
                  11
                  11
                  11
                  11
                  11
                  12
                  12
                  12
                  12
                  12
                  12
                  12
                  12
                  12
                  12
                  11
                  11
                  11
                  11
                  11
                  11
                  11
                  11
                  11
                  11
                  11
                  11
                  11
                  11
                  11
                  12
                  11
                  11
                  11
                  11
                  12
                  12
                  11
                  12
                  12
                  12
                  12
                  12
                  12
                  11
                  11
                  11
                  11
                  11
                  11
                  11
                  11
                  11
                  11
                  11
                  12
                  12
                  12
                  11
                  11
                  11
                  11
                  11
                  11
                  12
                  12
                  12
                  12
                  12
                  12
                  12
                  11
                  11
                  11
                  11
                  11
                  11
                  11
                  11
                  11
                  11
                  11
                  11
                  12
                  12
                  12
                  12
                  12
                  12
                  12
                  12
                  12
                  12
                  11
                  11
                  11
                  11
                  11
                  11
                  11
                  11
                  11
                  11
                  11
                  11
                  11
                  11
                  11
                  12
                  11
                  11
                  11
                  11
                  12
                  12
                  11
                  12
                  12
                  12
                  12
                  12
                  12
                  11
                  11
                  11
                  11
                  11
                  11
                  11
                  11
                  11
                  11
                  11
                  12
                  12
                  12
                  11
                  11
                  11
                  11
                  11
                  11
                  12
                  12
                  12
                  12
                  12
                  12
                  12
                  11
                  11
                  11
                  11
                  11
                  11
                  11
                  11
                  11
                  11
                  11
                  11
                  12
                  12
                  12
                  12
                  12
                  12
                  12
                  12
                  12
                  12
                  11
                  11
                  11
                  11
                  11
                  11
                  11
                  11
                  11
                  11
                  11
                  11
                  11
                  11
                  11
                  12
                  11
                  11
                  11
                  11
                  12
                  12
                  11
                  12
                  12
                  12
                  12
                  12
                  12
                  11
                  11
                  11
                  11
                  11
                  11
                  11
                  11
                  11
                  11
                  11
                  12
                  12
                  12
                  11
                  11
                  11
                  11
                  11
                  11
                  12
                  12
                  12
                  12
                  12
                  12
                  12
                  11
                  11
                  11
                  11
                  11
                  11
                  11
                  11
                  11
                  11
                  11
                  11
                  12
                  12
                  12
                  12
                  12
                  12
                  12
                  12
                  12
                  12
                  11
                  11
                  11
                  11
                  11
                  11
                  11
                  11
                  11
                  11
                  11
                  11
                  11
                  11
                  11
                  12
                  11
                  11
                  11
                  11
                  12
                  12
                  11
                  12
                  12
                  12
                  12
                  12
                  12
                  11
                  11
                  11
                  11
                  11
                  11
                  11
                  11
                  11
                  11
                  11
                  12
                  12
                  12
                  11
                  11
                  11
                  11
                  11
                  11
                  12
                  12
                  12
                  12
                  12
                  12
                  12
                  11
                  11
                  11
                  11
                  11
                  11
                  11
                  11
                  11
                  11
                  11
                  11
                  12
                  12
                  12
                  12
                  12
                  12
                  12
                  12
                  12
                  12
                  11
                  11
                  11
                  11
                  11
                  11
                  11
                  11
                  11
                  11
                  11
                  11
                  11
                  11
                  11
                  12
                  11
                  11
                  11
                  11
                  12
                  12
                  11
                  12
                  12
                  12
                  12
                  12
                  12
                  11
                  11
                  11
                  11
                  11
                  11
                  11
                  11
                  11
                  11
                  11
                  12
                  12
                  12
                  11
                  11
                  11
                  11
                  11
                  11
                  12
                  12
                  12
                  12
                  12
                  12
                  12
                  11
                  11
                  11
                  11
                  11
                  11
                  11
                  11
                  11
                  11
                  11
                  11
                  12
                  12
                  12
                  12
                  12
                  12
                  12
                  12
                  12
                  12
                  11
                  11
                  11
                  11
                  11
                  11
                  11
                  11
                  11
                  11
                  11
                  11
                  11
                  11
                  11
                  12
                  11
                  11
                  11
                  11
                  12
                  12
                  11
                  12
                  12
                  12
                  12
                  12
                  12
                  11
                  11
                  11
                  11
                  11
                  11
                  11
                  11
                  11
                  11
                  11
                  12
                  12
                  12
                  11
                  11
                  11
                  11
                  11
                  11
                  12
                  12
                  12
                  12
                  12
                  12
                  12
                  11
                  11
                  11
                  11
                  11
                  11
                  11
                  11
                  11
                  11
                  11
                  11
                  12
                  12
                  12
                  12
                  12
                  12
                  12
                  12
                  12
                  12
                  11
                  11
                  11
                  11
                  11
                  11
                  11
                  11
                  11
                  11
                  11
                  11
                  11
                  11
                  11
                  12
                  11
                  11
                  11
                  11
                  12
                  12
                  11
                  12
                  12
                  12
                  12
                  12
                  12
                  11
                  11
                  11
                  11
                  11
                  11
                  11
                  11
                  11
                  11
                  11
                  12
                  12
                  12
                  11
                  11
                  11
                  11
                  11
                  11
                  12
                  12
                  12
                  12
                  12
                  12
                  12
                  11
                  11
                  11
                  11
                  11
                  11
                  11
                  11
                  11
                  11
                  11
                  11
                  12
                  12
                  12
                  12
                  12
                  12
                  12
                  12
                  12
                  12
                  11
                  11
                  11
                  11
                  11
                  11
                  11
                  11
                  11
                  11
                  11
                  11
                  11
                  11
                  11
                  12
                  11
                  11
                  11
                  11
                  12
                  12
                  11
                  12
                  12
                  12
                  12
                  12
                  12
                  11
                  11
                  11
                  11
                  11
                  11
                  11
                  11
                  11
                  11
                  11
                  12
                  12
                  12
                  11
                  11
                  11
                  11
                  11
                  11
                  12
                  12
                  12
                  12
                  12
                  12
                  12
                  11
                  11
                  11
                  11
                  11
                  11
                  11
                  11
                  11
                  11
                  11
                  11
                  12
                  12
                  12
                  12
                  12
                  12
                  12
                  12
                  12
                  12
                  11
                  11
                  11
                  11
                  11
                  11
                  11
                  11
                  11
                  11
                  11
                  11
                  11
                  11
                  11
                  12
                  11
                  11
                  11
                  11
                  12
                  12
                  11
                  12
                  12
                  12
                  12
                  12
                  12
                  11
                  11
                  11
                  11
                  11
                  11
                  11
                  11
                  11
                  11
                  11
                  12
                  12
                  12
                  11
                  11
                  11
                  11
                  11
                  11
                  12
                  12
                  12
                  12
                  12
                  12
                  12
                  11
                  11
                  11
                  11
                  11
                  11
                  11
                  11
                  11
                  11
                  11
                  11
                  12
                  12
                  12
                  12
                  12
                  12
                  12
                  12
                  12
                  12
                  11
                  11
                  11
                  11
                  11
                  11
                  11
                  11
                  11
                  11
                  11
                  11
                  11
                  11
                  11
                  12
                  11
                  11
                  11
                  11
                  12
                  12
                  11
                  12
                  12
                  12
                  12
                  12
                  12
                  11
                  11
                  11
                  11
                  11
                  11
                  11
                  11
                  11
                  11
                  11
                  12
                  12
                  12
                  11
                  11
                  11
                  11
                  11
                  11
                  12
                  12
                  12
                  12
                  12
                  12
                  12
                  11
                  11
                  11
                  11
                  11
                  11
                  11
                  11
                  11
                  11
                  11
                  11
                  12
                  12
                  12
                  12
                  12
                  12
                  12
                  12
                  12
                  12
                  11
                  11
                  11
                  11
                  11
                  11
                  11
                  11
                  11
                  11
                  11
                  11
                  11
                  11
                  11
                  12
                  11
                  11
                  11
                  11
                  12
                  12
                  11
                  12
                  12
                  12
                  12
                  12
                  12
                  11
                  11
                  11
                  11
                  11
                  11
                  11
                  11
                  11
                  11
                  11
                  12
                  12
                  12
                  11
                  11
                  11
                  11
                  11
                  11
                  12
                  12
                  12
                  12
                  12
                  12
                  12
                  11
                  11
                  11
                  11
                  11
                  11
                  11
                  11
                  11
                  11
                  11
                  11
                  12
                  12
                  12
                  12
                  12
                  12
                  12
                  12
                  12
                  12
                  11
                  11
                  11
                  11
                  11
                  11
                  11
                  11
                  11
                  11
                  11
                  11
                  11
                  11
                  11
                  12
                  11
                  11
                  11
                  11
                  12
                  12
                  11
                  12
                  12
                  12
                  12
                  12
                  12
                  11
                  11
                  11
                  11
                  11
                  11
                  11
                  11
                  11
                  11
                  11
                  12
                  12
                  12
                  11
                  11
                  11
                  11
                  11
                  11
                  12
                  12
                  12
                  12
                  12
                  12
                  12
                  11
                  11
                  11
                  11
                  11
                  11
                  11
                  11
                  11
                  11
                  11
                  11
                  12
                  12
                  12
                  12
                  12
                  12
                  12
                  12
                  12
                  12
                  11
                  11
                  11
                  11
                  11
                  11
                  11
                  11
                  11
                  11
                  11
                  11
                  11
                  11
                  11
                  12
                  11
                  11
                  11
                  11
                  12
                  12
                  11
                  12
                  12
                  12
                  12
                  12
                  12
                  11
                  11
                  11
                  11
                  11
                  11
                  11
                  11
                  11
                  11
                  11
                  12
                  12
                  12
                  11
                  11
                  11
                  11
                  11
                  11
                  12
                  12
                  12
                  12
                  12
                  12
                  12
                  11
                  11
                  11
                  11
                  11
                  11
                  11
                  11
                  11
                  11
                  11
                  11
                  12
                  12
                  12
                  12
                  12
                  12
                  12
                  12
                  12
                  12
                  11
                  11
                  11
                  11
                  11
                  11
                  11
                  11
                  11
                  11
                  11
                  11
                  11
                  11
                  11
                  12
                  11
                  11
                  11
                  11
                  12
                  12
                  11
                  12
                  12
                  12
                  12
                  12
                  12
                  11
                  11
                  11
                  11
                  11
                  11
                  11
                  11
                  11
                  11
                  11
                  12
                  12
                  12
                  11
                  11
                  11
                  11
                  11
                  11
                  12
                  12
                  12
                  12
                  12
                  12
                  12
                  11
                  11
                  11
                  11
                  11
                  11
                  11
                  11
                  11
                  11
                  11
                  11
                  12
                  12
                  12
                  12
                  12
                  12
                  12
                  12
                  12
                  12
                  11
                  11
                  11
                  11
                  11
                  11
                  11
                  11
                  11
                  11
                  11
                  11
                  11
                  11
                  11
                  12
                  11
                  11
                  11
                  11
                  12
                  12
                  11
                  12
                  12
                  12
                  12
                  12
                  12
                  11
                  11
                  11
                  11
                  11
                  11
                  11
                  11
                  11
                  11
                  11
                  12
                  12
                  12
                  11
                  11
                  11
                  11
                  11
                  11
                  12
                  12
                  12
                  12
                  12
                  12
                  12
                  11
                  11
                  11
                  11
                  11
                  11
                  11
                  11
                  11
                  11
                  11
                  11
                  12
                  12
                  12
                  12
                  12
                  12
                  12
                  12
                  12
                  12
                  11
                  11
                  11
                  11
                  11
                  11
                  11
                  11
                  11
                  11
                  11
                  11
                  11
                  11
  
SCALARS                         Kspace  double 1
LOOKUP_TABLE default
                  11
                  11
                  11
                  11
                  11
                  11
                  11
                  11
                  11
                  11
                  11
                  11
                  11
                  11
                  11
                  11
                  11
                  11
                  11
                  11
                  11
                  11
                  11
                  11
                  11
                  11
                  11
                  11
                  11
                  11
                  11
                  11
                  11
                  11
                  11
                  11
                  11
                  11
                  11
                  11
                  11
                  11
                  11
                  11
                  11
                  11
                  11
                  11
                  11
                  11
                  11
                  11
                  11
                  11
                  11
                  11
                  11
                  11
                  11
                  11
                  11
                  11
                  11
                  11
                  11
                  11
                  11
                  11
                  11
                  11
                  11
                  11
                  11
                  11
                  11
                  11
                  11
                  11
                  11
                  11
                  11
                  11
                  11
                  11
                  11
                  11
                  11
                  11
                  11
                  11
                  11
                  11
                  11
                  11
                  11
                  11
                  11
                  11
                  11
                  11
                  11
                  11
                  11
                  11
                  11
                  11
                  11
                  11
                  11
                  11
                  11
                  11
                  11
                  11
                  11
                  11
                  11
                  11
                  11
                  11
                  11
                  11
                  11
                  11
                  11
                  11
                  11
                  11
                  11
                  11
                  11
                  11
                  11
                  11
                  11
                  11
                  11
                  11
                  11
                  11
                  11
                  11
                  11
                  11
                  11
                  11
                  11
                  11
                  11
                  11
                  11
                  11
                  11
                  11
                  11
                  11
                  11
                  11
                  11
                  11
                  11
                  11
                  11
                  11
                  11
                  11
                  11
                  11
                  11
                  11
                  11
                  11
                  11
                  11
                  11
                  11
                  11
                  11
                  11
                  11
                  11
                  11
                  11
                  11
                  11
                  11
                  11
                  11
                  11
                  11
                  11
                  11
                  11
                  11
                  11
                  11
                  11
                  11
                  11
                  11
                  11
                  11
                  11
                  11
                  11
                  11
                  11
                  11
                  11
                  11
                  11
                  11
                  11
                  11
                  11
                  11
                  11
                  11
                  11
                  11
                  11
                  11
                  11
                  11
                  11
                  11
                  11
                  11
                  11
                  11
                  11
                  11
                  11
                  11
                  11
                  11
                  11
                  11
                  11
                  11
                  11
                  11
                  11
                  11
                  11
                  11
                  11
                  11
                  11
                  11
                  11
                  11
                  11
                  11
                  11
                  11
                  11
                  11
                  11
                  11
                  11
                  11
                  11
                  11
                  11
                  11
                  11
                  11
                  11
                  11
                  11
                  11
                  11
                  11
                  11
                  11
                  11
                  11
                  11
                  11
                  11
                  11
                  11
                  11
                  11
                  11
                  11
                  11
                  11
                  11
                  11
                  11
                  11
                  11
                  11
                  11
                  11
                  11
                  11
                  11
                  11
                  11
                  11
                  11
                  11
                  11
                  11
                  11
                  11
                  11
                  11
                  11
                  12
                  12
                  12
                  12
                  12
                  12
                  12
                  12
                  12
                  12
                  12
                  12
                  12
                  12
                  12
                  12
                  12
                  12
                  12
                  12
                  12
                  12
                  12
                  12
                  12
                  12
                  12
                  12
                  12
                  12
                  12
                  12
                  12
                  12
                  12
                  12
                  12
                  12
                  12
                  12
                  12
                  12
                  12
                  12
                  12
                  12
                  12
                  12
                  12
                  12
                  12
                  12
                  12
                  12
                  12
                  12
                  12
                  12
                  12
                  12
                  12
                  12
                  12
                  12
                  12
                  12
                  12
                  12
                  12
                  12
                  12
                  12
                  12
                  12
                  12
                  12
                  12
                  12
                  12
                  12
                  12
                  12
                  12
                  12
                  12
                  12
                  12
                  12
                  12
                  12
                  12
                  12
                  12
                  12
                  12
                  12
                  12
                  12
                  12
                  12
                  12
                  12
                  12
                  12
                  12
                  12
                  12
                  12
                  12
                  12
                  12
                  12
                  12
                  12
                  12
                  12
                  12
                  12
                  12
                  12
                  12
                  12
                  12
                  12
                  12
                  12
                  12
                  12
                  12
                  12
                  12
                  12
                  12
                  12
                  12
                  12
                  12
                  12
                  12
                  12
                  12
                  12
                  12
                  12
                  12
                  12
                  12
                  12
                  12
                  12
                  12
                  12
                  12
                  12
                  12
                  12
                  12
                  12
                  12
                  12
                  12
                  12
                  12
                  12
                  12
                  12
                  12
                  12
                  12
                  12
                  12
                  12
                  12
                  12
                  12
                  12
                  12
                  12
                  12
                  12
                  12
                  12
                  12
                  12
                  12
                  12
                  12
                  12
                  12
                  12
                  12
                  12
                  12
                  12
                  12
                  12
                  12
                  12
                  12
                  12
                  12
                  12
                  12
                  12
                  12
                  12
                  12
                  12
                  12
                  12
                  12
                  12
                  12
                  12
                  12
                  12
                  12
                  12
                  12
                  12
                  12
                  12
                  12
                  12
                  12
                  12
                  12
                  12
                  12
                  12
                  12
                  12
                  12
                  12
                  13
                  13
                  13
                  13
                  13
                  13
                  13
                  13
                  13
                  13
                  13
                  13
                  13
                  13
                  13
                  13
                  13
                  13
                  13
                  13
                  13
                  13
                  13
                  13
                  13
                  13
                  13
                  13
                  13
                  13
                  13
                  13
                  13
                  13
                  13
                  13
                  13
                  13
                  13
                  13
                  13
                  13
                  13
                  13
                  13
                  13
                  13
                  13
                  13
                  13
                  13
                  13
                  13
                  13
                  13
                  13
                  13
                  13
                  13
                  13
                  13
                  13
                  13
                  13
                  13
                  13
                  13
                  13
                  13
                  13
                  13
                  13
                  13
                  13
                  13
                  13
                  13
                  13
                  13
                  13
                  13
                  13
                  13
                  13
                  13
                  13
                  13
                  13
                  13
                  13
                  13
                  13
                  13
                  13
                  13
                  13
                  13
                  13
                  13
                  13
                  13
                  13
                  13
                  13
                  13
                  13
                  13
                  13
                  13
                  13
                  13
                  13
                  13
                  13
                  13
                  13
                  13
                  13
                  13
                  13
                  13
                  13
                  13
                  13
                  13
                  13
                  13
                  13
                  13
                  13
                  13
                  13
                  13
                  13
                  13
                  13
                  13
                  13
                  13
                  13
                  13
                  13
                  13
                  13
                  13
                  13
                  13
                  13
                  13
                  13
                  13
                  13
                  13
                  13
                  13
                  13
                  13
                  13
                  13
                  13
                  13
                  13
                  13
                  13
                  13
                  13
                  13
                  13
                  13
                  13
                  13
                  13
                  13
                  13
                  13
                  13
                  13
                  13
                  13
                  13
                  13
                  13
                  13
                  13
                  13
                  13
                  13
                  13
                  13
                  13
                  13
                  13
                  13
                  13
                  13
                  13
                  13
                  13
                  13
                  13
                  13
                  13
                  13
                  13
                  13
                  13
                  13
                  13
                  13
                  13
                  13
                  13
                  13
                  13
                  13
                  13
                  13
                  13
                  13
                  13
                  13
                  13
                  13
                  13
                  13
                  13
                  13
                  13
                  13
                  13
                  13
                  13
                  13
                  13
                  14
                  14
                  14
                  14
                  14
                  14
                  14
                  14
                  14
                  14
                  14
                  14
                  14
                  14
                  14
                  14
                  14
                  14
                  14
                  14
                  14
                  14
                  14
                  14
                  14
                  14
                  14
                  14
                  14
                  14
                  14
                  14
                  14
                  14
                  14
                  14
                  14
                  14
                  14
                  14
                  14
                  14
                  14
                  14
                  14
                  14
                  14
                  14
                  14
                  14
                  14
                  14
                  14
                  14
                  14
                  14
                  14
                  14
                  14
                  14
                  14
                  14
                  14
                  14
                  14
                  14
                  14
                  14
                  14
                  14
                  14
                  14
                  14
                  14
                  14
                  14
                  14
                  14
                  14
                  14
                  14
                  14
                  14
                  14
                  14
                  14
                  14
                  14
                  14
                  14
                  14
                  14
                  14
                  14
                  14
                  14
                  14
                  14
                  14
                  14
                  14
                  14
                  14
                  14
                  14
                  14
                  14
                  14
                  14
                  14
                  14
                  14
                  14
                  14
                  14
                  14
                  14
                  14
                  14
                  14
                  14
                  14
                  14
                  14
                  14
                  14
                  14
                  14
                  14
                  14
                  14
                  14
                  14
                  14
                  14
                  14
                  14
                  14
                  14
                  14
                  14
                  14
                  14
                  14
                  14
                  14
                  14
                  14
                  14
                  14
                  14
                  14
                  14
                  14
                  14
                  14
                  14
                  14
                  14
                  14
                  14
                  14
                  14
                  14
                  14
                  14
                  14
                  14
                  14
                  14
                  14
                  14
                  14
                  14
                  14
                  14
                  14
                  14
                  14
                  14
                  14
                  14
                  14
                  14
                  14
                  14
                  14
                  14
                  14
                  14
                  14
                  14
                  14
                  14
                  14
                  14
                  14
                  14
                  14
                  14
                  14
                  14
                  14
                  14
                  14
                  14
                  14
                  14
                  14
                  14
                  14
                  14
                  14
                  14
                  14
                  14
                  14
                  14
                  14
                  14
                  14
                  14
                  14
                  14
                  14
                  14
                  14
                  14
                  14
                  14
                  14
                  14
                  14
                  14
                  15
                  15
                  15
                  15
                  15
                  15
                  15
                  15
                  15
                  15
                  15
                  15
                  15
                  15
                  15
                  15
                  15
                  15
                  15
                  15
                  15
                  15
                  15
                  15
                  15
                  15
                  15
                  15
                  15
                  15
                  15
                  15
                  15
                  15
                  15
                  15
                  15
                  15
                  15
                  15
                  15
                  15
                  15
                  15
                  15
                  15
                  15
                  15
                  15
                  15
                  15
                  15
                  15
                  15
                  15
                  15
                  15
                  15
                  15
                  15
                  15
                  15
                  15
                  15
                  15
                  15
                  15
                  15
                  15
                  15
                  15
                  15
                  15
                  15
                  15
                  15
                  15
                  15
                  15
                  15
                  15
                  15
                  15
                  15
                  15
                  15
                  15
                  15
                  15
                  15
                  15
                  15
                  15
                  15
                  15
                  15
                  15
                  15
                  15
                  15
                  15
                  15
                  15
                  15
                  15
                  15
                  15
                  15
                  15
                  15
                  15
                  15
                  15
                  15
                  15
                  15
                  15
                  15
                  15
                  15
                  15
                  15
                  15
                  15
                  15
                  15
                  15
                  15
                  15
                  15
                  15
                  15
                  15
                  15
                  15
                  15
                  15
                  15
                  15
                  15
                  15
                  15
                  15
                  15
                  15
                  15
                  15
                  15
                  15
                  15
                  15
                  15
                  15
                  15
                  15
                  15
                  15
                  15
                  15
                  15
                  15
                  15
                  15
                  15
                  15
                  15
                  15
                  15
                  15
                  15
                  15
                  15
                  15
                  15
                  15
                  15
                  15
                  15
                  15
                  15
                  15
                  15
                  15
                  15
                  15
                  15
                  15
                  15
                  15
                  15
                  15
                  15
                  15
                  15
                  15
                  15
                  15
                  15
                  15
                  15
                  15
                  15
                  15
                  15
                  15
                  15
                  15
                  15
                  15
                  15
                  15
                  15
                  15
                  15
                  15
                  15
                  15
                  15
                  15
                  15
                  15
                  15
                  15
                  15
                  15
                  15
                  15
                  15
                  15
                  15
                  15
                  15
                  15
                  15
                  15
                  15
                  15
                  15
                  15
                  15
                  15
                  15
                  15
                  15
                  15
                  15
                  15
                  15
                  15
                  15
                  15
                  15
                  15
                  15
                  15
                  15
                  15
                  15
                  15
                  15
                  15
                  15
                  15
                  15
                  15
                  15
                  15
                  15
                  15
                  15
                  15
                  15
                  15
                  15
                  15
                  15
                  15
                  15
                  15
                  15
                  15
                  15
                  15
                  15
                  15
                  15
                  15
                  15
                  15
                  15
                  15
                  15
                  15
                  15
                  15
                  15
                  15
                  15
                  15
                  15
                  15
                  15
                  15
                  15
                  15
                  15
                  15
                  15
                  15
                  15
                  15
                  15
                  16
                  16
                  16
                  16
                  16
                  16
                  16
                  16
                  16
                  16
                  16
                  16
                  16
                  16
                  16
                  16
                  16
                  16
                  16
                  16
                  16
                  16
                  16
                  16
                  16
                  16
                  16
                  16
                  16
                  16
                  16
                  16
                  16
                  16
                  16
                  16
                  16
                  16
                  16
                  16
                  16
                  16
                  16
                  16
                  16
                  16
                  16
                  16
                  16
                  16
                  16
                  16
                  16
                  16
                  16
                  16
                  16
                  16
                  16
                  16
                  16
                  16
                  16
                  16
                  16
                  16
                  16
                  16
                  16
                  16
                  16
                  16
                  16
                  16
                  16
                  16
                  16
                  16
                  16
                  16
                  16
                  16
                  16
                  16
                  16
                  16
                  16
                  16
                  16
                  16
                  16
                  16
                  16
                  16
                  16
                  16
                  16
                  16
                  16
                  16
                  16
                  16
                  16
                  16
                  16
                  16
                  16
                  16
                  16
                  16
                  16
                  16
                  16
                  16
                  16
                  16
                  16
                  16
                  16
                  16
                  16
                  16
                  16
                  16
                  16
                  16
                  16
                  16
                  16
                  16
                  16
                  16
                  16
                  16
                  16
                  16
                  16
                  16
                  16
                  16
                  16
                  16
                  16
                  16
                  16
                  16
                  16
                  16
                  16
                  16
                  16
                  16
                  16
                  16
                  16
                  16
                  16
                  16
                  16
                  16
                  16
                  16
                  16
                  16
                  16
                  16
                  16
                  16
                  16
                  16
                  16
                  16
                  16
                  16
                  16
                  16
                  16
                  16
                  16
                  16
                  16
                  16
                  16
                  16
                  16
                  16
                  16
                  16
                  16
                  16
                  16
                  16
                  16
                  16
                  16
                  16
                  16
                  16
                  16
                  16
                  16
                  16
                  16
                  16
                  16
                  16
                  16
                  16
                  16
                  16
                  16
                  16
                  16
                  16
                  16
                  16
                  16
                  16
                  16
                  16
                  16
                  16
                  16
                  16
                  16
                  16
                  16
                  16
                  16
                  16
                  16
                  16
                  16
                  16
                  17
                  17
                  17
                  17
                  17
                  17
                  17
                  17
                  17
                  17
                  17
                  17
                  17
                  17
                  17
                  17
                  17
                  17
                  17
                  17
                  17
                  17
                  17
                  17
                  17
                  17
                  17
                  17
                  17
                  17
                  17
                  17
                  17
                  17
                  17
                  17
                  17
                  17
                  17
                  17
                  17
                  17
                  17
                  17
                  17
                  17
                  17
                  17
                  17
                  17
                  17
                  17
                  17
                  17
                  17
                  17
                  17
                  17
                  17
                  17
                  17
                  17
                  17
                  17
                  17
                  17
                  17
                  17
                  17
                  17
                  17
                  17
                  17
                  17
                  17
                  17
                  17
                  17
                  17
                  17
                  17
                  17
                  17
                  17
                  17
                  17
                  17
                  17
                  17
                  17
                  17
                  17
                  17
                  17
                  17
                  17
                  17
                  17
                  17
                  17
                  17
                  17
                  17
                  17
                  17
                  17
                  17
                  17
                  17
                  17
                  17
                  17
                  17
                  17
                  17
                  17
                  17
                  17
                  17
                  17
                  17
                  17
                  17
                  17
                  17
                  17
                  17
                  17
                  17
                  17
                  17
                  17
                  17
                  17
                  17
                  17
                  17
                  17
                  17
                  17
                  17
                  17
                  17
                  17
                  17
                  17
                  17
                  17
                  17
                  17
                  17
                  17
                  17
                  17
                  17
                  17
                  17
                  17
                  17
                  17
                  17
                  17
                  17
                  17
                  17
                  17
                  17
                  17
                  17
                  17
                  17
                  17
                  17
                  17
                  17
                  17
                  17
                  17
                  17
                  17
                  17
                  17
                  17
                  17
                  17
                  17
                  17
                  17
                  17
                  17
                  17
                  17
                  17
                  17
                  17
                  17
                  17
                  17
                  17
                  17
                  17
                  17
                  17
                  17
                  17
                  17
                  17
                  17
                  17
                  17
                  17
                  17
                  17
                  17
                  17
                  17
                  17
                  17
                  17
                  17
                  17
                  17
                  17
                  17
                  17
                  17
                  17
                  17
                  17
                  17
                  17
                  17
                  17
                  17
                  18
                  18
                  18
                  18
                  18
                  18
                  18
                  18
                  18
                  18
                  18
                  18
                  18
                  18
                  18
                  18
                  18
                  18
                  18
                  18
                  18
                  18
                  18
                  18
                  18
                  18
                  18
                  18
                  18
                  18
                  18
                  18
                  18
                  18
                  18
                  18
                  18
                  18
                  18
                  18
                  18
                  18
                  18
                  18
                  18
                  18
                  18
                  18
                  18
                  18
                  18
                  18
                  18
                  18
                  18
                  18
                  18
                  18
                  18
                  18
                  18
                  18
                  18
                  18
                  18
                  18
                  18
                  18
                  18
                  18
                  18
                  18
                  18
                  18
                  18
                  18
                  18
                  18
                  18
                  18
                  18
                  18
                  18
                  18
                  18
                  18
                  18
                  18
                  18
                  18
                  18
                  18
                  18
                  18
                  18
                  18
                  18
                  18
                  18
                  18
                  18
                  18
                  18
                  18
                  18
                  18
                  18
                  18
                  18
                  18
                  18
                  18
                  18
                  18
                  18
                  18
                  18
                  18
                  18
                  18
                  18
                  18
                  18
                  18
                  18
                  18
                  18
                  18
                  18
                  18
                  18
                  18
                  18
                  18
                  18
                  18
                  18
                  18
                  18
                  18
                  18
                  18
                  18
                  18
                  18
                  18
                  18
                  18
                  18
                  18
                  18
                  18
                  18
                  18
                  18
                  18
  
SCALARS                 displacement_x  double 1
LOOKUP_TABLE default
         0.00000E+00
         0.00000E+00
         0.00000E+00
         0.00000E+00
         0.00000E+00
         0.00000E+00
         0.00000E+00
         0.00000E+00
         0.00000E+00
         0.00000E+00
         0.00000E+00
         0.00000E+00
         0.00000E+00
         0.00000E+00
         0.00000E+00
         0.00000E+00
         0.00000E+00
         0.00000E+00
         0.00000E+00
         0.00000E+00
         0.00000E+00
         0.00000E+00
         0.00000E+00
         0.00000E+00
         0.00000E+00
         0.00000E+00
         0.00000E+00
         0.00000E+00
         0.00000E+00
         0.00000E+00
         0.00000E+00
         0.00000E+00
         0.00000E+00
         0.00000E+00
         0.00000E+00
         0.00000E+00
         0.00000E+00
         0.00000E+00
         0.00000E+00
         0.00000E+00
         0.00000E+00
         0.00000E+00
         0.00000E+00
         0.00000E+00
         0.00000E+00
         0.00000E+00
         0.00000E+00
         0.00000E+00
         0.00000E+00
         0.00000E+00
         0.00000E+00
         0.00000E+00
         0.00000E+00
         0.00000E+00
         0.00000E+00
         0.00000E+00
         0.00000E+00
         0.00000E+00
         0.00000E+00
         0.00000E+00
         0.00000E+00
         0.00000E+00
         0.00000E+00
         0.00000E+00
         0.00000E+00
         0.00000E+00
         0.00000E+00
         0.00000E+00
         0.00000E+00
         0.00000E+00
         0.00000E+00
         0.00000E+00
         0.00000E+00
         0.00000E+00
         0.00000E+00
         0.00000E+00
         0.00000E+00
         0.00000E+00
         0.00000E+00
         0.00000E+00
         0.00000E+00
         0.00000E+00
         0.00000E+00
         0.00000E+00
         0.00000E+00
         0.00000E+00
         0.00000E+00
         0.00000E+00
         0.00000E+00
         0.00000E+00
         0.00000E+00
         0.00000E+00
         0.00000E+00
         0.00000E+00
         0.00000E+00
         0.00000E+00
         0.00000E+00
         0.00000E+00
         0.00000E+00
         0.00000E+00
         0.00000E+00
         0.00000E+00
         0.00000E+00
         0.00000E+00
         0.00000E+00
         0.00000E+00
         0.00000E+00
         0.00000E+00
         0.00000E+00
         0.00000E+00
         0.00000E+00
         0.00000E+00
         0.00000E+00
         0.00000E+00
         0.00000E+00
         0.00000E+00
         0.00000E+00
         0.00000E+00
         0.00000E+00
         0.00000E+00
         0.00000E+00
         0.00000E+00
         0.00000E+00
         0.00000E+00
         0.00000E+00
         0.00000E+00
         0.00000E+00
         0.00000E+00
         0.00000E+00
         0.00000E+00
         0.00000E+00
         0.00000E+00
         0.00000E+00
         0.00000E+00
         0.00000E+00
         0.00000E+00
         0.00000E+00
         0.00000E+00
         0.00000E+00
         0.00000E+00
         0.00000E+00
         0.00000E+00
         0.00000E+00
         0.00000E+00
         0.00000E+00
         0.00000E+00
         0.00000E+00
         0.00000E+00
         0.00000E+00
         0.00000E+00
         0.00000E+00
         0.00000E+00
         0.00000E+00
         0.00000E+00
         0.00000E+00
         0.00000E+00
         0.00000E+00
         0.00000E+00
         0.00000E+00
         0.00000E+00
         0.00000E+00
         0.00000E+00
         0.00000E+00
         0.00000E+00
         0.00000E+00
         0.00000E+00
         0.00000E+00
         0.00000E+00
         0.00000E+00
         0.00000E+00
         0.00000E+00
         0.00000E+00
         0.00000E+00
         0.00000E+00
         0.00000E+00
         0.00000E+00
         0.00000E+00
         0.00000E+00
         0.00000E+00
         0.00000E+00
         0.00000E+00
         0.00000E+00
         0.00000E+00
         0.00000E+00
         0.00000E+00
         0.00000E+00
         0.00000E+00
         0.00000E+00
         0.00000E+00
         0.00000E+00
         0.00000E+00
         0.00000E+00
         0.00000E+00
         0.00000E+00
         0.00000E+00
         0.00000E+00
         0.00000E+00
         0.00000E+00
         0.00000E+00
         0.00000E+00
         0.00000E+00
         0.00000E+00
         0.00000E+00
         0.00000E+00
         0.00000E+00
         0.00000E+00
         0.00000E+00
         0.00000E+00
         0.00000E+00
         0.00000E+00
         0.00000E+00
         0.00000E+00
         0.00000E+00
         0.00000E+00
         0.00000E+00
         0.00000E+00
         0.00000E+00
         0.00000E+00
         0.00000E+00
         0.00000E+00
         0.00000E+00
         0.00000E+00
         0.00000E+00
         0.00000E+00
         0.00000E+00
         0.00000E+00
         0.00000E+00
         0.00000E+00
         0.00000E+00
         0.00000E+00
         0.00000E+00
         0.00000E+00
         0.00000E+00
         0.00000E+00
         0.00000E+00
         0.00000E+00
         0.00000E+00
         0.00000E+00
         0.00000E+00
         0.00000E+00
         0.00000E+00
         0.00000E+00
         0.00000E+00
         0.00000E+00
         0.00000E+00
         0.00000E+00
         0.00000E+00
         0.00000E+00
         0.00000E+00
         0.00000E+00
         0.00000E+00
         0.00000E+00
         0.00000E+00
         0.00000E+00
         0.00000E+00
         0.00000E+00
         0.00000E+00
         0.00000E+00
         0.00000E+00
         0.00000E+00
         0.00000E+00
         0.00000E+00
         0.00000E+00
         0.00000E+00
         0.00000E+00
         0.00000E+00
         0.00000E+00
         0.00000E+00
         0.00000E+00
         0.00000E+00
         0.00000E+00
         0.00000E+00
         0.00000E+00
         0.00000E+00
         0.00000E+00
         0.00000E+00
         0.00000E+00
         0.00000E+00
         0.00000E+00
         0.00000E+00
         0.00000E+00
         0.00000E+00
         0.00000E+00
         0.00000E+00
         0.00000E+00
         0.00000E+00
         0.00000E+00
         0.00000E+00
         0.00000E+00
         0.00000E+00
         0.00000E+00
         0.00000E+00
         0.00000E+00
         0.00000E+00
         0.00000E+00
         0.00000E+00
         0.00000E+00
         0.00000E+00
         0.00000E+00
         0.00000E+00
         0.00000E+00
         0.00000E+00
         0.00000E+00
         0.00000E+00
         0.00000E+00
         0.00000E+00
         0.00000E+00
         0.00000E+00
         0.00000E+00
         0.00000E+00
         0.00000E+00
         0.00000E+00
         0.00000E+00
         0.00000E+00
         0.00000E+00
         0.00000E+00
         0.00000E+00
         0.00000E+00
         0.00000E+00
         0.00000E+00
         0.00000E+00
         0.00000E+00
         0.00000E+00
         0.00000E+00
         0.00000E+00
         0.00000E+00
         0.00000E+00
         0.00000E+00
         0.00000E+00
         0.00000E+00
         0.00000E+00
         0.00000E+00
         0.00000E+00
         0.00000E+00
         0.00000E+00
         0.00000E+00
         0.00000E+00
         0.00000E+00
         0.00000E+00
         0.00000E+00
         0.00000E+00
         0.00000E+00
         0.00000E+00
         0.00000E+00
         0.00000E+00
         0.00000E+00
         0.00000E+00
         0.00000E+00
         0.00000E+00
         0.00000E+00
         0.00000E+00
         0.00000E+00
         0.00000E+00
         0.00000E+00
         0.00000E+00
         0.00000E+00
         0.00000E+00
         0.00000E+00
         0.00000E+00
         0.00000E+00
         0.00000E+00
         0.00000E+00
         0.00000E+00
         0.00000E+00
         0.00000E+00
         0.00000E+00
         0.00000E+00
         0.00000E+00
         0.00000E+00
         0.00000E+00
         0.00000E+00
         0.00000E+00
         0.00000E+00
         0.00000E+00
         0.00000E+00
         0.00000E+00
         0.00000E+00
         0.00000E+00
         0.00000E+00
         0.00000E+00
         0.00000E+00
         0.00000E+00
         0.00000E+00
         0.00000E+00
         0.00000E+00
         0.00000E+00
         0.00000E+00
         0.00000E+00
         0.00000E+00
         0.00000E+00
         0.00000E+00
         0.00000E+00
         0.00000E+00
         0.00000E+00
         0.00000E+00
         0.00000E+00
         0.00000E+00
         0.00000E+00
         0.00000E+00
         0.00000E+00
         0.00000E+00
         0.00000E+00
         0.00000E+00
         0.00000E+00
         0.00000E+00
         0.00000E+00
         0.00000E+00
         0.00000E+00
         0.00000E+00
         0.00000E+00
         0.00000E+00
         0.00000E+00
         0.00000E+00
         0.00000E+00
         0.00000E+00
         0.00000E+00
         0.00000E+00
         0.00000E+00
         0.00000E+00
         0.00000E+00
         0.00000E+00
         0.00000E+00
         0.00000E+00
         0.00000E+00
         0.00000E+00
         0.00000E+00
         0.00000E+00
         0.00000E+00
         0.00000E+00
         0.00000E+00
         0.00000E+00
         0.00000E+00
         0.00000E+00
         0.00000E+00
         0.00000E+00
         0.00000E+00
         0.00000E+00
         0.00000E+00
         0.00000E+00
         0.00000E+00
         0.00000E+00
         0.00000E+00
         0.00000E+00
         0.00000E+00
         0.00000E+00
         0.00000E+00
         0.00000E+00
         0.00000E+00
         0.00000E+00
         0.00000E+00
         0.00000E+00
         0.00000E+00
         0.00000E+00
         0.00000E+00
         0.00000E+00
         0.00000E+00
         0.00000E+00
         0.00000E+00
         0.00000E+00
         0.00000E+00
         0.00000E+00
         0.00000E+00
         0.00000E+00
         0.00000E+00
         0.00000E+00
         0.00000E+00
         0.00000E+00
         0.00000E+00
         0.00000E+00
         0.00000E+00
         0.00000E+00
         0.00000E+00
         0.00000E+00
         0.00000E+00
         0.00000E+00
         0.00000E+00
         0.00000E+00
         0.00000E+00
         0.00000E+00
         0.00000E+00
         0.00000E+00
         0.00000E+00
         0.00000E+00
         0.00000E+00
         0.00000E+00
         0.00000E+00
         0.00000E+00
         0.00000E+00
         0.00000E+00
         0.00000E+00
         0.00000E+00
         0.00000E+00
         0.00000E+00
         0.00000E+00
         0.00000E+00
         0.00000E+00
         0.00000E+00
         0.00000E+00
         0.00000E+00
         0.00000E+00
         0.00000E+00
         0.00000E+00
         0.00000E+00
         0.00000E+00
         0.00000E+00
         0.00000E+00
         0.00000E+00
         0.00000E+00
         0.00000E+00
         0.00000E+00
         0.00000E+00
         0.00000E+00
         0.00000E+00
         0.00000E+00
         0.00000E+00
         0.00000E+00
         0.00000E+00
         0.00000E+00
         0.00000E+00
         0.00000E+00
         0.00000E+00
         0.00000E+00
         0.00000E+00
         0.00000E+00
         0.00000E+00
         0.00000E+00
         0.00000E+00
         0.00000E+00
         0.00000E+00
         0.00000E+00
         0.00000E+00
         0.00000E+00
         0.00000E+00
         0.00000E+00
         0.00000E+00
         0.00000E+00
         0.00000E+00
         0.00000E+00
         0.00000E+00
         0.00000E+00
         0.00000E+00
         0.00000E+00
         0.00000E+00
         0.00000E+00
         0.00000E+00
         0.00000E+00
         0.00000E+00
         0.00000E+00
         0.00000E+00
         0.00000E+00
         0.00000E+00
         0.00000E+00
         0.00000E+00
         0.00000E+00
         0.00000E+00
         0.00000E+00
         0.00000E+00
         0.00000E+00
         0.00000E+00
         0.00000E+00
         0.00000E+00
         0.00000E+00
         0.00000E+00
         0.00000E+00
         0.00000E+00
         0.00000E+00
         0.00000E+00
         0.00000E+00
         0.00000E+00
         0.00000E+00
         0.00000E+00
         0.00000E+00
         0.00000E+00
         0.00000E+00
         0.00000E+00
         0.00000E+00
         0.00000E+00
         0.00000E+00
         0.00000E+00
         0.00000E+00
         0.00000E+00
         0.00000E+00
         0.00000E+00
         0.00000E+00
         0.00000E+00
         0.00000E+00
         0.00000E+00
         0.00000E+00
         0.00000E+00
         0.00000E+00
         0.00000E+00
         0.00000E+00
         0.00000E+00
         0.00000E+00
         0.00000E+00
         0.00000E+00
         0.00000E+00
         0.00000E+00
         0.00000E+00
         0.00000E+00
         0.00000E+00
         0.00000E+00
         0.00000E+00
         0.00000E+00
         0.00000E+00
         0.00000E+00
         0.00000E+00
         0.00000E+00
         0.00000E+00
         0.00000E+00
         0.00000E+00
         0.00000E+00
         0.00000E+00
         0.00000E+00
         0.00000E+00
         0.00000E+00
         0.00000E+00
         0.00000E+00
         0.00000E+00
         0.00000E+00
         0.00000E+00
         0.00000E+00
         0.00000E+00
         0.00000E+00
         0.00000E+00
         0.00000E+00
         0.00000E+00
         0.00000E+00
         0.00000E+00
         0.00000E+00
         0.00000E+00
         0.00000E+00
         0.00000E+00
         0.00000E+00
         0.00000E+00
         0.00000E+00
         0.00000E+00
         0.00000E+00
         0.00000E+00
         0.00000E+00
         0.00000E+00
         0.00000E+00
         0.00000E+00
         0.00000E+00
         0.00000E+00
         0.00000E+00
         0.00000E+00
         0.00000E+00
         0.00000E+00
         0.00000E+00
         0.00000E+00
         0.00000E+00
         0.00000E+00
         0.00000E+00
         0.00000E+00
         0.00000E+00
         0.00000E+00
         0.00000E+00
         0.00000E+00
         0.00000E+00
         0.00000E+00
         0.00000E+00
         0.00000E+00
         0.00000E+00
         0.00000E+00
         0.00000E+00
         0.00000E+00
         0.00000E+00
         0.00000E+00
         0.00000E+00
         0.00000E+00
         0.00000E+00
         0.00000E+00
         0.00000E+00
         0.00000E+00
         0.00000E+00
         0.00000E+00
         0.00000E+00
         0.00000E+00
         0.00000E+00
         0.00000E+00
         0.00000E+00
         0.00000E+00
         0.00000E+00
         0.00000E+00
         0.00000E+00
         0.00000E+00
         0.00000E+00
         0.00000E+00
         0.00000E+00
         0.00000E+00
         0.00000E+00
         0.00000E+00
         0.00000E+00
         0.00000E+00
         0.00000E+00
         0.00000E+00
         0.00000E+00
         0.00000E+00
         0.00000E+00
         0.00000E+00
         0.00000E+00
         0.00000E+00
         0.00000E+00
         0.00000E+00
         0.00000E+00
         0.00000E+00
         0.00000E+00
         0.00000E+00
         0.00000E+00
         0.00000E+00
         0.00000E+00
         0.00000E+00
         0.00000E+00
         0.00000E+00
         0.00000E+00
         0.00000E+00
         0.00000E+00
         0.00000E+00
         0.00000E+00
         0.00000E+00
         0.00000E+00
         0.00000E+00
         0.00000E+00
         0.00000E+00
         0.00000E+00
         0.00000E+00
         0.00000E+00
         0.00000E+00
         0.00000E+00
         0.00000E+00
         0.00000E+00
         0.00000E+00
         0.00000E+00
         0.00000E+00
         0.00000E+00
         0.00000E+00
         0.00000E+00
         0.00000E+00
         0.00000E+00
         0.00000E+00
         0.00000E+00
         0.00000E+00
         0.00000E+00
         0.00000E+00
         0.00000E+00
         0.00000E+00
         0.00000E+00
         0.00000E+00
         0.00000E+00
         0.00000E+00
         0.00000E+00
         0.00000E+00
         0.00000E+00
         0.00000E+00
         0.00000E+00
         0.00000E+00
         0.00000E+00
         0.00000E+00
         0.00000E+00
         0.00000E+00
         0.00000E+00
         0.00000E+00
         0.00000E+00
         0.00000E+00
         0.00000E+00
         0.00000E+00
         0.00000E+00
         0.00000E+00
         0.00000E+00
         0.00000E+00
         0.00000E+00
         0.00000E+00
         0.00000E+00
         0.00000E+00
         0.00000E+00
         0.00000E+00
         0.00000E+00
         0.00000E+00
         0.00000E+00
         0.00000E+00
         0.00000E+00
         0.00000E+00
         0.00000E+00
         0.00000E+00
         0.00000E+00
         0.00000E+00
         0.00000E+00
         0.00000E+00
         0.00000E+00
         0.00000E+00
         0.00000E+00
         0.00000E+00
         0.00000E+00
         0.00000E+00
         0.00000E+00
         0.00000E+00
         0.00000E+00
         0.00000E+00
         0.00000E+00
         0.00000E+00
         0.00000E+00
         0.00000E+00
         0.00000E+00
         0.00000E+00
         0.00000E+00
         0.00000E+00
         0.00000E+00
         0.00000E+00
         0.00000E+00
         0.00000E+00
         0.00000E+00
         0.00000E+00
         0.00000E+00
         0.00000E+00
         0.00000E+00
         0.00000E+00
         0.00000E+00
         0.00000E+00
         0.00000E+00
         0.00000E+00
         0.00000E+00
         0.00000E+00
         0.00000E+00
         0.00000E+00
         0.00000E+00
         0.00000E+00
         0.00000E+00
         0.00000E+00
         0.00000E+00
         0.00000E+00
         0.00000E+00
         0.00000E+00
         0.00000E+00
         0.00000E+00
         0.00000E+00
         0.00000E+00
         0.00000E+00
         0.00000E+00
         0.00000E+00
         0.00000E+00
         0.00000E+00
         0.00000E+00
         0.00000E+00
         0.00000E+00
         0.00000E+00
         0.00000E+00
         0.00000E+00
         0.00000E+00
         0.00000E+00
         0.00000E+00
         0.00000E+00
         0.00000E+00
         0.00000E+00
         0.00000E+00
         0.00000E+00
         0.00000E+00
         0.00000E+00
         0.00000E+00
         0.00000E+00
         0.00000E+00
         0.00000E+00
         0.00000E+00
         0.00000E+00
         0.00000E+00
         0.00000E+00
         0.00000E+00
         0.00000E+00
         0.00000E+00
         0.00000E+00
         0.00000E+00
         0.00000E+00
         0.00000E+00
         0.00000E+00
         0.00000E+00
         0.00000E+00
         0.00000E+00
         0.00000E+00
         0.00000E+00
         0.00000E+00
         0.00000E+00
         0.00000E+00
         0.00000E+00
         0.00000E+00
         0.00000E+00
         0.00000E+00
         0.00000E+00
         0.00000E+00
         0.00000E+00
         0.00000E+00
         0.00000E+00
         0.00000E+00
         0.00000E+00
         0.00000E+00
         0.00000E+00
         0.00000E+00
         0.00000E+00
         0.00000E+00
         0.00000E+00
         0.00000E+00
         0.00000E+00
         0.00000E+00
         0.00000E+00
         0.00000E+00
         0.00000E+00
         0.00000E+00
         0.00000E+00
         0.00000E+00
         0.00000E+00
         0.00000E+00
         0.00000E+00
         0.00000E+00
         0.00000E+00
         0.00000E+00
         0.00000E+00
         0.00000E+00
         0.00000E+00
         0.00000E+00
         0.00000E+00
         0.00000E+00
         0.00000E+00
         0.00000E+00
         0.00000E+00
         0.00000E+00
         0.00000E+00
         0.00000E+00
         0.00000E+00
         0.00000E+00
         0.00000E+00
         0.00000E+00
         0.00000E+00
         0.00000E+00
         0.00000E+00
         0.00000E+00
         0.00000E+00
         0.00000E+00
         0.00000E+00
         0.00000E+00
         0.00000E+00
         0.00000E+00
         0.00000E+00
         0.00000E+00
         0.00000E+00
         0.00000E+00
         0.00000E+00
         0.00000E+00
         0.00000E+00
         0.00000E+00
         0.00000E+00
         0.00000E+00
         0.00000E+00
         0.00000E+00
         0.00000E+00
         0.00000E+00
         0.00000E+00
         0.00000E+00
         0.00000E+00
         0.00000E+00
         0.00000E+00
         0.00000E+00
         0.00000E+00
         0.00000E+00
         0.00000E+00
         0.00000E+00
         0.00000E+00
         0.00000E+00
         0.00000E+00
         0.00000E+00
         0.00000E+00
         0.00000E+00
         0.00000E+00
         0.00000E+00
         0.00000E+00
         0.00000E+00
         0.00000E+00
         0.00000E+00
         0.00000E+00
         0.00000E+00
         0.00000E+00
         0.00000E+00
         0.00000E+00
         0.00000E+00
         0.00000E+00
         0.00000E+00
         0.00000E+00
         0.00000E+00
         0.00000E+00
         0.00000E+00
         0.00000E+00
         0.00000E+00
         0.00000E+00
         0.00000E+00
         0.00000E+00
         0.00000E+00
         0.00000E+00
         0.00000E+00
         0.00000E+00
         0.00000E+00
         0.00000E+00
         0.00000E+00
         0.00000E+00
         0.00000E+00
         0.00000E+00
         0.00000E+00
         0.00000E+00
         0.00000E+00
         0.00000E+00
         0.00000E+00
         0.00000E+00
         0.00000E+00
         0.00000E+00
         0.00000E+00
         0.00000E+00
         0.00000E+00
         0.00000E+00
         0.00000E+00
         0.00000E+00
         0.00000E+00
         0.00000E+00
         0.00000E+00
         0.00000E+00
         0.00000E+00
         0.00000E+00
         0.00000E+00
         0.00000E+00
         0.00000E+00
         0.00000E+00
         0.00000E+00
         0.00000E+00
         0.00000E+00
         0.00000E+00
         0.00000E+00
         0.00000E+00
         0.00000E+00
         0.00000E+00
         0.00000E+00
         0.00000E+00
         0.00000E+00
         0.00000E+00
         0.00000E+00
         0.00000E+00
         0.00000E+00
         0.00000E+00
         0.00000E+00
         0.00000E+00
         0.00000E+00
         0.00000E+00
         0.00000E+00
         0.00000E+00
         0.00000E+00
         0.00000E+00
         0.00000E+00
         0.00000E+00
         0.00000E+00
         0.00000E+00
         0.00000E+00
         0.00000E+00
         0.00000E+00
         0.00000E+00
         0.00000E+00
         0.00000E+00
         0.00000E+00
         0.00000E+00
         0.00000E+00
         0.00000E+00
         0.00000E+00
         0.00000E+00
         0.00000E+00
         0.00000E+00
         0.00000E+00
         0.00000E+00
         0.00000E+00
         0.00000E+00
         0.00000E+00
         0.00000E+00
         0.00000E+00
         0.00000E+00
         0.00000E+00
         0.00000E+00
         0.00000E+00
         0.00000E+00
         0.00000E+00
         0.00000E+00
         0.00000E+00
         0.00000E+00
         0.00000E+00
         0.00000E+00
         0.00000E+00
         0.00000E+00
         0.00000E+00
         0.00000E+00
         0.00000E+00
         0.00000E+00
         0.00000E+00
         0.00000E+00
         0.00000E+00
         0.00000E+00
         0.00000E+00
         0.00000E+00
         0.00000E+00
         0.00000E+00
         0.00000E+00
         0.00000E+00
         0.00000E+00
         0.00000E+00
         0.00000E+00
         0.00000E+00
         0.00000E+00
         0.00000E+00
         0.00000E+00
         0.00000E+00
         0.00000E+00
         0.00000E+00
         0.00000E+00
         0.00000E+00
         0.00000E+00
         0.00000E+00
         0.00000E+00
         0.00000E+00
         0.00000E+00
         0.00000E+00
         0.00000E+00
         0.00000E+00
         0.00000E+00
         0.00000E+00
         0.00000E+00
         0.00000E+00
         0.00000E+00
         0.00000E+00
         0.00000E+00
         0.00000E+00
         0.00000E+00
         0.00000E+00
         0.00000E+00
         0.00000E+00
         0.00000E+00
         0.00000E+00
         0.00000E+00
         0.00000E+00
         0.00000E+00
         0.00000E+00
         0.00000E+00
         0.00000E+00
         0.00000E+00
         0.00000E+00
         0.00000E+00
         0.00000E+00
         0.00000E+00
         0.00000E+00
         0.00000E+00
         0.00000E+00
         0.00000E+00
         0.00000E+00
         0.00000E+00
         0.00000E+00
         0.00000E+00
         0.00000E+00
         0.00000E+00
         0.00000E+00
         0.00000E+00
         0.00000E+00
         0.00000E+00
         0.00000E+00
         0.00000E+00
         0.00000E+00
         0.00000E+00
         0.00000E+00
         0.00000E+00
         0.00000E+00
         0.00000E+00
         0.00000E+00
         0.00000E+00
         0.00000E+00
         0.00000E+00
         0.00000E+00
         0.00000E+00
         0.00000E+00
         0.00000E+00
         0.00000E+00
         0.00000E+00
         0.00000E+00
         0.00000E+00
         0.00000E+00
         0.00000E+00
         0.00000E+00
         0.00000E+00
         0.00000E+00
         0.00000E+00
         0.00000E+00
         0.00000E+00
         0.00000E+00
         0.00000E+00
         0.00000E+00
         0.00000E+00
         0.00000E+00
         0.00000E+00
         0.00000E+00
         0.00000E+00
         0.00000E+00
         0.00000E+00
         0.00000E+00
         0.00000E+00
         0.00000E+00
         0.00000E+00
         0.00000E+00
         0.00000E+00
         0.00000E+00
         0.00000E+00
         0.00000E+00
         0.00000E+00
         0.00000E+00
         0.00000E+00
         0.00000E+00
         0.00000E+00
         0.00000E+00
         0.00000E+00
         0.00000E+00
         0.00000E+00
         0.00000E+00
         0.00000E+00
         0.00000E+00
         0.00000E+00
         0.00000E+00
         0.00000E+00
         0.00000E+00
         0.00000E+00
         0.00000E+00
         0.00000E+00
         0.00000E+00
         0.00000E+00
         0.00000E+00
         0.00000E+00
         0.00000E+00
         0.00000E+00
         0.00000E+00
         0.00000E+00
         0.00000E+00
         0.00000E+00
         0.00000E+00
         0.00000E+00
         0.00000E+00
         0.00000E+00
         0.00000E+00
         0.00000E+00
         0.00000E+00
         0.00000E+00
         0.00000E+00
         0.00000E+00
         0.00000E+00
         0.00000E+00
         0.00000E+00
         0.00000E+00
         0.00000E+00
         0.00000E+00
         0.00000E+00
         0.00000E+00
         0.00000E+00
         0.00000E+00
         0.00000E+00
         0.00000E+00
         0.00000E+00
         0.00000E+00
         0.00000E+00
         0.00000E+00
         0.00000E+00
         0.00000E+00
         0.00000E+00
         0.00000E+00
         0.00000E+00
         0.00000E+00
         0.00000E+00
         0.00000E+00
         0.00000E+00
         0.00000E+00
         0.00000E+00
         0.00000E+00
         0.00000E+00
         0.00000E+00
         0.00000E+00
         0.00000E+00
         0.00000E+00
         0.00000E+00
         0.00000E+00
         0.00000E+00
         0.00000E+00
         0.00000E+00
         0.00000E+00
         0.00000E+00
         0.00000E+00
         0.00000E+00
         0.00000E+00
         0.00000E+00
         0.00000E+00
         0.00000E+00
         0.00000E+00
         0.00000E+00
         0.00000E+00
         0.00000E+00
         0.00000E+00
         0.00000E+00
         0.00000E+00
         0.00000E+00
         0.00000E+00
         0.00000E+00
         0.00000E+00
         0.00000E+00
         0.00000E+00
         0.00000E+00
         0.00000E+00
         0.00000E+00
         0.00000E+00
         0.00000E+00
         0.00000E+00
         0.00000E+00
         0.00000E+00
         0.00000E+00
         0.00000E+00
         0.00000E+00
         0.00000E+00
         0.00000E+00
         0.00000E+00
         0.00000E+00
         0.00000E+00
         0.00000E+00
         0.00000E+00
         0.00000E+00
         0.00000E+00
         0.00000E+00
         0.00000E+00
         0.00000E+00
         0.00000E+00
         0.00000E+00
         0.00000E+00
         0.00000E+00
         0.00000E+00
         0.00000E+00
         0.00000E+00
         0.00000E+00
         0.00000E+00
         0.00000E+00
         0.00000E+00
         0.00000E+00
         0.00000E+00
         0.00000E+00
         0.00000E+00
         0.00000E+00
         0.00000E+00
         0.00000E+00
         0.00000E+00
         0.00000E+00
         0.00000E+00
         0.00000E+00
         0.00000E+00
         0.00000E+00
         0.00000E+00
         0.00000E+00
         0.00000E+00
         0.00000E+00
         0.00000E+00
         0.00000E+00
         0.00000E+00
         0.00000E+00
         0.00000E+00
         0.00000E+00
         0.00000E+00
         0.00000E+00
         0.00000E+00
         0.00000E+00
         0.00000E+00
         0.00000E+00
         0.00000E+00
         0.00000E+00
         0.00000E+00
         0.00000E+00
         0.00000E+00
         0.00000E+00
         0.00000E+00
         0.00000E+00
         0.00000E+00
         0.00000E+00
         0.00000E+00
         0.00000E+00
         0.00000E+00
         0.00000E+00
         0.00000E+00
         0.00000E+00
         0.00000E+00
         0.00000E+00
         0.00000E+00
         0.00000E+00
         0.00000E+00
         0.00000E+00
         0.00000E+00
         0.00000E+00
         0.00000E+00
         0.00000E+00
         0.00000E+00
         0.00000E+00
         0.00000E+00
         0.00000E+00
         0.00000E+00
         0.00000E+00
         0.00000E+00
         0.00000E+00
         0.00000E+00
         0.00000E+00
         0.00000E+00
         0.00000E+00
         0.00000E+00
         0.00000E+00
         0.00000E+00
         0.00000E+00
         0.00000E+00
         0.00000E+00
         0.00000E+00
         0.00000E+00
         0.00000E+00
         0.00000E+00
         0.00000E+00
         0.00000E+00
         0.00000E+00
         0.00000E+00
         0.00000E+00
         0.00000E+00
         0.00000E+00
         0.00000E+00
         0.00000E+00
         0.00000E+00
         0.00000E+00
         0.00000E+00
         0.00000E+00
         0.00000E+00
         0.00000E+00
         0.00000E+00
         0.00000E+00
         0.00000E+00
         0.00000E+00
         0.00000E+00
         0.00000E+00
         0.00000E+00
         0.00000E+00
         0.00000E+00
         0.00000E+00
         0.00000E+00
         0.00000E+00
         0.00000E+00
         0.00000E+00
         0.00000E+00
         0.00000E+00
         0.00000E+00
         0.00000E+00
         0.00000E+00
         0.00000E+00
         0.00000E+00
         0.00000E+00
         0.00000E+00
         0.00000E+00
         0.00000E+00
         0.00000E+00
         0.00000E+00
         0.00000E+00
         0.00000E+00
         0.00000E+00
         0.00000E+00
         0.00000E+00
         0.00000E+00
         0.00000E+00
         0.00000E+00
         0.00000E+00
         0.00000E+00
         0.00000E+00
         0.00000E+00
         0.00000E+00
         0.00000E+00
         0.00000E+00
         0.00000E+00
         0.00000E+00
         0.00000E+00
         0.00000E+00
         0.00000E+00
         0.00000E+00
         0.00000E+00
         0.00000E+00
         0.00000E+00
         0.00000E+00
         0.00000E+00
         0.00000E+00
         0.00000E+00
         0.00000E+00
         0.00000E+00
         0.00000E+00
         0.00000E+00
         0.00000E+00
         0.00000E+00
         0.00000E+00
         0.00000E+00
         0.00000E+00
         0.00000E+00
         0.00000E+00
         0.00000E+00
         0.00000E+00
         0.00000E+00
         0.00000E+00
         0.00000E+00
         0.00000E+00
         0.00000E+00
         0.00000E+00
         0.00000E+00
         0.00000E+00
         0.00000E+00
         0.00000E+00
         0.00000E+00
         0.00000E+00
         0.00000E+00
         0.00000E+00
         0.00000E+00
         0.00000E+00
         0.00000E+00
         0.00000E+00
         0.00000E+00
         0.00000E+00
         0.00000E+00
         0.00000E+00
         0.00000E+00
         0.00000E+00
         0.00000E+00
         0.00000E+00
         0.00000E+00
         0.00000E+00
         0.00000E+00
         0.00000E+00
         0.00000E+00
         0.00000E+00
         0.00000E+00
         0.00000E+00
         0.00000E+00
         0.00000E+00
         0.00000E+00
         0.00000E+00
         0.00000E+00
         0.00000E+00
         0.00000E+00
         0.00000E+00
         0.00000E+00
         0.00000E+00
         0.00000E+00
         0.00000E+00
         0.00000E+00
         0.00000E+00
         0.00000E+00
         0.00000E+00
         0.00000E+00
         0.00000E+00
         0.00000E+00
         0.00000E+00
         0.00000E+00
         0.00000E+00
         0.00000E+00
         0.00000E+00
         0.00000E+00
         0.00000E+00
         0.00000E+00
         0.00000E+00
         0.00000E+00
         0.00000E+00
         0.00000E+00
         0.00000E+00
         0.00000E+00
         0.00000E+00
         0.00000E+00
         0.00000E+00
         0.00000E+00
         0.00000E+00
         0.00000E+00
         0.00000E+00
         0.00000E+00
         0.00000E+00
         0.00000E+00
         0.00000E+00
         0.00000E+00
         0.00000E+00
         0.00000E+00
         0.00000E+00
         0.00000E+00
         0.00000E+00
         0.00000E+00
         0.00000E+00
         0.00000E+00
         0.00000E+00
         0.00000E+00
         0.00000E+00
         0.00000E+00
         0.00000E+00
         0.00000E+00
         0.00000E+00
         0.00000E+00
         0.00000E+00
         0.00000E+00
         0.00000E+00
         0.00000E+00
         0.00000E+00
         0.00000E+00
         0.00000E+00
         0.00000E+00
         0.00000E+00
         0.00000E+00
         0.00000E+00
         0.00000E+00
         0.00000E+00
         0.00000E+00
         0.00000E+00
         0.00000E+00
         0.00000E+00
         0.00000E+00
         0.00000E+00
         0.00000E+00
         0.00000E+00
         0.00000E+00
         0.00000E+00
         0.00000E+00
         0.00000E+00
         0.00000E+00
         0.00000E+00
         0.00000E+00
         0.00000E+00
         0.00000E+00
         0.00000E+00
         0.00000E+00
         0.00000E+00
         0.00000E+00
         0.00000E+00
         0.00000E+00
         0.00000E+00
         0.00000E+00
         0.00000E+00
         0.00000E+00
         0.00000E+00
         0.00000E+00
         0.00000E+00
         0.00000E+00
         0.00000E+00
         0.00000E+00
         0.00000E+00
         0.00000E+00
         0.00000E+00
         0.00000E+00
         0.00000E+00
         0.00000E+00
         0.00000E+00
         0.00000E+00
         0.00000E+00
         0.00000E+00
         0.00000E+00
         0.00000E+00
         0.00000E+00
         0.00000E+00
         0.00000E+00
         0.00000E+00
         0.00000E+00
         0.00000E+00
         0.00000E+00
         0.00000E+00
         0.00000E+00
         0.00000E+00
         0.00000E+00
         0.00000E+00
         0.00000E+00
         0.00000E+00
         0.00000E+00
         0.00000E+00
         0.00000E+00
         0.00000E+00
         0.00000E+00
         0.00000E+00
         0.00000E+00
         0.00000E+00
         0.00000E+00
         0.00000E+00
         0.00000E+00
         0.00000E+00
         0.00000E+00
         0.00000E+00
         0.00000E+00
         0.00000E+00
         0.00000E+00
         0.00000E+00
         0.00000E+00
         0.00000E+00
         0.00000E+00
         0.00000E+00
         0.00000E+00
         0.00000E+00
         0.00000E+00
         0.00000E+00
         0.00000E+00
         0.00000E+00
         0.00000E+00
         0.00000E+00
         0.00000E+00
         0.00000E+00
         0.00000E+00
         0.00000E+00
         0.00000E+00
         0.00000E+00
         0.00000E+00
         0.00000E+00
         0.00000E+00
         0.00000E+00
         0.00000E+00
         0.00000E+00
         0.00000E+00
         0.00000E+00
         0.00000E+00
         0.00000E+00
         0.00000E+00
         0.00000E+00
         0.00000E+00
         0.00000E+00
         0.00000E+00
         0.00000E+00
         0.00000E+00
         0.00000E+00
         0.00000E+00
         0.00000E+00
         0.00000E+00
         0.00000E+00
         0.00000E+00
         0.00000E+00
         0.00000E+00
         0.00000E+00
         0.00000E+00
         0.00000E+00
         0.00000E+00
         0.00000E+00
         0.00000E+00
         0.00000E+00
         0.00000E+00
         0.00000E+00
         0.00000E+00
         0.00000E+00
         0.00000E+00
         0.00000E+00
         0.00000E+00
         0.00000E+00
         0.00000E+00
         0.00000E+00
         0.00000E+00
         0.00000E+00
         0.00000E+00
         0.00000E+00
         0.00000E+00
         0.00000E+00
         0.00000E+00
         0.00000E+00
         0.00000E+00
         0.00000E+00
         0.00000E+00
         0.00000E+00
         0.00000E+00
         0.00000E+00
         0.00000E+00
         0.00000E+00
         0.00000E+00
         0.00000E+00
         0.00000E+00
         0.00000E+00
         0.00000E+00
         0.00000E+00
         0.00000E+00
         0.00000E+00
         0.00000E+00
         0.00000E+00
         0.00000E+00
         0.00000E+00
         0.00000E+00
         0.00000E+00
         0.00000E+00
         0.00000E+00
         0.00000E+00
         0.00000E+00
         0.00000E+00
         0.00000E+00
         0.00000E+00
         0.00000E+00
         0.00000E+00
         0.00000E+00
         0.00000E+00
         0.00000E+00
         0.00000E+00
         0.00000E+00
         0.00000E+00
         0.00000E+00
         0.00000E+00
         0.00000E+00
         0.00000E+00
         0.00000E+00
         0.00000E+00
         0.00000E+00
         0.00000E+00
         0.00000E+00
         0.00000E+00
         0.00000E+00
         0.00000E+00
         0.00000E+00
         0.00000E+00
         0.00000E+00
         0.00000E+00
         0.00000E+00
         0.00000E+00
         0.00000E+00
         0.00000E+00
         0.00000E+00
         0.00000E+00
         0.00000E+00
         0.00000E+00
         0.00000E+00
         0.00000E+00
         0.00000E+00
         0.00000E+00
         0.00000E+00
         0.00000E+00
         0.00000E+00
         0.00000E+00
         0.00000E+00
         0.00000E+00
         0.00000E+00
         0.00000E+00
         0.00000E+00
         0.00000E+00
         0.00000E+00
         0.00000E+00
         0.00000E+00
         0.00000E+00
         0.00000E+00
         0.00000E+00
         0.00000E+00
         0.00000E+00
         0.00000E+00
         0.00000E+00
         0.00000E+00
         0.00000E+00
         0.00000E+00
         0.00000E+00
         0.00000E+00
         0.00000E+00
         0.00000E+00
         0.00000E+00
         0.00000E+00
         0.00000E+00
         0.00000E+00
         0.00000E+00
         0.00000E+00
         0.00000E+00
         0.00000E+00
         0.00000E+00
         0.00000E+00
         0.00000E+00
         0.00000E+00
         0.00000E+00
         0.00000E+00
         0.00000E+00
         0.00000E+00
         0.00000E+00
         0.00000E+00
         0.00000E+00
         0.00000E+00
         0.00000E+00
         0.00000E+00
         0.00000E+00
         0.00000E+00
         0.00000E+00
         0.00000E+00
         0.00000E+00
         0.00000E+00
         0.00000E+00
         0.00000E+00
         0.00000E+00
         0.00000E+00
         0.00000E+00
         0.00000E+00
         0.00000E+00
         0.00000E+00
         0.00000E+00
         0.00000E+00
         0.00000E+00
         0.00000E+00
         0.00000E+00
         0.00000E+00
         0.00000E+00
         0.00000E+00
         0.00000E+00
         0.00000E+00
         0.00000E+00
         0.00000E+00
         0.00000E+00
         0.00000E+00
         0.00000E+00
         0.00000E+00
         0.00000E+00
         0.00000E+00
         0.00000E+00
         0.00000E+00
         0.00000E+00
         0.00000E+00
         0.00000E+00
         0.00000E+00
         0.00000E+00
         0.00000E+00
         0.00000E+00
         0.00000E+00
         0.00000E+00
         0.00000E+00
         0.00000E+00
         0.00000E+00
         0.00000E+00
         0.00000E+00
         0.00000E+00
         0.00000E+00
         0.00000E+00
         0.00000E+00
         0.00000E+00
         0.00000E+00
         0.00000E+00
         0.00000E+00
         0.00000E+00
         0.00000E+00
         0.00000E+00
         0.00000E+00
         0.00000E+00
         0.00000E+00
         0.00000E+00
         0.00000E+00
         0.00000E+00
         0.00000E+00
         0.00000E+00
         0.00000E+00
         0.00000E+00
         0.00000E+00
         0.00000E+00
         0.00000E+00
         0.00000E+00
         0.00000E+00
         0.00000E+00
         0.00000E+00
         0.00000E+00
         0.00000E+00
         0.00000E+00
         0.00000E+00
         0.00000E+00
         0.00000E+00
  
SCALARS                 displacement_y  double 1
LOOKUP_TABLE default
         0.00000E+00
         0.00000E+00
         0.00000E+00
         0.00000E+00
         0.00000E+00
         0.00000E+00
         0.00000E+00
         0.00000E+00
         0.00000E+00
         0.00000E+00
         0.00000E+00
         0.00000E+00
         0.00000E+00
         0.00000E+00
         0.00000E+00
         0.00000E+00
         0.00000E+00
         0.00000E+00
         0.00000E+00
         0.00000E+00
         0.00000E+00
         0.00000E+00
         0.00000E+00
         0.00000E+00
         0.00000E+00
         0.00000E+00
         0.00000E+00
         0.00000E+00
         0.00000E+00
         0.00000E+00
         0.00000E+00
         0.00000E+00
         0.00000E+00
         0.00000E+00
         0.00000E+00
         0.00000E+00
         0.00000E+00
         0.00000E+00
         0.00000E+00
         0.00000E+00
         0.00000E+00
         0.00000E+00
         0.00000E+00
         0.00000E+00
         0.00000E+00
         0.00000E+00
         0.00000E+00
         0.00000E+00
         0.00000E+00
         0.00000E+00
         0.00000E+00
         0.00000E+00
         0.00000E+00
         0.00000E+00
         0.00000E+00
         0.00000E+00
         0.00000E+00
         0.00000E+00
         0.00000E+00
         0.00000E+00
         0.00000E+00
         0.00000E+00
         0.00000E+00
         0.00000E+00
         0.00000E+00
         0.00000E+00
         0.00000E+00
         0.00000E+00
         0.00000E+00
         0.00000E+00
         0.00000E+00
         0.00000E+00
         0.00000E+00
         0.00000E+00
         0.00000E+00
         0.00000E+00
         0.00000E+00
         0.00000E+00
         0.00000E+00
         0.00000E+00
         0.00000E+00
         0.00000E+00
         0.00000E+00
         0.00000E+00
         0.00000E+00
         0.00000E+00
         0.00000E+00
         0.00000E+00
         0.00000E+00
         0.00000E+00
         0.00000E+00
         0.00000E+00
         0.00000E+00
         0.00000E+00
         0.00000E+00
         0.00000E+00
         0.00000E+00
         0.00000E+00
         0.00000E+00
         0.00000E+00
         0.00000E+00
         0.00000E+00
         0.00000E+00
         0.00000E+00
         0.00000E+00
         0.00000E+00
         0.00000E+00
         0.00000E+00
         0.00000E+00
         0.00000E+00
         0.00000E+00
         0.00000E+00
         0.00000E+00
         0.00000E+00
         0.00000E+00
         0.00000E+00
         0.00000E+00
         0.00000E+00
         0.00000E+00
         0.00000E+00
         0.00000E+00
         0.00000E+00
         0.00000E+00
         0.00000E+00
         0.00000E+00
         0.00000E+00
         0.00000E+00
         0.00000E+00
         0.00000E+00
         0.00000E+00
         0.00000E+00
         0.00000E+00
         0.00000E+00
         0.00000E+00
         0.00000E+00
         0.00000E+00
         0.00000E+00
         0.00000E+00
         0.00000E+00
         0.00000E+00
         0.00000E+00
         0.00000E+00
         0.00000E+00
         0.00000E+00
         0.00000E+00
         0.00000E+00
         0.00000E+00
         0.00000E+00
         0.00000E+00
         0.00000E+00
         0.00000E+00
         0.00000E+00
         0.00000E+00
         0.00000E+00
         0.00000E+00
         0.00000E+00
         0.00000E+00
         0.00000E+00
         0.00000E+00
         0.00000E+00
         0.00000E+00
         0.00000E+00
         0.00000E+00
         0.00000E+00
         0.00000E+00
         0.00000E+00
         0.00000E+00
         0.00000E+00
         0.00000E+00
         0.00000E+00
         0.00000E+00
         0.00000E+00
         0.00000E+00
         0.00000E+00
         0.00000E+00
         0.00000E+00
         0.00000E+00
         0.00000E+00
         0.00000E+00
         0.00000E+00
         0.00000E+00
         0.00000E+00
         0.00000E+00
         0.00000E+00
         0.00000E+00
         0.00000E+00
         0.00000E+00
         0.00000E+00
         0.00000E+00
         0.00000E+00
         0.00000E+00
         0.00000E+00
         0.00000E+00
         0.00000E+00
         0.00000E+00
         0.00000E+00
         0.00000E+00
         0.00000E+00
         0.00000E+00
         0.00000E+00
         0.00000E+00
         0.00000E+00
         0.00000E+00
         0.00000E+00
         0.00000E+00
         0.00000E+00
         0.00000E+00
         0.00000E+00
         0.00000E+00
         0.00000E+00
         0.00000E+00
         0.00000E+00
         0.00000E+00
         0.00000E+00
         0.00000E+00
         0.00000E+00
         0.00000E+00
         0.00000E+00
         0.00000E+00
         0.00000E+00
         0.00000E+00
         0.00000E+00
         0.00000E+00
         0.00000E+00
         0.00000E+00
         0.00000E+00
         0.00000E+00
         0.00000E+00
         0.00000E+00
         0.00000E+00
         0.00000E+00
         0.00000E+00
         0.00000E+00
         0.00000E+00
         0.00000E+00
         0.00000E+00
         0.00000E+00
         0.00000E+00
         0.00000E+00
         0.00000E+00
         0.00000E+00
         0.00000E+00
         0.00000E+00
         0.00000E+00
         0.00000E+00
         0.00000E+00
         0.00000E+00
         0.00000E+00
         0.00000E+00
         0.00000E+00
         0.00000E+00
         0.00000E+00
         0.00000E+00
         0.00000E+00
         0.00000E+00
         0.00000E+00
         0.00000E+00
         0.00000E+00
         0.00000E+00
         0.00000E+00
         0.00000E+00
         0.00000E+00
         0.00000E+00
         0.00000E+00
         0.00000E+00
         0.00000E+00
         0.00000E+00
         0.00000E+00
         0.00000E+00
         0.00000E+00
         0.00000E+00
         0.00000E+00
         0.00000E+00
         0.00000E+00
         0.00000E+00
         0.00000E+00
         0.00000E+00
         0.00000E+00
         0.00000E+00
         0.00000E+00
         0.00000E+00
         0.00000E+00
         0.00000E+00
         0.00000E+00
         0.00000E+00
         0.00000E+00
         0.00000E+00
         0.00000E+00
         0.00000E+00
         0.00000E+00
         0.00000E+00
         0.00000E+00
         0.00000E+00
         0.00000E+00
         0.00000E+00
         0.00000E+00
         0.00000E+00
         0.00000E+00
         0.00000E+00
         0.00000E+00
         0.00000E+00
         0.00000E+00
         0.00000E+00
         0.00000E+00
         0.00000E+00
         0.00000E+00
         0.00000E+00
         0.00000E+00
         0.00000E+00
         0.00000E+00
         0.00000E+00
         0.00000E+00
         0.00000E+00
         0.00000E+00
         0.00000E+00
         0.00000E+00
         0.00000E+00
         0.00000E+00
         0.00000E+00
         0.00000E+00
         0.00000E+00
         0.00000E+00
         0.00000E+00
         0.00000E+00
         0.00000E+00
         0.00000E+00
         0.00000E+00
         0.00000E+00
         0.00000E+00
         0.00000E+00
         0.00000E+00
         0.00000E+00
         0.00000E+00
         0.00000E+00
         0.00000E+00
         0.00000E+00
         0.00000E+00
         0.00000E+00
         0.00000E+00
         0.00000E+00
         0.00000E+00
         0.00000E+00
         0.00000E+00
         0.00000E+00
         0.00000E+00
         0.00000E+00
         0.00000E+00
         0.00000E+00
         0.00000E+00
         0.00000E+00
         0.00000E+00
         0.00000E+00
         0.00000E+00
         0.00000E+00
         0.00000E+00
         0.00000E+00
         0.00000E+00
         0.00000E+00
         0.00000E+00
         0.00000E+00
         0.00000E+00
         0.00000E+00
         0.00000E+00
         0.00000E+00
         0.00000E+00
         0.00000E+00
         0.00000E+00
         0.00000E+00
         0.00000E+00
         0.00000E+00
         0.00000E+00
         0.00000E+00
         0.00000E+00
         0.00000E+00
         0.00000E+00
         0.00000E+00
         0.00000E+00
         0.00000E+00
         0.00000E+00
         0.00000E+00
         0.00000E+00
         0.00000E+00
         0.00000E+00
         0.00000E+00
         0.00000E+00
         0.00000E+00
         0.00000E+00
         0.00000E+00
         0.00000E+00
         0.00000E+00
         0.00000E+00
         0.00000E+00
         0.00000E+00
         0.00000E+00
         0.00000E+00
         0.00000E+00
         0.00000E+00
         0.00000E+00
         0.00000E+00
         0.00000E+00
         0.00000E+00
         0.00000E+00
         0.00000E+00
         0.00000E+00
         0.00000E+00
         0.00000E+00
         0.00000E+00
         0.00000E+00
         0.00000E+00
         0.00000E+00
         0.00000E+00
         0.00000E+00
         0.00000E+00
         0.00000E+00
         0.00000E+00
         0.00000E+00
         0.00000E+00
         0.00000E+00
         0.00000E+00
         0.00000E+00
         0.00000E+00
         0.00000E+00
         0.00000E+00
         0.00000E+00
         0.00000E+00
         0.00000E+00
         0.00000E+00
         0.00000E+00
         0.00000E+00
         0.00000E+00
         0.00000E+00
         0.00000E+00
         0.00000E+00
         0.00000E+00
         0.00000E+00
         0.00000E+00
         0.00000E+00
         0.00000E+00
         0.00000E+00
         0.00000E+00
         0.00000E+00
         0.00000E+00
         0.00000E+00
         0.00000E+00
         0.00000E+00
         0.00000E+00
         0.00000E+00
         0.00000E+00
         0.00000E+00
         0.00000E+00
         0.00000E+00
         0.00000E+00
         0.00000E+00
         0.00000E+00
         0.00000E+00
         0.00000E+00
         0.00000E+00
         0.00000E+00
         0.00000E+00
         0.00000E+00
         0.00000E+00
         0.00000E+00
         0.00000E+00
         0.00000E+00
         0.00000E+00
         0.00000E+00
         0.00000E+00
         0.00000E+00
         0.00000E+00
         0.00000E+00
         0.00000E+00
         0.00000E+00
         0.00000E+00
         0.00000E+00
         0.00000E+00
         0.00000E+00
         0.00000E+00
         0.00000E+00
         0.00000E+00
         0.00000E+00
         0.00000E+00
         0.00000E+00
         0.00000E+00
         0.00000E+00
         0.00000E+00
         0.00000E+00
         0.00000E+00
         0.00000E+00
         0.00000E+00
         0.00000E+00
         0.00000E+00
         0.00000E+00
         0.00000E+00
         0.00000E+00
         0.00000E+00
         0.00000E+00
         0.00000E+00
         0.00000E+00
         0.00000E+00
         0.00000E+00
         0.00000E+00
         0.00000E+00
         0.00000E+00
         0.00000E+00
         0.00000E+00
         0.00000E+00
         0.00000E+00
         0.00000E+00
         0.00000E+00
         0.00000E+00
         0.00000E+00
         0.00000E+00
         0.00000E+00
         0.00000E+00
         0.00000E+00
         0.00000E+00
         0.00000E+00
         0.00000E+00
         0.00000E+00
         0.00000E+00
         0.00000E+00
         0.00000E+00
         0.00000E+00
         0.00000E+00
         0.00000E+00
         0.00000E+00
         0.00000E+00
         0.00000E+00
         0.00000E+00
         0.00000E+00
         0.00000E+00
         0.00000E+00
         0.00000E+00
         0.00000E+00
         0.00000E+00
         0.00000E+00
         0.00000E+00
         0.00000E+00
         0.00000E+00
         0.00000E+00
         0.00000E+00
         0.00000E+00
         0.00000E+00
         0.00000E+00
         0.00000E+00
         0.00000E+00
         0.00000E+00
         0.00000E+00
         0.00000E+00
         0.00000E+00
         0.00000E+00
         0.00000E+00
         0.00000E+00
         0.00000E+00
         0.00000E+00
         0.00000E+00
         0.00000E+00
         0.00000E+00
         0.00000E+00
         0.00000E+00
         0.00000E+00
         0.00000E+00
         0.00000E+00
         0.00000E+00
         0.00000E+00
         0.00000E+00
         0.00000E+00
         0.00000E+00
         0.00000E+00
         0.00000E+00
         0.00000E+00
         0.00000E+00
         0.00000E+00
         0.00000E+00
         0.00000E+00
         0.00000E+00
         0.00000E+00
         0.00000E+00
         0.00000E+00
         0.00000E+00
         0.00000E+00
         0.00000E+00
         0.00000E+00
         0.00000E+00
         0.00000E+00
         0.00000E+00
         0.00000E+00
         0.00000E+00
         0.00000E+00
         0.00000E+00
         0.00000E+00
         0.00000E+00
         0.00000E+00
         0.00000E+00
         0.00000E+00
         0.00000E+00
         0.00000E+00
         0.00000E+00
         0.00000E+00
         0.00000E+00
         0.00000E+00
         0.00000E+00
         0.00000E+00
         0.00000E+00
         0.00000E+00
         0.00000E+00
         0.00000E+00
         0.00000E+00
         0.00000E+00
         0.00000E+00
         0.00000E+00
         0.00000E+00
         0.00000E+00
         0.00000E+00
         0.00000E+00
         0.00000E+00
         0.00000E+00
         0.00000E+00
         0.00000E+00
         0.00000E+00
         0.00000E+00
         0.00000E+00
         0.00000E+00
         0.00000E+00
         0.00000E+00
         0.00000E+00
         0.00000E+00
         0.00000E+00
         0.00000E+00
         0.00000E+00
         0.00000E+00
         0.00000E+00
         0.00000E+00
         0.00000E+00
         0.00000E+00
         0.00000E+00
         0.00000E+00
         0.00000E+00
         0.00000E+00
         0.00000E+00
         0.00000E+00
         0.00000E+00
         0.00000E+00
         0.00000E+00
         0.00000E+00
         0.00000E+00
         0.00000E+00
         0.00000E+00
         0.00000E+00
         0.00000E+00
         0.00000E+00
         0.00000E+00
         0.00000E+00
         0.00000E+00
         0.00000E+00
         0.00000E+00
         0.00000E+00
         0.00000E+00
         0.00000E+00
         0.00000E+00
         0.00000E+00
         0.00000E+00
         0.00000E+00
         0.00000E+00
         0.00000E+00
         0.00000E+00
         0.00000E+00
         0.00000E+00
         0.00000E+00
         0.00000E+00
         0.00000E+00
         0.00000E+00
         0.00000E+00
         0.00000E+00
         0.00000E+00
         0.00000E+00
         0.00000E+00
         0.00000E+00
         0.00000E+00
         0.00000E+00
         0.00000E+00
         0.00000E+00
         0.00000E+00
         0.00000E+00
         0.00000E+00
         0.00000E+00
         0.00000E+00
         0.00000E+00
         0.00000E+00
         0.00000E+00
         0.00000E+00
         0.00000E+00
         0.00000E+00
         0.00000E+00
         0.00000E+00
         0.00000E+00
         0.00000E+00
         0.00000E+00
         0.00000E+00
         0.00000E+00
         0.00000E+00
         0.00000E+00
         0.00000E+00
         0.00000E+00
         0.00000E+00
         0.00000E+00
         0.00000E+00
         0.00000E+00
         0.00000E+00
         0.00000E+00
         0.00000E+00
         0.00000E+00
         0.00000E+00
         0.00000E+00
         0.00000E+00
         0.00000E+00
         0.00000E+00
         0.00000E+00
         0.00000E+00
         0.00000E+00
         0.00000E+00
         0.00000E+00
         0.00000E+00
         0.00000E+00
         0.00000E+00
         0.00000E+00
         0.00000E+00
         0.00000E+00
         0.00000E+00
         0.00000E+00
         0.00000E+00
         0.00000E+00
         0.00000E+00
         0.00000E+00
         0.00000E+00
         0.00000E+00
         0.00000E+00
         0.00000E+00
         0.00000E+00
         0.00000E+00
         0.00000E+00
         0.00000E+00
         0.00000E+00
         0.00000E+00
         0.00000E+00
         0.00000E+00
         0.00000E+00
         0.00000E+00
         0.00000E+00
         0.00000E+00
         0.00000E+00
         0.00000E+00
         0.00000E+00
         0.00000E+00
         0.00000E+00
         0.00000E+00
         0.00000E+00
         0.00000E+00
         0.00000E+00
         0.00000E+00
         0.00000E+00
         0.00000E+00
         0.00000E+00
         0.00000E+00
         0.00000E+00
         0.00000E+00
         0.00000E+00
         0.00000E+00
         0.00000E+00
         0.00000E+00
         0.00000E+00
         0.00000E+00
         0.00000E+00
         0.00000E+00
         0.00000E+00
         0.00000E+00
         0.00000E+00
         0.00000E+00
         0.00000E+00
         0.00000E+00
         0.00000E+00
         0.00000E+00
         0.00000E+00
         0.00000E+00
         0.00000E+00
         0.00000E+00
         0.00000E+00
         0.00000E+00
         0.00000E+00
         0.00000E+00
         0.00000E+00
         0.00000E+00
         0.00000E+00
         0.00000E+00
         0.00000E+00
         0.00000E+00
         0.00000E+00
         0.00000E+00
         0.00000E+00
         0.00000E+00
         0.00000E+00
         0.00000E+00
         0.00000E+00
         0.00000E+00
         0.00000E+00
         0.00000E+00
         0.00000E+00
         0.00000E+00
         0.00000E+00
         0.00000E+00
         0.00000E+00
         0.00000E+00
         0.00000E+00
         0.00000E+00
         0.00000E+00
         0.00000E+00
         0.00000E+00
         0.00000E+00
         0.00000E+00
         0.00000E+00
         0.00000E+00
         0.00000E+00
         0.00000E+00
         0.00000E+00
         0.00000E+00
         0.00000E+00
         0.00000E+00
         0.00000E+00
         0.00000E+00
         0.00000E+00
         0.00000E+00
         0.00000E+00
         0.00000E+00
         0.00000E+00
         0.00000E+00
         0.00000E+00
         0.00000E+00
         0.00000E+00
         0.00000E+00
         0.00000E+00
         0.00000E+00
         0.00000E+00
         0.00000E+00
         0.00000E+00
         0.00000E+00
         0.00000E+00
         0.00000E+00
         0.00000E+00
         0.00000E+00
         0.00000E+00
         0.00000E+00
         0.00000E+00
         0.00000E+00
         0.00000E+00
         0.00000E+00
         0.00000E+00
         0.00000E+00
         0.00000E+00
         0.00000E+00
         0.00000E+00
         0.00000E+00
         0.00000E+00
         0.00000E+00
         0.00000E+00
         0.00000E+00
         0.00000E+00
         0.00000E+00
         0.00000E+00
         0.00000E+00
         0.00000E+00
         0.00000E+00
         0.00000E+00
         0.00000E+00
         0.00000E+00
         0.00000E+00
         0.00000E+00
         0.00000E+00
         0.00000E+00
         0.00000E+00
         0.00000E+00
         0.00000E+00
         0.00000E+00
         0.00000E+00
         0.00000E+00
         0.00000E+00
         0.00000E+00
         0.00000E+00
         0.00000E+00
         0.00000E+00
         0.00000E+00
         0.00000E+00
         0.00000E+00
         0.00000E+00
         0.00000E+00
         0.00000E+00
         0.00000E+00
         0.00000E+00
         0.00000E+00
         0.00000E+00
         0.00000E+00
         0.00000E+00
         0.00000E+00
         0.00000E+00
         0.00000E+00
         0.00000E+00
         0.00000E+00
         0.00000E+00
         0.00000E+00
         0.00000E+00
         0.00000E+00
         0.00000E+00
         0.00000E+00
         0.00000E+00
         0.00000E+00
         0.00000E+00
         0.00000E+00
         0.00000E+00
         0.00000E+00
         0.00000E+00
         0.00000E+00
         0.00000E+00
         0.00000E+00
         0.00000E+00
         0.00000E+00
         0.00000E+00
         0.00000E+00
         0.00000E+00
         0.00000E+00
         0.00000E+00
         0.00000E+00
         0.00000E+00
         0.00000E+00
         0.00000E+00
         0.00000E+00
         0.00000E+00
         0.00000E+00
         0.00000E+00
         0.00000E+00
         0.00000E+00
         0.00000E+00
         0.00000E+00
         0.00000E+00
         0.00000E+00
         0.00000E+00
         0.00000E+00
         0.00000E+00
         0.00000E+00
         0.00000E+00
         0.00000E+00
         0.00000E+00
         0.00000E+00
         0.00000E+00
         0.00000E+00
         0.00000E+00
         0.00000E+00
         0.00000E+00
         0.00000E+00
         0.00000E+00
         0.00000E+00
         0.00000E+00
         0.00000E+00
         0.00000E+00
         0.00000E+00
         0.00000E+00
         0.00000E+00
         0.00000E+00
         0.00000E+00
         0.00000E+00
         0.00000E+00
         0.00000E+00
         0.00000E+00
         0.00000E+00
         0.00000E+00
         0.00000E+00
         0.00000E+00
         0.00000E+00
         0.00000E+00
         0.00000E+00
         0.00000E+00
         0.00000E+00
         0.00000E+00
         0.00000E+00
         0.00000E+00
         0.00000E+00
         0.00000E+00
         0.00000E+00
         0.00000E+00
         0.00000E+00
         0.00000E+00
         0.00000E+00
         0.00000E+00
         0.00000E+00
         0.00000E+00
         0.00000E+00
         0.00000E+00
         0.00000E+00
         0.00000E+00
         0.00000E+00
         0.00000E+00
         0.00000E+00
         0.00000E+00
         0.00000E+00
         0.00000E+00
         0.00000E+00
         0.00000E+00
         0.00000E+00
         0.00000E+00
         0.00000E+00
         0.00000E+00
         0.00000E+00
         0.00000E+00
         0.00000E+00
         0.00000E+00
         0.00000E+00
         0.00000E+00
         0.00000E+00
         0.00000E+00
         0.00000E+00
         0.00000E+00
         0.00000E+00
         0.00000E+00
         0.00000E+00
         0.00000E+00
         0.00000E+00
         0.00000E+00
         0.00000E+00
         0.00000E+00
         0.00000E+00
         0.00000E+00
         0.00000E+00
         0.00000E+00
         0.00000E+00
         0.00000E+00
         0.00000E+00
         0.00000E+00
         0.00000E+00
         0.00000E+00
         0.00000E+00
         0.00000E+00
         0.00000E+00
         0.00000E+00
         0.00000E+00
         0.00000E+00
         0.00000E+00
         0.00000E+00
         0.00000E+00
         0.00000E+00
         0.00000E+00
         0.00000E+00
         0.00000E+00
         0.00000E+00
         0.00000E+00
         0.00000E+00
         0.00000E+00
         0.00000E+00
         0.00000E+00
         0.00000E+00
         0.00000E+00
         0.00000E+00
         0.00000E+00
         0.00000E+00
         0.00000E+00
         0.00000E+00
         0.00000E+00
         0.00000E+00
         0.00000E+00
         0.00000E+00
         0.00000E+00
         0.00000E+00
         0.00000E+00
         0.00000E+00
         0.00000E+00
         0.00000E+00
         0.00000E+00
         0.00000E+00
         0.00000E+00
         0.00000E+00
         0.00000E+00
         0.00000E+00
         0.00000E+00
         0.00000E+00
         0.00000E+00
         0.00000E+00
         0.00000E+00
         0.00000E+00
         0.00000E+00
         0.00000E+00
         0.00000E+00
         0.00000E+00
         0.00000E+00
         0.00000E+00
         0.00000E+00
         0.00000E+00
         0.00000E+00
         0.00000E+00
         0.00000E+00
         0.00000E+00
         0.00000E+00
         0.00000E+00
         0.00000E+00
         0.00000E+00
         0.00000E+00
         0.00000E+00
         0.00000E+00
         0.00000E+00
         0.00000E+00
         0.00000E+00
         0.00000E+00
         0.00000E+00
         0.00000E+00
         0.00000E+00
         0.00000E+00
         0.00000E+00
         0.00000E+00
         0.00000E+00
         0.00000E+00
         0.00000E+00
         0.00000E+00
         0.00000E+00
         0.00000E+00
         0.00000E+00
         0.00000E+00
         0.00000E+00
         0.00000E+00
         0.00000E+00
         0.00000E+00
         0.00000E+00
         0.00000E+00
         0.00000E+00
         0.00000E+00
         0.00000E+00
         0.00000E+00
         0.00000E+00
         0.00000E+00
         0.00000E+00
         0.00000E+00
         0.00000E+00
         0.00000E+00
         0.00000E+00
         0.00000E+00
         0.00000E+00
         0.00000E+00
         0.00000E+00
         0.00000E+00
         0.00000E+00
         0.00000E+00
         0.00000E+00
         0.00000E+00
         0.00000E+00
         0.00000E+00
         0.00000E+00
         0.00000E+00
         0.00000E+00
         0.00000E+00
         0.00000E+00
         0.00000E+00
         0.00000E+00
         0.00000E+00
         0.00000E+00
         0.00000E+00
         0.00000E+00
         0.00000E+00
         0.00000E+00
         0.00000E+00
         0.00000E+00
         0.00000E+00
         0.00000E+00
         0.00000E+00
         0.00000E+00
         0.00000E+00
         0.00000E+00
         0.00000E+00
         0.00000E+00
         0.00000E+00
         0.00000E+00
         0.00000E+00
         0.00000E+00
         0.00000E+00
         0.00000E+00
         0.00000E+00
         0.00000E+00
         0.00000E+00
         0.00000E+00
         0.00000E+00
         0.00000E+00
         0.00000E+00
         0.00000E+00
         0.00000E+00
         0.00000E+00
         0.00000E+00
         0.00000E+00
         0.00000E+00
         0.00000E+00
         0.00000E+00
         0.00000E+00
         0.00000E+00
         0.00000E+00
         0.00000E+00
         0.00000E+00
         0.00000E+00
         0.00000E+00
         0.00000E+00
         0.00000E+00
         0.00000E+00
         0.00000E+00
         0.00000E+00
         0.00000E+00
         0.00000E+00
         0.00000E+00
         0.00000E+00
         0.00000E+00
         0.00000E+00
         0.00000E+00
         0.00000E+00
         0.00000E+00
         0.00000E+00
         0.00000E+00
         0.00000E+00
         0.00000E+00
         0.00000E+00
         0.00000E+00
         0.00000E+00
         0.00000E+00
         0.00000E+00
         0.00000E+00
         0.00000E+00
         0.00000E+00
         0.00000E+00
         0.00000E+00
         0.00000E+00
         0.00000E+00
         0.00000E+00
         0.00000E+00
         0.00000E+00
         0.00000E+00
         0.00000E+00
         0.00000E+00
         0.00000E+00
         0.00000E+00
         0.00000E+00
         0.00000E+00
         0.00000E+00
         0.00000E+00
         0.00000E+00
         0.00000E+00
         0.00000E+00
         0.00000E+00
         0.00000E+00
         0.00000E+00
         0.00000E+00
         0.00000E+00
         0.00000E+00
         0.00000E+00
         0.00000E+00
         0.00000E+00
         0.00000E+00
         0.00000E+00
         0.00000E+00
         0.00000E+00
         0.00000E+00
         0.00000E+00
         0.00000E+00
         0.00000E+00
         0.00000E+00
         0.00000E+00
         0.00000E+00
         0.00000E+00
         0.00000E+00
         0.00000E+00
         0.00000E+00
         0.00000E+00
         0.00000E+00
         0.00000E+00
         0.00000E+00
         0.00000E+00
         0.00000E+00
         0.00000E+00
         0.00000E+00
         0.00000E+00
         0.00000E+00
         0.00000E+00
         0.00000E+00
         0.00000E+00
         0.00000E+00
         0.00000E+00
         0.00000E+00
         0.00000E+00
         0.00000E+00
         0.00000E+00
         0.00000E+00
         0.00000E+00
         0.00000E+00
         0.00000E+00
         0.00000E+00
         0.00000E+00
         0.00000E+00
         0.00000E+00
         0.00000E+00
         0.00000E+00
         0.00000E+00
         0.00000E+00
         0.00000E+00
         0.00000E+00
         0.00000E+00
         0.00000E+00
         0.00000E+00
         0.00000E+00
         0.00000E+00
         0.00000E+00
         0.00000E+00
         0.00000E+00
         0.00000E+00
         0.00000E+00
         0.00000E+00
         0.00000E+00
         0.00000E+00
         0.00000E+00
         0.00000E+00
         0.00000E+00
         0.00000E+00
         0.00000E+00
         0.00000E+00
         0.00000E+00
         0.00000E+00
         0.00000E+00
         0.00000E+00
         0.00000E+00
         0.00000E+00
         0.00000E+00
         0.00000E+00
         0.00000E+00
         0.00000E+00
         0.00000E+00
         0.00000E+00
         0.00000E+00
         0.00000E+00
         0.00000E+00
         0.00000E+00
         0.00000E+00
         0.00000E+00
         0.00000E+00
         0.00000E+00
         0.00000E+00
         0.00000E+00
         0.00000E+00
         0.00000E+00
         0.00000E+00
         0.00000E+00
         0.00000E+00
         0.00000E+00
         0.00000E+00
         0.00000E+00
         0.00000E+00
         0.00000E+00
         0.00000E+00
         0.00000E+00
         0.00000E+00
         0.00000E+00
         0.00000E+00
         0.00000E+00
         0.00000E+00
         0.00000E+00
         0.00000E+00
         0.00000E+00
         0.00000E+00
         0.00000E+00
         0.00000E+00
         0.00000E+00
         0.00000E+00
         0.00000E+00
         0.00000E+00
         0.00000E+00
         0.00000E+00
         0.00000E+00
         0.00000E+00
         0.00000E+00
         0.00000E+00
         0.00000E+00
         0.00000E+00
         0.00000E+00
         0.00000E+00
         0.00000E+00
         0.00000E+00
         0.00000E+00
         0.00000E+00
         0.00000E+00
         0.00000E+00
         0.00000E+00
         0.00000E+00
         0.00000E+00
         0.00000E+00
         0.00000E+00
         0.00000E+00
         0.00000E+00
         0.00000E+00
         0.00000E+00
         0.00000E+00
         0.00000E+00
         0.00000E+00
         0.00000E+00
         0.00000E+00
         0.00000E+00
         0.00000E+00
         0.00000E+00
         0.00000E+00
         0.00000E+00
         0.00000E+00
         0.00000E+00
         0.00000E+00
         0.00000E+00
         0.00000E+00
         0.00000E+00
         0.00000E+00
         0.00000E+00
         0.00000E+00
         0.00000E+00
         0.00000E+00
         0.00000E+00
         0.00000E+00
         0.00000E+00
         0.00000E+00
         0.00000E+00
         0.00000E+00
         0.00000E+00
         0.00000E+00
         0.00000E+00
         0.00000E+00
         0.00000E+00
         0.00000E+00
         0.00000E+00
         0.00000E+00
         0.00000E+00
         0.00000E+00
         0.00000E+00
         0.00000E+00
         0.00000E+00
         0.00000E+00
         0.00000E+00
         0.00000E+00
         0.00000E+00
         0.00000E+00
         0.00000E+00
         0.00000E+00
         0.00000E+00
         0.00000E+00
         0.00000E+00
         0.00000E+00
         0.00000E+00
         0.00000E+00
         0.00000E+00
         0.00000E+00
         0.00000E+00
         0.00000E+00
         0.00000E+00
         0.00000E+00
         0.00000E+00
         0.00000E+00
         0.00000E+00
         0.00000E+00
         0.00000E+00
         0.00000E+00
         0.00000E+00
         0.00000E+00
         0.00000E+00
         0.00000E+00
         0.00000E+00
         0.00000E+00
         0.00000E+00
         0.00000E+00
         0.00000E+00
         0.00000E+00
         0.00000E+00
         0.00000E+00
         0.00000E+00
         0.00000E+00
         0.00000E+00
         0.00000E+00
         0.00000E+00
         0.00000E+00
         0.00000E+00
         0.00000E+00
         0.00000E+00
         0.00000E+00
         0.00000E+00
         0.00000E+00
         0.00000E+00
         0.00000E+00
         0.00000E+00
         0.00000E+00
         0.00000E+00
         0.00000E+00
         0.00000E+00
         0.00000E+00
         0.00000E+00
         0.00000E+00
         0.00000E+00
         0.00000E+00
         0.00000E+00
         0.00000E+00
         0.00000E+00
         0.00000E+00
         0.00000E+00
         0.00000E+00
         0.00000E+00
         0.00000E+00
         0.00000E+00
         0.00000E+00
         0.00000E+00
         0.00000E+00
         0.00000E+00
         0.00000E+00
         0.00000E+00
         0.00000E+00
         0.00000E+00
         0.00000E+00
         0.00000E+00
         0.00000E+00
         0.00000E+00
         0.00000E+00
         0.00000E+00
         0.00000E+00
         0.00000E+00
         0.00000E+00
         0.00000E+00
         0.00000E+00
         0.00000E+00
         0.00000E+00
         0.00000E+00
         0.00000E+00
         0.00000E+00
         0.00000E+00
         0.00000E+00
         0.00000E+00
         0.00000E+00
         0.00000E+00
         0.00000E+00
         0.00000E+00
         0.00000E+00
         0.00000E+00
         0.00000E+00
         0.00000E+00
         0.00000E+00
         0.00000E+00
         0.00000E+00
         0.00000E+00
         0.00000E+00
         0.00000E+00
         0.00000E+00
         0.00000E+00
         0.00000E+00
         0.00000E+00
         0.00000E+00
         0.00000E+00
         0.00000E+00
         0.00000E+00
         0.00000E+00
         0.00000E+00
         0.00000E+00
         0.00000E+00
         0.00000E+00
         0.00000E+00
         0.00000E+00
         0.00000E+00
         0.00000E+00
         0.00000E+00
         0.00000E+00
         0.00000E+00
         0.00000E+00
         0.00000E+00
         0.00000E+00
         0.00000E+00
         0.00000E+00
         0.00000E+00
         0.00000E+00
         0.00000E+00
         0.00000E+00
         0.00000E+00
         0.00000E+00
         0.00000E+00
         0.00000E+00
         0.00000E+00
         0.00000E+00
         0.00000E+00
         0.00000E+00
         0.00000E+00
         0.00000E+00
         0.00000E+00
         0.00000E+00
         0.00000E+00
         0.00000E+00
         0.00000E+00
         0.00000E+00
         0.00000E+00
         0.00000E+00
         0.00000E+00
         0.00000E+00
         0.00000E+00
         0.00000E+00
         0.00000E+00
         0.00000E+00
         0.00000E+00
         0.00000E+00
         0.00000E+00
         0.00000E+00
         0.00000E+00
         0.00000E+00
         0.00000E+00
         0.00000E+00
         0.00000E+00
         0.00000E+00
         0.00000E+00
         0.00000E+00
         0.00000E+00
         0.00000E+00
         0.00000E+00
         0.00000E+00
         0.00000E+00
         0.00000E+00
         0.00000E+00
         0.00000E+00
         0.00000E+00
         0.00000E+00
         0.00000E+00
         0.00000E+00
         0.00000E+00
         0.00000E+00
         0.00000E+00
         0.00000E+00
         0.00000E+00
         0.00000E+00
         0.00000E+00
         0.00000E+00
         0.00000E+00
         0.00000E+00
         0.00000E+00
         0.00000E+00
         0.00000E+00
         0.00000E+00
         0.00000E+00
         0.00000E+00
         0.00000E+00
         0.00000E+00
         0.00000E+00
         0.00000E+00
         0.00000E+00
         0.00000E+00
         0.00000E+00
         0.00000E+00
         0.00000E+00
         0.00000E+00
         0.00000E+00
         0.00000E+00
         0.00000E+00
         0.00000E+00
         0.00000E+00
         0.00000E+00
         0.00000E+00
         0.00000E+00
         0.00000E+00
         0.00000E+00
         0.00000E+00
         0.00000E+00
         0.00000E+00
         0.00000E+00
         0.00000E+00
         0.00000E+00
         0.00000E+00
         0.00000E+00
         0.00000E+00
         0.00000E+00
         0.00000E+00
         0.00000E+00
         0.00000E+00
         0.00000E+00
         0.00000E+00
         0.00000E+00
         0.00000E+00
         0.00000E+00
         0.00000E+00
         0.00000E+00
         0.00000E+00
         0.00000E+00
         0.00000E+00
         0.00000E+00
         0.00000E+00
         0.00000E+00
         0.00000E+00
         0.00000E+00
         0.00000E+00
         0.00000E+00
         0.00000E+00
         0.00000E+00
         0.00000E+00
         0.00000E+00
         0.00000E+00
         0.00000E+00
         0.00000E+00
         0.00000E+00
         0.00000E+00
         0.00000E+00
         0.00000E+00
         0.00000E+00
         0.00000E+00
         0.00000E+00
         0.00000E+00
         0.00000E+00
         0.00000E+00
         0.00000E+00
         0.00000E+00
         0.00000E+00
         0.00000E+00
         0.00000E+00
         0.00000E+00
         0.00000E+00
         0.00000E+00
         0.00000E+00
         0.00000E+00
         0.00000E+00
         0.00000E+00
         0.00000E+00
         0.00000E+00
         0.00000E+00
         0.00000E+00
         0.00000E+00
         0.00000E+00
         0.00000E+00
         0.00000E+00
         0.00000E+00
         0.00000E+00
         0.00000E+00
         0.00000E+00
         0.00000E+00
         0.00000E+00
         0.00000E+00
         0.00000E+00
         0.00000E+00
         0.00000E+00
         0.00000E+00
         0.00000E+00
         0.00000E+00
         0.00000E+00
         0.00000E+00
         0.00000E+00
         0.00000E+00
         0.00000E+00
         0.00000E+00
         0.00000E+00
         0.00000E+00
         0.00000E+00
         0.00000E+00
         0.00000E+00
         0.00000E+00
         0.00000E+00
         0.00000E+00
         0.00000E+00
         0.00000E+00
         0.00000E+00
         0.00000E+00
         0.00000E+00
         0.00000E+00
         0.00000E+00
         0.00000E+00
         0.00000E+00
         0.00000E+00
         0.00000E+00
         0.00000E+00
         0.00000E+00
         0.00000E+00
         0.00000E+00
         0.00000E+00
         0.00000E+00
         0.00000E+00
         0.00000E+00
         0.00000E+00
         0.00000E+00
         0.00000E+00
         0.00000E+00
         0.00000E+00
         0.00000E+00
         0.00000E+00
         0.00000E+00
         0.00000E+00
         0.00000E+00
         0.00000E+00
         0.00000E+00
         0.00000E+00
         0.00000E+00
         0.00000E+00
         0.00000E+00
         0.00000E+00
         0.00000E+00
         0.00000E+00
         0.00000E+00
         0.00000E+00
         0.00000E+00
         0.00000E+00
         0.00000E+00
         0.00000E+00
         0.00000E+00
         0.00000E+00
         0.00000E+00
         0.00000E+00
         0.00000E+00
         0.00000E+00
         0.00000E+00
         0.00000E+00
         0.00000E+00
         0.00000E+00
         0.00000E+00
         0.00000E+00
         0.00000E+00
         0.00000E+00
         0.00000E+00
         0.00000E+00
         0.00000E+00
         0.00000E+00
         0.00000E+00
         0.00000E+00
         0.00000E+00
         0.00000E+00
         0.00000E+00
         0.00000E+00
         0.00000E+00
         0.00000E+00
         0.00000E+00
         0.00000E+00
         0.00000E+00
         0.00000E+00
         0.00000E+00
         0.00000E+00
         0.00000E+00
         0.00000E+00
         0.00000E+00
         0.00000E+00
         0.00000E+00
         0.00000E+00
         0.00000E+00
         0.00000E+00
         0.00000E+00
         0.00000E+00
         0.00000E+00
         0.00000E+00
         0.00000E+00
         0.00000E+00
         0.00000E+00
         0.00000E+00
         0.00000E+00
         0.00000E+00
         0.00000E+00
         0.00000E+00
         0.00000E+00
         0.00000E+00
         0.00000E+00
         0.00000E+00
         0.00000E+00
         0.00000E+00
         0.00000E+00
         0.00000E+00
         0.00000E+00
         0.00000E+00
         0.00000E+00
         0.00000E+00
         0.00000E+00
         0.00000E+00
         0.00000E+00
         0.00000E+00
         0.00000E+00
         0.00000E+00
         0.00000E+00
         0.00000E+00
         0.00000E+00
         0.00000E+00
         0.00000E+00
         0.00000E+00
         0.00000E+00
         0.00000E+00
         0.00000E+00
         0.00000E+00
         0.00000E+00
         0.00000E+00
         0.00000E+00
         0.00000E+00
         0.00000E+00
         0.00000E+00
         0.00000E+00
         0.00000E+00
         0.00000E+00
         0.00000E+00
         0.00000E+00
         0.00000E+00
         0.00000E+00
         0.00000E+00
         0.00000E+00
         0.00000E+00
         0.00000E+00
         0.00000E+00
         0.00000E+00
         0.00000E+00
         0.00000E+00
         0.00000E+00
         0.00000E+00
         0.00000E+00
         0.00000E+00
         0.00000E+00
         0.00000E+00
         0.00000E+00
         0.00000E+00
         0.00000E+00
         0.00000E+00
         0.00000E+00
         0.00000E+00
         0.00000E+00
         0.00000E+00
         0.00000E+00
         0.00000E+00
         0.00000E+00
         0.00000E+00
         0.00000E+00
         0.00000E+00
         0.00000E+00
         0.00000E+00
         0.00000E+00
         0.00000E+00
         0.00000E+00
         0.00000E+00
         0.00000E+00
         0.00000E+00
         0.00000E+00
         0.00000E+00
         0.00000E+00
         0.00000E+00
         0.00000E+00
         0.00000E+00
         0.00000E+00
         0.00000E+00
         0.00000E+00
         0.00000E+00
         0.00000E+00
         0.00000E+00
         0.00000E+00
         0.00000E+00
         0.00000E+00
         0.00000E+00
         0.00000E+00
         0.00000E+00
         0.00000E+00
         0.00000E+00
         0.00000E+00
         0.00000E+00
         0.00000E+00
  
SCALARS                 displacement_z  double 1
LOOKUP_TABLE default
        -0.87707E-02
        -0.87568E-02
        -0.87547E-02
        -0.87805E-02
        -0.53898E-16
        -0.60437E-16
        -0.57871E-16
        -0.52575E-16
        -0.87285E-02
        -0.87594E-02
        -0.54349E-16
        -0.52597E-16
        -0.87416E-02
        -0.87613E-02
        -0.64576E-16
        -0.60718E-16
        -0.87719E-02
        -0.87756E-02
        -0.47717E-16
        -0.52923E-16
        -0.87310E-02
        -0.87191E-02
        -0.87249E-02
        -0.64001E-16
        -0.55894E-16
        -0.57718E-16
        -0.87555E-02
        -0.87476E-02
        -0.61399E-16
        -0.51781E-16
        -0.87830E-02
        -0.87897E-02
        -0.87782E-02
        -0.52399E-16
        -0.48713E-16
        -0.47362E-16
        -0.87551E-02
        -0.87835E-02
        -0.55435E-16
        -0.50585E-16
        -0.87469E-02
        -0.87708E-02
        -0.47911E-16
        -0.42415E-16
        -0.87249E-02
        -0.87361E-02
        -0.52504E-16
        -0.58666E-16
        -0.87918E-02
        -0.51291E-16
        -0.87515E-02
        -0.60271E-16
        -0.87813E-02
        -0.54163E-16
        -0.87899E-02
        -0.51954E-16
        -0.87662E-02
        -0.87850E-02
        -0.52936E-16
        -0.51555E-16
        -0.87766E-02
        -0.87514E-02
        -0.53083E-16
        -0.60010E-16
        -0.87751E-02
        -0.51223E-16
        -0.87646E-02
        -0.55903E-16
        -0.86894E-02
        -0.87198E-02
        -0.53811E-16
        -0.56384E-16
        -0.87312E-02
        -0.56857E-16
        -0.87638E-02
        -0.44920E-16
        -0.87608E-02
        -0.43602E-16
        -0.87321E-02
        -0.45975E-16
        -0.86995E-02
        -0.87404E-02
        -0.43803E-16
        -0.45668E-16
        -0.87735E-02
        -0.42533E-16
        -0.87277E-02
        -0.55776E-16
        -0.87158E-02
        -0.57086E-16
        -0.86862E-02
        -0.87265E-02
        -0.54821E-16
        -0.55461E-16
        -0.87540E-02
        -0.50375E-16
        -0.87500E-02
        -0.49657E-16
        -0.87281E-02
        -0.53158E-16
        -0.86967E-02
        -0.87334E-02
        -0.52130E-16
        -0.53660E-16
        -0.86058E-02
        -0.86202E-02
        -0.40472E-16
        -0.38067E-16
        -0.86186E-02
        -0.38646E-16
        -0.86081E-02
        -0.37055E-16
        -0.86090E-02
        -0.36539E-16
        -0.86077E-02
        -0.34530E-16
        -0.86160E-02
        -0.30676E-16
        -0.86196E-02
        -0.27622E-16
        -0.86175E-02
        -0.27430E-16
        -0.86157E-02
        -0.29747E-16
        -0.86030E-02
        -0.31263E-16
        -0.86193E-02
        -0.28546E-16
        -0.86251E-02
        -0.25731E-16
        -0.86236E-02
        -0.25702E-16
        -0.86170E-02
        -0.28728E-16
        -0.86106E-02
        -0.32757E-16
        -0.86072E-02
        -0.35191E-16
        -0.86173E-02
        -0.38006E-16
        -0.86076E-02
        -0.40717E-16
        -0.86223E-02
        -0.37300E-16
        -0.86173E-02
        -0.32722E-16
        -0.86125E-02
        -0.32621E-16
        -0.86208E-02
        -0.35691E-16
        -0.86092E-02
        -0.38050E-16
        -0.86209E-02
        -0.36109E-16
        -0.86211E-02
        -0.34909E-16
        -0.12362E-01
        -0.12360E-01
        -0.12359E-01
        -0.12363E-01
        -0.12356E-01
        -0.12360E-01
        -0.12357E-01
        -0.12360E-01
        -0.12363E-01
        -0.12363E-01
        -0.12356E-01
        -0.12354E-01
        -0.12355E-01
        -0.12359E-01
        -0.12358E-01
        -0.12363E-01
        -0.12365E-01
        -0.12363E-01
        -0.12360E-01
        -0.12364E-01
        -0.12358E-01
        -0.12362E-01
        -0.12355E-01
        -0.12357E-01
        -0.12365E-01
        -0.12359E-01
        -0.12364E-01
        -0.12365E-01
        -0.12361E-01
        -0.12364E-01
        -0.12363E-01
        -0.12359E-01
        -0.12363E-01
        -0.12361E-01
        -0.12350E-01
        -0.12354E-01
        -0.12356E-01
        -0.12361E-01
        -0.12361E-01
        -0.12356E-01
        -0.12351E-01
        -0.12357E-01
        -0.12362E-01
        -0.12355E-01
        -0.12353E-01
        -0.12350E-01
        -0.12355E-01
        -0.12359E-01
        -0.12359E-01
        -0.12355E-01
        -0.12351E-01
        -0.12356E-01
        -0.12341E-01
        -0.12343E-01
        -0.12343E-01
        -0.12342E-01
        -0.12342E-01
        -0.12342E-01
        -0.12343E-01
        -0.12344E-01
        -0.12343E-01
        -0.12342E-01
        -0.12340E-01
        -0.12343E-01
        -0.12344E-01
        -0.12344E-01
        -0.12343E-01
        -0.12342E-01
        -0.12342E-01
        -0.12343E-01
        -0.12342E-01
        -0.12344E-01
        -0.12344E-01
        -0.12343E-01
        -0.12344E-01
        -0.12342E-01
        -0.12344E-01
        -0.12344E-01
        -0.12656E-01
        -0.12656E-01
        -0.12656E-01
        -0.12656E-01
        -0.12656E-01
        -0.12656E-01
        -0.12656E-01
        -0.12656E-01
        -0.12656E-01
        -0.12656E-01
        -0.12656E-01
        -0.12656E-01
        -0.12656E-01
        -0.12656E-01
        -0.12656E-01
        -0.12656E-01
        -0.12656E-01
        -0.12656E-01
        -0.12656E-01
        -0.12656E-01
        -0.12656E-01
        -0.12656E-01
        -0.12656E-01
        -0.12656E-01
        -0.12656E-01
        -0.12656E-01
        -0.12656E-01
        -0.12656E-01
        -0.12656E-01
        -0.12656E-01
        -0.12656E-01
        -0.12656E-01
        -0.12656E-01
        -0.12656E-01
        -0.12656E-01
        -0.12656E-01
        -0.12656E-01
        -0.12656E-01
        -0.12656E-01
        -0.12656E-01
        -0.12656E-01
        -0.12656E-01
        -0.12656E-01
        -0.12656E-01
        -0.12656E-01
        -0.12656E-01
        -0.12656E-01
        -0.12656E-01
        -0.12656E-01
        -0.12656E-01
        -0.12656E-01
        -0.12656E-01
        -0.12656E-01
        -0.12656E-01
        -0.12656E-01
        -0.12656E-01
        -0.12656E-01
        -0.12656E-01
        -0.12656E-01
        -0.12656E-01
        -0.12656E-01
        -0.12656E-01
        -0.12656E-01
        -0.12656E-01
        -0.12656E-01
        -0.12656E-01
        -0.12656E-01
        -0.12656E-01
        -0.12656E-01
        -0.12656E-01
        -0.12656E-01
        -0.12656E-01
        -0.12656E-01
        -0.12656E-01
        -0.12656E-01
        -0.12656E-01
        -0.12656E-01
        -0.12656E-01
        -0.12656E-01
        -0.12656E-01
        -0.12656E-01
        -0.12656E-01
        -0.12656E-01
        -0.12656E-01
        -0.12656E-01
        -0.12656E-01
        -0.12656E-01
        -0.12656E-01
        -0.12656E-01
        -0.12656E-01
        -0.12656E-01
        -0.12656E-01
        -0.12656E-01
        -0.12656E-01
        -0.12656E-01
        -0.12656E-01
        -0.12656E-01
        -0.12656E-01
        -0.12656E-01
        -0.12656E-01
        -0.12656E-01
        -0.12656E-01
        -0.12656E-01
        -0.12656E-01
        -0.12656E-01
        -0.12656E-01
        -0.12656E-01
        -0.12656E-01
        -0.12656E-01
        -0.12656E-01
        -0.12656E-01
        -0.12656E-01
        -0.12656E-01
        -0.12656E-01
        -0.12656E-01
        -0.12656E-01
        -0.12656E-01
        -0.12656E-01
        -0.12656E-01
        -0.12656E-01
        -0.12656E-01
        -0.12656E-01
        -0.12656E-01
        -0.12656E-01
        -0.12656E-01
        -0.12656E-01
        -0.12656E-01
        -0.12656E-01
        -0.12656E-01
        -0.12656E-01
        -0.12656E-01
        -0.12656E-01
        -0.12656E-01
        -0.12656E-01
        -0.12656E-01
        -0.12656E-01
        -0.12656E-01
        -0.12656E-01
        -0.12656E-01
        -0.12656E-01
        -0.12656E-01
        -0.12656E-01
        -0.12656E-01
        -0.12656E-01
        -0.12656E-01
        -0.12656E-01
        -0.12656E-01
        -0.12656E-01
        -0.12656E-01
        -0.12656E-01
        -0.12656E-01
        -0.12656E-01
        -0.12656E-01
        -0.12656E-01
        -0.12656E-01
        -0.12656E-01
        -0.12656E-01
        -0.12656E-01
        -0.12656E-01
        -0.12656E-01
        -0.12656E-01
        -0.12656E-01
        -0.12656E-01
        -0.12656E-01
        -0.12656E-01
        -0.12656E-01
        -0.12656E-01
        -0.12656E-01
        -0.12656E-01
        -0.12656E-01
        -0.12656E-01
        -0.12656E-01
        -0.12656E-01
        -0.12656E-01
        -0.12656E-01
        -0.12656E-01
        -0.12656E-01
        -0.12656E-01
        -0.12656E-01
        -0.12656E-01
        -0.12656E-01
        -0.12656E-01
        -0.12656E-01
        -0.12656E-01
        -0.12656E-01
        -0.12656E-01
        -0.12656E-01
        -0.12656E-01
        -0.12656E-01
        -0.12656E-01
        -0.12656E-01
        -0.12656E-01
        -0.12656E-01
        -0.12656E-01
        -0.12656E-01
        -0.12656E-01
        -0.12656E-01
        -0.12656E-01
        -0.12656E-01
        -0.12656E-01
        -0.12656E-01
        -0.12656E-01
        -0.12656E-01
        -0.12656E-01
        -0.12656E-01
        -0.12656E-01
        -0.12656E-01
        -0.12656E-01
        -0.12656E-01
        -0.12656E-01
        -0.12656E-01
        -0.12656E-01
        -0.12656E-01
        -0.12656E-01
        -0.12656E-01
        -0.12656E-01
        -0.12656E-01
        -0.12656E-01
        -0.12656E-01
        -0.12656E-01
        -0.12656E-01
        -0.12656E-01
        -0.12656E-01
        -0.12656E-01
        -0.12656E-01
        -0.12656E-01
        -0.12656E-01
        -0.12656E-01
        -0.12656E-01
        -0.12656E-01
        -0.12656E-01
        -0.12656E-01
        -0.12656E-01
        -0.12656E-01
        -0.12656E-01
        -0.12656E-01
        -0.12656E-01
        -0.12656E-01
        -0.12656E-01
        -0.12656E-01
        -0.12656E-01
        -0.12656E-01
        -0.12656E-01
        -0.12656E-01
        -0.12656E-01
        -0.12656E-01
        -0.12656E-01
        -0.12656E-01
        -0.12656E-01
        -0.12656E-01
        -0.12656E-01
        -0.12656E-01
        -0.12656E-01
        -0.12656E-01
        -0.12656E-01
        -0.12656E-01
        -0.12656E-01
        -0.12656E-01
        -0.12656E-01
        -0.12656E-01
        -0.12656E-01
        -0.12656E-01
        -0.12656E-01
        -0.12656E-01
        -0.12656E-01
        -0.12656E-01
        -0.12656E-01
        -0.12656E-01
        -0.12656E-01
        -0.12656E-01
        -0.12656E-01
        -0.12656E-01
        -0.12656E-01
        -0.12656E-01
        -0.12656E-01
        -0.12656E-01
        -0.12656E-01
        -0.12656E-01
        -0.12656E-01
        -0.12656E-01
        -0.12656E-01
        -0.12656E-01
        -0.12656E-01
        -0.12656E-01
        -0.12656E-01
        -0.12656E-01
        -0.12656E-01
        -0.12656E-01
        -0.12656E-01
        -0.12656E-01
        -0.12656E-01
        -0.12656E-01
        -0.12656E-01
        -0.12656E-01
        -0.12656E-01
        -0.12656E-01
        -0.12656E-01
        -0.12656E-01
        -0.12656E-01
        -0.12656E-01
        -0.12656E-01
        -0.12656E-01
        -0.12656E-01
        -0.12656E-01
        -0.12656E-01
        -0.12656E-01
        -0.12656E-01
        -0.12656E-01
        -0.12656E-01
        -0.12656E-01
        -0.12656E-01
        -0.12656E-01
        -0.12656E-01
        -0.12656E-01
        -0.12656E-01
        -0.12656E-01
        -0.12656E-01
        -0.12656E-01
        -0.12656E-01
        -0.12656E-01
        -0.12656E-01
        -0.12656E-01
        -0.12656E-01
        -0.12656E-01
        -0.12656E-01
        -0.12656E-01
        -0.12656E-01
        -0.12656E-01
        -0.12656E-01
        -0.12656E-01
        -0.12656E-01
        -0.12656E-01
        -0.12656E-01
        -0.12656E-01
        -0.12656E-01
        -0.12656E-01
        -0.12656E-01
        -0.12656E-01
        -0.12656E-01
        -0.12656E-01
        -0.12656E-01
        -0.12656E-01
        -0.12656E-01
        -0.12656E-01
        -0.12656E-01
        -0.12656E-01
        -0.12656E-01
        -0.12656E-01
        -0.12656E-01
        -0.12656E-01
        -0.12656E-01
        -0.12656E-01
        -0.12656E-01
        -0.12656E-01
        -0.12656E-01
        -0.12656E-01
        -0.12656E-01
        -0.12656E-01
        -0.12656E-01
        -0.12656E-01
        -0.12656E-01
        -0.12656E-01
        -0.12656E-01
        -0.12656E-01
        -0.12656E-01
        -0.12656E-01
        -0.12656E-01
        -0.12656E-01
        -0.12656E-01
        -0.12656E-01
        -0.12656E-01
        -0.12656E-01
        -0.12656E-01
        -0.12656E-01
        -0.12656E-01
        -0.12656E-01
        -0.12656E-01
        -0.12656E-01
        -0.12656E-01
        -0.12656E-01
        -0.12656E-01
        -0.12656E-01
        -0.12656E-01
        -0.12656E-01
        -0.12656E-01
        -0.12656E-01
        -0.12656E-01
        -0.12656E-01
        -0.12656E-01
        -0.12656E-01
        -0.12656E-01
        -0.12656E-01
        -0.12656E-01
        -0.12656E-01
        -0.12656E-01
        -0.12656E-01
        -0.12656E-01
        -0.12656E-01
        -0.12656E-01
        -0.12656E-01
        -0.12656E-01
        -0.12656E-01
        -0.12656E-01
        -0.12656E-01
        -0.12656E-01
        -0.12656E-01
        -0.12656E-01
        -0.12656E-01
        -0.12656E-01
        -0.12656E-01
        -0.12656E-01
        -0.12656E-01
        -0.12656E-01
        -0.12656E-01
        -0.12656E-01
        -0.12656E-01
        -0.12656E-01
        -0.12656E-01
        -0.12656E-01
        -0.12656E-01
        -0.12656E-01
        -0.12656E-01
        -0.12656E-01
        -0.12656E-01
        -0.12656E-01
        -0.12656E-01
        -0.12656E-01
        -0.12656E-01
        -0.12656E-01
        -0.12656E-01
        -0.12656E-01
        -0.12656E-01
        -0.12656E-01
        -0.12656E-01
        -0.12656E-01
        -0.12656E-01
        -0.12656E-01
        -0.12656E-01
        -0.12656E-01
        -0.12656E-01
        -0.12656E-01
        -0.12656E-01
        -0.12656E-01
        -0.12656E-01
        -0.12656E-01
        -0.12656E-01
        -0.12656E-01
        -0.12656E-01
        -0.12656E-01
        -0.12656E-01
        -0.12656E-01
        -0.12656E-01
        -0.12656E-01
        -0.12656E-01
        -0.12656E-01
        -0.12656E-01
        -0.12656E-01
        -0.12656E-01
        -0.12656E-01
        -0.12656E-01
        -0.12656E-01
        -0.12656E-01
        -0.12656E-01
        -0.12656E-01
        -0.12656E-01
        -0.12656E-01
        -0.12656E-01
        -0.12656E-01
        -0.12656E-01
        -0.12656E-01
        -0.12656E-01
        -0.12656E-01
        -0.12656E-01
        -0.12656E-01
        -0.12656E-01
        -0.12656E-01
        -0.12656E-01
        -0.12656E-01
        -0.12656E-01
        -0.12656E-01
        -0.12656E-01
        -0.12656E-01
        -0.12656E-01
        -0.12656E-01
        -0.12656E-01
        -0.12656E-01
        -0.12656E-01
        -0.12656E-01
        -0.12656E-01
        -0.12656E-01
        -0.12656E-01
        -0.12656E-01
        -0.12656E-01
        -0.12656E-01
        -0.12656E-01
        -0.12656E-01
        -0.12656E-01
        -0.12656E-01
        -0.12656E-01
        -0.12656E-01
        -0.12656E-01
        -0.12656E-01
        -0.12656E-01
        -0.12656E-01
        -0.12656E-01
        -0.12656E-01
        -0.12656E-01
        -0.12656E-01
        -0.12656E-01
        -0.12656E-01
        -0.12656E-01
        -0.12656E-01
        -0.12656E-01
        -0.12656E-01
        -0.12656E-01
        -0.12656E-01
        -0.12656E-01
        -0.12656E-01
        -0.12656E-01
        -0.12656E-01
        -0.12656E-01
        -0.12656E-01
        -0.12656E-01
        -0.12656E-01
        -0.12656E-01
        -0.12656E-01
        -0.12656E-01
        -0.12656E-01
        -0.12656E-01
        -0.12656E-01
        -0.12656E-01
        -0.12656E-01
        -0.12656E-01
        -0.12656E-01
        -0.12656E-01
        -0.12656E-01
        -0.12656E-01
        -0.12656E-01
        -0.12656E-01
        -0.12656E-01
        -0.12656E-01
        -0.12656E-01
        -0.12656E-01
        -0.12656E-01
        -0.12656E-01
        -0.12656E-01
        -0.12656E-01
        -0.12656E-01
        -0.12656E-01
        -0.12656E-01
        -0.12656E-01
        -0.12656E-01
        -0.12656E-01
        -0.12656E-01
        -0.12656E-01
        -0.12656E-01
        -0.12656E-01
        -0.12656E-01
        -0.12656E-01
        -0.12656E-01
        -0.12656E-01
        -0.12656E-01
        -0.12656E-01
        -0.12656E-01
        -0.12656E-01
        -0.12656E-01
        -0.12656E-01
        -0.12656E-01
        -0.12656E-01
        -0.12656E-01
        -0.12656E-01
        -0.12656E-01
        -0.12656E-01
        -0.12656E-01
        -0.12656E-01
        -0.12656E-01
        -0.12656E-01
        -0.12656E-01
        -0.12656E-01
        -0.12656E-01
        -0.12656E-01
        -0.12656E-01
        -0.12656E-01
        -0.12656E-01
        -0.12656E-01
        -0.12656E-01
        -0.12656E-01
        -0.12656E-01
        -0.12656E-01
        -0.12656E-01
        -0.12656E-01
        -0.12656E-01
        -0.12656E-01
        -0.12656E-01
        -0.12656E-01
        -0.12656E-01
        -0.12656E-01
        -0.12656E-01
        -0.12656E-01
        -0.12656E-01
        -0.12656E-01
        -0.12656E-01
        -0.12656E-01
        -0.12656E-01
        -0.12656E-01
        -0.12656E-01
        -0.12656E-01
        -0.12656E-01
        -0.12656E-01
        -0.12656E-01
        -0.12656E-01
        -0.12656E-01
        -0.12656E-01
        -0.12656E-01
        -0.12656E-01
        -0.12656E-01
        -0.12656E-01
        -0.12656E-01
        -0.12656E-01
        -0.12656E-01
        -0.12656E-01
        -0.12656E-01
        -0.12656E-01
        -0.12656E-01
        -0.12656E-01
        -0.12656E-01
        -0.12656E-01
        -0.12656E-01
        -0.12656E-01
        -0.12656E-01
        -0.12656E-01
        -0.12656E-01
        -0.12656E-01
        -0.12656E-01
        -0.12656E-01
        -0.12656E-01
        -0.12656E-01
        -0.12656E-01
        -0.12656E-01
        -0.12656E-01
        -0.12656E-01
        -0.12656E-01
        -0.12656E-01
        -0.12656E-01
        -0.12656E-01
        -0.12656E-01
        -0.12656E-01
        -0.12656E-01
        -0.12656E-01
        -0.12656E-01
        -0.12656E-01
        -0.12656E-01
        -0.12656E-01
        -0.12656E-01
        -0.12656E-01
        -0.12656E-01
        -0.12656E-01
        -0.12656E-01
        -0.12656E-01
        -0.12656E-01
        -0.12656E-01
        -0.12656E-01
        -0.12656E-01
        -0.12656E-01
        -0.12656E-01
        -0.12656E-01
        -0.12656E-01
        -0.12656E-01
        -0.12656E-01
        -0.12656E-01
        -0.12656E-01
        -0.12656E-01
        -0.12656E-01
        -0.12656E-01
        -0.12656E-01
        -0.12656E-01
        -0.12656E-01
        -0.12656E-01
        -0.12656E-01
        -0.12656E-01
        -0.12656E-01
        -0.12656E-01
        -0.12656E-01
        -0.12656E-01
        -0.12656E-01
        -0.12656E-01
        -0.12656E-01
        -0.12656E-01
        -0.12656E-01
        -0.12656E-01
        -0.12656E-01
        -0.12656E-01
        -0.12656E-01
        -0.12656E-01
        -0.12656E-01
        -0.12656E-01
        -0.12656E-01
        -0.12656E-01
        -0.12656E-01
        -0.12656E-01
        -0.12656E-01
        -0.12656E-01
        -0.12656E-01
        -0.12656E-01
        -0.12656E-01
        -0.12656E-01
        -0.12656E-01
        -0.12656E-01
        -0.12656E-01
        -0.12656E-01
        -0.12656E-01
        -0.12656E-01
        -0.12656E-01
        -0.12656E-01
        -0.12656E-01
        -0.12656E-01
        -0.12656E-01
        -0.12656E-01
        -0.12656E-01
        -0.12656E-01
        -0.12656E-01
        -0.12656E-01
        -0.12656E-01
        -0.12656E-01
        -0.12656E-01
        -0.12656E-01
        -0.12656E-01
        -0.12656E-01
        -0.12656E-01
        -0.12656E-01
        -0.12656E-01
        -0.12656E-01
        -0.12656E-01
        -0.12656E-01
        -0.12656E-01
        -0.12656E-01
        -0.12656E-01
        -0.12656E-01
        -0.12656E-01
        -0.12656E-01
        -0.12656E-01
        -0.12656E-01
        -0.12656E-01
        -0.12656E-01
        -0.12656E-01
        -0.12656E-01
        -0.12656E-01
        -0.12656E-01
        -0.12656E-01
        -0.12656E-01
        -0.12656E-01
        -0.12656E-01
        -0.12656E-01
        -0.12656E-01
        -0.12656E-01
        -0.12656E-01
        -0.12656E-01
        -0.12656E-01
        -0.12656E-01
        -0.12656E-01
        -0.12656E-01
        -0.12656E-01
        -0.12656E-01
        -0.12656E-01
        -0.12656E-01
        -0.12656E-01
        -0.12656E-01
        -0.12656E-01
        -0.12656E-01
        -0.12656E-01
        -0.12656E-01
        -0.12656E-01
        -0.12656E-01
        -0.12656E-01
        -0.12656E-01
        -0.12656E-01
        -0.12656E-01
        -0.12656E-01
        -0.12656E-01
        -0.12656E-01
        -0.12656E-01
        -0.12656E-01
        -0.12656E-01
        -0.12656E-01
        -0.12656E-01
        -0.12656E-01
        -0.12656E-01
        -0.12656E-01
        -0.12656E-01
        -0.12656E-01
        -0.12656E-01
        -0.12656E-01
        -0.12656E-01
        -0.12656E-01
        -0.12656E-01
        -0.12656E-01
        -0.12656E-01
        -0.12656E-01
        -0.12656E-01
        -0.12656E-01
        -0.12656E-01
        -0.12656E-01
        -0.12656E-01
        -0.12656E-01
        -0.12656E-01
        -0.12656E-01
        -0.12656E-01
        -0.12656E-01
        -0.12656E-01
        -0.12656E-01
        -0.12656E-01
        -0.12656E-01
        -0.12656E-01
        -0.12656E-01
        -0.12656E-01
        -0.12656E-01
        -0.12656E-01
        -0.12656E-01
        -0.12656E-01
        -0.12656E-01
        -0.12656E-01
        -0.12656E-01
        -0.12656E-01
        -0.12656E-01
        -0.12656E-01
        -0.12656E-01
        -0.12656E-01
        -0.12656E-01
        -0.12656E-01
        -0.12656E-01
        -0.12656E-01
        -0.12656E-01
        -0.12656E-01
        -0.12656E-01
        -0.12656E-01
        -0.12656E-01
        -0.12656E-01
        -0.12656E-01
        -0.12656E-01
        -0.12656E-01
        -0.12656E-01
        -0.12656E-01
        -0.12656E-01
        -0.12656E-01
        -0.12656E-01
        -0.12656E-01
        -0.12656E-01
        -0.12656E-01
        -0.12656E-01
        -0.12656E-01
        -0.12656E-01
        -0.12656E-01
        -0.12656E-01
        -0.12656E-01
        -0.12656E-01
        -0.12656E-01
        -0.12656E-01
        -0.12656E-01
        -0.12656E-01
        -0.12656E-01
        -0.12656E-01
        -0.12656E-01
        -0.12656E-01
        -0.12656E-01
        -0.12656E-01
        -0.12656E-01
        -0.12656E-01
        -0.12656E-01
        -0.12656E-01
        -0.12656E-01
        -0.12656E-01
        -0.12656E-01
        -0.12656E-01
        -0.12656E-01
        -0.12656E-01
        -0.12656E-01
        -0.12656E-01
        -0.12656E-01
        -0.12656E-01
        -0.12656E-01
        -0.12656E-01
        -0.12656E-01
        -0.12656E-01
        -0.12656E-01
        -0.12656E-01
        -0.12656E-01
        -0.12656E-01
        -0.12656E-01
        -0.12656E-01
        -0.12656E-01
        -0.12656E-01
        -0.12656E-01
        -0.12656E-01
        -0.12656E-01
        -0.12656E-01
        -0.12656E-01
        -0.12656E-01
        -0.12656E-01
        -0.12656E-01
        -0.12656E-01
        -0.12656E-01
        -0.12656E-01
        -0.12656E-01
        -0.12656E-01
        -0.12656E-01
        -0.12656E-01
        -0.12656E-01
        -0.12656E-01
        -0.12656E-01
        -0.12656E-01
        -0.12656E-01
        -0.12656E-01
        -0.12656E-01
        -0.12656E-01
        -0.12656E-01
        -0.12656E-01
        -0.12656E-01
        -0.12656E-01
        -0.12656E-01
        -0.12656E-01
        -0.12656E-01
        -0.12656E-01
        -0.12656E-01
        -0.12656E-01
        -0.12656E-01
        -0.12656E-01
        -0.12656E-01
        -0.12656E-01
        -0.12656E-01
        -0.12656E-01
        -0.12656E-01
        -0.12656E-01
        -0.12656E-01
        -0.12656E-01
        -0.12656E-01
        -0.12656E-01
        -0.12656E-01
        -0.12656E-01
        -0.12656E-01
        -0.12656E-01
        -0.12656E-01
        -0.12656E-01
        -0.12656E-01
        -0.12656E-01
        -0.12656E-01
        -0.12656E-01
        -0.12656E-01
        -0.12656E-01
        -0.12656E-01
        -0.12656E-01
        -0.12656E-01
        -0.12656E-01
        -0.12656E-01
        -0.12656E-01
        -0.12656E-01
        -0.12656E-01
        -0.12656E-01
        -0.12656E-01
        -0.12656E-01
        -0.12656E-01
        -0.12656E-01
        -0.12656E-01
        -0.12656E-01
        -0.12656E-01
        -0.12656E-01
        -0.12656E-01
        -0.12656E-01
        -0.12656E-01
        -0.12656E-01
        -0.12656E-01
        -0.12656E-01
        -0.12656E-01
        -0.12656E-01
        -0.12656E-01
        -0.12656E-01
        -0.12656E-01
        -0.12656E-01
        -0.12656E-01
        -0.12656E-01
        -0.12656E-01
        -0.12656E-01
        -0.12656E-01
        -0.12656E-01
        -0.12656E-01
        -0.12656E-01
        -0.12656E-01
        -0.12656E-01
        -0.12656E-01
        -0.12656E-01
        -0.12656E-01
        -0.12656E-01
        -0.12656E-01
        -0.12656E-01
        -0.12656E-01
        -0.12656E-01
        -0.12656E-01
        -0.12656E-01
        -0.12656E-01
        -0.12656E-01
        -0.12656E-01
        -0.12656E-01
        -0.12656E-01
        -0.12656E-01
        -0.12656E-01
        -0.12656E-01
        -0.12656E-01
        -0.12656E-01
        -0.12656E-01
        -0.12656E-01
        -0.12656E-01
        -0.12656E-01
        -0.12656E-01
        -0.12656E-01
        -0.12656E-01
        -0.12656E-01
        -0.12656E-01
        -0.12656E-01
        -0.12656E-01
        -0.12656E-01
        -0.12656E-01
        -0.12656E-01
        -0.12656E-01
        -0.12656E-01
        -0.12656E-01
        -0.12656E-01
        -0.12656E-01
        -0.12656E-01
        -0.12656E-01
        -0.12656E-01
        -0.12656E-01
        -0.12656E-01
        -0.12656E-01
        -0.12656E-01
        -0.12656E-01
        -0.12656E-01
        -0.12656E-01
        -0.12656E-01
        -0.12656E-01
        -0.12656E-01
        -0.12656E-01
        -0.12656E-01
        -0.12656E-01
        -0.12656E-01
        -0.12656E-01
        -0.12656E-01
        -0.12656E-01
        -0.12656E-01
        -0.12656E-01
        -0.12656E-01
        -0.12656E-01
        -0.12656E-01
        -0.12656E-01
        -0.12656E-01
        -0.12656E-01
        -0.12656E-01
        -0.12656E-01
        -0.12656E-01
        -0.12656E-01
        -0.12656E-01
        -0.12656E-01
        -0.12656E-01
        -0.12656E-01
        -0.12656E-01
        -0.12656E-01
        -0.12656E-01
        -0.12656E-01
        -0.12656E-01
        -0.12656E-01
        -0.12656E-01
        -0.12656E-01
        -0.12656E-01
        -0.12656E-01
        -0.12656E-01
        -0.12656E-01
        -0.12656E-01
        -0.12656E-01
        -0.12656E-01
        -0.12656E-01
        -0.12656E-01
        -0.12656E-01
        -0.12656E-01
        -0.12656E-01
        -0.12656E-01
        -0.12656E-01
        -0.12656E-01
        -0.12656E-01
        -0.12656E-01
        -0.12656E-01
        -0.12656E-01
        -0.12656E-01
        -0.12656E-01
        -0.12656E-01
        -0.12656E-01
        -0.12656E-01
        -0.12656E-01
        -0.12656E-01
        -0.12656E-01
        -0.12656E-01
        -0.12656E-01
        -0.12656E-01
        -0.12656E-01
        -0.12656E-01
        -0.12656E-01
        -0.12656E-01
        -0.12656E-01
        -0.12656E-01
        -0.12656E-01
        -0.12656E-01
        -0.12656E-01
        -0.12656E-01
        -0.12656E-01
        -0.12656E-01
        -0.12656E-01
        -0.12656E-01
        -0.12656E-01
        -0.12656E-01
        -0.12656E-01
        -0.12656E-01
        -0.12656E-01
        -0.12656E-01
        -0.12656E-01
        -0.12656E-01
        -0.12656E-01
        -0.12656E-01
        -0.12656E-01
        -0.12656E-01
        -0.12656E-01
        -0.12656E-01
        -0.12656E-01
        -0.12656E-01
        -0.12656E-01
        -0.12656E-01
        -0.12656E-01
        -0.12656E-01
        -0.12656E-01
        -0.12656E-01
        -0.12656E-01
        -0.12656E-01
        -0.12656E-01
        -0.12656E-01
        -0.12656E-01
        -0.12656E-01
        -0.12656E-01
        -0.12656E-01
        -0.12656E-01
        -0.12656E-01
        -0.12656E-01
        -0.12656E-01
        -0.12656E-01
        -0.12656E-01
        -0.12656E-01
        -0.12656E-01
        -0.12656E-01
        -0.12656E-01
        -0.12656E-01
        -0.12656E-01
        -0.12656E-01
        -0.12656E-01
        -0.12656E-01
        -0.12656E-01
        -0.12656E-01
        -0.12656E-01
        -0.12656E-01
        -0.12656E-01
        -0.12656E-01
        -0.12656E-01
        -0.12656E-01
        -0.12656E-01
        -0.12656E-01
        -0.12656E-01
        -0.12656E-01
        -0.12656E-01
        -0.12656E-01
        -0.12656E-01
        -0.12656E-01
        -0.12656E-01
        -0.12656E-01
        -0.12656E-01
        -0.12656E-01
        -0.12656E-01
        -0.12656E-01
        -0.12656E-01
        -0.12656E-01
        -0.12656E-01
        -0.12656E-01
        -0.12656E-01
        -0.12656E-01
        -0.12656E-01
        -0.12656E-01
        -0.12656E-01
        -0.12656E-01
        -0.12656E-01
        -0.12656E-01
        -0.12656E-01
        -0.12656E-01
        -0.12656E-01
        -0.12656E-01
        -0.12656E-01
        -0.12656E-01
        -0.12656E-01
        -0.12656E-01
        -0.12656E-01
        -0.12656E-01
        -0.12656E-01
        -0.12656E-01
        -0.12656E-01
        -0.12656E-01
        -0.12656E-01
        -0.12656E-01
        -0.12656E-01
        -0.12656E-01
        -0.12656E-01
        -0.12656E-01
        -0.12656E-01
        -0.12656E-01
        -0.12656E-01
        -0.12656E-01
        -0.12656E-01
        -0.12656E-01
        -0.12656E-01
        -0.12656E-01
        -0.12656E-01
        -0.12656E-01
        -0.12656E-01
        -0.12656E-01
        -0.12656E-01
        -0.12656E-01
        -0.12656E-01
        -0.12656E-01
        -0.12656E-01
        -0.12656E-01
        -0.12656E-01
        -0.12656E-01
        -0.12656E-01
        -0.12656E-01
        -0.12656E-01
        -0.12656E-01
        -0.12656E-01
        -0.12656E-01
        -0.12656E-01
        -0.12656E-01
        -0.12656E-01
        -0.12656E-01
        -0.12656E-01
        -0.12656E-01
        -0.12656E-01
        -0.12656E-01
        -0.12656E-01
        -0.12656E-01
        -0.12656E-01
        -0.12656E-01
        -0.12656E-01
        -0.12656E-01
        -0.12656E-01
        -0.12656E-01
        -0.12656E-01
        -0.12656E-01
        -0.12656E-01
        -0.12656E-01
        -0.12656E-01
        -0.12656E-01
        -0.12656E-01
        -0.12656E-01
        -0.12656E-01
        -0.12656E-01
        -0.12656E-01
        -0.12656E-01
        -0.12656E-01
        -0.12656E-01
        -0.12656E-01
        -0.12656E-01
        -0.12656E-01
        -0.12656E-01
        -0.12656E-01
        -0.12656E-01
        -0.12656E-01
        -0.12656E-01
        -0.12656E-01
        -0.12656E-01
        -0.12656E-01
        -0.12656E-01
        -0.12656E-01
        -0.12656E-01
        -0.12656E-01
        -0.12656E-01
        -0.12656E-01
        -0.12656E-01
        -0.12656E-01
        -0.12656E-01
        -0.12656E-01
        -0.12656E-01
        -0.12656E-01
        -0.12656E-01
        -0.12656E-01
        -0.12656E-01
        -0.12656E-01
        -0.12656E-01
        -0.12656E-01
        -0.12656E-01
        -0.12656E-01
        -0.12656E-01
        -0.12656E-01
        -0.12656E-01
        -0.12656E-01
        -0.12656E-01
        -0.12656E-01
        -0.12656E-01
        -0.12656E-01
        -0.12656E-01
        -0.12656E-01
        -0.12656E-01
        -0.12656E-01
        -0.12656E-01
        -0.12656E-01
        -0.12656E-01
        -0.12656E-01
        -0.12656E-01
        -0.12656E-01
        -0.12656E-01
        -0.12656E-01
        -0.12656E-01
        -0.12656E-01
        -0.12656E-01
        -0.12656E-01
        -0.12656E-01
        -0.12656E-01
        -0.12656E-01
        -0.12656E-01
        -0.12656E-01
        -0.12656E-01
        -0.12656E-01
        -0.12656E-01
        -0.12656E-01
        -0.12656E-01
        -0.12656E-01
        -0.12656E-01
        -0.12656E-01
        -0.12656E-01
        -0.12656E-01
        -0.12656E-01
        -0.12656E-01
        -0.12656E-01
        -0.12656E-01
        -0.12656E-01
        -0.12656E-01
        -0.12656E-01
        -0.12656E-01
        -0.12656E-01
        -0.12656E-01
        -0.12656E-01
        -0.12656E-01
        -0.12656E-01
        -0.12656E-01
        -0.12656E-01
        -0.12656E-01
        -0.12656E-01
        -0.12656E-01
        -0.12656E-01
        -0.12656E-01
        -0.12656E-01
        -0.12656E-01
        -0.12656E-01
        -0.12656E-01
        -0.12656E-01
        -0.12656E-01
        -0.12656E-01
        -0.12656E-01
        -0.12656E-01
        -0.12656E-01
        -0.12656E-01
        -0.12656E-01
        -0.12656E-01
        -0.12656E-01
        -0.12656E-01
        -0.12656E-01
        -0.12656E-01
        -0.12656E-01
        -0.12656E-01
        -0.12656E-01
        -0.12656E-01
        -0.12656E-01
        -0.12656E-01
        -0.12656E-01
        -0.12656E-01
        -0.12656E-01
        -0.12656E-01
        -0.12656E-01
        -0.12656E-01
        -0.12656E-01
        -0.12656E-01
        -0.12656E-01
        -0.12656E-01
        -0.12656E-01
        -0.12656E-01
        -0.12656E-01
        -0.12656E-01
        -0.12656E-01
        -0.12656E-01
        -0.12656E-01
        -0.12656E-01
        -0.12656E-01
        -0.12656E-01
        -0.12656E-01
        -0.12656E-01
        -0.12656E-01
        -0.12656E-01
        -0.12656E-01
        -0.12656E-01
        -0.12656E-01
        -0.12656E-01
        -0.12656E-01
        -0.12656E-01
        -0.12656E-01
        -0.12656E-01
        -0.12656E-01
        -0.12656E-01
        -0.12656E-01
        -0.12656E-01
        -0.12656E-01
        -0.12656E-01
        -0.12656E-01
        -0.12656E-01
        -0.12656E-01
        -0.12656E-01
        -0.12656E-01
        -0.12656E-01
        -0.12656E-01
        -0.12656E-01
        -0.12656E-01
        -0.12656E-01
        -0.12656E-01
        -0.12656E-01
        -0.12656E-01
        -0.12656E-01
        -0.12656E-01
        -0.12656E-01
        -0.12656E-01
        -0.12656E-01
        -0.12656E-01
        -0.12656E-01
        -0.12656E-01
        -0.12656E-01
        -0.12656E-01
        -0.12656E-01
        -0.12656E-01
        -0.12656E-01
        -0.12656E-01
        -0.12656E-01
        -0.12656E-01
        -0.12656E-01
        -0.12656E-01
        -0.12656E-01
        -0.12656E-01
        -0.12656E-01
        -0.12656E-01
        -0.12656E-01
        -0.12656E-01
        -0.12656E-01
        -0.12656E-01
        -0.12656E-01
        -0.12656E-01
        -0.12656E-01
        -0.12656E-01
        -0.12656E-01
        -0.12656E-01
        -0.12656E-01
        -0.12656E-01
        -0.12656E-01
        -0.12656E-01
        -0.12656E-01
        -0.12656E-01
        -0.12656E-01
        -0.12656E-01
        -0.12656E-01
        -0.12656E-01
        -0.12656E-01
        -0.12656E-01
        -0.12656E-01
        -0.12656E-01
        -0.12656E-01
        -0.12656E-01
        -0.12656E-01
        -0.12656E-01
        -0.12656E-01
        -0.12656E-01
        -0.12656E-01
        -0.12656E-01
        -0.12656E-01
        -0.12656E-01
        -0.12656E-01
        -0.12656E-01
        -0.12656E-01
        -0.12656E-01
        -0.12656E-01
        -0.12656E-01
        -0.12656E-01
        -0.12656E-01
        -0.12656E-01
        -0.12656E-01
        -0.12656E-01
        -0.12656E-01
        -0.12656E-01
        -0.12656E-01
        -0.12656E-01
        -0.12656E-01
        -0.12656E-01
        -0.12656E-01
        -0.12656E-01
        -0.12656E-01
        -0.12656E-01
        -0.12656E-01
        -0.12656E-01
        -0.12656E-01
        -0.12656E-01
        -0.12656E-01
        -0.12656E-01
        -0.12656E-01
        -0.12656E-01
        -0.12656E-01
        -0.12656E-01
        -0.12656E-01
        -0.12656E-01
        -0.12656E-01
        -0.12656E-01
        -0.12656E-01
        -0.12656E-01
        -0.12656E-01
        -0.12656E-01
        -0.12656E-01
        -0.12656E-01
        -0.12656E-01
        -0.12656E-01
        -0.12656E-01
        -0.12656E-01
        -0.12656E-01
        -0.12656E-01
        -0.12656E-01
        -0.12656E-01
        -0.12656E-01
        -0.12656E-01
        -0.12656E-01
        -0.12656E-01
        -0.12656E-01
        -0.12656E-01
        -0.12656E-01
        -0.12656E-01
        -0.12656E-01
        -0.12656E-01
        -0.12656E-01
        -0.12656E-01
        -0.12656E-01
        -0.12656E-01
        -0.12656E-01
        -0.12656E-01
        -0.12656E-01
        -0.12656E-01
        -0.12656E-01
        -0.12656E-01
        -0.12656E-01
        -0.12656E-01
        -0.12656E-01
        -0.12656E-01
        -0.12656E-01
        -0.12656E-01
        -0.12656E-01
        -0.12656E-01
        -0.12656E-01
        -0.12656E-01
        -0.12656E-01
        -0.12656E-01
        -0.12656E-01
        -0.12656E-01
        -0.12656E-01
        -0.12656E-01
        -0.12656E-01
        -0.12656E-01
        -0.12656E-01
        -0.12656E-01
        -0.12656E-01
        -0.12656E-01
        -0.12656E-01
        -0.12656E-01
        -0.12656E-01
        -0.12656E-01
        -0.12656E-01
        -0.12656E-01
        -0.12656E-01
        -0.12656E-01
        -0.12656E-01
        -0.12656E-01
        -0.12656E-01
        -0.12656E-01
        -0.12656E-01
        -0.12656E-01
        -0.12656E-01
        -0.12656E-01
        -0.12656E-01
        -0.12656E-01
        -0.12656E-01
        -0.12656E-01
        -0.12656E-01
        -0.12656E-01
        -0.12656E-01
        -0.12656E-01
        -0.12656E-01
        -0.12656E-01
        -0.12656E-01
        -0.12656E-01
        -0.12656E-01
        -0.12656E-01
        -0.12656E-01
        -0.12656E-01
        -0.12656E-01
        -0.12656E-01
        -0.12656E-01
        -0.12656E-01
        -0.12656E-01
        -0.12656E-01
        -0.12656E-01
        -0.12656E-01
        -0.12656E-01
        -0.12656E-01
        -0.12656E-01
        -0.12656E-01
        -0.12656E-01
        -0.12656E-01
        -0.12656E-01
        -0.12656E-01
        -0.12656E-01
        -0.12656E-01
        -0.12656E-01
        -0.12656E-01
        -0.12656E-01
        -0.12656E-01
        -0.12656E-01
        -0.12656E-01
        -0.12656E-01
        -0.12656E-01
        -0.12656E-01
        -0.12656E-01
        -0.12656E-01
        -0.12656E-01
        -0.12656E-01
        -0.12656E-01
        -0.12656E-01
        -0.12656E-01
        -0.12656E-01
        -0.12656E-01
        -0.12656E-01
        -0.12656E-01
        -0.12656E-01
        -0.12656E-01
        -0.12656E-01
        -0.12656E-01
        -0.12656E-01
        -0.12656E-01
        -0.12656E-01
        -0.12656E-01
        -0.12656E-01
        -0.12656E-01
        -0.12656E-01
        -0.12656E-01
        -0.12656E-01
        -0.12656E-01
        -0.12656E-01
        -0.12656E-01
        -0.12656E-01
        -0.12656E-01
        -0.12656E-01
        -0.12656E-01
        -0.12656E-01
        -0.12656E-01
        -0.12656E-01
        -0.12656E-01
        -0.12656E-01
        -0.12656E-01
        -0.12656E-01
        -0.12656E-01
        -0.12656E-01
        -0.12656E-01
        -0.12656E-01
        -0.12656E-01
        -0.12656E-01
        -0.12656E-01
        -0.12656E-01
        -0.12656E-01
        -0.12656E-01
        -0.12656E-01
        -0.12656E-01
        -0.12656E-01
        -0.12656E-01
        -0.12656E-01
        -0.12656E-01
        -0.12656E-01
        -0.12656E-01
        -0.12656E-01
        -0.12656E-01
        -0.12656E-01
        -0.12656E-01
        -0.12656E-01
        -0.12656E-01
        -0.12656E-01
        -0.12656E-01
        -0.12656E-01
        -0.12656E-01
        -0.12656E-01
        -0.12656E-01
        -0.12656E-01
        -0.12656E-01
        -0.12656E-01
        -0.12656E-01
        -0.12656E-01
        -0.12656E-01
        -0.12656E-01
        -0.12656E-01
        -0.12656E-01
  
SCALARS                     velocity_x  double 1
LOOKUP_TABLE default
         0.00000E+00
         0.00000E+00
         0.00000E+00
         0.00000E+00
         0.00000E+00
         0.00000E+00
         0.00000E+00
         0.00000E+00
         0.00000E+00
         0.00000E+00
         0.00000E+00
         0.00000E+00
         0.00000E+00
         0.00000E+00
         0.00000E+00
         0.00000E+00
         0.00000E+00
         0.00000E+00
         0.00000E+00
         0.00000E+00
         0.00000E+00
         0.00000E+00
         0.00000E+00
         0.00000E+00
         0.00000E+00
         0.00000E+00
         0.00000E+00
         0.00000E+00
         0.00000E+00
         0.00000E+00
         0.00000E+00
         0.00000E+00
         0.00000E+00
         0.00000E+00
         0.00000E+00
         0.00000E+00
         0.00000E+00
         0.00000E+00
         0.00000E+00
         0.00000E+00
         0.00000E+00
         0.00000E+00
         0.00000E+00
         0.00000E+00
         0.00000E+00
         0.00000E+00
         0.00000E+00
         0.00000E+00
         0.00000E+00
         0.00000E+00
         0.00000E+00
         0.00000E+00
         0.00000E+00
         0.00000E+00
         0.00000E+00
         0.00000E+00
         0.00000E+00
         0.00000E+00
         0.00000E+00
         0.00000E+00
         0.00000E+00
         0.00000E+00
         0.00000E+00
         0.00000E+00
         0.00000E+00
         0.00000E+00
         0.00000E+00
         0.00000E+00
         0.00000E+00
         0.00000E+00
         0.00000E+00
         0.00000E+00
         0.00000E+00
         0.00000E+00
         0.00000E+00
         0.00000E+00
         0.00000E+00
         0.00000E+00
         0.00000E+00
         0.00000E+00
         0.00000E+00
         0.00000E+00
         0.00000E+00
         0.00000E+00
         0.00000E+00
         0.00000E+00
         0.00000E+00
         0.00000E+00
         0.00000E+00
         0.00000E+00
         0.00000E+00
         0.00000E+00
         0.00000E+00
         0.00000E+00
         0.00000E+00
         0.00000E+00
         0.00000E+00
         0.00000E+00
         0.00000E+00
         0.00000E+00
         0.00000E+00
         0.00000E+00
         0.00000E+00
         0.00000E+00
         0.00000E+00
         0.00000E+00
         0.00000E+00
         0.00000E+00
         0.00000E+00
         0.00000E+00
         0.00000E+00
         0.00000E+00
         0.00000E+00
         0.00000E+00
         0.00000E+00
         0.00000E+00
         0.00000E+00
         0.00000E+00
         0.00000E+00
         0.00000E+00
         0.00000E+00
         0.00000E+00
         0.00000E+00
         0.00000E+00
         0.00000E+00
         0.00000E+00
         0.00000E+00
         0.00000E+00
         0.00000E+00
         0.00000E+00
         0.00000E+00
         0.00000E+00
         0.00000E+00
         0.00000E+00
         0.00000E+00
         0.00000E+00
         0.00000E+00
         0.00000E+00
         0.00000E+00
         0.00000E+00
         0.00000E+00
         0.00000E+00
         0.00000E+00
         0.00000E+00
         0.00000E+00
         0.00000E+00
         0.00000E+00
         0.00000E+00
         0.00000E+00
         0.00000E+00
         0.00000E+00
         0.00000E+00
         0.00000E+00
         0.00000E+00
         0.00000E+00
         0.00000E+00
         0.00000E+00
         0.00000E+00
         0.00000E+00
         0.00000E+00
         0.00000E+00
         0.00000E+00
         0.00000E+00
         0.00000E+00
         0.00000E+00
         0.00000E+00
         0.00000E+00
         0.00000E+00
         0.00000E+00
         0.00000E+00
         0.00000E+00
         0.00000E+00
         0.00000E+00
         0.00000E+00
         0.00000E+00
         0.00000E+00
         0.00000E+00
         0.00000E+00
         0.00000E+00
         0.00000E+00
         0.00000E+00
         0.00000E+00
         0.00000E+00
         0.00000E+00
         0.00000E+00
         0.00000E+00
         0.00000E+00
         0.00000E+00
         0.00000E+00
         0.00000E+00
         0.00000E+00
         0.00000E+00
         0.00000E+00
         0.00000E+00
         0.00000E+00
         0.00000E+00
         0.00000E+00
         0.00000E+00
         0.00000E+00
         0.00000E+00
         0.00000E+00
         0.00000E+00
         0.00000E+00
         0.00000E+00
         0.00000E+00
         0.00000E+00
         0.00000E+00
         0.00000E+00
         0.00000E+00
         0.00000E+00
         0.00000E+00
         0.00000E+00
         0.00000E+00
         0.00000E+00
         0.00000E+00
         0.00000E+00
         0.00000E+00
         0.00000E+00
         0.00000E+00
         0.00000E+00
         0.00000E+00
         0.00000E+00
         0.00000E+00
         0.00000E+00
         0.00000E+00
         0.00000E+00
         0.00000E+00
         0.00000E+00
         0.00000E+00
         0.00000E+00
         0.00000E+00
         0.00000E+00
         0.00000E+00
         0.00000E+00
         0.00000E+00
         0.00000E+00
         0.00000E+00
         0.00000E+00
         0.00000E+00
         0.00000E+00
         0.00000E+00
         0.00000E+00
         0.00000E+00
         0.00000E+00
         0.00000E+00
         0.00000E+00
         0.00000E+00
         0.00000E+00
         0.00000E+00
         0.00000E+00
         0.00000E+00
         0.00000E+00
         0.00000E+00
         0.00000E+00
         0.00000E+00
         0.00000E+00
         0.00000E+00
         0.00000E+00
         0.00000E+00
         0.00000E+00
         0.00000E+00
         0.00000E+00
         0.00000E+00
         0.00000E+00
         0.00000E+00
         0.00000E+00
         0.00000E+00
         0.00000E+00
         0.00000E+00
         0.00000E+00
         0.00000E+00
         0.00000E+00
         0.00000E+00
         0.00000E+00
         0.00000E+00
         0.00000E+00
         0.00000E+00
         0.00000E+00
         0.00000E+00
         0.00000E+00
         0.00000E+00
         0.00000E+00
         0.00000E+00
         0.00000E+00
         0.00000E+00
         0.00000E+00
         0.00000E+00
         0.00000E+00
         0.00000E+00
         0.00000E+00
         0.00000E+00
         0.00000E+00
         0.00000E+00
         0.00000E+00
         0.00000E+00
         0.00000E+00
         0.00000E+00
         0.00000E+00
         0.00000E+00
         0.00000E+00
         0.00000E+00
         0.00000E+00
         0.00000E+00
         0.00000E+00
         0.00000E+00
         0.00000E+00
         0.00000E+00
         0.00000E+00
         0.00000E+00
         0.00000E+00
         0.00000E+00
         0.00000E+00
         0.00000E+00
         0.00000E+00
         0.00000E+00
         0.00000E+00
         0.00000E+00
         0.00000E+00
         0.00000E+00
         0.00000E+00
         0.00000E+00
         0.00000E+00
         0.00000E+00
         0.00000E+00
         0.00000E+00
         0.00000E+00
         0.00000E+00
         0.00000E+00
         0.00000E+00
         0.00000E+00
         0.00000E+00
         0.00000E+00
         0.00000E+00
         0.00000E+00
         0.00000E+00
         0.00000E+00
         0.00000E+00
         0.00000E+00
         0.00000E+00
         0.00000E+00
         0.00000E+00
         0.00000E+00
         0.00000E+00
         0.00000E+00
         0.00000E+00
         0.00000E+00
         0.00000E+00
         0.00000E+00
         0.00000E+00
         0.00000E+00
         0.00000E+00
         0.00000E+00
         0.00000E+00
         0.00000E+00
         0.00000E+00
         0.00000E+00
         0.00000E+00
         0.00000E+00
         0.00000E+00
         0.00000E+00
         0.00000E+00
         0.00000E+00
         0.00000E+00
         0.00000E+00
         0.00000E+00
         0.00000E+00
         0.00000E+00
         0.00000E+00
         0.00000E+00
         0.00000E+00
         0.00000E+00
         0.00000E+00
         0.00000E+00
         0.00000E+00
         0.00000E+00
         0.00000E+00
         0.00000E+00
         0.00000E+00
         0.00000E+00
         0.00000E+00
         0.00000E+00
         0.00000E+00
         0.00000E+00
         0.00000E+00
         0.00000E+00
         0.00000E+00
         0.00000E+00
         0.00000E+00
         0.00000E+00
         0.00000E+00
         0.00000E+00
         0.00000E+00
         0.00000E+00
         0.00000E+00
         0.00000E+00
         0.00000E+00
         0.00000E+00
         0.00000E+00
         0.00000E+00
         0.00000E+00
         0.00000E+00
         0.00000E+00
         0.00000E+00
         0.00000E+00
         0.00000E+00
         0.00000E+00
         0.00000E+00
         0.00000E+00
         0.00000E+00
         0.00000E+00
         0.00000E+00
         0.00000E+00
         0.00000E+00
         0.00000E+00
         0.00000E+00
         0.00000E+00
         0.00000E+00
         0.00000E+00
         0.00000E+00
         0.00000E+00
         0.00000E+00
         0.00000E+00
         0.00000E+00
         0.00000E+00
         0.00000E+00
         0.00000E+00
         0.00000E+00
         0.00000E+00
         0.00000E+00
         0.00000E+00
         0.00000E+00
         0.00000E+00
         0.00000E+00
         0.00000E+00
         0.00000E+00
         0.00000E+00
         0.00000E+00
         0.00000E+00
         0.00000E+00
         0.00000E+00
         0.00000E+00
         0.00000E+00
         0.00000E+00
         0.00000E+00
         0.00000E+00
         0.00000E+00
         0.00000E+00
         0.00000E+00
         0.00000E+00
         0.00000E+00
         0.00000E+00
         0.00000E+00
         0.00000E+00
         0.00000E+00
         0.00000E+00
         0.00000E+00
         0.00000E+00
         0.00000E+00
         0.00000E+00
         0.00000E+00
         0.00000E+00
         0.00000E+00
         0.00000E+00
         0.00000E+00
         0.00000E+00
         0.00000E+00
         0.00000E+00
         0.00000E+00
         0.00000E+00
         0.00000E+00
         0.00000E+00
         0.00000E+00
         0.00000E+00
         0.00000E+00
         0.00000E+00
         0.00000E+00
         0.00000E+00
         0.00000E+00
         0.00000E+00
         0.00000E+00
         0.00000E+00
         0.00000E+00
         0.00000E+00
         0.00000E+00
         0.00000E+00
         0.00000E+00
         0.00000E+00
         0.00000E+00
         0.00000E+00
         0.00000E+00
         0.00000E+00
         0.00000E+00
         0.00000E+00
         0.00000E+00
         0.00000E+00
         0.00000E+00
         0.00000E+00
         0.00000E+00
         0.00000E+00
         0.00000E+00
         0.00000E+00
         0.00000E+00
         0.00000E+00
         0.00000E+00
         0.00000E+00
         0.00000E+00
         0.00000E+00
         0.00000E+00
         0.00000E+00
         0.00000E+00
         0.00000E+00
         0.00000E+00
         0.00000E+00
         0.00000E+00
         0.00000E+00
         0.00000E+00
         0.00000E+00
         0.00000E+00
         0.00000E+00
         0.00000E+00
         0.00000E+00
         0.00000E+00
         0.00000E+00
         0.00000E+00
         0.00000E+00
         0.00000E+00
         0.00000E+00
         0.00000E+00
         0.00000E+00
         0.00000E+00
         0.00000E+00
         0.00000E+00
         0.00000E+00
         0.00000E+00
         0.00000E+00
         0.00000E+00
         0.00000E+00
         0.00000E+00
         0.00000E+00
         0.00000E+00
         0.00000E+00
         0.00000E+00
         0.00000E+00
         0.00000E+00
         0.00000E+00
         0.00000E+00
         0.00000E+00
         0.00000E+00
         0.00000E+00
         0.00000E+00
         0.00000E+00
         0.00000E+00
         0.00000E+00
         0.00000E+00
         0.00000E+00
         0.00000E+00
         0.00000E+00
         0.00000E+00
         0.00000E+00
         0.00000E+00
         0.00000E+00
         0.00000E+00
         0.00000E+00
         0.00000E+00
         0.00000E+00
         0.00000E+00
         0.00000E+00
         0.00000E+00
         0.00000E+00
         0.00000E+00
         0.00000E+00
         0.00000E+00
         0.00000E+00
         0.00000E+00
         0.00000E+00
         0.00000E+00
         0.00000E+00
         0.00000E+00
         0.00000E+00
         0.00000E+00
         0.00000E+00
         0.00000E+00
         0.00000E+00
         0.00000E+00
         0.00000E+00
         0.00000E+00
         0.00000E+00
         0.00000E+00
         0.00000E+00
         0.00000E+00
         0.00000E+00
         0.00000E+00
         0.00000E+00
         0.00000E+00
         0.00000E+00
         0.00000E+00
         0.00000E+00
         0.00000E+00
         0.00000E+00
         0.00000E+00
         0.00000E+00
         0.00000E+00
         0.00000E+00
         0.00000E+00
         0.00000E+00
         0.00000E+00
         0.00000E+00
         0.00000E+00
         0.00000E+00
         0.00000E+00
         0.00000E+00
         0.00000E+00
         0.00000E+00
         0.00000E+00
         0.00000E+00
         0.00000E+00
         0.00000E+00
         0.00000E+00
         0.00000E+00
         0.00000E+00
         0.00000E+00
         0.00000E+00
         0.00000E+00
         0.00000E+00
         0.00000E+00
         0.00000E+00
         0.00000E+00
         0.00000E+00
         0.00000E+00
         0.00000E+00
         0.00000E+00
         0.00000E+00
         0.00000E+00
         0.00000E+00
         0.00000E+00
         0.00000E+00
         0.00000E+00
         0.00000E+00
         0.00000E+00
         0.00000E+00
         0.00000E+00
         0.00000E+00
         0.00000E+00
         0.00000E+00
         0.00000E+00
         0.00000E+00
         0.00000E+00
         0.00000E+00
         0.00000E+00
         0.00000E+00
         0.00000E+00
         0.00000E+00
         0.00000E+00
         0.00000E+00
         0.00000E+00
         0.00000E+00
         0.00000E+00
         0.00000E+00
         0.00000E+00
         0.00000E+00
         0.00000E+00
         0.00000E+00
         0.00000E+00
         0.00000E+00
         0.00000E+00
         0.00000E+00
         0.00000E+00
         0.00000E+00
         0.00000E+00
         0.00000E+00
         0.00000E+00
         0.00000E+00
         0.00000E+00
         0.00000E+00
         0.00000E+00
         0.00000E+00
         0.00000E+00
         0.00000E+00
         0.00000E+00
         0.00000E+00
         0.00000E+00
         0.00000E+00
         0.00000E+00
         0.00000E+00
         0.00000E+00
         0.00000E+00
         0.00000E+00
         0.00000E+00
         0.00000E+00
         0.00000E+00
         0.00000E+00
         0.00000E+00
         0.00000E+00
         0.00000E+00
         0.00000E+00
         0.00000E+00
         0.00000E+00
         0.00000E+00
         0.00000E+00
         0.00000E+00
         0.00000E+00
         0.00000E+00
         0.00000E+00
         0.00000E+00
         0.00000E+00
         0.00000E+00
         0.00000E+00
         0.00000E+00
         0.00000E+00
         0.00000E+00
         0.00000E+00
         0.00000E+00
         0.00000E+00
         0.00000E+00
         0.00000E+00
         0.00000E+00
         0.00000E+00
         0.00000E+00
         0.00000E+00
         0.00000E+00
         0.00000E+00
         0.00000E+00
         0.00000E+00
         0.00000E+00
         0.00000E+00
         0.00000E+00
         0.00000E+00
         0.00000E+00
         0.00000E+00
         0.00000E+00
         0.00000E+00
         0.00000E+00
         0.00000E+00
         0.00000E+00
         0.00000E+00
         0.00000E+00
         0.00000E+00
         0.00000E+00
         0.00000E+00
         0.00000E+00
         0.00000E+00
         0.00000E+00
         0.00000E+00
         0.00000E+00
         0.00000E+00
         0.00000E+00
         0.00000E+00
         0.00000E+00
         0.00000E+00
         0.00000E+00
         0.00000E+00
         0.00000E+00
         0.00000E+00
         0.00000E+00
         0.00000E+00
         0.00000E+00
         0.00000E+00
         0.00000E+00
         0.00000E+00
         0.00000E+00
         0.00000E+00
         0.00000E+00
         0.00000E+00
         0.00000E+00
         0.00000E+00
         0.00000E+00
         0.00000E+00
         0.00000E+00
         0.00000E+00
         0.00000E+00
         0.00000E+00
         0.00000E+00
         0.00000E+00
         0.00000E+00
         0.00000E+00
         0.00000E+00
         0.00000E+00
         0.00000E+00
         0.00000E+00
         0.00000E+00
         0.00000E+00
         0.00000E+00
         0.00000E+00
         0.00000E+00
         0.00000E+00
         0.00000E+00
         0.00000E+00
         0.00000E+00
         0.00000E+00
         0.00000E+00
         0.00000E+00
         0.00000E+00
         0.00000E+00
         0.00000E+00
         0.00000E+00
         0.00000E+00
         0.00000E+00
         0.00000E+00
         0.00000E+00
         0.00000E+00
         0.00000E+00
         0.00000E+00
         0.00000E+00
         0.00000E+00
         0.00000E+00
         0.00000E+00
         0.00000E+00
         0.00000E+00
         0.00000E+00
         0.00000E+00
         0.00000E+00
         0.00000E+00
         0.00000E+00
         0.00000E+00
         0.00000E+00
         0.00000E+00
         0.00000E+00
         0.00000E+00
         0.00000E+00
         0.00000E+00
         0.00000E+00
         0.00000E+00
         0.00000E+00
         0.00000E+00
         0.00000E+00
         0.00000E+00
         0.00000E+00
         0.00000E+00
         0.00000E+00
         0.00000E+00
         0.00000E+00
         0.00000E+00
         0.00000E+00
         0.00000E+00
         0.00000E+00
         0.00000E+00
         0.00000E+00
         0.00000E+00
         0.00000E+00
         0.00000E+00
         0.00000E+00
         0.00000E+00
         0.00000E+00
         0.00000E+00
         0.00000E+00
         0.00000E+00
         0.00000E+00
         0.00000E+00
         0.00000E+00
         0.00000E+00
         0.00000E+00
         0.00000E+00
         0.00000E+00
         0.00000E+00
         0.00000E+00
         0.00000E+00
         0.00000E+00
         0.00000E+00
         0.00000E+00
         0.00000E+00
         0.00000E+00
         0.00000E+00
         0.00000E+00
         0.00000E+00
         0.00000E+00
         0.00000E+00
         0.00000E+00
         0.00000E+00
         0.00000E+00
         0.00000E+00
         0.00000E+00
         0.00000E+00
         0.00000E+00
         0.00000E+00
         0.00000E+00
         0.00000E+00
         0.00000E+00
         0.00000E+00
         0.00000E+00
         0.00000E+00
         0.00000E+00
         0.00000E+00
         0.00000E+00
         0.00000E+00
         0.00000E+00
         0.00000E+00
         0.00000E+00
         0.00000E+00
         0.00000E+00
         0.00000E+00
         0.00000E+00
         0.00000E+00
         0.00000E+00
         0.00000E+00
         0.00000E+00
         0.00000E+00
         0.00000E+00
         0.00000E+00
         0.00000E+00
         0.00000E+00
         0.00000E+00
         0.00000E+00
         0.00000E+00
         0.00000E+00
         0.00000E+00
         0.00000E+00
         0.00000E+00
         0.00000E+00
         0.00000E+00
         0.00000E+00
         0.00000E+00
         0.00000E+00
         0.00000E+00
         0.00000E+00
         0.00000E+00
         0.00000E+00
         0.00000E+00
         0.00000E+00
         0.00000E+00
         0.00000E+00
         0.00000E+00
         0.00000E+00
         0.00000E+00
         0.00000E+00
         0.00000E+00
         0.00000E+00
         0.00000E+00
         0.00000E+00
         0.00000E+00
         0.00000E+00
         0.00000E+00
         0.00000E+00
         0.00000E+00
         0.00000E+00
         0.00000E+00
         0.00000E+00
         0.00000E+00
         0.00000E+00
         0.00000E+00
         0.00000E+00
         0.00000E+00
         0.00000E+00
         0.00000E+00
         0.00000E+00
         0.00000E+00
         0.00000E+00
         0.00000E+00
         0.00000E+00
         0.00000E+00
         0.00000E+00
         0.00000E+00
         0.00000E+00
         0.00000E+00
         0.00000E+00
         0.00000E+00
         0.00000E+00
         0.00000E+00
         0.00000E+00
         0.00000E+00
         0.00000E+00
         0.00000E+00
         0.00000E+00
         0.00000E+00
         0.00000E+00
         0.00000E+00
         0.00000E+00
         0.00000E+00
         0.00000E+00
         0.00000E+00
         0.00000E+00
         0.00000E+00
         0.00000E+00
         0.00000E+00
         0.00000E+00
         0.00000E+00
         0.00000E+00
         0.00000E+00
         0.00000E+00
         0.00000E+00
         0.00000E+00
         0.00000E+00
         0.00000E+00
         0.00000E+00
         0.00000E+00
         0.00000E+00
         0.00000E+00
         0.00000E+00
         0.00000E+00
         0.00000E+00
         0.00000E+00
         0.00000E+00
         0.00000E+00
         0.00000E+00
         0.00000E+00
         0.00000E+00
         0.00000E+00
         0.00000E+00
         0.00000E+00
         0.00000E+00
         0.00000E+00
         0.00000E+00
         0.00000E+00
         0.00000E+00
         0.00000E+00
         0.00000E+00
         0.00000E+00
         0.00000E+00
         0.00000E+00
         0.00000E+00
         0.00000E+00
         0.00000E+00
         0.00000E+00
         0.00000E+00
         0.00000E+00
         0.00000E+00
         0.00000E+00
         0.00000E+00
         0.00000E+00
         0.00000E+00
         0.00000E+00
         0.00000E+00
         0.00000E+00
         0.00000E+00
         0.00000E+00
         0.00000E+00
         0.00000E+00
         0.00000E+00
         0.00000E+00
         0.00000E+00
         0.00000E+00
         0.00000E+00
         0.00000E+00
         0.00000E+00
         0.00000E+00
         0.00000E+00
         0.00000E+00
         0.00000E+00
         0.00000E+00
         0.00000E+00
         0.00000E+00
         0.00000E+00
         0.00000E+00
         0.00000E+00
         0.00000E+00
         0.00000E+00
         0.00000E+00
         0.00000E+00
         0.00000E+00
         0.00000E+00
         0.00000E+00
         0.00000E+00
         0.00000E+00
         0.00000E+00
         0.00000E+00
         0.00000E+00
         0.00000E+00
         0.00000E+00
         0.00000E+00
         0.00000E+00
         0.00000E+00
         0.00000E+00
         0.00000E+00
         0.00000E+00
         0.00000E+00
         0.00000E+00
         0.00000E+00
         0.00000E+00
         0.00000E+00
         0.00000E+00
         0.00000E+00
         0.00000E+00
         0.00000E+00
         0.00000E+00
         0.00000E+00
         0.00000E+00
         0.00000E+00
         0.00000E+00
         0.00000E+00
         0.00000E+00
         0.00000E+00
         0.00000E+00
         0.00000E+00
         0.00000E+00
         0.00000E+00
         0.00000E+00
         0.00000E+00
         0.00000E+00
         0.00000E+00
         0.00000E+00
         0.00000E+00
         0.00000E+00
         0.00000E+00
         0.00000E+00
         0.00000E+00
         0.00000E+00
         0.00000E+00
         0.00000E+00
         0.00000E+00
         0.00000E+00
         0.00000E+00
         0.00000E+00
         0.00000E+00
         0.00000E+00
         0.00000E+00
         0.00000E+00
         0.00000E+00
         0.00000E+00
         0.00000E+00
         0.00000E+00
         0.00000E+00
         0.00000E+00
         0.00000E+00
         0.00000E+00
         0.00000E+00
         0.00000E+00
         0.00000E+00
         0.00000E+00
         0.00000E+00
         0.00000E+00
         0.00000E+00
         0.00000E+00
         0.00000E+00
         0.00000E+00
         0.00000E+00
         0.00000E+00
         0.00000E+00
         0.00000E+00
         0.00000E+00
         0.00000E+00
         0.00000E+00
         0.00000E+00
         0.00000E+00
         0.00000E+00
         0.00000E+00
         0.00000E+00
         0.00000E+00
         0.00000E+00
         0.00000E+00
         0.00000E+00
         0.00000E+00
         0.00000E+00
         0.00000E+00
         0.00000E+00
         0.00000E+00
         0.00000E+00
         0.00000E+00
         0.00000E+00
         0.00000E+00
         0.00000E+00
         0.00000E+00
         0.00000E+00
         0.00000E+00
         0.00000E+00
         0.00000E+00
         0.00000E+00
         0.00000E+00
         0.00000E+00
         0.00000E+00
         0.00000E+00
         0.00000E+00
         0.00000E+00
         0.00000E+00
         0.00000E+00
         0.00000E+00
         0.00000E+00
         0.00000E+00
         0.00000E+00
         0.00000E+00
         0.00000E+00
         0.00000E+00
         0.00000E+00
         0.00000E+00
         0.00000E+00
         0.00000E+00
         0.00000E+00
         0.00000E+00
         0.00000E+00
         0.00000E+00
         0.00000E+00
         0.00000E+00
         0.00000E+00
         0.00000E+00
         0.00000E+00
         0.00000E+00
         0.00000E+00
         0.00000E+00
         0.00000E+00
         0.00000E+00
         0.00000E+00
         0.00000E+00
         0.00000E+00
         0.00000E+00
         0.00000E+00
         0.00000E+00
         0.00000E+00
         0.00000E+00
         0.00000E+00
         0.00000E+00
         0.00000E+00
         0.00000E+00
         0.00000E+00
         0.00000E+00
         0.00000E+00
         0.00000E+00
         0.00000E+00
         0.00000E+00
         0.00000E+00
         0.00000E+00
         0.00000E+00
         0.00000E+00
         0.00000E+00
         0.00000E+00
         0.00000E+00
         0.00000E+00
         0.00000E+00
         0.00000E+00
         0.00000E+00
         0.00000E+00
         0.00000E+00
         0.00000E+00
         0.00000E+00
         0.00000E+00
         0.00000E+00
         0.00000E+00
         0.00000E+00
         0.00000E+00
         0.00000E+00
         0.00000E+00
         0.00000E+00
         0.00000E+00
         0.00000E+00
         0.00000E+00
         0.00000E+00
         0.00000E+00
         0.00000E+00
         0.00000E+00
         0.00000E+00
         0.00000E+00
         0.00000E+00
         0.00000E+00
         0.00000E+00
         0.00000E+00
         0.00000E+00
         0.00000E+00
         0.00000E+00
         0.00000E+00
         0.00000E+00
         0.00000E+00
         0.00000E+00
         0.00000E+00
         0.00000E+00
         0.00000E+00
         0.00000E+00
         0.00000E+00
         0.00000E+00
         0.00000E+00
         0.00000E+00
         0.00000E+00
         0.00000E+00
         0.00000E+00
         0.00000E+00
         0.00000E+00
         0.00000E+00
         0.00000E+00
         0.00000E+00
         0.00000E+00
         0.00000E+00
         0.00000E+00
         0.00000E+00
         0.00000E+00
         0.00000E+00
         0.00000E+00
         0.00000E+00
         0.00000E+00
         0.00000E+00
         0.00000E+00
         0.00000E+00
         0.00000E+00
         0.00000E+00
         0.00000E+00
         0.00000E+00
         0.00000E+00
         0.00000E+00
         0.00000E+00
         0.00000E+00
         0.00000E+00
         0.00000E+00
         0.00000E+00
         0.00000E+00
         0.00000E+00
         0.00000E+00
         0.00000E+00
         0.00000E+00
         0.00000E+00
         0.00000E+00
         0.00000E+00
         0.00000E+00
         0.00000E+00
         0.00000E+00
         0.00000E+00
         0.00000E+00
         0.00000E+00
         0.00000E+00
         0.00000E+00
         0.00000E+00
         0.00000E+00
         0.00000E+00
         0.00000E+00
         0.00000E+00
         0.00000E+00
         0.00000E+00
         0.00000E+00
         0.00000E+00
         0.00000E+00
         0.00000E+00
         0.00000E+00
         0.00000E+00
         0.00000E+00
         0.00000E+00
         0.00000E+00
         0.00000E+00
         0.00000E+00
         0.00000E+00
         0.00000E+00
         0.00000E+00
         0.00000E+00
         0.00000E+00
         0.00000E+00
         0.00000E+00
         0.00000E+00
         0.00000E+00
         0.00000E+00
         0.00000E+00
         0.00000E+00
         0.00000E+00
         0.00000E+00
         0.00000E+00
         0.00000E+00
         0.00000E+00
         0.00000E+00
         0.00000E+00
         0.00000E+00
         0.00000E+00
         0.00000E+00
         0.00000E+00
         0.00000E+00
         0.00000E+00
         0.00000E+00
         0.00000E+00
         0.00000E+00
         0.00000E+00
         0.00000E+00
         0.00000E+00
         0.00000E+00
         0.00000E+00
         0.00000E+00
         0.00000E+00
         0.00000E+00
         0.00000E+00
         0.00000E+00
         0.00000E+00
         0.00000E+00
         0.00000E+00
         0.00000E+00
         0.00000E+00
         0.00000E+00
         0.00000E+00
         0.00000E+00
         0.00000E+00
         0.00000E+00
         0.00000E+00
         0.00000E+00
         0.00000E+00
         0.00000E+00
         0.00000E+00
         0.00000E+00
         0.00000E+00
         0.00000E+00
         0.00000E+00
         0.00000E+00
         0.00000E+00
         0.00000E+00
         0.00000E+00
         0.00000E+00
         0.00000E+00
         0.00000E+00
         0.00000E+00
         0.00000E+00
         0.00000E+00
         0.00000E+00
         0.00000E+00
         0.00000E+00
         0.00000E+00
         0.00000E+00
         0.00000E+00
         0.00000E+00
         0.00000E+00
         0.00000E+00
         0.00000E+00
         0.00000E+00
         0.00000E+00
         0.00000E+00
         0.00000E+00
         0.00000E+00
         0.00000E+00
         0.00000E+00
         0.00000E+00
         0.00000E+00
         0.00000E+00
         0.00000E+00
         0.00000E+00
         0.00000E+00
         0.00000E+00
         0.00000E+00
         0.00000E+00
         0.00000E+00
         0.00000E+00
         0.00000E+00
         0.00000E+00
         0.00000E+00
         0.00000E+00
         0.00000E+00
         0.00000E+00
         0.00000E+00
         0.00000E+00
         0.00000E+00
         0.00000E+00
         0.00000E+00
         0.00000E+00
         0.00000E+00
         0.00000E+00
         0.00000E+00
         0.00000E+00
         0.00000E+00
         0.00000E+00
         0.00000E+00
         0.00000E+00
         0.00000E+00
         0.00000E+00
         0.00000E+00
         0.00000E+00
         0.00000E+00
         0.00000E+00
         0.00000E+00
         0.00000E+00
         0.00000E+00
         0.00000E+00
         0.00000E+00
         0.00000E+00
         0.00000E+00
         0.00000E+00
         0.00000E+00
         0.00000E+00
         0.00000E+00
         0.00000E+00
         0.00000E+00
         0.00000E+00
         0.00000E+00
         0.00000E+00
         0.00000E+00
         0.00000E+00
         0.00000E+00
         0.00000E+00
         0.00000E+00
         0.00000E+00
         0.00000E+00
         0.00000E+00
         0.00000E+00
         0.00000E+00
         0.00000E+00
         0.00000E+00
         0.00000E+00
         0.00000E+00
         0.00000E+00
         0.00000E+00
         0.00000E+00
         0.00000E+00
         0.00000E+00
         0.00000E+00
         0.00000E+00
         0.00000E+00
         0.00000E+00
         0.00000E+00
         0.00000E+00
         0.00000E+00
         0.00000E+00
         0.00000E+00
         0.00000E+00
         0.00000E+00
         0.00000E+00
         0.00000E+00
         0.00000E+00
         0.00000E+00
         0.00000E+00
         0.00000E+00
         0.00000E+00
         0.00000E+00
         0.00000E+00
         0.00000E+00
         0.00000E+00
         0.00000E+00
         0.00000E+00
         0.00000E+00
         0.00000E+00
         0.00000E+00
         0.00000E+00
         0.00000E+00
         0.00000E+00
         0.00000E+00
         0.00000E+00
         0.00000E+00
         0.00000E+00
         0.00000E+00
         0.00000E+00
         0.00000E+00
         0.00000E+00
         0.00000E+00
         0.00000E+00
         0.00000E+00
         0.00000E+00
         0.00000E+00
         0.00000E+00
         0.00000E+00
         0.00000E+00
         0.00000E+00
         0.00000E+00
         0.00000E+00
         0.00000E+00
         0.00000E+00
         0.00000E+00
         0.00000E+00
         0.00000E+00
         0.00000E+00
         0.00000E+00
         0.00000E+00
         0.00000E+00
         0.00000E+00
         0.00000E+00
         0.00000E+00
         0.00000E+00
         0.00000E+00
         0.00000E+00
         0.00000E+00
         0.00000E+00
         0.00000E+00
         0.00000E+00
         0.00000E+00
         0.00000E+00
         0.00000E+00
         0.00000E+00
         0.00000E+00
         0.00000E+00
         0.00000E+00
         0.00000E+00
         0.00000E+00
         0.00000E+00
         0.00000E+00
         0.00000E+00
         0.00000E+00
         0.00000E+00
         0.00000E+00
         0.00000E+00
         0.00000E+00
         0.00000E+00
         0.00000E+00
         0.00000E+00
         0.00000E+00
         0.00000E+00
         0.00000E+00
         0.00000E+00
         0.00000E+00
         0.00000E+00
         0.00000E+00
         0.00000E+00
         0.00000E+00
         0.00000E+00
         0.00000E+00
         0.00000E+00
         0.00000E+00
         0.00000E+00
         0.00000E+00
         0.00000E+00
         0.00000E+00
         0.00000E+00
         0.00000E+00
         0.00000E+00
         0.00000E+00
         0.00000E+00
         0.00000E+00
         0.00000E+00
         0.00000E+00
         0.00000E+00
         0.00000E+00
         0.00000E+00
         0.00000E+00
         0.00000E+00
         0.00000E+00
         0.00000E+00
         0.00000E+00
         0.00000E+00
         0.00000E+00
         0.00000E+00
         0.00000E+00
         0.00000E+00
         0.00000E+00
         0.00000E+00
         0.00000E+00
         0.00000E+00
         0.00000E+00
         0.00000E+00
         0.00000E+00
         0.00000E+00
         0.00000E+00
         0.00000E+00
         0.00000E+00
         0.00000E+00
         0.00000E+00
         0.00000E+00
         0.00000E+00
         0.00000E+00
         0.00000E+00
         0.00000E+00
         0.00000E+00
         0.00000E+00
         0.00000E+00
         0.00000E+00
         0.00000E+00
         0.00000E+00
         0.00000E+00
         0.00000E+00
         0.00000E+00
         0.00000E+00
         0.00000E+00
         0.00000E+00
         0.00000E+00
         0.00000E+00
         0.00000E+00
         0.00000E+00
         0.00000E+00
         0.00000E+00
         0.00000E+00
         0.00000E+00
         0.00000E+00
         0.00000E+00
         0.00000E+00
         0.00000E+00
         0.00000E+00
         0.00000E+00
         0.00000E+00
         0.00000E+00
         0.00000E+00
         0.00000E+00
         0.00000E+00
         0.00000E+00
         0.00000E+00
         0.00000E+00
         0.00000E+00
         0.00000E+00
         0.00000E+00
         0.00000E+00
         0.00000E+00
         0.00000E+00
         0.00000E+00
         0.00000E+00
         0.00000E+00
         0.00000E+00
         0.00000E+00
         0.00000E+00
         0.00000E+00
         0.00000E+00
         0.00000E+00
         0.00000E+00
         0.00000E+00
         0.00000E+00
         0.00000E+00
         0.00000E+00
         0.00000E+00
         0.00000E+00
         0.00000E+00
         0.00000E+00
         0.00000E+00
         0.00000E+00
         0.00000E+00
         0.00000E+00
         0.00000E+00
         0.00000E+00
         0.00000E+00
         0.00000E+00
         0.00000E+00
         0.00000E+00
         0.00000E+00
         0.00000E+00
         0.00000E+00
         0.00000E+00
         0.00000E+00
         0.00000E+00
         0.00000E+00
         0.00000E+00
         0.00000E+00
         0.00000E+00
         0.00000E+00
         0.00000E+00
         0.00000E+00
         0.00000E+00
         0.00000E+00
         0.00000E+00
         0.00000E+00
         0.00000E+00
         0.00000E+00
         0.00000E+00
         0.00000E+00
         0.00000E+00
         0.00000E+00
         0.00000E+00
         0.00000E+00
         0.00000E+00
         0.00000E+00
         0.00000E+00
         0.00000E+00
         0.00000E+00
         0.00000E+00
         0.00000E+00
         0.00000E+00
         0.00000E+00
         0.00000E+00
         0.00000E+00
         0.00000E+00
         0.00000E+00
         0.00000E+00
         0.00000E+00
         0.00000E+00
         0.00000E+00
         0.00000E+00
         0.00000E+00
         0.00000E+00
         0.00000E+00
         0.00000E+00
         0.00000E+00
         0.00000E+00
         0.00000E+00
         0.00000E+00
         0.00000E+00
         0.00000E+00
         0.00000E+00
         0.00000E+00
         0.00000E+00
         0.00000E+00
         0.00000E+00
         0.00000E+00
         0.00000E+00
         0.00000E+00
         0.00000E+00
         0.00000E+00
         0.00000E+00
         0.00000E+00
         0.00000E+00
         0.00000E+00
         0.00000E+00
         0.00000E+00
         0.00000E+00
         0.00000E+00
         0.00000E+00
         0.00000E+00
         0.00000E+00
         0.00000E+00
         0.00000E+00
         0.00000E+00
         0.00000E+00
         0.00000E+00
         0.00000E+00
         0.00000E+00
         0.00000E+00
         0.00000E+00
         0.00000E+00
         0.00000E+00
         0.00000E+00
         0.00000E+00
         0.00000E+00
         0.00000E+00
         0.00000E+00
         0.00000E+00
         0.00000E+00
         0.00000E+00
         0.00000E+00
         0.00000E+00
         0.00000E+00
         0.00000E+00
         0.00000E+00
         0.00000E+00
         0.00000E+00
         0.00000E+00
         0.00000E+00
         0.00000E+00
         0.00000E+00
         0.00000E+00
         0.00000E+00
         0.00000E+00
         0.00000E+00
         0.00000E+00
         0.00000E+00
         0.00000E+00
         0.00000E+00
         0.00000E+00
         0.00000E+00
         0.00000E+00
         0.00000E+00
         0.00000E+00
         0.00000E+00
         0.00000E+00
         0.00000E+00
         0.00000E+00
         0.00000E+00
         0.00000E+00
         0.00000E+00
         0.00000E+00
         0.00000E+00
         0.00000E+00
         0.00000E+00
         0.00000E+00
         0.00000E+00
         0.00000E+00
         0.00000E+00
         0.00000E+00
         0.00000E+00
         0.00000E+00
         0.00000E+00
         0.00000E+00
         0.00000E+00
         0.00000E+00
         0.00000E+00
         0.00000E+00
         0.00000E+00
         0.00000E+00
         0.00000E+00
         0.00000E+00
         0.00000E+00
         0.00000E+00
         0.00000E+00
         0.00000E+00
         0.00000E+00
         0.00000E+00
         0.00000E+00
         0.00000E+00
         0.00000E+00
         0.00000E+00
         0.00000E+00
         0.00000E+00
         0.00000E+00
         0.00000E+00
         0.00000E+00
         0.00000E+00
         0.00000E+00
         0.00000E+00
         0.00000E+00
         0.00000E+00
         0.00000E+00
         0.00000E+00
         0.00000E+00
         0.00000E+00
         0.00000E+00
         0.00000E+00
         0.00000E+00
         0.00000E+00
         0.00000E+00
         0.00000E+00
         0.00000E+00
         0.00000E+00
         0.00000E+00
         0.00000E+00
         0.00000E+00
         0.00000E+00
         0.00000E+00
         0.00000E+00
         0.00000E+00
         0.00000E+00
         0.00000E+00
         0.00000E+00
         0.00000E+00
         0.00000E+00
         0.00000E+00
         0.00000E+00
         0.00000E+00
         0.00000E+00
         0.00000E+00
         0.00000E+00
         0.00000E+00
         0.00000E+00
         0.00000E+00
         0.00000E+00
         0.00000E+00
         0.00000E+00
         0.00000E+00
         0.00000E+00
         0.00000E+00
         0.00000E+00
         0.00000E+00
         0.00000E+00
         0.00000E+00
         0.00000E+00
         0.00000E+00
         0.00000E+00
         0.00000E+00
         0.00000E+00
         0.00000E+00
         0.00000E+00
         0.00000E+00
         0.00000E+00
         0.00000E+00
         0.00000E+00
         0.00000E+00
         0.00000E+00
         0.00000E+00
         0.00000E+00
         0.00000E+00
         0.00000E+00
         0.00000E+00
         0.00000E+00
         0.00000E+00
         0.00000E+00
         0.00000E+00
         0.00000E+00
         0.00000E+00
         0.00000E+00
         0.00000E+00
         0.00000E+00
         0.00000E+00
         0.00000E+00
         0.00000E+00
         0.00000E+00
         0.00000E+00
         0.00000E+00
         0.00000E+00
         0.00000E+00
         0.00000E+00
         0.00000E+00
         0.00000E+00
         0.00000E+00
         0.00000E+00
         0.00000E+00
         0.00000E+00
         0.00000E+00
         0.00000E+00
         0.00000E+00
         0.00000E+00
         0.00000E+00
         0.00000E+00
         0.00000E+00
         0.00000E+00
         0.00000E+00
         0.00000E+00
  
SCALARS                     velocity_y  double 1
LOOKUP_TABLE default
         0.00000E+00
         0.00000E+00
         0.00000E+00
         0.00000E+00
         0.00000E+00
         0.00000E+00
         0.00000E+00
         0.00000E+00
         0.00000E+00
         0.00000E+00
         0.00000E+00
         0.00000E+00
         0.00000E+00
         0.00000E+00
         0.00000E+00
         0.00000E+00
         0.00000E+00
         0.00000E+00
         0.00000E+00
         0.00000E+00
         0.00000E+00
         0.00000E+00
         0.00000E+00
         0.00000E+00
         0.00000E+00
         0.00000E+00
         0.00000E+00
         0.00000E+00
         0.00000E+00
         0.00000E+00
         0.00000E+00
         0.00000E+00
         0.00000E+00
         0.00000E+00
         0.00000E+00
         0.00000E+00
         0.00000E+00
         0.00000E+00
         0.00000E+00
         0.00000E+00
         0.00000E+00
         0.00000E+00
         0.00000E+00
         0.00000E+00
         0.00000E+00
         0.00000E+00
         0.00000E+00
         0.00000E+00
         0.00000E+00
         0.00000E+00
         0.00000E+00
         0.00000E+00
         0.00000E+00
         0.00000E+00
         0.00000E+00
         0.00000E+00
         0.00000E+00
         0.00000E+00
         0.00000E+00
         0.00000E+00
         0.00000E+00
         0.00000E+00
         0.00000E+00
         0.00000E+00
         0.00000E+00
         0.00000E+00
         0.00000E+00
         0.00000E+00
         0.00000E+00
         0.00000E+00
         0.00000E+00
         0.00000E+00
         0.00000E+00
         0.00000E+00
         0.00000E+00
         0.00000E+00
         0.00000E+00
         0.00000E+00
         0.00000E+00
         0.00000E+00
         0.00000E+00
         0.00000E+00
         0.00000E+00
         0.00000E+00
         0.00000E+00
         0.00000E+00
         0.00000E+00
         0.00000E+00
         0.00000E+00
         0.00000E+00
         0.00000E+00
         0.00000E+00
         0.00000E+00
         0.00000E+00
         0.00000E+00
         0.00000E+00
         0.00000E+00
         0.00000E+00
         0.00000E+00
         0.00000E+00
         0.00000E+00
         0.00000E+00
         0.00000E+00
         0.00000E+00
         0.00000E+00
         0.00000E+00
         0.00000E+00
         0.00000E+00
         0.00000E+00
         0.00000E+00
         0.00000E+00
         0.00000E+00
         0.00000E+00
         0.00000E+00
         0.00000E+00
         0.00000E+00
         0.00000E+00
         0.00000E+00
         0.00000E+00
         0.00000E+00
         0.00000E+00
         0.00000E+00
         0.00000E+00
         0.00000E+00
         0.00000E+00
         0.00000E+00
         0.00000E+00
         0.00000E+00
         0.00000E+00
         0.00000E+00
         0.00000E+00
         0.00000E+00
         0.00000E+00
         0.00000E+00
         0.00000E+00
         0.00000E+00
         0.00000E+00
         0.00000E+00
         0.00000E+00
         0.00000E+00
         0.00000E+00
         0.00000E+00
         0.00000E+00
         0.00000E+00
         0.00000E+00
         0.00000E+00
         0.00000E+00
         0.00000E+00
         0.00000E+00
         0.00000E+00
         0.00000E+00
         0.00000E+00
         0.00000E+00
         0.00000E+00
         0.00000E+00
         0.00000E+00
         0.00000E+00
         0.00000E+00
         0.00000E+00
         0.00000E+00
         0.00000E+00
         0.00000E+00
         0.00000E+00
         0.00000E+00
         0.00000E+00
         0.00000E+00
         0.00000E+00
         0.00000E+00
         0.00000E+00
         0.00000E+00
         0.00000E+00
         0.00000E+00
         0.00000E+00
         0.00000E+00
         0.00000E+00
         0.00000E+00
         0.00000E+00
         0.00000E+00
         0.00000E+00
         0.00000E+00
         0.00000E+00
         0.00000E+00
         0.00000E+00
         0.00000E+00
         0.00000E+00
         0.00000E+00
         0.00000E+00
         0.00000E+00
         0.00000E+00
         0.00000E+00
         0.00000E+00
         0.00000E+00
         0.00000E+00
         0.00000E+00
         0.00000E+00
         0.00000E+00
         0.00000E+00
         0.00000E+00
         0.00000E+00
         0.00000E+00
         0.00000E+00
         0.00000E+00
         0.00000E+00
         0.00000E+00
         0.00000E+00
         0.00000E+00
         0.00000E+00
         0.00000E+00
         0.00000E+00
         0.00000E+00
         0.00000E+00
         0.00000E+00
         0.00000E+00
         0.00000E+00
         0.00000E+00
         0.00000E+00
         0.00000E+00
         0.00000E+00
         0.00000E+00
         0.00000E+00
         0.00000E+00
         0.00000E+00
         0.00000E+00
         0.00000E+00
         0.00000E+00
         0.00000E+00
         0.00000E+00
         0.00000E+00
         0.00000E+00
         0.00000E+00
         0.00000E+00
         0.00000E+00
         0.00000E+00
         0.00000E+00
         0.00000E+00
         0.00000E+00
         0.00000E+00
         0.00000E+00
         0.00000E+00
         0.00000E+00
         0.00000E+00
         0.00000E+00
         0.00000E+00
         0.00000E+00
         0.00000E+00
         0.00000E+00
         0.00000E+00
         0.00000E+00
         0.00000E+00
         0.00000E+00
         0.00000E+00
         0.00000E+00
         0.00000E+00
         0.00000E+00
         0.00000E+00
         0.00000E+00
         0.00000E+00
         0.00000E+00
         0.00000E+00
         0.00000E+00
         0.00000E+00
         0.00000E+00
         0.00000E+00
         0.00000E+00
         0.00000E+00
         0.00000E+00
         0.00000E+00
         0.00000E+00
         0.00000E+00
         0.00000E+00
         0.00000E+00
         0.00000E+00
         0.00000E+00
         0.00000E+00
         0.00000E+00
         0.00000E+00
         0.00000E+00
         0.00000E+00
         0.00000E+00
         0.00000E+00
         0.00000E+00
         0.00000E+00
         0.00000E+00
         0.00000E+00
         0.00000E+00
         0.00000E+00
         0.00000E+00
         0.00000E+00
         0.00000E+00
         0.00000E+00
         0.00000E+00
         0.00000E+00
         0.00000E+00
         0.00000E+00
         0.00000E+00
         0.00000E+00
         0.00000E+00
         0.00000E+00
         0.00000E+00
         0.00000E+00
         0.00000E+00
         0.00000E+00
         0.00000E+00
         0.00000E+00
         0.00000E+00
         0.00000E+00
         0.00000E+00
         0.00000E+00
         0.00000E+00
         0.00000E+00
         0.00000E+00
         0.00000E+00
         0.00000E+00
         0.00000E+00
         0.00000E+00
         0.00000E+00
         0.00000E+00
         0.00000E+00
         0.00000E+00
         0.00000E+00
         0.00000E+00
         0.00000E+00
         0.00000E+00
         0.00000E+00
         0.00000E+00
         0.00000E+00
         0.00000E+00
         0.00000E+00
         0.00000E+00
         0.00000E+00
         0.00000E+00
         0.00000E+00
         0.00000E+00
         0.00000E+00
         0.00000E+00
         0.00000E+00
         0.00000E+00
         0.00000E+00
         0.00000E+00
         0.00000E+00
         0.00000E+00
         0.00000E+00
         0.00000E+00
         0.00000E+00
         0.00000E+00
         0.00000E+00
         0.00000E+00
         0.00000E+00
         0.00000E+00
         0.00000E+00
         0.00000E+00
         0.00000E+00
         0.00000E+00
         0.00000E+00
         0.00000E+00
         0.00000E+00
         0.00000E+00
         0.00000E+00
         0.00000E+00
         0.00000E+00
         0.00000E+00
         0.00000E+00
         0.00000E+00
         0.00000E+00
         0.00000E+00
         0.00000E+00
         0.00000E+00
         0.00000E+00
         0.00000E+00
         0.00000E+00
         0.00000E+00
         0.00000E+00
         0.00000E+00
         0.00000E+00
         0.00000E+00
         0.00000E+00
         0.00000E+00
         0.00000E+00
         0.00000E+00
         0.00000E+00
         0.00000E+00
         0.00000E+00
         0.00000E+00
         0.00000E+00
         0.00000E+00
         0.00000E+00
         0.00000E+00
         0.00000E+00
         0.00000E+00
         0.00000E+00
         0.00000E+00
         0.00000E+00
         0.00000E+00
         0.00000E+00
         0.00000E+00
         0.00000E+00
         0.00000E+00
         0.00000E+00
         0.00000E+00
         0.00000E+00
         0.00000E+00
         0.00000E+00
         0.00000E+00
         0.00000E+00
         0.00000E+00
         0.00000E+00
         0.00000E+00
         0.00000E+00
         0.00000E+00
         0.00000E+00
         0.00000E+00
         0.00000E+00
         0.00000E+00
         0.00000E+00
         0.00000E+00
         0.00000E+00
         0.00000E+00
         0.00000E+00
         0.00000E+00
         0.00000E+00
         0.00000E+00
         0.00000E+00
         0.00000E+00
         0.00000E+00
         0.00000E+00
         0.00000E+00
         0.00000E+00
         0.00000E+00
         0.00000E+00
         0.00000E+00
         0.00000E+00
         0.00000E+00
         0.00000E+00
         0.00000E+00
         0.00000E+00
         0.00000E+00
         0.00000E+00
         0.00000E+00
         0.00000E+00
         0.00000E+00
         0.00000E+00
         0.00000E+00
         0.00000E+00
         0.00000E+00
         0.00000E+00
         0.00000E+00
         0.00000E+00
         0.00000E+00
         0.00000E+00
         0.00000E+00
         0.00000E+00
         0.00000E+00
         0.00000E+00
         0.00000E+00
         0.00000E+00
         0.00000E+00
         0.00000E+00
         0.00000E+00
         0.00000E+00
         0.00000E+00
         0.00000E+00
         0.00000E+00
         0.00000E+00
         0.00000E+00
         0.00000E+00
         0.00000E+00
         0.00000E+00
         0.00000E+00
         0.00000E+00
         0.00000E+00
         0.00000E+00
         0.00000E+00
         0.00000E+00
         0.00000E+00
         0.00000E+00
         0.00000E+00
         0.00000E+00
         0.00000E+00
         0.00000E+00
         0.00000E+00
         0.00000E+00
         0.00000E+00
         0.00000E+00
         0.00000E+00
         0.00000E+00
         0.00000E+00
         0.00000E+00
         0.00000E+00
         0.00000E+00
         0.00000E+00
         0.00000E+00
         0.00000E+00
         0.00000E+00
         0.00000E+00
         0.00000E+00
         0.00000E+00
         0.00000E+00
         0.00000E+00
         0.00000E+00
         0.00000E+00
         0.00000E+00
         0.00000E+00
         0.00000E+00
         0.00000E+00
         0.00000E+00
         0.00000E+00
         0.00000E+00
         0.00000E+00
         0.00000E+00
         0.00000E+00
         0.00000E+00
         0.00000E+00
         0.00000E+00
         0.00000E+00
         0.00000E+00
         0.00000E+00
         0.00000E+00
         0.00000E+00
         0.00000E+00
         0.00000E+00
         0.00000E+00
         0.00000E+00
         0.00000E+00
         0.00000E+00
         0.00000E+00
         0.00000E+00
         0.00000E+00
         0.00000E+00
         0.00000E+00
         0.00000E+00
         0.00000E+00
         0.00000E+00
         0.00000E+00
         0.00000E+00
         0.00000E+00
         0.00000E+00
         0.00000E+00
         0.00000E+00
         0.00000E+00
         0.00000E+00
         0.00000E+00
         0.00000E+00
         0.00000E+00
         0.00000E+00
         0.00000E+00
         0.00000E+00
         0.00000E+00
         0.00000E+00
         0.00000E+00
         0.00000E+00
         0.00000E+00
         0.00000E+00
         0.00000E+00
         0.00000E+00
         0.00000E+00
         0.00000E+00
         0.00000E+00
         0.00000E+00
         0.00000E+00
         0.00000E+00
         0.00000E+00
         0.00000E+00
         0.00000E+00
         0.00000E+00
         0.00000E+00
         0.00000E+00
         0.00000E+00
         0.00000E+00
         0.00000E+00
         0.00000E+00
         0.00000E+00
         0.00000E+00
         0.00000E+00
         0.00000E+00
         0.00000E+00
         0.00000E+00
         0.00000E+00
         0.00000E+00
         0.00000E+00
         0.00000E+00
         0.00000E+00
         0.00000E+00
         0.00000E+00
         0.00000E+00
         0.00000E+00
         0.00000E+00
         0.00000E+00
         0.00000E+00
         0.00000E+00
         0.00000E+00
         0.00000E+00
         0.00000E+00
         0.00000E+00
         0.00000E+00
         0.00000E+00
         0.00000E+00
         0.00000E+00
         0.00000E+00
         0.00000E+00
         0.00000E+00
         0.00000E+00
         0.00000E+00
         0.00000E+00
         0.00000E+00
         0.00000E+00
         0.00000E+00
         0.00000E+00
         0.00000E+00
         0.00000E+00
         0.00000E+00
         0.00000E+00
         0.00000E+00
         0.00000E+00
         0.00000E+00
         0.00000E+00
         0.00000E+00
         0.00000E+00
         0.00000E+00
         0.00000E+00
         0.00000E+00
         0.00000E+00
         0.00000E+00
         0.00000E+00
         0.00000E+00
         0.00000E+00
         0.00000E+00
         0.00000E+00
         0.00000E+00
         0.00000E+00
         0.00000E+00
         0.00000E+00
         0.00000E+00
         0.00000E+00
         0.00000E+00
         0.00000E+00
         0.00000E+00
         0.00000E+00
         0.00000E+00
         0.00000E+00
         0.00000E+00
         0.00000E+00
         0.00000E+00
         0.00000E+00
         0.00000E+00
         0.00000E+00
         0.00000E+00
         0.00000E+00
         0.00000E+00
         0.00000E+00
         0.00000E+00
         0.00000E+00
         0.00000E+00
         0.00000E+00
         0.00000E+00
         0.00000E+00
         0.00000E+00
         0.00000E+00
         0.00000E+00
         0.00000E+00
         0.00000E+00
         0.00000E+00
         0.00000E+00
         0.00000E+00
         0.00000E+00
         0.00000E+00
         0.00000E+00
         0.00000E+00
         0.00000E+00
         0.00000E+00
         0.00000E+00
         0.00000E+00
         0.00000E+00
         0.00000E+00
         0.00000E+00
         0.00000E+00
         0.00000E+00
         0.00000E+00
         0.00000E+00
         0.00000E+00
         0.00000E+00
         0.00000E+00
         0.00000E+00
         0.00000E+00
         0.00000E+00
         0.00000E+00
         0.00000E+00
         0.00000E+00
         0.00000E+00
         0.00000E+00
         0.00000E+00
         0.00000E+00
         0.00000E+00
         0.00000E+00
         0.00000E+00
         0.00000E+00
         0.00000E+00
         0.00000E+00
         0.00000E+00
         0.00000E+00
         0.00000E+00
         0.00000E+00
         0.00000E+00
         0.00000E+00
         0.00000E+00
         0.00000E+00
         0.00000E+00
         0.00000E+00
         0.00000E+00
         0.00000E+00
         0.00000E+00
         0.00000E+00
         0.00000E+00
         0.00000E+00
         0.00000E+00
         0.00000E+00
         0.00000E+00
         0.00000E+00
         0.00000E+00
         0.00000E+00
         0.00000E+00
         0.00000E+00
         0.00000E+00
         0.00000E+00
         0.00000E+00
         0.00000E+00
         0.00000E+00
         0.00000E+00
         0.00000E+00
         0.00000E+00
         0.00000E+00
         0.00000E+00
         0.00000E+00
         0.00000E+00
         0.00000E+00
         0.00000E+00
         0.00000E+00
         0.00000E+00
         0.00000E+00
         0.00000E+00
         0.00000E+00
         0.00000E+00
         0.00000E+00
         0.00000E+00
         0.00000E+00
         0.00000E+00
         0.00000E+00
         0.00000E+00
         0.00000E+00
         0.00000E+00
         0.00000E+00
         0.00000E+00
         0.00000E+00
         0.00000E+00
         0.00000E+00
         0.00000E+00
         0.00000E+00
         0.00000E+00
         0.00000E+00
         0.00000E+00
         0.00000E+00
         0.00000E+00
         0.00000E+00
         0.00000E+00
         0.00000E+00
         0.00000E+00
         0.00000E+00
         0.00000E+00
         0.00000E+00
         0.00000E+00
         0.00000E+00
         0.00000E+00
         0.00000E+00
         0.00000E+00
         0.00000E+00
         0.00000E+00
         0.00000E+00
         0.00000E+00
         0.00000E+00
         0.00000E+00
         0.00000E+00
         0.00000E+00
         0.00000E+00
         0.00000E+00
         0.00000E+00
         0.00000E+00
         0.00000E+00
         0.00000E+00
         0.00000E+00
         0.00000E+00
         0.00000E+00
         0.00000E+00
         0.00000E+00
         0.00000E+00
         0.00000E+00
         0.00000E+00
         0.00000E+00
         0.00000E+00
         0.00000E+00
         0.00000E+00
         0.00000E+00
         0.00000E+00
         0.00000E+00
         0.00000E+00
         0.00000E+00
         0.00000E+00
         0.00000E+00
         0.00000E+00
         0.00000E+00
         0.00000E+00
         0.00000E+00
         0.00000E+00
         0.00000E+00
         0.00000E+00
         0.00000E+00
         0.00000E+00
         0.00000E+00
         0.00000E+00
         0.00000E+00
         0.00000E+00
         0.00000E+00
         0.00000E+00
         0.00000E+00
         0.00000E+00
         0.00000E+00
         0.00000E+00
         0.00000E+00
         0.00000E+00
         0.00000E+00
         0.00000E+00
         0.00000E+00
         0.00000E+00
         0.00000E+00
         0.00000E+00
         0.00000E+00
         0.00000E+00
         0.00000E+00
         0.00000E+00
         0.00000E+00
         0.00000E+00
         0.00000E+00
         0.00000E+00
         0.00000E+00
         0.00000E+00
         0.00000E+00
         0.00000E+00
         0.00000E+00
         0.00000E+00
         0.00000E+00
         0.00000E+00
         0.00000E+00
         0.00000E+00
         0.00000E+00
         0.00000E+00
         0.00000E+00
         0.00000E+00
         0.00000E+00
         0.00000E+00
         0.00000E+00
         0.00000E+00
         0.00000E+00
         0.00000E+00
         0.00000E+00
         0.00000E+00
         0.00000E+00
         0.00000E+00
         0.00000E+00
         0.00000E+00
         0.00000E+00
         0.00000E+00
         0.00000E+00
         0.00000E+00
         0.00000E+00
         0.00000E+00
         0.00000E+00
         0.00000E+00
         0.00000E+00
         0.00000E+00
         0.00000E+00
         0.00000E+00
         0.00000E+00
         0.00000E+00
         0.00000E+00
         0.00000E+00
         0.00000E+00
         0.00000E+00
         0.00000E+00
         0.00000E+00
         0.00000E+00
         0.00000E+00
         0.00000E+00
         0.00000E+00
         0.00000E+00
         0.00000E+00
         0.00000E+00
         0.00000E+00
         0.00000E+00
         0.00000E+00
         0.00000E+00
         0.00000E+00
         0.00000E+00
         0.00000E+00
         0.00000E+00
         0.00000E+00
         0.00000E+00
         0.00000E+00
         0.00000E+00
         0.00000E+00
         0.00000E+00
         0.00000E+00
         0.00000E+00
         0.00000E+00
         0.00000E+00
         0.00000E+00
         0.00000E+00
         0.00000E+00
         0.00000E+00
         0.00000E+00
         0.00000E+00
         0.00000E+00
         0.00000E+00
         0.00000E+00
         0.00000E+00
         0.00000E+00
         0.00000E+00
         0.00000E+00
         0.00000E+00
         0.00000E+00
         0.00000E+00
         0.00000E+00
         0.00000E+00
         0.00000E+00
         0.00000E+00
         0.00000E+00
         0.00000E+00
         0.00000E+00
         0.00000E+00
         0.00000E+00
         0.00000E+00
         0.00000E+00
         0.00000E+00
         0.00000E+00
         0.00000E+00
         0.00000E+00
         0.00000E+00
         0.00000E+00
         0.00000E+00
         0.00000E+00
         0.00000E+00
         0.00000E+00
         0.00000E+00
         0.00000E+00
         0.00000E+00
         0.00000E+00
         0.00000E+00
         0.00000E+00
         0.00000E+00
         0.00000E+00
         0.00000E+00
         0.00000E+00
         0.00000E+00
         0.00000E+00
         0.00000E+00
         0.00000E+00
         0.00000E+00
         0.00000E+00
         0.00000E+00
         0.00000E+00
         0.00000E+00
         0.00000E+00
         0.00000E+00
         0.00000E+00
         0.00000E+00
         0.00000E+00
         0.00000E+00
         0.00000E+00
         0.00000E+00
         0.00000E+00
         0.00000E+00
         0.00000E+00
         0.00000E+00
         0.00000E+00
         0.00000E+00
         0.00000E+00
         0.00000E+00
         0.00000E+00
         0.00000E+00
         0.00000E+00
         0.00000E+00
         0.00000E+00
         0.00000E+00
         0.00000E+00
         0.00000E+00
         0.00000E+00
         0.00000E+00
         0.00000E+00
         0.00000E+00
         0.00000E+00
         0.00000E+00
         0.00000E+00
         0.00000E+00
         0.00000E+00
         0.00000E+00
         0.00000E+00
         0.00000E+00
         0.00000E+00
         0.00000E+00
         0.00000E+00
         0.00000E+00
         0.00000E+00
         0.00000E+00
         0.00000E+00
         0.00000E+00
         0.00000E+00
         0.00000E+00
         0.00000E+00
         0.00000E+00
         0.00000E+00
         0.00000E+00
         0.00000E+00
         0.00000E+00
         0.00000E+00
         0.00000E+00
         0.00000E+00
         0.00000E+00
         0.00000E+00
         0.00000E+00
         0.00000E+00
         0.00000E+00
         0.00000E+00
         0.00000E+00
         0.00000E+00
         0.00000E+00
         0.00000E+00
         0.00000E+00
         0.00000E+00
         0.00000E+00
         0.00000E+00
         0.00000E+00
         0.00000E+00
         0.00000E+00
         0.00000E+00
         0.00000E+00
         0.00000E+00
         0.00000E+00
         0.00000E+00
         0.00000E+00
         0.00000E+00
         0.00000E+00
         0.00000E+00
         0.00000E+00
         0.00000E+00
         0.00000E+00
         0.00000E+00
         0.00000E+00
         0.00000E+00
         0.00000E+00
         0.00000E+00
         0.00000E+00
         0.00000E+00
         0.00000E+00
         0.00000E+00
         0.00000E+00
         0.00000E+00
         0.00000E+00
         0.00000E+00
         0.00000E+00
         0.00000E+00
         0.00000E+00
         0.00000E+00
         0.00000E+00
         0.00000E+00
         0.00000E+00
         0.00000E+00
         0.00000E+00
         0.00000E+00
         0.00000E+00
         0.00000E+00
         0.00000E+00
         0.00000E+00
         0.00000E+00
         0.00000E+00
         0.00000E+00
         0.00000E+00
         0.00000E+00
         0.00000E+00
         0.00000E+00
         0.00000E+00
         0.00000E+00
         0.00000E+00
         0.00000E+00
         0.00000E+00
         0.00000E+00
         0.00000E+00
         0.00000E+00
         0.00000E+00
         0.00000E+00
         0.00000E+00
         0.00000E+00
         0.00000E+00
         0.00000E+00
         0.00000E+00
         0.00000E+00
         0.00000E+00
         0.00000E+00
         0.00000E+00
         0.00000E+00
         0.00000E+00
         0.00000E+00
         0.00000E+00
         0.00000E+00
         0.00000E+00
         0.00000E+00
         0.00000E+00
         0.00000E+00
         0.00000E+00
         0.00000E+00
         0.00000E+00
         0.00000E+00
         0.00000E+00
         0.00000E+00
         0.00000E+00
         0.00000E+00
         0.00000E+00
         0.00000E+00
         0.00000E+00
         0.00000E+00
         0.00000E+00
         0.00000E+00
         0.00000E+00
         0.00000E+00
         0.00000E+00
         0.00000E+00
         0.00000E+00
         0.00000E+00
         0.00000E+00
         0.00000E+00
         0.00000E+00
         0.00000E+00
         0.00000E+00
         0.00000E+00
         0.00000E+00
         0.00000E+00
         0.00000E+00
         0.00000E+00
         0.00000E+00
         0.00000E+00
         0.00000E+00
         0.00000E+00
         0.00000E+00
         0.00000E+00
         0.00000E+00
         0.00000E+00
         0.00000E+00
         0.00000E+00
         0.00000E+00
         0.00000E+00
         0.00000E+00
         0.00000E+00
         0.00000E+00
         0.00000E+00
         0.00000E+00
         0.00000E+00
         0.00000E+00
         0.00000E+00
         0.00000E+00
         0.00000E+00
         0.00000E+00
         0.00000E+00
         0.00000E+00
         0.00000E+00
         0.00000E+00
         0.00000E+00
         0.00000E+00
         0.00000E+00
         0.00000E+00
         0.00000E+00
         0.00000E+00
         0.00000E+00
         0.00000E+00
         0.00000E+00
         0.00000E+00
         0.00000E+00
         0.00000E+00
         0.00000E+00
         0.00000E+00
         0.00000E+00
         0.00000E+00
         0.00000E+00
         0.00000E+00
         0.00000E+00
         0.00000E+00
         0.00000E+00
         0.00000E+00
         0.00000E+00
         0.00000E+00
         0.00000E+00
         0.00000E+00
         0.00000E+00
         0.00000E+00
         0.00000E+00
         0.00000E+00
         0.00000E+00
         0.00000E+00
         0.00000E+00
         0.00000E+00
         0.00000E+00
         0.00000E+00
         0.00000E+00
         0.00000E+00
         0.00000E+00
         0.00000E+00
         0.00000E+00
         0.00000E+00
         0.00000E+00
         0.00000E+00
         0.00000E+00
         0.00000E+00
         0.00000E+00
         0.00000E+00
         0.00000E+00
         0.00000E+00
         0.00000E+00
         0.00000E+00
         0.00000E+00
         0.00000E+00
         0.00000E+00
         0.00000E+00
         0.00000E+00
         0.00000E+00
         0.00000E+00
         0.00000E+00
         0.00000E+00
         0.00000E+00
         0.00000E+00
         0.00000E+00
         0.00000E+00
         0.00000E+00
         0.00000E+00
         0.00000E+00
         0.00000E+00
         0.00000E+00
         0.00000E+00
         0.00000E+00
         0.00000E+00
         0.00000E+00
         0.00000E+00
         0.00000E+00
         0.00000E+00
         0.00000E+00
         0.00000E+00
         0.00000E+00
         0.00000E+00
         0.00000E+00
         0.00000E+00
         0.00000E+00
         0.00000E+00
         0.00000E+00
         0.00000E+00
         0.00000E+00
         0.00000E+00
         0.00000E+00
         0.00000E+00
         0.00000E+00
         0.00000E+00
         0.00000E+00
         0.00000E+00
         0.00000E+00
         0.00000E+00
         0.00000E+00
         0.00000E+00
         0.00000E+00
         0.00000E+00
         0.00000E+00
         0.00000E+00
         0.00000E+00
         0.00000E+00
         0.00000E+00
         0.00000E+00
         0.00000E+00
         0.00000E+00
         0.00000E+00
         0.00000E+00
         0.00000E+00
         0.00000E+00
         0.00000E+00
         0.00000E+00
         0.00000E+00
         0.00000E+00
         0.00000E+00
         0.00000E+00
         0.00000E+00
         0.00000E+00
         0.00000E+00
         0.00000E+00
         0.00000E+00
         0.00000E+00
         0.00000E+00
         0.00000E+00
         0.00000E+00
         0.00000E+00
         0.00000E+00
         0.00000E+00
         0.00000E+00
         0.00000E+00
         0.00000E+00
         0.00000E+00
         0.00000E+00
         0.00000E+00
         0.00000E+00
         0.00000E+00
         0.00000E+00
         0.00000E+00
         0.00000E+00
         0.00000E+00
         0.00000E+00
         0.00000E+00
         0.00000E+00
         0.00000E+00
         0.00000E+00
         0.00000E+00
         0.00000E+00
         0.00000E+00
         0.00000E+00
         0.00000E+00
         0.00000E+00
         0.00000E+00
         0.00000E+00
         0.00000E+00
         0.00000E+00
         0.00000E+00
         0.00000E+00
         0.00000E+00
         0.00000E+00
         0.00000E+00
         0.00000E+00
         0.00000E+00
         0.00000E+00
         0.00000E+00
         0.00000E+00
         0.00000E+00
         0.00000E+00
         0.00000E+00
         0.00000E+00
         0.00000E+00
         0.00000E+00
         0.00000E+00
         0.00000E+00
         0.00000E+00
         0.00000E+00
         0.00000E+00
         0.00000E+00
         0.00000E+00
         0.00000E+00
         0.00000E+00
         0.00000E+00
         0.00000E+00
         0.00000E+00
         0.00000E+00
         0.00000E+00
         0.00000E+00
         0.00000E+00
         0.00000E+00
         0.00000E+00
         0.00000E+00
         0.00000E+00
         0.00000E+00
         0.00000E+00
         0.00000E+00
         0.00000E+00
         0.00000E+00
         0.00000E+00
         0.00000E+00
         0.00000E+00
         0.00000E+00
         0.00000E+00
         0.00000E+00
         0.00000E+00
         0.00000E+00
         0.00000E+00
         0.00000E+00
         0.00000E+00
         0.00000E+00
         0.00000E+00
         0.00000E+00
         0.00000E+00
         0.00000E+00
         0.00000E+00
         0.00000E+00
         0.00000E+00
         0.00000E+00
         0.00000E+00
         0.00000E+00
         0.00000E+00
         0.00000E+00
         0.00000E+00
         0.00000E+00
         0.00000E+00
         0.00000E+00
         0.00000E+00
         0.00000E+00
         0.00000E+00
         0.00000E+00
         0.00000E+00
         0.00000E+00
         0.00000E+00
         0.00000E+00
         0.00000E+00
         0.00000E+00
         0.00000E+00
         0.00000E+00
         0.00000E+00
         0.00000E+00
         0.00000E+00
         0.00000E+00
         0.00000E+00
         0.00000E+00
         0.00000E+00
         0.00000E+00
         0.00000E+00
         0.00000E+00
         0.00000E+00
         0.00000E+00
         0.00000E+00
         0.00000E+00
         0.00000E+00
         0.00000E+00
         0.00000E+00
         0.00000E+00
         0.00000E+00
         0.00000E+00
         0.00000E+00
         0.00000E+00
         0.00000E+00
         0.00000E+00
         0.00000E+00
         0.00000E+00
         0.00000E+00
         0.00000E+00
         0.00000E+00
         0.00000E+00
         0.00000E+00
         0.00000E+00
         0.00000E+00
         0.00000E+00
         0.00000E+00
         0.00000E+00
         0.00000E+00
         0.00000E+00
         0.00000E+00
         0.00000E+00
         0.00000E+00
         0.00000E+00
         0.00000E+00
         0.00000E+00
         0.00000E+00
         0.00000E+00
         0.00000E+00
         0.00000E+00
         0.00000E+00
         0.00000E+00
         0.00000E+00
         0.00000E+00
         0.00000E+00
         0.00000E+00
         0.00000E+00
         0.00000E+00
         0.00000E+00
         0.00000E+00
         0.00000E+00
         0.00000E+00
         0.00000E+00
         0.00000E+00
         0.00000E+00
         0.00000E+00
         0.00000E+00
         0.00000E+00
         0.00000E+00
         0.00000E+00
         0.00000E+00
         0.00000E+00
         0.00000E+00
         0.00000E+00
         0.00000E+00
         0.00000E+00
         0.00000E+00
         0.00000E+00
         0.00000E+00
         0.00000E+00
         0.00000E+00
         0.00000E+00
         0.00000E+00
         0.00000E+00
         0.00000E+00
         0.00000E+00
         0.00000E+00
         0.00000E+00
         0.00000E+00
         0.00000E+00
         0.00000E+00
         0.00000E+00
         0.00000E+00
         0.00000E+00
         0.00000E+00
         0.00000E+00
         0.00000E+00
         0.00000E+00
         0.00000E+00
         0.00000E+00
         0.00000E+00
         0.00000E+00
         0.00000E+00
         0.00000E+00
         0.00000E+00
         0.00000E+00
         0.00000E+00
         0.00000E+00
         0.00000E+00
         0.00000E+00
         0.00000E+00
         0.00000E+00
         0.00000E+00
         0.00000E+00
         0.00000E+00
         0.00000E+00
         0.00000E+00
         0.00000E+00
         0.00000E+00
         0.00000E+00
         0.00000E+00
         0.00000E+00
         0.00000E+00
         0.00000E+00
         0.00000E+00
         0.00000E+00
         0.00000E+00
         0.00000E+00
         0.00000E+00
         0.00000E+00
         0.00000E+00
         0.00000E+00
         0.00000E+00
         0.00000E+00
         0.00000E+00
         0.00000E+00
         0.00000E+00
         0.00000E+00
         0.00000E+00
         0.00000E+00
         0.00000E+00
         0.00000E+00
         0.00000E+00
         0.00000E+00
         0.00000E+00
         0.00000E+00
         0.00000E+00
         0.00000E+00
         0.00000E+00
         0.00000E+00
         0.00000E+00
         0.00000E+00
         0.00000E+00
         0.00000E+00
         0.00000E+00
         0.00000E+00
         0.00000E+00
         0.00000E+00
         0.00000E+00
         0.00000E+00
         0.00000E+00
         0.00000E+00
         0.00000E+00
         0.00000E+00
         0.00000E+00
         0.00000E+00
         0.00000E+00
         0.00000E+00
         0.00000E+00
         0.00000E+00
         0.00000E+00
         0.00000E+00
         0.00000E+00
         0.00000E+00
         0.00000E+00
         0.00000E+00
         0.00000E+00
         0.00000E+00
         0.00000E+00
         0.00000E+00
         0.00000E+00
         0.00000E+00
         0.00000E+00
         0.00000E+00
         0.00000E+00
         0.00000E+00
         0.00000E+00
         0.00000E+00
         0.00000E+00
         0.00000E+00
         0.00000E+00
         0.00000E+00
         0.00000E+00
         0.00000E+00
         0.00000E+00
         0.00000E+00
         0.00000E+00
         0.00000E+00
         0.00000E+00
         0.00000E+00
         0.00000E+00
         0.00000E+00
         0.00000E+00
         0.00000E+00
         0.00000E+00
         0.00000E+00
         0.00000E+00
         0.00000E+00
         0.00000E+00
         0.00000E+00
         0.00000E+00
         0.00000E+00
         0.00000E+00
         0.00000E+00
         0.00000E+00
         0.00000E+00
         0.00000E+00
         0.00000E+00
         0.00000E+00
         0.00000E+00
         0.00000E+00
         0.00000E+00
         0.00000E+00
         0.00000E+00
         0.00000E+00
         0.00000E+00
         0.00000E+00
         0.00000E+00
         0.00000E+00
         0.00000E+00
         0.00000E+00
         0.00000E+00
         0.00000E+00
         0.00000E+00
         0.00000E+00
         0.00000E+00
         0.00000E+00
         0.00000E+00
         0.00000E+00
         0.00000E+00
         0.00000E+00
         0.00000E+00
         0.00000E+00
         0.00000E+00
         0.00000E+00
         0.00000E+00
         0.00000E+00
         0.00000E+00
         0.00000E+00
         0.00000E+00
         0.00000E+00
         0.00000E+00
         0.00000E+00
         0.00000E+00
         0.00000E+00
         0.00000E+00
         0.00000E+00
         0.00000E+00
         0.00000E+00
         0.00000E+00
         0.00000E+00
         0.00000E+00
         0.00000E+00
         0.00000E+00
         0.00000E+00
         0.00000E+00
         0.00000E+00
         0.00000E+00
         0.00000E+00
         0.00000E+00
         0.00000E+00
         0.00000E+00
         0.00000E+00
         0.00000E+00
         0.00000E+00
         0.00000E+00
         0.00000E+00
         0.00000E+00
         0.00000E+00
         0.00000E+00
         0.00000E+00
         0.00000E+00
         0.00000E+00
         0.00000E+00
         0.00000E+00
         0.00000E+00
         0.00000E+00
         0.00000E+00
         0.00000E+00
         0.00000E+00
         0.00000E+00
         0.00000E+00
         0.00000E+00
         0.00000E+00
         0.00000E+00
         0.00000E+00
         0.00000E+00
         0.00000E+00
         0.00000E+00
         0.00000E+00
         0.00000E+00
         0.00000E+00
         0.00000E+00
         0.00000E+00
         0.00000E+00
         0.00000E+00
         0.00000E+00
         0.00000E+00
         0.00000E+00
         0.00000E+00
         0.00000E+00
         0.00000E+00
         0.00000E+00
         0.00000E+00
         0.00000E+00
         0.00000E+00
         0.00000E+00
         0.00000E+00
         0.00000E+00
         0.00000E+00
         0.00000E+00
         0.00000E+00
         0.00000E+00
         0.00000E+00
         0.00000E+00
         0.00000E+00
         0.00000E+00
         0.00000E+00
         0.00000E+00
         0.00000E+00
         0.00000E+00
         0.00000E+00
         0.00000E+00
         0.00000E+00
         0.00000E+00
         0.00000E+00
         0.00000E+00
         0.00000E+00
         0.00000E+00
         0.00000E+00
         0.00000E+00
         0.00000E+00
         0.00000E+00
         0.00000E+00
         0.00000E+00
         0.00000E+00
         0.00000E+00
         0.00000E+00
         0.00000E+00
         0.00000E+00
         0.00000E+00
         0.00000E+00
         0.00000E+00
         0.00000E+00
         0.00000E+00
         0.00000E+00
         0.00000E+00
         0.00000E+00
         0.00000E+00
         0.00000E+00
         0.00000E+00
         0.00000E+00
         0.00000E+00
         0.00000E+00
         0.00000E+00
         0.00000E+00
         0.00000E+00
         0.00000E+00
         0.00000E+00
         0.00000E+00
         0.00000E+00
         0.00000E+00
         0.00000E+00
         0.00000E+00
         0.00000E+00
         0.00000E+00
         0.00000E+00
         0.00000E+00
         0.00000E+00
         0.00000E+00
         0.00000E+00
         0.00000E+00
         0.00000E+00
         0.00000E+00
         0.00000E+00
         0.00000E+00
         0.00000E+00
         0.00000E+00
         0.00000E+00
         0.00000E+00
         0.00000E+00
         0.00000E+00
         0.00000E+00
         0.00000E+00
         0.00000E+00
         0.00000E+00
         0.00000E+00
         0.00000E+00
         0.00000E+00
         0.00000E+00
         0.00000E+00
         0.00000E+00
         0.00000E+00
         0.00000E+00
         0.00000E+00
         0.00000E+00
         0.00000E+00
         0.00000E+00
         0.00000E+00
         0.00000E+00
         0.00000E+00
         0.00000E+00
         0.00000E+00
         0.00000E+00
         0.00000E+00
         0.00000E+00
         0.00000E+00
         0.00000E+00
         0.00000E+00
         0.00000E+00
         0.00000E+00
         0.00000E+00
         0.00000E+00
         0.00000E+00
         0.00000E+00
         0.00000E+00
         0.00000E+00
         0.00000E+00
         0.00000E+00
         0.00000E+00
         0.00000E+00
         0.00000E+00
         0.00000E+00
         0.00000E+00
         0.00000E+00
         0.00000E+00
         0.00000E+00
         0.00000E+00
         0.00000E+00
         0.00000E+00
         0.00000E+00
         0.00000E+00
         0.00000E+00
         0.00000E+00
         0.00000E+00
         0.00000E+00
         0.00000E+00
         0.00000E+00
         0.00000E+00
         0.00000E+00
         0.00000E+00
         0.00000E+00
         0.00000E+00
         0.00000E+00
         0.00000E+00
         0.00000E+00
         0.00000E+00
         0.00000E+00
         0.00000E+00
         0.00000E+00
         0.00000E+00
         0.00000E+00
         0.00000E+00
         0.00000E+00
         0.00000E+00
         0.00000E+00
         0.00000E+00
         0.00000E+00
         0.00000E+00
         0.00000E+00
         0.00000E+00
         0.00000E+00
         0.00000E+00
         0.00000E+00
         0.00000E+00
         0.00000E+00
         0.00000E+00
         0.00000E+00
         0.00000E+00
         0.00000E+00
         0.00000E+00
         0.00000E+00
         0.00000E+00
         0.00000E+00
         0.00000E+00
         0.00000E+00
         0.00000E+00
         0.00000E+00
         0.00000E+00
         0.00000E+00
         0.00000E+00
         0.00000E+00
         0.00000E+00
         0.00000E+00
         0.00000E+00
         0.00000E+00
         0.00000E+00
         0.00000E+00
         0.00000E+00
         0.00000E+00
         0.00000E+00
         0.00000E+00
         0.00000E+00
         0.00000E+00
         0.00000E+00
         0.00000E+00
         0.00000E+00
         0.00000E+00
         0.00000E+00
         0.00000E+00
         0.00000E+00
         0.00000E+00
         0.00000E+00
         0.00000E+00
         0.00000E+00
         0.00000E+00
         0.00000E+00
         0.00000E+00
         0.00000E+00
         0.00000E+00
         0.00000E+00
         0.00000E+00
         0.00000E+00
         0.00000E+00
         0.00000E+00
         0.00000E+00
         0.00000E+00
         0.00000E+00
         0.00000E+00
         0.00000E+00
         0.00000E+00
         0.00000E+00
         0.00000E+00
         0.00000E+00
         0.00000E+00
         0.00000E+00
         0.00000E+00
         0.00000E+00
         0.00000E+00
         0.00000E+00
         0.00000E+00
         0.00000E+00
  
SCALARS                     velocity_z  double 1
LOOKUP_TABLE default
        -0.37300E+03
        -0.37300E+03
        -0.37300E+03
        -0.37300E+03
         0.00000E+00
         0.00000E+00
         0.00000E+00
         0.00000E+00
        -0.37300E+03
        -0.37300E+03
         0.00000E+00
         0.00000E+00
        -0.37300E+03
        -0.37300E+03
         0.00000E+00
         0.00000E+00
        -0.37300E+03
        -0.37300E+03
         0.00000E+00
         0.00000E+00
        -0.37300E+03
        -0.37300E+03
        -0.37300E+03
         0.00000E+00
         0.00000E+00
         0.00000E+00
        -0.37300E+03
        -0.37300E+03
         0.00000E+00
         0.00000E+00
        -0.37300E+03
        -0.37300E+03
        -0.37300E+03
         0.00000E+00
         0.00000E+00
         0.00000E+00
        -0.37300E+03
        -0.37300E+03
         0.00000E+00
         0.00000E+00
        -0.37300E+03
        -0.37300E+03
         0.00000E+00
         0.00000E+00
        -0.37300E+03
        -0.37300E+03
         0.00000E+00
         0.00000E+00
        -0.37300E+03
         0.00000E+00
        -0.37300E+03
         0.00000E+00
        -0.37300E+03
         0.00000E+00
        -0.37300E+03
         0.00000E+00
        -0.37300E+03
        -0.37300E+03
         0.00000E+00
         0.00000E+00
        -0.37300E+03
        -0.37300E+03
         0.00000E+00
         0.00000E+00
        -0.37300E+03
         0.00000E+00
        -0.37300E+03
         0.00000E+00
        -0.37300E+03
        -0.37300E+03
         0.00000E+00
         0.00000E+00
        -0.37300E+03
         0.00000E+00
        -0.37300E+03
         0.00000E+00
        -0.37300E+03
         0.00000E+00
        -0.37300E+03
         0.00000E+00
        -0.37300E+03
        -0.37300E+03
         0.00000E+00
         0.00000E+00
        -0.37300E+03
         0.00000E+00
        -0.37300E+03
         0.00000E+00
        -0.37300E+03
         0.00000E+00
        -0.37300E+03
        -0.37300E+03
         0.00000E+00
         0.00000E+00
        -0.37300E+03
         0.00000E+00
        -0.37300E+03
         0.00000E+00
        -0.37300E+03
         0.00000E+00
        -0.37300E+03
        -0.37300E+03
         0.00000E+00
         0.00000E+00
        -0.37300E+03
        -0.37300E+03
         0.00000E+00
         0.00000E+00
        -0.37300E+03
         0.00000E+00
        -0.37300E+03
         0.00000E+00
        -0.37300E+03
         0.00000E+00
        -0.37300E+03
         0.00000E+00
        -0.37300E+03
         0.00000E+00
        -0.37300E+03
         0.00000E+00
        -0.37300E+03
         0.00000E+00
        -0.37300E+03
         0.00000E+00
        -0.37300E+03
         0.00000E+00
        -0.37300E+03
         0.00000E+00
        -0.37300E+03
         0.00000E+00
        -0.37300E+03
         0.00000E+00
        -0.37300E+03
         0.00000E+00
        -0.37300E+03
         0.00000E+00
        -0.37300E+03
         0.00000E+00
        -0.37300E+03
         0.00000E+00
        -0.37300E+03
         0.00000E+00
        -0.37300E+03
         0.00000E+00
        -0.37300E+03
         0.00000E+00
        -0.37300E+03
         0.00000E+00
        -0.37300E+03
         0.00000E+00
        -0.37300E+03
         0.00000E+00
        -0.37300E+03
         0.00000E+00
        -0.37300E+03
         0.00000E+00
        -0.37300E+03
        -0.37300E+03
        -0.37300E+03
        -0.37300E+03
        -0.37300E+03
        -0.37300E+03
        -0.37300E+03
        -0.37300E+03
        -0.37300E+03
        -0.37300E+03
        -0.37300E+03
        -0.37300E+03
        -0.37300E+03
        -0.37300E+03
        -0.37300E+03
        -0.37300E+03
        -0.37300E+03
        -0.37300E+03
        -0.37300E+03
        -0.37300E+03
        -0.37300E+03
        -0.37300E+03
        -0.37300E+03
        -0.37300E+03
        -0.37300E+03
        -0.37300E+03
        -0.37300E+03
        -0.37300E+03
        -0.37300E+03
        -0.37300E+03
        -0.37300E+03
        -0.37300E+03
        -0.37300E+03
        -0.37300E+03
        -0.37300E+03
        -0.37300E+03
        -0.37300E+03
        -0.37300E+03
        -0.37300E+03
        -0.37300E+03
        -0.37300E+03
        -0.37300E+03
        -0.37300E+03
        -0.37300E+03
        -0.37300E+03
        -0.37300E+03
        -0.37300E+03
        -0.37300E+03
        -0.37300E+03
        -0.37300E+03
        -0.37300E+03
        -0.37300E+03
        -0.37300E+03
        -0.37300E+03
        -0.37300E+03
        -0.37300E+03
        -0.37300E+03
        -0.37300E+03
        -0.37300E+03
        -0.37300E+03
        -0.37300E+03
        -0.37300E+03
        -0.37300E+03
        -0.37300E+03
        -0.37300E+03
        -0.37300E+03
        -0.37300E+03
        -0.37300E+03
        -0.37300E+03
        -0.37300E+03
        -0.37300E+03
        -0.37300E+03
        -0.37300E+03
        -0.37300E+03
        -0.37300E+03
        -0.37300E+03
        -0.37300E+03
        -0.37300E+03
        -0.37300E+03
        -0.37300E+03
        -0.37300E+03
        -0.37300E+03
        -0.37300E+03
        -0.37300E+03
        -0.37300E+03
        -0.37300E+03
        -0.37300E+03
        -0.37300E+03
        -0.37300E+03
        -0.37300E+03
        -0.37300E+03
        -0.37300E+03
        -0.37300E+03
        -0.37300E+03
        -0.37300E+03
        -0.37300E+03
        -0.37300E+03
        -0.37300E+03
        -0.37300E+03
        -0.37300E+03
        -0.37300E+03
        -0.37300E+03
        -0.37300E+03
        -0.37300E+03
        -0.37300E+03
        -0.37300E+03
        -0.37300E+03
        -0.37300E+03
        -0.37300E+03
        -0.37300E+03
        -0.37300E+03
        -0.37300E+03
        -0.37300E+03
        -0.37300E+03
        -0.37300E+03
        -0.37300E+03
        -0.37300E+03
        -0.37300E+03
        -0.37300E+03
        -0.37300E+03
        -0.37300E+03
        -0.37300E+03
        -0.37300E+03
        -0.37300E+03
        -0.37300E+03
        -0.37300E+03
        -0.37300E+03
        -0.37300E+03
        -0.37300E+03
        -0.37300E+03
        -0.37300E+03
        -0.37300E+03
        -0.37300E+03
        -0.37300E+03
        -0.37300E+03
        -0.37300E+03
        -0.37300E+03
        -0.37300E+03
        -0.37300E+03
        -0.37300E+03
        -0.37300E+03
        -0.37300E+03
        -0.37300E+03
        -0.37300E+03
        -0.37300E+03
        -0.37300E+03
        -0.37300E+03
        -0.37300E+03
        -0.37300E+03
        -0.37300E+03
        -0.37300E+03
        -0.37300E+03
        -0.37300E+03
        -0.37300E+03
        -0.37300E+03
        -0.37300E+03
        -0.37300E+03
        -0.37300E+03
        -0.37300E+03
        -0.37300E+03
        -0.37300E+03
        -0.37300E+03
        -0.37300E+03
        -0.37300E+03
        -0.37300E+03
        -0.37300E+03
        -0.37300E+03
        -0.37300E+03
        -0.37300E+03
        -0.37300E+03
        -0.37300E+03
        -0.37300E+03
        -0.37300E+03
        -0.37300E+03
        -0.37300E+03
        -0.37300E+03
        -0.37300E+03
        -0.37300E+03
        -0.37300E+03
        -0.37300E+03
        -0.37300E+03
        -0.37300E+03
        -0.37300E+03
        -0.37300E+03
        -0.37300E+03
        -0.37300E+03
        -0.37300E+03
        -0.37300E+03
        -0.37300E+03
        -0.37300E+03
        -0.37300E+03
        -0.37300E+03
        -0.37300E+03
        -0.37300E+03
        -0.37300E+03
        -0.37300E+03
        -0.37300E+03
        -0.37300E+03
        -0.37300E+03
        -0.37300E+03
        -0.37300E+03
        -0.37300E+03
        -0.37300E+03
        -0.37300E+03
        -0.37300E+03
        -0.37300E+03
        -0.37300E+03
        -0.37300E+03
        -0.37300E+03
        -0.37300E+03
        -0.37300E+03
        -0.37300E+03
        -0.37300E+03
        -0.37300E+03
        -0.37300E+03
        -0.37300E+03
        -0.37300E+03
        -0.37300E+03
        -0.37300E+03
        -0.37300E+03
        -0.37300E+03
        -0.37300E+03
        -0.37300E+03
        -0.37300E+03
        -0.37300E+03
        -0.37300E+03
        -0.37300E+03
        -0.37300E+03
        -0.37300E+03
        -0.37300E+03
        -0.37300E+03
        -0.37300E+03
        -0.37300E+03
        -0.37300E+03
        -0.37300E+03
        -0.37300E+03
        -0.37300E+03
        -0.37300E+03
        -0.37300E+03
        -0.37300E+03
        -0.37300E+03
        -0.37300E+03
        -0.37300E+03
        -0.37300E+03
        -0.37300E+03
        -0.37300E+03
        -0.37300E+03
        -0.37300E+03
        -0.37300E+03
        -0.37300E+03
        -0.37300E+03
        -0.37300E+03
        -0.37300E+03
        -0.37300E+03
        -0.37300E+03
        -0.37300E+03
        -0.37300E+03
        -0.37300E+03
        -0.37300E+03
        -0.37300E+03
        -0.37300E+03
        -0.37300E+03
        -0.37300E+03
        -0.37300E+03
        -0.37300E+03
        -0.37300E+03
        -0.37300E+03
        -0.37300E+03
        -0.37300E+03
        -0.37300E+03
        -0.37300E+03
        -0.37300E+03
        -0.37300E+03
        -0.37300E+03
        -0.37300E+03
        -0.37300E+03
        -0.37300E+03
        -0.37300E+03
        -0.37300E+03
        -0.37300E+03
        -0.37300E+03
        -0.37300E+03
        -0.37300E+03
        -0.37300E+03
        -0.37300E+03
        -0.37300E+03
        -0.37300E+03
        -0.37300E+03
        -0.37300E+03
        -0.37300E+03
        -0.37300E+03
        -0.37300E+03
        -0.37300E+03
        -0.37300E+03
        -0.37300E+03
        -0.37300E+03
        -0.37300E+03
        -0.37300E+03
        -0.37300E+03
        -0.37300E+03
        -0.37300E+03
        -0.37300E+03
        -0.37300E+03
        -0.37300E+03
        -0.37300E+03
        -0.37300E+03
        -0.37300E+03
        -0.37300E+03
        -0.37300E+03
        -0.37300E+03
        -0.37300E+03
        -0.37300E+03
        -0.37300E+03
        -0.37300E+03
        -0.37300E+03
        -0.37300E+03
        -0.37300E+03
        -0.37300E+03
        -0.37300E+03
        -0.37300E+03
        -0.37300E+03
        -0.37300E+03
        -0.37300E+03
        -0.37300E+03
        -0.37300E+03
        -0.37300E+03
        -0.37300E+03
        -0.37300E+03
        -0.37300E+03
        -0.37300E+03
        -0.37300E+03
        -0.37300E+03
        -0.37300E+03
        -0.37300E+03
        -0.37300E+03
        -0.37300E+03
        -0.37300E+03
        -0.37300E+03
        -0.37300E+03
        -0.37300E+03
        -0.37300E+03
        -0.37300E+03
        -0.37300E+03
        -0.37300E+03
        -0.37300E+03
        -0.37300E+03
        -0.37300E+03
        -0.37300E+03
        -0.37300E+03
        -0.37300E+03
        -0.37300E+03
        -0.37300E+03
        -0.37300E+03
        -0.37300E+03
        -0.37300E+03
        -0.37300E+03
        -0.37300E+03
        -0.37300E+03
        -0.37300E+03
        -0.37300E+03
        -0.37300E+03
        -0.37300E+03
        -0.37300E+03
        -0.37300E+03
        -0.37300E+03
        -0.37300E+03
        -0.37300E+03
        -0.37300E+03
        -0.37300E+03
        -0.37300E+03
        -0.37300E+03
        -0.37300E+03
        -0.37300E+03
        -0.37300E+03
        -0.37300E+03
        -0.37300E+03
        -0.37300E+03
        -0.37300E+03
        -0.37300E+03
        -0.37300E+03
        -0.37300E+03
        -0.37300E+03
        -0.37300E+03
        -0.37300E+03
        -0.37300E+03
        -0.37300E+03
        -0.37300E+03
        -0.37300E+03
        -0.37300E+03
        -0.37300E+03
        -0.37300E+03
        -0.37300E+03
        -0.37300E+03
        -0.37300E+03
        -0.37300E+03
        -0.37300E+03
        -0.37300E+03
        -0.37300E+03
        -0.37300E+03
        -0.37300E+03
        -0.37300E+03
        -0.37300E+03
        -0.37300E+03
        -0.37300E+03
        -0.37300E+03
        -0.37300E+03
        -0.37300E+03
        -0.37300E+03
        -0.37300E+03
        -0.37300E+03
        -0.37300E+03
        -0.37300E+03
        -0.37300E+03
        -0.37300E+03
        -0.37300E+03
        -0.37300E+03
        -0.37300E+03
        -0.37300E+03
        -0.37300E+03
        -0.37300E+03
        -0.37300E+03
        -0.37300E+03
        -0.37300E+03
        -0.37300E+03
        -0.37300E+03
        -0.37300E+03
        -0.37300E+03
        -0.37300E+03
        -0.37300E+03
        -0.37300E+03
        -0.37300E+03
        -0.37300E+03
        -0.37300E+03
        -0.37300E+03
        -0.37300E+03
        -0.37300E+03
        -0.37300E+03
        -0.37300E+03
        -0.37300E+03
        -0.37300E+03
        -0.37300E+03
        -0.37300E+03
        -0.37300E+03
        -0.37300E+03
        -0.37300E+03
        -0.37300E+03
        -0.37300E+03
        -0.37300E+03
        -0.37300E+03
        -0.37300E+03
        -0.37300E+03
        -0.37300E+03
        -0.37300E+03
        -0.37300E+03
        -0.37300E+03
        -0.37300E+03
        -0.37300E+03
        -0.37300E+03
        -0.37300E+03
        -0.37300E+03
        -0.37300E+03
        -0.37300E+03
        -0.37300E+03
        -0.37300E+03
        -0.37300E+03
        -0.37300E+03
        -0.37300E+03
        -0.37300E+03
        -0.37300E+03
        -0.37300E+03
        -0.37300E+03
        -0.37300E+03
        -0.37300E+03
        -0.37300E+03
        -0.37300E+03
        -0.37300E+03
        -0.37300E+03
        -0.37300E+03
        -0.37300E+03
        -0.37300E+03
        -0.37300E+03
        -0.37300E+03
        -0.37300E+03
        -0.37300E+03
        -0.37300E+03
        -0.37300E+03
        -0.37300E+03
        -0.37300E+03
        -0.37300E+03
        -0.37300E+03
        -0.37300E+03
        -0.37300E+03
        -0.37300E+03
        -0.37300E+03
        -0.37300E+03
        -0.37300E+03
        -0.37300E+03
        -0.37300E+03
        -0.37300E+03
        -0.37300E+03
        -0.37300E+03
        -0.37300E+03
        -0.37300E+03
        -0.37300E+03
        -0.37300E+03
        -0.37300E+03
        -0.37300E+03
        -0.37300E+03
        -0.37300E+03
        -0.37300E+03
        -0.37300E+03
        -0.37300E+03
        -0.37300E+03
        -0.37300E+03
        -0.37300E+03
        -0.37300E+03
        -0.37300E+03
        -0.37300E+03
        -0.37300E+03
        -0.37300E+03
        -0.37300E+03
        -0.37300E+03
        -0.37300E+03
        -0.37300E+03
        -0.37300E+03
        -0.37300E+03
        -0.37300E+03
        -0.37300E+03
        -0.37300E+03
        -0.37300E+03
        -0.37300E+03
        -0.37300E+03
        -0.37300E+03
        -0.37300E+03
        -0.37300E+03
        -0.37300E+03
        -0.37300E+03
        -0.37300E+03
        -0.37300E+03
        -0.37300E+03
        -0.37300E+03
        -0.37300E+03
        -0.37300E+03
        -0.37300E+03
        -0.37300E+03
        -0.37300E+03
        -0.37300E+03
        -0.37300E+03
        -0.37300E+03
        -0.37300E+03
        -0.37300E+03
        -0.37300E+03
        -0.37300E+03
        -0.37300E+03
        -0.37300E+03
        -0.37300E+03
        -0.37300E+03
        -0.37300E+03
        -0.37300E+03
        -0.37300E+03
        -0.37300E+03
        -0.37300E+03
        -0.37300E+03
        -0.37300E+03
        -0.37300E+03
        -0.37300E+03
        -0.37300E+03
        -0.37300E+03
        -0.37300E+03
        -0.37300E+03
        -0.37300E+03
        -0.37300E+03
        -0.37300E+03
        -0.37300E+03
        -0.37300E+03
        -0.37300E+03
        -0.37300E+03
        -0.37300E+03
        -0.37300E+03
        -0.37300E+03
        -0.37300E+03
        -0.37300E+03
        -0.37300E+03
        -0.37300E+03
        -0.37300E+03
        -0.37300E+03
        -0.37300E+03
        -0.37300E+03
        -0.37300E+03
        -0.37300E+03
        -0.37300E+03
        -0.37300E+03
        -0.37300E+03
        -0.37300E+03
        -0.37300E+03
        -0.37300E+03
        -0.37300E+03
        -0.37300E+03
        -0.37300E+03
        -0.37300E+03
        -0.37300E+03
        -0.37300E+03
        -0.37300E+03
        -0.37300E+03
        -0.37300E+03
        -0.37300E+03
        -0.37300E+03
        -0.37300E+03
        -0.37300E+03
        -0.37300E+03
        -0.37300E+03
        -0.37300E+03
        -0.37300E+03
        -0.37300E+03
        -0.37300E+03
        -0.37300E+03
        -0.37300E+03
        -0.37300E+03
        -0.37300E+03
        -0.37300E+03
        -0.37300E+03
        -0.37300E+03
        -0.37300E+03
        -0.37300E+03
        -0.37300E+03
        -0.37300E+03
        -0.37300E+03
        -0.37300E+03
        -0.37300E+03
        -0.37300E+03
        -0.37300E+03
        -0.37300E+03
        -0.37300E+03
        -0.37300E+03
        -0.37300E+03
        -0.37300E+03
        -0.37300E+03
        -0.37300E+03
        -0.37300E+03
        -0.37300E+03
        -0.37300E+03
        -0.37300E+03
        -0.37300E+03
        -0.37300E+03
        -0.37300E+03
        -0.37300E+03
        -0.37300E+03
        -0.37300E+03
        -0.37300E+03
        -0.37300E+03
        -0.37300E+03
        -0.37300E+03
        -0.37300E+03
        -0.37300E+03
        -0.37300E+03
        -0.37300E+03
        -0.37300E+03
        -0.37300E+03
        -0.37300E+03
        -0.37300E+03
        -0.37300E+03
        -0.37300E+03
        -0.37300E+03
        -0.37300E+03
        -0.37300E+03
        -0.37300E+03
        -0.37300E+03
        -0.37300E+03
        -0.37300E+03
        -0.37300E+03
        -0.37300E+03
        -0.37300E+03
        -0.37300E+03
        -0.37300E+03
        -0.37300E+03
        -0.37300E+03
        -0.37300E+03
        -0.37300E+03
        -0.37300E+03
        -0.37300E+03
        -0.37300E+03
        -0.37300E+03
        -0.37300E+03
        -0.37300E+03
        -0.37300E+03
        -0.37300E+03
        -0.37300E+03
        -0.37300E+03
        -0.37300E+03
        -0.37300E+03
        -0.37300E+03
        -0.37300E+03
        -0.37300E+03
        -0.37300E+03
        -0.37300E+03
        -0.37300E+03
        -0.37300E+03
        -0.37300E+03
        -0.37300E+03
        -0.37300E+03
        -0.37300E+03
        -0.37300E+03
        -0.37300E+03
        -0.37300E+03
        -0.37300E+03
        -0.37300E+03
        -0.37300E+03
        -0.37300E+03
        -0.37300E+03
        -0.37300E+03
        -0.37300E+03
        -0.37300E+03
        -0.37300E+03
        -0.37300E+03
        -0.37300E+03
        -0.37300E+03
        -0.37300E+03
        -0.37300E+03
        -0.37300E+03
        -0.37300E+03
        -0.37300E+03
        -0.37300E+03
        -0.37300E+03
        -0.37300E+03
        -0.37300E+03
        -0.37300E+03
        -0.37300E+03
        -0.37300E+03
        -0.37300E+03
        -0.37300E+03
        -0.37300E+03
        -0.37300E+03
        -0.37300E+03
        -0.37300E+03
        -0.37300E+03
        -0.37300E+03
        -0.37300E+03
        -0.37300E+03
        -0.37300E+03
        -0.37300E+03
        -0.37300E+03
        -0.37300E+03
        -0.37300E+03
        -0.37300E+03
        -0.37300E+03
        -0.37300E+03
        -0.37300E+03
        -0.37300E+03
        -0.37300E+03
        -0.37300E+03
        -0.37300E+03
        -0.37300E+03
        -0.37300E+03
        -0.37300E+03
        -0.37300E+03
        -0.37300E+03
        -0.37300E+03
        -0.37300E+03
        -0.37300E+03
        -0.37300E+03
        -0.37300E+03
        -0.37300E+03
        -0.37300E+03
        -0.37300E+03
        -0.37300E+03
        -0.37300E+03
        -0.37300E+03
        -0.37300E+03
        -0.37300E+03
        -0.37300E+03
        -0.37300E+03
        -0.37300E+03
        -0.37300E+03
        -0.37300E+03
        -0.37300E+03
        -0.37300E+03
        -0.37300E+03
        -0.37300E+03
        -0.37300E+03
        -0.37300E+03
        -0.37300E+03
        -0.37300E+03
        -0.37300E+03
        -0.37300E+03
        -0.37300E+03
        -0.37300E+03
        -0.37300E+03
        -0.37300E+03
        -0.37300E+03
        -0.37300E+03
        -0.37300E+03
        -0.37300E+03
        -0.37300E+03
        -0.37300E+03
        -0.37300E+03
        -0.37300E+03
        -0.37300E+03
        -0.37300E+03
        -0.37300E+03
        -0.37300E+03
        -0.37300E+03
        -0.37300E+03
        -0.37300E+03
        -0.37300E+03
        -0.37300E+03
        -0.37300E+03
        -0.37300E+03
        -0.37300E+03
        -0.37300E+03
        -0.37300E+03
        -0.37300E+03
        -0.37300E+03
        -0.37300E+03
        -0.37300E+03
        -0.37300E+03
        -0.37300E+03
        -0.37300E+03
        -0.37300E+03
        -0.37300E+03
        -0.37300E+03
        -0.37300E+03
        -0.37300E+03
        -0.37300E+03
        -0.37300E+03
        -0.37300E+03
        -0.37300E+03
        -0.37300E+03
        -0.37300E+03
        -0.37300E+03
        -0.37300E+03
        -0.37300E+03
        -0.37300E+03
        -0.37300E+03
        -0.37300E+03
        -0.37300E+03
        -0.37300E+03
        -0.37300E+03
        -0.37300E+03
        -0.37300E+03
        -0.37300E+03
        -0.37300E+03
        -0.37300E+03
        -0.37300E+03
        -0.37300E+03
        -0.37300E+03
        -0.37300E+03
        -0.37300E+03
        -0.37300E+03
        -0.37300E+03
        -0.37300E+03
        -0.37300E+03
        -0.37300E+03
        -0.37300E+03
        -0.37300E+03
        -0.37300E+03
        -0.37300E+03
        -0.37300E+03
        -0.37300E+03
        -0.37300E+03
        -0.37300E+03
        -0.37300E+03
        -0.37300E+03
        -0.37300E+03
        -0.37300E+03
        -0.37300E+03
        -0.37300E+03
        -0.37300E+03
        -0.37300E+03
        -0.37300E+03
        -0.37300E+03
        -0.37300E+03
        -0.37300E+03
        -0.37300E+03
        -0.37300E+03
        -0.37300E+03
        -0.37300E+03
        -0.37300E+03
        -0.37300E+03
        -0.37300E+03
        -0.37300E+03
        -0.37300E+03
        -0.37300E+03
        -0.37300E+03
        -0.37300E+03
        -0.37300E+03
        -0.37300E+03
        -0.37300E+03
        -0.37300E+03
        -0.37300E+03
        -0.37300E+03
        -0.37300E+03
        -0.37300E+03
        -0.37300E+03
        -0.37300E+03
        -0.37300E+03
        -0.37300E+03
        -0.37300E+03
        -0.37300E+03
        -0.37300E+03
        -0.37300E+03
        -0.37300E+03
        -0.37300E+03
        -0.37300E+03
        -0.37300E+03
        -0.37300E+03
        -0.37300E+03
        -0.37300E+03
        -0.37300E+03
        -0.37300E+03
        -0.37300E+03
        -0.37300E+03
        -0.37300E+03
        -0.37300E+03
        -0.37300E+03
        -0.37300E+03
        -0.37300E+03
        -0.37300E+03
        -0.37300E+03
        -0.37300E+03
        -0.37300E+03
        -0.37300E+03
        -0.37300E+03
        -0.37300E+03
        -0.37300E+03
        -0.37300E+03
        -0.37300E+03
        -0.37300E+03
        -0.37300E+03
        -0.37300E+03
        -0.37300E+03
        -0.37300E+03
        -0.37300E+03
        -0.37300E+03
        -0.37300E+03
        -0.37300E+03
        -0.37300E+03
        -0.37300E+03
        -0.37300E+03
        -0.37300E+03
        -0.37300E+03
        -0.37300E+03
        -0.37300E+03
        -0.37300E+03
        -0.37300E+03
        -0.37300E+03
        -0.37300E+03
        -0.37300E+03
        -0.37300E+03
        -0.37300E+03
        -0.37300E+03
        -0.37300E+03
        -0.37300E+03
        -0.37300E+03
        -0.37300E+03
        -0.37300E+03
        -0.37300E+03
        -0.37300E+03
        -0.37300E+03
        -0.37300E+03
        -0.37300E+03
        -0.37300E+03
        -0.37300E+03
        -0.37300E+03
        -0.37300E+03
        -0.37300E+03
        -0.37300E+03
        -0.37300E+03
        -0.37300E+03
        -0.37300E+03
        -0.37300E+03
        -0.37300E+03
        -0.37300E+03
        -0.37300E+03
        -0.37300E+03
        -0.37300E+03
        -0.37300E+03
        -0.37300E+03
        -0.37300E+03
        -0.37300E+03
        -0.37300E+03
        -0.37300E+03
        -0.37300E+03
        -0.37300E+03
        -0.37300E+03
        -0.37300E+03
        -0.37300E+03
        -0.37300E+03
        -0.37300E+03
        -0.37300E+03
        -0.37300E+03
        -0.37300E+03
        -0.37300E+03
        -0.37300E+03
        -0.37300E+03
        -0.37300E+03
        -0.37300E+03
        -0.37300E+03
        -0.37300E+03
        -0.37300E+03
        -0.37300E+03
        -0.37300E+03
        -0.37300E+03
        -0.37300E+03
        -0.37300E+03
        -0.37300E+03
        -0.37300E+03
        -0.37300E+03
        -0.37300E+03
        -0.37300E+03
        -0.37300E+03
        -0.37300E+03
        -0.37300E+03
        -0.37300E+03
        -0.37300E+03
        -0.37300E+03
        -0.37300E+03
        -0.37300E+03
        -0.37300E+03
        -0.37300E+03
        -0.37300E+03
        -0.37300E+03
        -0.37300E+03
        -0.37300E+03
        -0.37300E+03
        -0.37300E+03
        -0.37300E+03
        -0.37300E+03
        -0.37300E+03
        -0.37300E+03
        -0.37300E+03
        -0.37300E+03
        -0.37300E+03
        -0.37300E+03
        -0.37300E+03
        -0.37300E+03
        -0.37300E+03
        -0.37300E+03
        -0.37300E+03
        -0.37300E+03
        -0.37300E+03
        -0.37300E+03
        -0.37300E+03
        -0.37300E+03
        -0.37300E+03
        -0.37300E+03
        -0.37300E+03
        -0.37300E+03
        -0.37300E+03
        -0.37300E+03
        -0.37300E+03
        -0.37300E+03
        -0.37300E+03
        -0.37300E+03
        -0.37300E+03
        -0.37300E+03
        -0.37300E+03
        -0.37300E+03
        -0.37300E+03
        -0.37300E+03
        -0.37300E+03
        -0.37300E+03
        -0.37300E+03
        -0.37300E+03
        -0.37300E+03
        -0.37300E+03
        -0.37300E+03
        -0.37300E+03
        -0.37300E+03
        -0.37300E+03
        -0.37300E+03
        -0.37300E+03
        -0.37300E+03
        -0.37300E+03
        -0.37300E+03
        -0.37300E+03
        -0.37300E+03
        -0.37300E+03
        -0.37300E+03
        -0.37300E+03
        -0.37300E+03
        -0.37300E+03
        -0.37300E+03
        -0.37300E+03
        -0.37300E+03
        -0.37300E+03
        -0.37300E+03
        -0.37300E+03
        -0.37300E+03
        -0.37300E+03
        -0.37300E+03
        -0.37300E+03
        -0.37300E+03
        -0.37300E+03
        -0.37300E+03
        -0.37300E+03
        -0.37300E+03
        -0.37300E+03
        -0.37300E+03
        -0.37300E+03
        -0.37300E+03
        -0.37300E+03
        -0.37300E+03
        -0.37300E+03
        -0.37300E+03
        -0.37300E+03
        -0.37300E+03
        -0.37300E+03
        -0.37300E+03
        -0.37300E+03
        -0.37300E+03
        -0.37300E+03
        -0.37300E+03
        -0.37300E+03
        -0.37300E+03
        -0.37300E+03
        -0.37300E+03
        -0.37300E+03
        -0.37300E+03
        -0.37300E+03
        -0.37300E+03
        -0.37300E+03
        -0.37300E+03
        -0.37300E+03
        -0.37300E+03
        -0.37300E+03
        -0.37300E+03
        -0.37300E+03
        -0.37300E+03
        -0.37300E+03
        -0.37300E+03
        -0.37300E+03
        -0.37300E+03
        -0.37300E+03
        -0.37300E+03
        -0.37300E+03
        -0.37300E+03
        -0.37300E+03
        -0.37300E+03
        -0.37300E+03
        -0.37300E+03
        -0.37300E+03
        -0.37300E+03
        -0.37300E+03
        -0.37300E+03
        -0.37300E+03
        -0.37300E+03
        -0.37300E+03
        -0.37300E+03
        -0.37300E+03
        -0.37300E+03
        -0.37300E+03
        -0.37300E+03
        -0.37300E+03
        -0.37300E+03
        -0.37300E+03
        -0.37300E+03
        -0.37300E+03
        -0.37300E+03
        -0.37300E+03
        -0.37300E+03
        -0.37300E+03
        -0.37300E+03
        -0.37300E+03
        -0.37300E+03
        -0.37300E+03
        -0.37300E+03
        -0.37300E+03
        -0.37300E+03
        -0.37300E+03
        -0.37300E+03
        -0.37300E+03
        -0.37300E+03
        -0.37300E+03
        -0.37300E+03
        -0.37300E+03
        -0.37300E+03
        -0.37300E+03
        -0.37300E+03
        -0.37300E+03
        -0.37300E+03
        -0.37300E+03
        -0.37300E+03
        -0.37300E+03
        -0.37300E+03
        -0.37300E+03
        -0.37300E+03
        -0.37300E+03
        -0.37300E+03
        -0.37300E+03
        -0.37300E+03
        -0.37300E+03
        -0.37300E+03
        -0.37300E+03
        -0.37300E+03
        -0.37300E+03
        -0.37300E+03
        -0.37300E+03
        -0.37300E+03
        -0.37300E+03
        -0.37300E+03
        -0.37300E+03
        -0.37300E+03
        -0.37300E+03
        -0.37300E+03
        -0.37300E+03
        -0.37300E+03
        -0.37300E+03
        -0.37300E+03
        -0.37300E+03
        -0.37300E+03
        -0.37300E+03
        -0.37300E+03
        -0.37300E+03
        -0.37300E+03
        -0.37300E+03
        -0.37300E+03
        -0.37300E+03
        -0.37300E+03
        -0.37300E+03
        -0.37300E+03
        -0.37300E+03
        -0.37300E+03
        -0.37300E+03
        -0.37300E+03
        -0.37300E+03
        -0.37300E+03
        -0.37300E+03
        -0.37300E+03
        -0.37300E+03
        -0.37300E+03
        -0.37300E+03
        -0.37300E+03
        -0.37300E+03
        -0.37300E+03
        -0.37300E+03
        -0.37300E+03
        -0.37300E+03
        -0.37300E+03
        -0.37300E+03
        -0.37300E+03
        -0.37300E+03
        -0.37300E+03
        -0.37300E+03
        -0.37300E+03
        -0.37300E+03
        -0.37300E+03
        -0.37300E+03
        -0.37300E+03
        -0.37300E+03
        -0.37300E+03
        -0.37300E+03
        -0.37300E+03
        -0.37300E+03
        -0.37300E+03
        -0.37300E+03
        -0.37300E+03
        -0.37300E+03
        -0.37300E+03
        -0.37300E+03
        -0.37300E+03
        -0.37300E+03
        -0.37300E+03
        -0.37300E+03
        -0.37300E+03
        -0.37300E+03
        -0.37300E+03
        -0.37300E+03
        -0.37300E+03
        -0.37300E+03
        -0.37300E+03
        -0.37300E+03
        -0.37300E+03
        -0.37300E+03
        -0.37300E+03
        -0.37300E+03
        -0.37300E+03
        -0.37300E+03
        -0.37300E+03
        -0.37300E+03
        -0.37300E+03
        -0.37300E+03
        -0.37300E+03
        -0.37300E+03
        -0.37300E+03
        -0.37300E+03
        -0.37300E+03
        -0.37300E+03
        -0.37300E+03
        -0.37300E+03
        -0.37300E+03
        -0.37300E+03
        -0.37300E+03
        -0.37300E+03
        -0.37300E+03
        -0.37300E+03
        -0.37300E+03
        -0.37300E+03
        -0.37300E+03
        -0.37300E+03
        -0.37300E+03
        -0.37300E+03
        -0.37300E+03
        -0.37300E+03
        -0.37300E+03
        -0.37300E+03
        -0.37300E+03
        -0.37300E+03
        -0.37300E+03
        -0.37300E+03
        -0.37300E+03
        -0.37300E+03
        -0.37300E+03
        -0.37300E+03
        -0.37300E+03
        -0.37300E+03
        -0.37300E+03
        -0.37300E+03
        -0.37300E+03
        -0.37300E+03
        -0.37300E+03
        -0.37300E+03
        -0.37300E+03
        -0.37300E+03
        -0.37300E+03
        -0.37300E+03
        -0.37300E+03
        -0.37300E+03
        -0.37300E+03
        -0.37300E+03
        -0.37300E+03
        -0.37300E+03
        -0.37300E+03
        -0.37300E+03
        -0.37300E+03
        -0.37300E+03
        -0.37300E+03
        -0.37300E+03
        -0.37300E+03
        -0.37300E+03
        -0.37300E+03
        -0.37300E+03
        -0.37300E+03
        -0.37300E+03
        -0.37300E+03
        -0.37300E+03
        -0.37300E+03
        -0.37300E+03
        -0.37300E+03
        -0.37300E+03
        -0.37300E+03
        -0.37300E+03
        -0.37300E+03
        -0.37300E+03
        -0.37300E+03
        -0.37300E+03
        -0.37300E+03
        -0.37300E+03
        -0.37300E+03
        -0.37300E+03
        -0.37300E+03
        -0.37300E+03
        -0.37300E+03
        -0.37300E+03
        -0.37300E+03
        -0.37300E+03
        -0.37300E+03
        -0.37300E+03
        -0.37300E+03
        -0.37300E+03
        -0.37300E+03
        -0.37300E+03
        -0.37300E+03
        -0.37300E+03
        -0.37300E+03
        -0.37300E+03
        -0.37300E+03
        -0.37300E+03
        -0.37300E+03
        -0.37300E+03
        -0.37300E+03
        -0.37300E+03
        -0.37300E+03
        -0.37300E+03
        -0.37300E+03
        -0.37300E+03
        -0.37300E+03
        -0.37300E+03
        -0.37300E+03
        -0.37300E+03
        -0.37300E+03
        -0.37300E+03
        -0.37300E+03
        -0.37300E+03
        -0.37300E+03
        -0.37300E+03
        -0.37300E+03
        -0.37300E+03
        -0.37300E+03
        -0.37300E+03
        -0.37300E+03
        -0.37300E+03
        -0.37300E+03
        -0.37300E+03
        -0.37300E+03
        -0.37300E+03
        -0.37300E+03
        -0.37300E+03
        -0.37300E+03
        -0.37300E+03
        -0.37300E+03
        -0.37300E+03
        -0.37300E+03
        -0.37300E+03
        -0.37300E+03
        -0.37300E+03
        -0.37300E+03
        -0.37300E+03
        -0.37300E+03
        -0.37300E+03
        -0.37300E+03
        -0.37300E+03
        -0.37300E+03
        -0.37300E+03
        -0.37300E+03
        -0.37300E+03
        -0.37300E+03
        -0.37300E+03
        -0.37300E+03
        -0.37300E+03
        -0.37300E+03
        -0.37300E+03
        -0.37300E+03
        -0.37300E+03
        -0.37300E+03
        -0.37300E+03
        -0.37300E+03
        -0.37300E+03
        -0.37300E+03
        -0.37300E+03
        -0.37300E+03
        -0.37300E+03
        -0.37300E+03
        -0.37300E+03
        -0.37300E+03
        -0.37300E+03
        -0.37300E+03
        -0.37300E+03
        -0.37300E+03
        -0.37300E+03
        -0.37300E+03
        -0.37300E+03
        -0.37300E+03
        -0.37300E+03
        -0.37300E+03
        -0.37300E+03
        -0.37300E+03
        -0.37300E+03
        -0.37300E+03
        -0.37300E+03
        -0.37300E+03
        -0.37300E+03
        -0.37300E+03
        -0.37300E+03
        -0.37300E+03
        -0.37300E+03
        -0.37300E+03
        -0.37300E+03
        -0.37300E+03
        -0.37300E+03
        -0.37300E+03
        -0.37300E+03
        -0.37300E+03
        -0.37300E+03
        -0.37300E+03
        -0.37300E+03
        -0.37300E+03
        -0.37300E+03
        -0.37300E+03
        -0.37300E+03
        -0.37300E+03
        -0.37300E+03
        -0.37300E+03
        -0.37300E+03
        -0.37300E+03
        -0.37300E+03
        -0.37300E+03
        -0.37300E+03
        -0.37300E+03
        -0.37300E+03
        -0.37300E+03
        -0.37300E+03
        -0.37300E+03
        -0.37300E+03
        -0.37300E+03
        -0.37300E+03
        -0.37300E+03
        -0.37300E+03
        -0.37300E+03
        -0.37300E+03
        -0.37300E+03
        -0.37300E+03
        -0.37300E+03
        -0.37300E+03
        -0.37300E+03
        -0.37300E+03
        -0.37300E+03
        -0.37300E+03
        -0.37300E+03
        -0.37300E+03
        -0.37300E+03
        -0.37300E+03
        -0.37300E+03
        -0.37300E+03
        -0.37300E+03
        -0.37300E+03
        -0.37300E+03
        -0.37300E+03
        -0.37300E+03
        -0.37300E+03
        -0.37300E+03
        -0.37300E+03
        -0.37300E+03
        -0.37300E+03
        -0.37300E+03
        -0.37300E+03
        -0.37300E+03
        -0.37300E+03
        -0.37300E+03
        -0.37300E+03
        -0.37300E+03
        -0.37300E+03
        -0.37300E+03
        -0.37300E+03
        -0.37300E+03
        -0.37300E+03
        -0.37300E+03
        -0.37300E+03
        -0.37300E+03
        -0.37300E+03
        -0.37300E+03
        -0.37300E+03
        -0.37300E+03
        -0.37300E+03
        -0.37300E+03
        -0.37300E+03
        -0.37300E+03
        -0.37300E+03
        -0.37300E+03
        -0.37300E+03
        -0.37300E+03
        -0.37300E+03
        -0.37300E+03
        -0.37300E+03
        -0.37300E+03
        -0.37300E+03
        -0.37300E+03
        -0.37300E+03
        -0.37300E+03
        -0.37300E+03
        -0.37300E+03
        -0.37300E+03
        -0.37300E+03
        -0.37300E+03
        -0.37300E+03
        -0.37300E+03
        -0.37300E+03
        -0.37300E+03
        -0.37300E+03
        -0.37300E+03
        -0.37300E+03
        -0.37300E+03
        -0.37300E+03
        -0.37300E+03
        -0.37300E+03
        -0.37300E+03
        -0.37300E+03
        -0.37300E+03
        -0.37300E+03
        -0.37300E+03
        -0.37300E+03
        -0.37300E+03
        -0.37300E+03
        -0.37300E+03
        -0.37300E+03
        -0.37300E+03
        -0.37300E+03
        -0.37300E+03
        -0.37300E+03
        -0.37300E+03
        -0.37300E+03
        -0.37300E+03
        -0.37300E+03
        -0.37300E+03
        -0.37300E+03
        -0.37300E+03
        -0.37300E+03
        -0.37300E+03
        -0.37300E+03
        -0.37300E+03
        -0.37300E+03
        -0.37300E+03
        -0.37300E+03
        -0.37300E+03
        -0.37300E+03
        -0.37300E+03
        -0.37300E+03
        -0.37300E+03
        -0.37300E+03
        -0.37300E+03
        -0.37300E+03
        -0.37300E+03
        -0.37300E+03
        -0.37300E+03
        -0.37300E+03
        -0.37300E+03
        -0.37300E+03
        -0.37300E+03
        -0.37300E+03
        -0.37300E+03
        -0.37300E+03
        -0.37300E+03
        -0.37300E+03
        -0.37300E+03
        -0.37300E+03
        -0.37300E+03
        -0.37300E+03
        -0.37300E+03
        -0.37300E+03
        -0.37300E+03
        -0.37300E+03
        -0.37300E+03
        -0.37300E+03
        -0.37300E+03
        -0.37300E+03
        -0.37300E+03
        -0.37300E+03
        -0.37300E+03
        -0.37300E+03
        -0.37300E+03
        -0.37300E+03
        -0.37300E+03
        -0.37300E+03
        -0.37300E+03
        -0.37300E+03
        -0.37300E+03
        -0.37300E+03
        -0.37300E+03
        -0.37300E+03
        -0.37300E+03
        -0.37300E+03
        -0.37300E+03
        -0.37300E+03
        -0.37300E+03
        -0.37300E+03
        -0.37300E+03
        -0.37300E+03
        -0.37300E+03
        -0.37300E+03
        -0.37300E+03
        -0.37300E+03
        -0.37300E+03
        -0.37300E+03
        -0.37300E+03
        -0.37300E+03
        -0.37300E+03
        -0.37300E+03
        -0.37300E+03
        -0.37300E+03
        -0.37300E+03
        -0.37300E+03
        -0.37300E+03
        -0.37300E+03
        -0.37300E+03
        -0.37300E+03
        -0.37300E+03
        -0.37300E+03
        -0.37300E+03
        -0.37300E+03
        -0.37300E+03
        -0.37300E+03
        -0.37300E+03
        -0.37300E+03
        -0.37300E+03
        -0.37300E+03
        -0.37300E+03
        -0.37300E+03
        -0.37300E+03
        -0.37300E+03
        -0.37300E+03
        -0.37300E+03
        -0.37300E+03
        -0.37300E+03
        -0.37300E+03
        -0.37300E+03
        -0.37300E+03
        -0.37300E+03
        -0.37300E+03
        -0.37300E+03
        -0.37300E+03
        -0.37300E+03
        -0.37300E+03
        -0.37300E+03
        -0.37300E+03
        -0.37300E+03
        -0.37300E+03
        -0.37300E+03
        -0.37300E+03
        -0.37300E+03
        -0.37300E+03
        -0.37300E+03
        -0.37300E+03
        -0.37300E+03
        -0.37300E+03
        -0.37300E+03
        -0.37300E+03
        -0.37300E+03
        -0.37300E+03
        -0.37300E+03
        -0.37300E+03
        -0.37300E+03
        -0.37300E+03
        -0.37300E+03
        -0.37300E+03
        -0.37300E+03
        -0.37300E+03
        -0.37300E+03
        -0.37300E+03
        -0.37300E+03
        -0.37300E+03
        -0.37300E+03
        -0.37300E+03
        -0.37300E+03
        -0.37300E+03
        -0.37300E+03
        -0.37300E+03
        -0.37300E+03
        -0.37300E+03
        -0.37300E+03
        -0.37300E+03
        -0.37300E+03
        -0.37300E+03
        -0.37300E+03
        -0.37300E+03
        -0.37300E+03
        -0.37300E+03
        -0.37300E+03
        -0.37300E+03
        -0.37300E+03
        -0.37300E+03
        -0.37300E+03
        -0.37300E+03
        -0.37300E+03
        -0.37300E+03
        -0.37300E+03
        -0.37300E+03
        -0.37300E+03
        -0.37300E+03
        -0.37300E+03
        -0.37300E+03
        -0.37300E+03
        -0.37300E+03
        -0.37300E+03
        -0.37300E+03
        -0.37300E+03
        -0.37300E+03
        -0.37300E+03
        -0.37300E+03
        -0.37300E+03
        -0.37300E+03
        -0.37300E+03
        -0.37300E+03
        -0.37300E+03
        -0.37300E+03
        -0.37300E+03
        -0.37300E+03
        -0.37300E+03
        -0.37300E+03
        -0.37300E+03
        -0.37300E+03
        -0.37300E+03
        -0.37300E+03
        -0.37300E+03
        -0.37300E+03
        -0.37300E+03
        -0.37300E+03
        -0.37300E+03
        -0.37300E+03
        -0.37300E+03
        -0.37300E+03
        -0.37300E+03
        -0.37300E+03
        -0.37300E+03
        -0.37300E+03
        -0.37300E+03
  
SCALARS                 acceleration_x  double 1
LOOKUP_TABLE default
         0.00000E+00
         0.00000E+00
         0.00000E+00
         0.00000E+00
         0.00000E+00
         0.00000E+00
         0.00000E+00
         0.00000E+00
         0.00000E+00
         0.00000E+00
         0.00000E+00
         0.00000E+00
         0.00000E+00
         0.00000E+00
         0.00000E+00
         0.00000E+00
         0.00000E+00
         0.00000E+00
         0.00000E+00
         0.00000E+00
         0.00000E+00
         0.00000E+00
         0.00000E+00
         0.00000E+00
         0.00000E+00
         0.00000E+00
         0.00000E+00
         0.00000E+00
         0.00000E+00
         0.00000E+00
         0.00000E+00
         0.00000E+00
         0.00000E+00
         0.00000E+00
         0.00000E+00
         0.00000E+00
         0.00000E+00
         0.00000E+00
         0.00000E+00
         0.00000E+00
         0.00000E+00
         0.00000E+00
         0.00000E+00
         0.00000E+00
         0.00000E+00
         0.00000E+00
         0.00000E+00
         0.00000E+00
         0.00000E+00
         0.00000E+00
         0.00000E+00
         0.00000E+00
         0.00000E+00
         0.00000E+00
         0.00000E+00
         0.00000E+00
         0.00000E+00
         0.00000E+00
         0.00000E+00
         0.00000E+00
         0.00000E+00
         0.00000E+00
         0.00000E+00
         0.00000E+00
         0.00000E+00
         0.00000E+00
         0.00000E+00
         0.00000E+00
         0.00000E+00
         0.00000E+00
         0.00000E+00
         0.00000E+00
         0.00000E+00
         0.00000E+00
         0.00000E+00
         0.00000E+00
         0.00000E+00
         0.00000E+00
         0.00000E+00
         0.00000E+00
         0.00000E+00
         0.00000E+00
         0.00000E+00
         0.00000E+00
         0.00000E+00
         0.00000E+00
         0.00000E+00
         0.00000E+00
         0.00000E+00
         0.00000E+00
         0.00000E+00
         0.00000E+00
         0.00000E+00
         0.00000E+00
         0.00000E+00
         0.00000E+00
         0.00000E+00
         0.00000E+00
         0.00000E+00
         0.00000E+00
         0.00000E+00
         0.00000E+00
         0.00000E+00
         0.00000E+00
         0.00000E+00
         0.00000E+00
         0.00000E+00
         0.00000E+00
         0.00000E+00
         0.00000E+00
         0.00000E+00
         0.00000E+00
         0.00000E+00
         0.00000E+00
         0.00000E+00
         0.00000E+00
         0.00000E+00
         0.00000E+00
         0.00000E+00
         0.00000E+00
         0.00000E+00
         0.00000E+00
         0.00000E+00
         0.00000E+00
         0.00000E+00
         0.00000E+00
         0.00000E+00
         0.00000E+00
         0.00000E+00
         0.00000E+00
         0.00000E+00
         0.00000E+00
         0.00000E+00
         0.00000E+00
         0.00000E+00
         0.00000E+00
         0.00000E+00
         0.00000E+00
         0.00000E+00
         0.00000E+00
         0.00000E+00
         0.00000E+00
         0.00000E+00
         0.00000E+00
         0.00000E+00
         0.00000E+00
         0.00000E+00
         0.00000E+00
         0.00000E+00
         0.00000E+00
         0.00000E+00
         0.00000E+00
         0.00000E+00
         0.00000E+00
         0.00000E+00
         0.00000E+00
         0.00000E+00
         0.00000E+00
         0.00000E+00
         0.00000E+00
         0.00000E+00
         0.00000E+00
         0.00000E+00
         0.00000E+00
         0.00000E+00
         0.00000E+00
         0.00000E+00
         0.00000E+00
         0.00000E+00
         0.00000E+00
         0.00000E+00
         0.00000E+00
         0.00000E+00
         0.00000E+00
         0.00000E+00
         0.00000E+00
         0.00000E+00
         0.00000E+00
         0.00000E+00
         0.00000E+00
         0.00000E+00
         0.00000E+00
         0.00000E+00
         0.00000E+00
         0.00000E+00
         0.00000E+00
         0.00000E+00
         0.00000E+00
         0.00000E+00
         0.00000E+00
         0.00000E+00
         0.00000E+00
         0.00000E+00
         0.00000E+00
         0.00000E+00
         0.00000E+00
         0.00000E+00
         0.00000E+00
         0.00000E+00
         0.00000E+00
         0.00000E+00
         0.00000E+00
         0.00000E+00
         0.00000E+00
         0.00000E+00
         0.00000E+00
         0.00000E+00
         0.00000E+00
         0.00000E+00
         0.00000E+00
         0.00000E+00
         0.00000E+00
         0.00000E+00
         0.00000E+00
         0.00000E+00
         0.00000E+00
         0.00000E+00
         0.00000E+00
         0.00000E+00
         0.00000E+00
         0.00000E+00
         0.00000E+00
         0.00000E+00
         0.00000E+00
         0.00000E+00
         0.00000E+00
         0.00000E+00
         0.00000E+00
         0.00000E+00
         0.00000E+00
         0.00000E+00
         0.00000E+00
         0.00000E+00
         0.00000E+00
         0.00000E+00
         0.00000E+00
         0.00000E+00
         0.00000E+00
         0.00000E+00
         0.00000E+00
         0.00000E+00
         0.00000E+00
         0.00000E+00
         0.00000E+00
         0.00000E+00
         0.00000E+00
         0.00000E+00
         0.00000E+00
         0.00000E+00
         0.00000E+00
         0.00000E+00
         0.00000E+00
         0.00000E+00
         0.00000E+00
         0.00000E+00
         0.00000E+00
         0.00000E+00
         0.00000E+00
         0.00000E+00
         0.00000E+00
         0.00000E+00
         0.00000E+00
         0.00000E+00
         0.00000E+00
         0.00000E+00
         0.00000E+00
         0.00000E+00
         0.00000E+00
         0.00000E+00
         0.00000E+00
         0.00000E+00
         0.00000E+00
         0.00000E+00
         0.00000E+00
         0.00000E+00
         0.00000E+00
         0.00000E+00
         0.00000E+00
         0.00000E+00
         0.00000E+00
         0.00000E+00
         0.00000E+00
         0.00000E+00
         0.00000E+00
         0.00000E+00
         0.00000E+00
         0.00000E+00
         0.00000E+00
         0.00000E+00
         0.00000E+00
         0.00000E+00
         0.00000E+00
         0.00000E+00
         0.00000E+00
         0.00000E+00
         0.00000E+00
         0.00000E+00
         0.00000E+00
         0.00000E+00
         0.00000E+00
         0.00000E+00
         0.00000E+00
         0.00000E+00
         0.00000E+00
         0.00000E+00
         0.00000E+00
         0.00000E+00
         0.00000E+00
         0.00000E+00
         0.00000E+00
         0.00000E+00
         0.00000E+00
         0.00000E+00
         0.00000E+00
         0.00000E+00
         0.00000E+00
         0.00000E+00
         0.00000E+00
         0.00000E+00
         0.00000E+00
         0.00000E+00
         0.00000E+00
         0.00000E+00
         0.00000E+00
         0.00000E+00
         0.00000E+00
         0.00000E+00
         0.00000E+00
         0.00000E+00
         0.00000E+00
         0.00000E+00
         0.00000E+00
         0.00000E+00
         0.00000E+00
         0.00000E+00
         0.00000E+00
         0.00000E+00
         0.00000E+00
         0.00000E+00
         0.00000E+00
         0.00000E+00
         0.00000E+00
         0.00000E+00
         0.00000E+00
         0.00000E+00
         0.00000E+00
         0.00000E+00
         0.00000E+00
         0.00000E+00
         0.00000E+00
         0.00000E+00
         0.00000E+00
         0.00000E+00
         0.00000E+00
         0.00000E+00
         0.00000E+00
         0.00000E+00
         0.00000E+00
         0.00000E+00
         0.00000E+00
         0.00000E+00
         0.00000E+00
         0.00000E+00
         0.00000E+00
         0.00000E+00
         0.00000E+00
         0.00000E+00
         0.00000E+00
         0.00000E+00
         0.00000E+00
         0.00000E+00
         0.00000E+00
         0.00000E+00
         0.00000E+00
         0.00000E+00
         0.00000E+00
         0.00000E+00
         0.00000E+00
         0.00000E+00
         0.00000E+00
         0.00000E+00
         0.00000E+00
         0.00000E+00
         0.00000E+00
         0.00000E+00
         0.00000E+00
         0.00000E+00
         0.00000E+00
         0.00000E+00
         0.00000E+00
         0.00000E+00
         0.00000E+00
         0.00000E+00
         0.00000E+00
         0.00000E+00
         0.00000E+00
         0.00000E+00
         0.00000E+00
         0.00000E+00
         0.00000E+00
         0.00000E+00
         0.00000E+00
         0.00000E+00
         0.00000E+00
         0.00000E+00
         0.00000E+00
         0.00000E+00
         0.00000E+00
         0.00000E+00
         0.00000E+00
         0.00000E+00
         0.00000E+00
         0.00000E+00
         0.00000E+00
         0.00000E+00
         0.00000E+00
         0.00000E+00
         0.00000E+00
         0.00000E+00
         0.00000E+00
         0.00000E+00
         0.00000E+00
         0.00000E+00
         0.00000E+00
         0.00000E+00
         0.00000E+00
         0.00000E+00
         0.00000E+00
         0.00000E+00
         0.00000E+00
         0.00000E+00
         0.00000E+00
         0.00000E+00
         0.00000E+00
         0.00000E+00
         0.00000E+00
         0.00000E+00
         0.00000E+00
         0.00000E+00
         0.00000E+00
         0.00000E+00
         0.00000E+00
         0.00000E+00
         0.00000E+00
         0.00000E+00
         0.00000E+00
         0.00000E+00
         0.00000E+00
         0.00000E+00
         0.00000E+00
         0.00000E+00
         0.00000E+00
         0.00000E+00
         0.00000E+00
         0.00000E+00
         0.00000E+00
         0.00000E+00
         0.00000E+00
         0.00000E+00
         0.00000E+00
         0.00000E+00
         0.00000E+00
         0.00000E+00
         0.00000E+00
         0.00000E+00
         0.00000E+00
         0.00000E+00
         0.00000E+00
         0.00000E+00
         0.00000E+00
         0.00000E+00
         0.00000E+00
         0.00000E+00
         0.00000E+00
         0.00000E+00
         0.00000E+00
         0.00000E+00
         0.00000E+00
         0.00000E+00
         0.00000E+00
         0.00000E+00
         0.00000E+00
         0.00000E+00
         0.00000E+00
         0.00000E+00
         0.00000E+00
         0.00000E+00
         0.00000E+00
         0.00000E+00
         0.00000E+00
         0.00000E+00
         0.00000E+00
         0.00000E+00
         0.00000E+00
         0.00000E+00
         0.00000E+00
         0.00000E+00
         0.00000E+00
         0.00000E+00
         0.00000E+00
         0.00000E+00
         0.00000E+00
         0.00000E+00
         0.00000E+00
         0.00000E+00
         0.00000E+00
         0.00000E+00
         0.00000E+00
         0.00000E+00
         0.00000E+00
         0.00000E+00
         0.00000E+00
         0.00000E+00
         0.00000E+00
         0.00000E+00
         0.00000E+00
         0.00000E+00
         0.00000E+00
         0.00000E+00
         0.00000E+00
         0.00000E+00
         0.00000E+00
         0.00000E+00
         0.00000E+00
         0.00000E+00
         0.00000E+00
         0.00000E+00
         0.00000E+00
         0.00000E+00
         0.00000E+00
         0.00000E+00
         0.00000E+00
         0.00000E+00
         0.00000E+00
         0.00000E+00
         0.00000E+00
         0.00000E+00
         0.00000E+00
         0.00000E+00
         0.00000E+00
         0.00000E+00
         0.00000E+00
         0.00000E+00
         0.00000E+00
         0.00000E+00
         0.00000E+00
         0.00000E+00
         0.00000E+00
         0.00000E+00
         0.00000E+00
         0.00000E+00
         0.00000E+00
         0.00000E+00
         0.00000E+00
         0.00000E+00
         0.00000E+00
         0.00000E+00
         0.00000E+00
         0.00000E+00
         0.00000E+00
         0.00000E+00
         0.00000E+00
         0.00000E+00
         0.00000E+00
         0.00000E+00
         0.00000E+00
         0.00000E+00
         0.00000E+00
         0.00000E+00
         0.00000E+00
         0.00000E+00
         0.00000E+00
         0.00000E+00
         0.00000E+00
         0.00000E+00
         0.00000E+00
         0.00000E+00
         0.00000E+00
         0.00000E+00
         0.00000E+00
         0.00000E+00
         0.00000E+00
         0.00000E+00
         0.00000E+00
         0.00000E+00
         0.00000E+00
         0.00000E+00
         0.00000E+00
         0.00000E+00
         0.00000E+00
         0.00000E+00
         0.00000E+00
         0.00000E+00
         0.00000E+00
         0.00000E+00
         0.00000E+00
         0.00000E+00
         0.00000E+00
         0.00000E+00
         0.00000E+00
         0.00000E+00
         0.00000E+00
         0.00000E+00
         0.00000E+00
         0.00000E+00
         0.00000E+00
         0.00000E+00
         0.00000E+00
         0.00000E+00
         0.00000E+00
         0.00000E+00
         0.00000E+00
         0.00000E+00
         0.00000E+00
         0.00000E+00
         0.00000E+00
         0.00000E+00
         0.00000E+00
         0.00000E+00
         0.00000E+00
         0.00000E+00
         0.00000E+00
         0.00000E+00
         0.00000E+00
         0.00000E+00
         0.00000E+00
         0.00000E+00
         0.00000E+00
         0.00000E+00
         0.00000E+00
         0.00000E+00
         0.00000E+00
         0.00000E+00
         0.00000E+00
         0.00000E+00
         0.00000E+00
         0.00000E+00
         0.00000E+00
         0.00000E+00
         0.00000E+00
         0.00000E+00
         0.00000E+00
         0.00000E+00
         0.00000E+00
         0.00000E+00
         0.00000E+00
         0.00000E+00
         0.00000E+00
         0.00000E+00
         0.00000E+00
         0.00000E+00
         0.00000E+00
         0.00000E+00
         0.00000E+00
         0.00000E+00
         0.00000E+00
         0.00000E+00
         0.00000E+00
         0.00000E+00
         0.00000E+00
         0.00000E+00
         0.00000E+00
         0.00000E+00
         0.00000E+00
         0.00000E+00
         0.00000E+00
         0.00000E+00
         0.00000E+00
         0.00000E+00
         0.00000E+00
         0.00000E+00
         0.00000E+00
         0.00000E+00
         0.00000E+00
         0.00000E+00
         0.00000E+00
         0.00000E+00
         0.00000E+00
         0.00000E+00
         0.00000E+00
         0.00000E+00
         0.00000E+00
         0.00000E+00
         0.00000E+00
         0.00000E+00
         0.00000E+00
         0.00000E+00
         0.00000E+00
         0.00000E+00
         0.00000E+00
         0.00000E+00
         0.00000E+00
         0.00000E+00
         0.00000E+00
         0.00000E+00
         0.00000E+00
         0.00000E+00
         0.00000E+00
         0.00000E+00
         0.00000E+00
         0.00000E+00
         0.00000E+00
         0.00000E+00
         0.00000E+00
         0.00000E+00
         0.00000E+00
         0.00000E+00
         0.00000E+00
         0.00000E+00
         0.00000E+00
         0.00000E+00
         0.00000E+00
         0.00000E+00
         0.00000E+00
         0.00000E+00
         0.00000E+00
         0.00000E+00
         0.00000E+00
         0.00000E+00
         0.00000E+00
         0.00000E+00
         0.00000E+00
         0.00000E+00
         0.00000E+00
         0.00000E+00
         0.00000E+00
         0.00000E+00
         0.00000E+00
         0.00000E+00
         0.00000E+00
         0.00000E+00
         0.00000E+00
         0.00000E+00
         0.00000E+00
         0.00000E+00
         0.00000E+00
         0.00000E+00
         0.00000E+00
         0.00000E+00
         0.00000E+00
         0.00000E+00
         0.00000E+00
         0.00000E+00
         0.00000E+00
         0.00000E+00
         0.00000E+00
         0.00000E+00
         0.00000E+00
         0.00000E+00
         0.00000E+00
         0.00000E+00
         0.00000E+00
         0.00000E+00
         0.00000E+00
         0.00000E+00
         0.00000E+00
         0.00000E+00
         0.00000E+00
         0.00000E+00
         0.00000E+00
         0.00000E+00
         0.00000E+00
         0.00000E+00
         0.00000E+00
         0.00000E+00
         0.00000E+00
         0.00000E+00
         0.00000E+00
         0.00000E+00
         0.00000E+00
         0.00000E+00
         0.00000E+00
         0.00000E+00
         0.00000E+00
         0.00000E+00
         0.00000E+00
         0.00000E+00
         0.00000E+00
         0.00000E+00
         0.00000E+00
         0.00000E+00
         0.00000E+00
         0.00000E+00
         0.00000E+00
         0.00000E+00
         0.00000E+00
         0.00000E+00
         0.00000E+00
         0.00000E+00
         0.00000E+00
         0.00000E+00
         0.00000E+00
         0.00000E+00
         0.00000E+00
         0.00000E+00
         0.00000E+00
         0.00000E+00
         0.00000E+00
         0.00000E+00
         0.00000E+00
         0.00000E+00
         0.00000E+00
         0.00000E+00
         0.00000E+00
         0.00000E+00
         0.00000E+00
         0.00000E+00
         0.00000E+00
         0.00000E+00
         0.00000E+00
         0.00000E+00
         0.00000E+00
         0.00000E+00
         0.00000E+00
         0.00000E+00
         0.00000E+00
         0.00000E+00
         0.00000E+00
         0.00000E+00
         0.00000E+00
         0.00000E+00
         0.00000E+00
         0.00000E+00
         0.00000E+00
         0.00000E+00
         0.00000E+00
         0.00000E+00
         0.00000E+00
         0.00000E+00
         0.00000E+00
         0.00000E+00
         0.00000E+00
         0.00000E+00
         0.00000E+00
         0.00000E+00
         0.00000E+00
         0.00000E+00
         0.00000E+00
         0.00000E+00
         0.00000E+00
         0.00000E+00
         0.00000E+00
         0.00000E+00
         0.00000E+00
         0.00000E+00
         0.00000E+00
         0.00000E+00
         0.00000E+00
         0.00000E+00
         0.00000E+00
         0.00000E+00
         0.00000E+00
         0.00000E+00
         0.00000E+00
         0.00000E+00
         0.00000E+00
         0.00000E+00
         0.00000E+00
         0.00000E+00
         0.00000E+00
         0.00000E+00
         0.00000E+00
         0.00000E+00
         0.00000E+00
         0.00000E+00
         0.00000E+00
         0.00000E+00
         0.00000E+00
         0.00000E+00
         0.00000E+00
         0.00000E+00
         0.00000E+00
         0.00000E+00
         0.00000E+00
         0.00000E+00
         0.00000E+00
         0.00000E+00
         0.00000E+00
         0.00000E+00
         0.00000E+00
         0.00000E+00
         0.00000E+00
         0.00000E+00
         0.00000E+00
         0.00000E+00
         0.00000E+00
         0.00000E+00
         0.00000E+00
         0.00000E+00
         0.00000E+00
         0.00000E+00
         0.00000E+00
         0.00000E+00
         0.00000E+00
         0.00000E+00
         0.00000E+00
         0.00000E+00
         0.00000E+00
         0.00000E+00
         0.00000E+00
         0.00000E+00
         0.00000E+00
         0.00000E+00
         0.00000E+00
         0.00000E+00
         0.00000E+00
         0.00000E+00
         0.00000E+00
         0.00000E+00
         0.00000E+00
         0.00000E+00
         0.00000E+00
         0.00000E+00
         0.00000E+00
         0.00000E+00
         0.00000E+00
         0.00000E+00
         0.00000E+00
         0.00000E+00
         0.00000E+00
         0.00000E+00
         0.00000E+00
         0.00000E+00
         0.00000E+00
         0.00000E+00
         0.00000E+00
         0.00000E+00
         0.00000E+00
         0.00000E+00
         0.00000E+00
         0.00000E+00
         0.00000E+00
         0.00000E+00
         0.00000E+00
         0.00000E+00
         0.00000E+00
         0.00000E+00
         0.00000E+00
         0.00000E+00
         0.00000E+00
         0.00000E+00
         0.00000E+00
         0.00000E+00
         0.00000E+00
         0.00000E+00
         0.00000E+00
         0.00000E+00
         0.00000E+00
         0.00000E+00
         0.00000E+00
         0.00000E+00
         0.00000E+00
         0.00000E+00
         0.00000E+00
         0.00000E+00
         0.00000E+00
         0.00000E+00
         0.00000E+00
         0.00000E+00
         0.00000E+00
         0.00000E+00
         0.00000E+00
         0.00000E+00
         0.00000E+00
         0.00000E+00
         0.00000E+00
         0.00000E+00
         0.00000E+00
         0.00000E+00
         0.00000E+00
         0.00000E+00
         0.00000E+00
         0.00000E+00
         0.00000E+00
         0.00000E+00
         0.00000E+00
         0.00000E+00
         0.00000E+00
         0.00000E+00
         0.00000E+00
         0.00000E+00
         0.00000E+00
         0.00000E+00
         0.00000E+00
         0.00000E+00
         0.00000E+00
         0.00000E+00
         0.00000E+00
         0.00000E+00
         0.00000E+00
         0.00000E+00
         0.00000E+00
         0.00000E+00
         0.00000E+00
         0.00000E+00
         0.00000E+00
         0.00000E+00
         0.00000E+00
         0.00000E+00
         0.00000E+00
         0.00000E+00
         0.00000E+00
         0.00000E+00
         0.00000E+00
         0.00000E+00
         0.00000E+00
         0.00000E+00
         0.00000E+00
         0.00000E+00
         0.00000E+00
         0.00000E+00
         0.00000E+00
         0.00000E+00
         0.00000E+00
         0.00000E+00
         0.00000E+00
         0.00000E+00
         0.00000E+00
         0.00000E+00
         0.00000E+00
         0.00000E+00
         0.00000E+00
         0.00000E+00
         0.00000E+00
         0.00000E+00
         0.00000E+00
         0.00000E+00
         0.00000E+00
         0.00000E+00
         0.00000E+00
         0.00000E+00
         0.00000E+00
         0.00000E+00
         0.00000E+00
         0.00000E+00
         0.00000E+00
         0.00000E+00
         0.00000E+00
         0.00000E+00
         0.00000E+00
         0.00000E+00
         0.00000E+00
         0.00000E+00
         0.00000E+00
         0.00000E+00
         0.00000E+00
         0.00000E+00
         0.00000E+00
         0.00000E+00
         0.00000E+00
         0.00000E+00
         0.00000E+00
         0.00000E+00
         0.00000E+00
         0.00000E+00
         0.00000E+00
         0.00000E+00
         0.00000E+00
         0.00000E+00
         0.00000E+00
         0.00000E+00
         0.00000E+00
         0.00000E+00
         0.00000E+00
         0.00000E+00
         0.00000E+00
         0.00000E+00
         0.00000E+00
         0.00000E+00
         0.00000E+00
         0.00000E+00
         0.00000E+00
         0.00000E+00
         0.00000E+00
         0.00000E+00
         0.00000E+00
         0.00000E+00
         0.00000E+00
         0.00000E+00
         0.00000E+00
         0.00000E+00
         0.00000E+00
         0.00000E+00
         0.00000E+00
         0.00000E+00
         0.00000E+00
         0.00000E+00
         0.00000E+00
         0.00000E+00
         0.00000E+00
         0.00000E+00
         0.00000E+00
         0.00000E+00
         0.00000E+00
         0.00000E+00
         0.00000E+00
         0.00000E+00
         0.00000E+00
         0.00000E+00
         0.00000E+00
         0.00000E+00
         0.00000E+00
         0.00000E+00
         0.00000E+00
         0.00000E+00
         0.00000E+00
         0.00000E+00
         0.00000E+00
         0.00000E+00
         0.00000E+00
         0.00000E+00
         0.00000E+00
         0.00000E+00
         0.00000E+00
         0.00000E+00
         0.00000E+00
         0.00000E+00
         0.00000E+00
         0.00000E+00
         0.00000E+00
         0.00000E+00
         0.00000E+00
         0.00000E+00
         0.00000E+00
         0.00000E+00
         0.00000E+00
         0.00000E+00
         0.00000E+00
         0.00000E+00
         0.00000E+00
         0.00000E+00
         0.00000E+00
         0.00000E+00
         0.00000E+00
         0.00000E+00
         0.00000E+00
         0.00000E+00
         0.00000E+00
         0.00000E+00
         0.00000E+00
         0.00000E+00
         0.00000E+00
         0.00000E+00
         0.00000E+00
         0.00000E+00
         0.00000E+00
         0.00000E+00
         0.00000E+00
         0.00000E+00
         0.00000E+00
         0.00000E+00
         0.00000E+00
         0.00000E+00
         0.00000E+00
         0.00000E+00
         0.00000E+00
         0.00000E+00
         0.00000E+00
         0.00000E+00
         0.00000E+00
         0.00000E+00
         0.00000E+00
         0.00000E+00
         0.00000E+00
         0.00000E+00
         0.00000E+00
         0.00000E+00
         0.00000E+00
         0.00000E+00
         0.00000E+00
         0.00000E+00
         0.00000E+00
         0.00000E+00
         0.00000E+00
         0.00000E+00
         0.00000E+00
         0.00000E+00
         0.00000E+00
         0.00000E+00
         0.00000E+00
         0.00000E+00
         0.00000E+00
         0.00000E+00
         0.00000E+00
         0.00000E+00
         0.00000E+00
         0.00000E+00
         0.00000E+00
         0.00000E+00
         0.00000E+00
         0.00000E+00
         0.00000E+00
         0.00000E+00
         0.00000E+00
         0.00000E+00
         0.00000E+00
         0.00000E+00
         0.00000E+00
         0.00000E+00
         0.00000E+00
         0.00000E+00
         0.00000E+00
         0.00000E+00
         0.00000E+00
         0.00000E+00
         0.00000E+00
         0.00000E+00
         0.00000E+00
         0.00000E+00
         0.00000E+00
         0.00000E+00
         0.00000E+00
         0.00000E+00
         0.00000E+00
         0.00000E+00
         0.00000E+00
         0.00000E+00
         0.00000E+00
         0.00000E+00
         0.00000E+00
         0.00000E+00
         0.00000E+00
         0.00000E+00
         0.00000E+00
         0.00000E+00
         0.00000E+00
         0.00000E+00
         0.00000E+00
         0.00000E+00
         0.00000E+00
         0.00000E+00
         0.00000E+00
         0.00000E+00
         0.00000E+00
         0.00000E+00
         0.00000E+00
         0.00000E+00
         0.00000E+00
         0.00000E+00
         0.00000E+00
         0.00000E+00
         0.00000E+00
         0.00000E+00
         0.00000E+00
         0.00000E+00
         0.00000E+00
         0.00000E+00
         0.00000E+00
         0.00000E+00
         0.00000E+00
         0.00000E+00
         0.00000E+00
         0.00000E+00
         0.00000E+00
         0.00000E+00
         0.00000E+00
         0.00000E+00
         0.00000E+00
         0.00000E+00
         0.00000E+00
         0.00000E+00
         0.00000E+00
         0.00000E+00
         0.00000E+00
         0.00000E+00
         0.00000E+00
         0.00000E+00
         0.00000E+00
         0.00000E+00
         0.00000E+00
         0.00000E+00
         0.00000E+00
         0.00000E+00
         0.00000E+00
         0.00000E+00
         0.00000E+00
         0.00000E+00
         0.00000E+00
         0.00000E+00
         0.00000E+00
         0.00000E+00
         0.00000E+00
         0.00000E+00
         0.00000E+00
         0.00000E+00
         0.00000E+00
         0.00000E+00
         0.00000E+00
         0.00000E+00
         0.00000E+00
         0.00000E+00
         0.00000E+00
         0.00000E+00
         0.00000E+00
         0.00000E+00
         0.00000E+00
         0.00000E+00
         0.00000E+00
         0.00000E+00
         0.00000E+00
         0.00000E+00
         0.00000E+00
         0.00000E+00
         0.00000E+00
         0.00000E+00
         0.00000E+00
         0.00000E+00
         0.00000E+00
         0.00000E+00
         0.00000E+00
         0.00000E+00
         0.00000E+00
         0.00000E+00
         0.00000E+00
         0.00000E+00
         0.00000E+00
         0.00000E+00
         0.00000E+00
         0.00000E+00
         0.00000E+00
         0.00000E+00
         0.00000E+00
         0.00000E+00
         0.00000E+00
         0.00000E+00
         0.00000E+00
         0.00000E+00
         0.00000E+00
         0.00000E+00
         0.00000E+00
         0.00000E+00
         0.00000E+00
         0.00000E+00
         0.00000E+00
         0.00000E+00
         0.00000E+00
         0.00000E+00
         0.00000E+00
         0.00000E+00
         0.00000E+00
         0.00000E+00
         0.00000E+00
         0.00000E+00
         0.00000E+00
         0.00000E+00
         0.00000E+00
         0.00000E+00
         0.00000E+00
         0.00000E+00
         0.00000E+00
         0.00000E+00
         0.00000E+00
         0.00000E+00
         0.00000E+00
         0.00000E+00
         0.00000E+00
         0.00000E+00
         0.00000E+00
         0.00000E+00
         0.00000E+00
         0.00000E+00
         0.00000E+00
         0.00000E+00
         0.00000E+00
         0.00000E+00
         0.00000E+00
         0.00000E+00
         0.00000E+00
         0.00000E+00
         0.00000E+00
         0.00000E+00
         0.00000E+00
         0.00000E+00
         0.00000E+00
         0.00000E+00
         0.00000E+00
         0.00000E+00
         0.00000E+00
         0.00000E+00
         0.00000E+00
         0.00000E+00
         0.00000E+00
         0.00000E+00
         0.00000E+00
         0.00000E+00
         0.00000E+00
         0.00000E+00
         0.00000E+00
         0.00000E+00
         0.00000E+00
         0.00000E+00
         0.00000E+00
         0.00000E+00
         0.00000E+00
         0.00000E+00
         0.00000E+00
         0.00000E+00
         0.00000E+00
         0.00000E+00
         0.00000E+00
         0.00000E+00
         0.00000E+00
         0.00000E+00
         0.00000E+00
         0.00000E+00
         0.00000E+00
         0.00000E+00
         0.00000E+00
         0.00000E+00
         0.00000E+00
         0.00000E+00
         0.00000E+00
         0.00000E+00
         0.00000E+00
         0.00000E+00
         0.00000E+00
         0.00000E+00
         0.00000E+00
         0.00000E+00
         0.00000E+00
         0.00000E+00
         0.00000E+00
         0.00000E+00
         0.00000E+00
         0.00000E+00
         0.00000E+00
         0.00000E+00
         0.00000E+00
         0.00000E+00
         0.00000E+00
         0.00000E+00
         0.00000E+00
         0.00000E+00
         0.00000E+00
         0.00000E+00
         0.00000E+00
         0.00000E+00
         0.00000E+00
         0.00000E+00
         0.00000E+00
         0.00000E+00
         0.00000E+00
         0.00000E+00
         0.00000E+00
         0.00000E+00
         0.00000E+00
         0.00000E+00
         0.00000E+00
         0.00000E+00
         0.00000E+00
         0.00000E+00
         0.00000E+00
         0.00000E+00
         0.00000E+00
         0.00000E+00
         0.00000E+00
         0.00000E+00
         0.00000E+00
         0.00000E+00
         0.00000E+00
         0.00000E+00
         0.00000E+00
         0.00000E+00
         0.00000E+00
         0.00000E+00
         0.00000E+00
         0.00000E+00
         0.00000E+00
         0.00000E+00
         0.00000E+00
         0.00000E+00
         0.00000E+00
         0.00000E+00
         0.00000E+00
         0.00000E+00
         0.00000E+00
         0.00000E+00
         0.00000E+00
         0.00000E+00
         0.00000E+00
         0.00000E+00
         0.00000E+00
         0.00000E+00
         0.00000E+00
         0.00000E+00
         0.00000E+00
         0.00000E+00
         0.00000E+00
         0.00000E+00
         0.00000E+00
         0.00000E+00
         0.00000E+00
         0.00000E+00
         0.00000E+00
         0.00000E+00
         0.00000E+00
         0.00000E+00
         0.00000E+00
         0.00000E+00
         0.00000E+00
         0.00000E+00
         0.00000E+00
         0.00000E+00
         0.00000E+00
         0.00000E+00
         0.00000E+00
         0.00000E+00
         0.00000E+00
         0.00000E+00
         0.00000E+00
         0.00000E+00
         0.00000E+00
         0.00000E+00
         0.00000E+00
         0.00000E+00
         0.00000E+00
         0.00000E+00
         0.00000E+00
         0.00000E+00
         0.00000E+00
         0.00000E+00
         0.00000E+00
         0.00000E+00
         0.00000E+00
         0.00000E+00
         0.00000E+00
         0.00000E+00
         0.00000E+00
         0.00000E+00
         0.00000E+00
         0.00000E+00
         0.00000E+00
         0.00000E+00
         0.00000E+00
         0.00000E+00
         0.00000E+00
         0.00000E+00
         0.00000E+00
         0.00000E+00
         0.00000E+00
         0.00000E+00
         0.00000E+00
         0.00000E+00
         0.00000E+00
         0.00000E+00
         0.00000E+00
         0.00000E+00
         0.00000E+00
         0.00000E+00
         0.00000E+00
         0.00000E+00
         0.00000E+00
         0.00000E+00
         0.00000E+00
         0.00000E+00
         0.00000E+00
         0.00000E+00
         0.00000E+00
         0.00000E+00
         0.00000E+00
         0.00000E+00
         0.00000E+00
         0.00000E+00
         0.00000E+00
         0.00000E+00
         0.00000E+00
         0.00000E+00
         0.00000E+00
         0.00000E+00
         0.00000E+00
         0.00000E+00
         0.00000E+00
         0.00000E+00
         0.00000E+00
         0.00000E+00
         0.00000E+00
         0.00000E+00
         0.00000E+00
         0.00000E+00
         0.00000E+00
         0.00000E+00
         0.00000E+00
         0.00000E+00
         0.00000E+00
         0.00000E+00
         0.00000E+00
         0.00000E+00
         0.00000E+00
         0.00000E+00
         0.00000E+00
         0.00000E+00
         0.00000E+00
         0.00000E+00
         0.00000E+00
         0.00000E+00
         0.00000E+00
         0.00000E+00
         0.00000E+00
         0.00000E+00
         0.00000E+00
         0.00000E+00
         0.00000E+00
         0.00000E+00
         0.00000E+00
         0.00000E+00
         0.00000E+00
         0.00000E+00
         0.00000E+00
         0.00000E+00
         0.00000E+00
         0.00000E+00
         0.00000E+00
         0.00000E+00
         0.00000E+00
         0.00000E+00
         0.00000E+00
         0.00000E+00
         0.00000E+00
         0.00000E+00
         0.00000E+00
         0.00000E+00
         0.00000E+00
         0.00000E+00
         0.00000E+00
         0.00000E+00
         0.00000E+00
         0.00000E+00
         0.00000E+00
         0.00000E+00
         0.00000E+00
         0.00000E+00
         0.00000E+00
         0.00000E+00
         0.00000E+00
         0.00000E+00
         0.00000E+00
         0.00000E+00
         0.00000E+00
         0.00000E+00
         0.00000E+00
         0.00000E+00
         0.00000E+00
         0.00000E+00
         0.00000E+00
         0.00000E+00
         0.00000E+00
         0.00000E+00
         0.00000E+00
         0.00000E+00
         0.00000E+00
         0.00000E+00
         0.00000E+00
         0.00000E+00
         0.00000E+00
         0.00000E+00
         0.00000E+00
         0.00000E+00
         0.00000E+00
         0.00000E+00
         0.00000E+00
         0.00000E+00
         0.00000E+00
         0.00000E+00
         0.00000E+00
         0.00000E+00
         0.00000E+00
         0.00000E+00
         0.00000E+00
         0.00000E+00
         0.00000E+00
         0.00000E+00
         0.00000E+00
         0.00000E+00
         0.00000E+00
         0.00000E+00
         0.00000E+00
         0.00000E+00
         0.00000E+00
         0.00000E+00
         0.00000E+00
         0.00000E+00
         0.00000E+00
         0.00000E+00
         0.00000E+00
         0.00000E+00
         0.00000E+00
         0.00000E+00
         0.00000E+00
         0.00000E+00
         0.00000E+00
         0.00000E+00
         0.00000E+00
         0.00000E+00
         0.00000E+00
         0.00000E+00
         0.00000E+00
         0.00000E+00
         0.00000E+00
         0.00000E+00
         0.00000E+00
         0.00000E+00
         0.00000E+00
         0.00000E+00
         0.00000E+00
         0.00000E+00
         0.00000E+00
         0.00000E+00
         0.00000E+00
         0.00000E+00
         0.00000E+00
         0.00000E+00
         0.00000E+00
         0.00000E+00
         0.00000E+00
         0.00000E+00
         0.00000E+00
         0.00000E+00
         0.00000E+00
         0.00000E+00
         0.00000E+00
         0.00000E+00
         0.00000E+00
         0.00000E+00
         0.00000E+00
         0.00000E+00
         0.00000E+00
         0.00000E+00
         0.00000E+00
         0.00000E+00
         0.00000E+00
         0.00000E+00
         0.00000E+00
         0.00000E+00
         0.00000E+00
         0.00000E+00
         0.00000E+00
         0.00000E+00
         0.00000E+00
         0.00000E+00
         0.00000E+00
         0.00000E+00
         0.00000E+00
         0.00000E+00
         0.00000E+00
         0.00000E+00
         0.00000E+00
         0.00000E+00
         0.00000E+00
         0.00000E+00
         0.00000E+00
         0.00000E+00
         0.00000E+00
         0.00000E+00
         0.00000E+00
         0.00000E+00
         0.00000E+00
         0.00000E+00
         0.00000E+00
         0.00000E+00
         0.00000E+00
         0.00000E+00
         0.00000E+00
         0.00000E+00
         0.00000E+00
         0.00000E+00
         0.00000E+00
         0.00000E+00
         0.00000E+00
         0.00000E+00
         0.00000E+00
         0.00000E+00
         0.00000E+00
         0.00000E+00
         0.00000E+00
         0.00000E+00
         0.00000E+00
         0.00000E+00
         0.00000E+00
         0.00000E+00
         0.00000E+00
         0.00000E+00
         0.00000E+00
         0.00000E+00
         0.00000E+00
         0.00000E+00
         0.00000E+00
         0.00000E+00
         0.00000E+00
         0.00000E+00
         0.00000E+00
         0.00000E+00
         0.00000E+00
         0.00000E+00
         0.00000E+00
         0.00000E+00
         0.00000E+00
         0.00000E+00
         0.00000E+00
         0.00000E+00
         0.00000E+00
         0.00000E+00
         0.00000E+00
         0.00000E+00
         0.00000E+00
         0.00000E+00
         0.00000E+00
         0.00000E+00
         0.00000E+00
         0.00000E+00
         0.00000E+00
         0.00000E+00
         0.00000E+00
         0.00000E+00
         0.00000E+00
         0.00000E+00
         0.00000E+00
         0.00000E+00
         0.00000E+00
         0.00000E+00
         0.00000E+00
         0.00000E+00
         0.00000E+00
         0.00000E+00
         0.00000E+00
         0.00000E+00
         0.00000E+00
         0.00000E+00
         0.00000E+00
         0.00000E+00
         0.00000E+00
         0.00000E+00
         0.00000E+00
         0.00000E+00
         0.00000E+00
         0.00000E+00
         0.00000E+00
         0.00000E+00
         0.00000E+00
         0.00000E+00
         0.00000E+00
         0.00000E+00
         0.00000E+00
         0.00000E+00
         0.00000E+00
         0.00000E+00
         0.00000E+00
         0.00000E+00
         0.00000E+00
         0.00000E+00
         0.00000E+00
         0.00000E+00
         0.00000E+00
         0.00000E+00
         0.00000E+00
         0.00000E+00
         0.00000E+00
         0.00000E+00
         0.00000E+00
         0.00000E+00
         0.00000E+00
         0.00000E+00
         0.00000E+00
         0.00000E+00
         0.00000E+00
         0.00000E+00
         0.00000E+00
         0.00000E+00
         0.00000E+00
         0.00000E+00
         0.00000E+00
         0.00000E+00
         0.00000E+00
         0.00000E+00
         0.00000E+00
         0.00000E+00
         0.00000E+00
         0.00000E+00
         0.00000E+00
         0.00000E+00
         0.00000E+00
         0.00000E+00
         0.00000E+00
         0.00000E+00
         0.00000E+00
         0.00000E+00
         0.00000E+00
         0.00000E+00
         0.00000E+00
         0.00000E+00
         0.00000E+00
         0.00000E+00
         0.00000E+00
         0.00000E+00
         0.00000E+00
         0.00000E+00
         0.00000E+00
         0.00000E+00
         0.00000E+00
         0.00000E+00
         0.00000E+00
         0.00000E+00
         0.00000E+00
         0.00000E+00
         0.00000E+00
         0.00000E+00
         0.00000E+00
         0.00000E+00
         0.00000E+00
         0.00000E+00
         0.00000E+00
         0.00000E+00
         0.00000E+00
         0.00000E+00
         0.00000E+00
         0.00000E+00
         0.00000E+00
         0.00000E+00
         0.00000E+00
         0.00000E+00
         0.00000E+00
         0.00000E+00
         0.00000E+00
         0.00000E+00
         0.00000E+00
         0.00000E+00
         0.00000E+00
         0.00000E+00
         0.00000E+00
         0.00000E+00
         0.00000E+00
         0.00000E+00
         0.00000E+00
         0.00000E+00
         0.00000E+00
         0.00000E+00
         0.00000E+00
         0.00000E+00
         0.00000E+00
         0.00000E+00
         0.00000E+00
         0.00000E+00
         0.00000E+00
         0.00000E+00
         0.00000E+00
         0.00000E+00
         0.00000E+00
         0.00000E+00
         0.00000E+00
         0.00000E+00
         0.00000E+00
  
SCALARS                 acceleration_y  double 1
LOOKUP_TABLE default
         0.00000E+00
         0.00000E+00
         0.00000E+00
         0.00000E+00
         0.00000E+00
         0.00000E+00
         0.00000E+00
         0.00000E+00
         0.00000E+00
         0.00000E+00
         0.00000E+00
         0.00000E+00
         0.00000E+00
         0.00000E+00
         0.00000E+00
         0.00000E+00
         0.00000E+00
         0.00000E+00
         0.00000E+00
         0.00000E+00
         0.00000E+00
         0.00000E+00
         0.00000E+00
         0.00000E+00
         0.00000E+00
         0.00000E+00
         0.00000E+00
         0.00000E+00
         0.00000E+00
         0.00000E+00
         0.00000E+00
         0.00000E+00
         0.00000E+00
         0.00000E+00
         0.00000E+00
         0.00000E+00
         0.00000E+00
         0.00000E+00
         0.00000E+00
         0.00000E+00
         0.00000E+00
         0.00000E+00
         0.00000E+00
         0.00000E+00
         0.00000E+00
         0.00000E+00
         0.00000E+00
         0.00000E+00
         0.00000E+00
         0.00000E+00
         0.00000E+00
         0.00000E+00
         0.00000E+00
         0.00000E+00
         0.00000E+00
         0.00000E+00
         0.00000E+00
         0.00000E+00
         0.00000E+00
         0.00000E+00
         0.00000E+00
         0.00000E+00
         0.00000E+00
         0.00000E+00
         0.00000E+00
         0.00000E+00
         0.00000E+00
         0.00000E+00
         0.00000E+00
         0.00000E+00
         0.00000E+00
         0.00000E+00
         0.00000E+00
         0.00000E+00
         0.00000E+00
         0.00000E+00
         0.00000E+00
         0.00000E+00
         0.00000E+00
         0.00000E+00
         0.00000E+00
         0.00000E+00
         0.00000E+00
         0.00000E+00
         0.00000E+00
         0.00000E+00
         0.00000E+00
         0.00000E+00
         0.00000E+00
         0.00000E+00
         0.00000E+00
         0.00000E+00
         0.00000E+00
         0.00000E+00
         0.00000E+00
         0.00000E+00
         0.00000E+00
         0.00000E+00
         0.00000E+00
         0.00000E+00
         0.00000E+00
         0.00000E+00
         0.00000E+00
         0.00000E+00
         0.00000E+00
         0.00000E+00
         0.00000E+00
         0.00000E+00
         0.00000E+00
         0.00000E+00
         0.00000E+00
         0.00000E+00
         0.00000E+00
         0.00000E+00
         0.00000E+00
         0.00000E+00
         0.00000E+00
         0.00000E+00
         0.00000E+00
         0.00000E+00
         0.00000E+00
         0.00000E+00
         0.00000E+00
         0.00000E+00
         0.00000E+00
         0.00000E+00
         0.00000E+00
         0.00000E+00
         0.00000E+00
         0.00000E+00
         0.00000E+00
         0.00000E+00
         0.00000E+00
         0.00000E+00
         0.00000E+00
         0.00000E+00
         0.00000E+00
         0.00000E+00
         0.00000E+00
         0.00000E+00
         0.00000E+00
         0.00000E+00
         0.00000E+00
         0.00000E+00
         0.00000E+00
         0.00000E+00
         0.00000E+00
         0.00000E+00
         0.00000E+00
         0.00000E+00
         0.00000E+00
         0.00000E+00
         0.00000E+00
         0.00000E+00
         0.00000E+00
         0.00000E+00
         0.00000E+00
         0.00000E+00
         0.00000E+00
         0.00000E+00
         0.00000E+00
         0.00000E+00
         0.00000E+00
         0.00000E+00
         0.00000E+00
         0.00000E+00
         0.00000E+00
         0.00000E+00
         0.00000E+00
         0.00000E+00
         0.00000E+00
         0.00000E+00
         0.00000E+00
         0.00000E+00
         0.00000E+00
         0.00000E+00
         0.00000E+00
         0.00000E+00
         0.00000E+00
         0.00000E+00
         0.00000E+00
         0.00000E+00
         0.00000E+00
         0.00000E+00
         0.00000E+00
         0.00000E+00
         0.00000E+00
         0.00000E+00
         0.00000E+00
         0.00000E+00
         0.00000E+00
         0.00000E+00
         0.00000E+00
         0.00000E+00
         0.00000E+00
         0.00000E+00
         0.00000E+00
         0.00000E+00
         0.00000E+00
         0.00000E+00
         0.00000E+00
         0.00000E+00
         0.00000E+00
         0.00000E+00
         0.00000E+00
         0.00000E+00
         0.00000E+00
         0.00000E+00
         0.00000E+00
         0.00000E+00
         0.00000E+00
         0.00000E+00
         0.00000E+00
         0.00000E+00
         0.00000E+00
         0.00000E+00
         0.00000E+00
         0.00000E+00
         0.00000E+00
         0.00000E+00
         0.00000E+00
         0.00000E+00
         0.00000E+00
         0.00000E+00
         0.00000E+00
         0.00000E+00
         0.00000E+00
         0.00000E+00
         0.00000E+00
         0.00000E+00
         0.00000E+00
         0.00000E+00
         0.00000E+00
         0.00000E+00
         0.00000E+00
         0.00000E+00
         0.00000E+00
         0.00000E+00
         0.00000E+00
         0.00000E+00
         0.00000E+00
         0.00000E+00
         0.00000E+00
         0.00000E+00
         0.00000E+00
         0.00000E+00
         0.00000E+00
         0.00000E+00
         0.00000E+00
         0.00000E+00
         0.00000E+00
         0.00000E+00
         0.00000E+00
         0.00000E+00
         0.00000E+00
         0.00000E+00
         0.00000E+00
         0.00000E+00
         0.00000E+00
         0.00000E+00
         0.00000E+00
         0.00000E+00
         0.00000E+00
         0.00000E+00
         0.00000E+00
         0.00000E+00
         0.00000E+00
         0.00000E+00
         0.00000E+00
         0.00000E+00
         0.00000E+00
         0.00000E+00
         0.00000E+00
         0.00000E+00
         0.00000E+00
         0.00000E+00
         0.00000E+00
         0.00000E+00
         0.00000E+00
         0.00000E+00
         0.00000E+00
         0.00000E+00
         0.00000E+00
         0.00000E+00
         0.00000E+00
         0.00000E+00
         0.00000E+00
         0.00000E+00
         0.00000E+00
         0.00000E+00
         0.00000E+00
         0.00000E+00
         0.00000E+00
         0.00000E+00
         0.00000E+00
         0.00000E+00
         0.00000E+00
         0.00000E+00
         0.00000E+00
         0.00000E+00
         0.00000E+00
         0.00000E+00
         0.00000E+00
         0.00000E+00
         0.00000E+00
         0.00000E+00
         0.00000E+00
         0.00000E+00
         0.00000E+00
         0.00000E+00
         0.00000E+00
         0.00000E+00
         0.00000E+00
         0.00000E+00
         0.00000E+00
         0.00000E+00
         0.00000E+00
         0.00000E+00
         0.00000E+00
         0.00000E+00
         0.00000E+00
         0.00000E+00
         0.00000E+00
         0.00000E+00
         0.00000E+00
         0.00000E+00
         0.00000E+00
         0.00000E+00
         0.00000E+00
         0.00000E+00
         0.00000E+00
         0.00000E+00
         0.00000E+00
         0.00000E+00
         0.00000E+00
         0.00000E+00
         0.00000E+00
         0.00000E+00
         0.00000E+00
         0.00000E+00
         0.00000E+00
         0.00000E+00
         0.00000E+00
         0.00000E+00
         0.00000E+00
         0.00000E+00
         0.00000E+00
         0.00000E+00
         0.00000E+00
         0.00000E+00
         0.00000E+00
         0.00000E+00
         0.00000E+00
         0.00000E+00
         0.00000E+00
         0.00000E+00
         0.00000E+00
         0.00000E+00
         0.00000E+00
         0.00000E+00
         0.00000E+00
         0.00000E+00
         0.00000E+00
         0.00000E+00
         0.00000E+00
         0.00000E+00
         0.00000E+00
         0.00000E+00
         0.00000E+00
         0.00000E+00
         0.00000E+00
         0.00000E+00
         0.00000E+00
         0.00000E+00
         0.00000E+00
         0.00000E+00
         0.00000E+00
         0.00000E+00
         0.00000E+00
         0.00000E+00
         0.00000E+00
         0.00000E+00
         0.00000E+00
         0.00000E+00
         0.00000E+00
         0.00000E+00
         0.00000E+00
         0.00000E+00
         0.00000E+00
         0.00000E+00
         0.00000E+00
         0.00000E+00
         0.00000E+00
         0.00000E+00
         0.00000E+00
         0.00000E+00
         0.00000E+00
         0.00000E+00
         0.00000E+00
         0.00000E+00
         0.00000E+00
         0.00000E+00
         0.00000E+00
         0.00000E+00
         0.00000E+00
         0.00000E+00
         0.00000E+00
         0.00000E+00
         0.00000E+00
         0.00000E+00
         0.00000E+00
         0.00000E+00
         0.00000E+00
         0.00000E+00
         0.00000E+00
         0.00000E+00
         0.00000E+00
         0.00000E+00
         0.00000E+00
         0.00000E+00
         0.00000E+00
         0.00000E+00
         0.00000E+00
         0.00000E+00
         0.00000E+00
         0.00000E+00
         0.00000E+00
         0.00000E+00
         0.00000E+00
         0.00000E+00
         0.00000E+00
         0.00000E+00
         0.00000E+00
         0.00000E+00
         0.00000E+00
         0.00000E+00
         0.00000E+00
         0.00000E+00
         0.00000E+00
         0.00000E+00
         0.00000E+00
         0.00000E+00
         0.00000E+00
         0.00000E+00
         0.00000E+00
         0.00000E+00
         0.00000E+00
         0.00000E+00
         0.00000E+00
         0.00000E+00
         0.00000E+00
         0.00000E+00
         0.00000E+00
         0.00000E+00
         0.00000E+00
         0.00000E+00
         0.00000E+00
         0.00000E+00
         0.00000E+00
         0.00000E+00
         0.00000E+00
         0.00000E+00
         0.00000E+00
         0.00000E+00
         0.00000E+00
         0.00000E+00
         0.00000E+00
         0.00000E+00
         0.00000E+00
         0.00000E+00
         0.00000E+00
         0.00000E+00
         0.00000E+00
         0.00000E+00
         0.00000E+00
         0.00000E+00
         0.00000E+00
         0.00000E+00
         0.00000E+00
         0.00000E+00
         0.00000E+00
         0.00000E+00
         0.00000E+00
         0.00000E+00
         0.00000E+00
         0.00000E+00
         0.00000E+00
         0.00000E+00
         0.00000E+00
         0.00000E+00
         0.00000E+00
         0.00000E+00
         0.00000E+00
         0.00000E+00
         0.00000E+00
         0.00000E+00
         0.00000E+00
         0.00000E+00
         0.00000E+00
         0.00000E+00
         0.00000E+00
         0.00000E+00
         0.00000E+00
         0.00000E+00
         0.00000E+00
         0.00000E+00
         0.00000E+00
         0.00000E+00
         0.00000E+00
         0.00000E+00
         0.00000E+00
         0.00000E+00
         0.00000E+00
         0.00000E+00
         0.00000E+00
         0.00000E+00
         0.00000E+00
         0.00000E+00
         0.00000E+00
         0.00000E+00
         0.00000E+00
         0.00000E+00
         0.00000E+00
         0.00000E+00
         0.00000E+00
         0.00000E+00
         0.00000E+00
         0.00000E+00
         0.00000E+00
         0.00000E+00
         0.00000E+00
         0.00000E+00
         0.00000E+00
         0.00000E+00
         0.00000E+00
         0.00000E+00
         0.00000E+00
         0.00000E+00
         0.00000E+00
         0.00000E+00
         0.00000E+00
         0.00000E+00
         0.00000E+00
         0.00000E+00
         0.00000E+00
         0.00000E+00
         0.00000E+00
         0.00000E+00
         0.00000E+00
         0.00000E+00
         0.00000E+00
         0.00000E+00
         0.00000E+00
         0.00000E+00
         0.00000E+00
         0.00000E+00
         0.00000E+00
         0.00000E+00
         0.00000E+00
         0.00000E+00
         0.00000E+00
         0.00000E+00
         0.00000E+00
         0.00000E+00
         0.00000E+00
         0.00000E+00
         0.00000E+00
         0.00000E+00
         0.00000E+00
         0.00000E+00
         0.00000E+00
         0.00000E+00
         0.00000E+00
         0.00000E+00
         0.00000E+00
         0.00000E+00
         0.00000E+00
         0.00000E+00
         0.00000E+00
         0.00000E+00
         0.00000E+00
         0.00000E+00
         0.00000E+00
         0.00000E+00
         0.00000E+00
         0.00000E+00
         0.00000E+00
         0.00000E+00
         0.00000E+00
         0.00000E+00
         0.00000E+00
         0.00000E+00
         0.00000E+00
         0.00000E+00
         0.00000E+00
         0.00000E+00
         0.00000E+00
         0.00000E+00
         0.00000E+00
         0.00000E+00
         0.00000E+00
         0.00000E+00
         0.00000E+00
         0.00000E+00
         0.00000E+00
         0.00000E+00
         0.00000E+00
         0.00000E+00
         0.00000E+00
         0.00000E+00
         0.00000E+00
         0.00000E+00
         0.00000E+00
         0.00000E+00
         0.00000E+00
         0.00000E+00
         0.00000E+00
         0.00000E+00
         0.00000E+00
         0.00000E+00
         0.00000E+00
         0.00000E+00
         0.00000E+00
         0.00000E+00
         0.00000E+00
         0.00000E+00
         0.00000E+00
         0.00000E+00
         0.00000E+00
         0.00000E+00
         0.00000E+00
         0.00000E+00
         0.00000E+00
         0.00000E+00
         0.00000E+00
         0.00000E+00
         0.00000E+00
         0.00000E+00
         0.00000E+00
         0.00000E+00
         0.00000E+00
         0.00000E+00
         0.00000E+00
         0.00000E+00
         0.00000E+00
         0.00000E+00
         0.00000E+00
         0.00000E+00
         0.00000E+00
         0.00000E+00
         0.00000E+00
         0.00000E+00
         0.00000E+00
         0.00000E+00
         0.00000E+00
         0.00000E+00
         0.00000E+00
         0.00000E+00
         0.00000E+00
         0.00000E+00
         0.00000E+00
         0.00000E+00
         0.00000E+00
         0.00000E+00
         0.00000E+00
         0.00000E+00
         0.00000E+00
         0.00000E+00
         0.00000E+00
         0.00000E+00
         0.00000E+00
         0.00000E+00
         0.00000E+00
         0.00000E+00
         0.00000E+00
         0.00000E+00
         0.00000E+00
         0.00000E+00
         0.00000E+00
         0.00000E+00
         0.00000E+00
         0.00000E+00
         0.00000E+00
         0.00000E+00
         0.00000E+00
         0.00000E+00
         0.00000E+00
         0.00000E+00
         0.00000E+00
         0.00000E+00
         0.00000E+00
         0.00000E+00
         0.00000E+00
         0.00000E+00
         0.00000E+00
         0.00000E+00
         0.00000E+00
         0.00000E+00
         0.00000E+00
         0.00000E+00
         0.00000E+00
         0.00000E+00
         0.00000E+00
         0.00000E+00
         0.00000E+00
         0.00000E+00
         0.00000E+00
         0.00000E+00
         0.00000E+00
         0.00000E+00
         0.00000E+00
         0.00000E+00
         0.00000E+00
         0.00000E+00
         0.00000E+00
         0.00000E+00
         0.00000E+00
         0.00000E+00
         0.00000E+00
         0.00000E+00
         0.00000E+00
         0.00000E+00
         0.00000E+00
         0.00000E+00
         0.00000E+00
         0.00000E+00
         0.00000E+00
         0.00000E+00
         0.00000E+00
         0.00000E+00
         0.00000E+00
         0.00000E+00
         0.00000E+00
         0.00000E+00
         0.00000E+00
         0.00000E+00
         0.00000E+00
         0.00000E+00
         0.00000E+00
         0.00000E+00
         0.00000E+00
         0.00000E+00
         0.00000E+00
         0.00000E+00
         0.00000E+00
         0.00000E+00
         0.00000E+00
         0.00000E+00
         0.00000E+00
         0.00000E+00
         0.00000E+00
         0.00000E+00
         0.00000E+00
         0.00000E+00
         0.00000E+00
         0.00000E+00
         0.00000E+00
         0.00000E+00
         0.00000E+00
         0.00000E+00
         0.00000E+00
         0.00000E+00
         0.00000E+00
         0.00000E+00
         0.00000E+00
         0.00000E+00
         0.00000E+00
         0.00000E+00
         0.00000E+00
         0.00000E+00
         0.00000E+00
         0.00000E+00
         0.00000E+00
         0.00000E+00
         0.00000E+00
         0.00000E+00
         0.00000E+00
         0.00000E+00
         0.00000E+00
         0.00000E+00
         0.00000E+00
         0.00000E+00
         0.00000E+00
         0.00000E+00
         0.00000E+00
         0.00000E+00
         0.00000E+00
         0.00000E+00
         0.00000E+00
         0.00000E+00
         0.00000E+00
         0.00000E+00
         0.00000E+00
         0.00000E+00
         0.00000E+00
         0.00000E+00
         0.00000E+00
         0.00000E+00
         0.00000E+00
         0.00000E+00
         0.00000E+00
         0.00000E+00
         0.00000E+00
         0.00000E+00
         0.00000E+00
         0.00000E+00
         0.00000E+00
         0.00000E+00
         0.00000E+00
         0.00000E+00
         0.00000E+00
         0.00000E+00
         0.00000E+00
         0.00000E+00
         0.00000E+00
         0.00000E+00
         0.00000E+00
         0.00000E+00
         0.00000E+00
         0.00000E+00
         0.00000E+00
         0.00000E+00
         0.00000E+00
         0.00000E+00
         0.00000E+00
         0.00000E+00
         0.00000E+00
         0.00000E+00
         0.00000E+00
         0.00000E+00
         0.00000E+00
         0.00000E+00
         0.00000E+00
         0.00000E+00
         0.00000E+00
         0.00000E+00
         0.00000E+00
         0.00000E+00
         0.00000E+00
         0.00000E+00
         0.00000E+00
         0.00000E+00
         0.00000E+00
         0.00000E+00
         0.00000E+00
         0.00000E+00
         0.00000E+00
         0.00000E+00
         0.00000E+00
         0.00000E+00
         0.00000E+00
         0.00000E+00
         0.00000E+00
         0.00000E+00
         0.00000E+00
         0.00000E+00
         0.00000E+00
         0.00000E+00
         0.00000E+00
         0.00000E+00
         0.00000E+00
         0.00000E+00
         0.00000E+00
         0.00000E+00
         0.00000E+00
         0.00000E+00
         0.00000E+00
         0.00000E+00
         0.00000E+00
         0.00000E+00
         0.00000E+00
         0.00000E+00
         0.00000E+00
         0.00000E+00
         0.00000E+00
         0.00000E+00
         0.00000E+00
         0.00000E+00
         0.00000E+00
         0.00000E+00
         0.00000E+00
         0.00000E+00
         0.00000E+00
         0.00000E+00
         0.00000E+00
         0.00000E+00
         0.00000E+00
         0.00000E+00
         0.00000E+00
         0.00000E+00
         0.00000E+00
         0.00000E+00
         0.00000E+00
         0.00000E+00
         0.00000E+00
         0.00000E+00
         0.00000E+00
         0.00000E+00
         0.00000E+00
         0.00000E+00
         0.00000E+00
         0.00000E+00
         0.00000E+00
         0.00000E+00
         0.00000E+00
         0.00000E+00
         0.00000E+00
         0.00000E+00
         0.00000E+00
         0.00000E+00
         0.00000E+00
         0.00000E+00
         0.00000E+00
         0.00000E+00
         0.00000E+00
         0.00000E+00
         0.00000E+00
         0.00000E+00
         0.00000E+00
         0.00000E+00
         0.00000E+00
         0.00000E+00
         0.00000E+00
         0.00000E+00
         0.00000E+00
         0.00000E+00
         0.00000E+00
         0.00000E+00
         0.00000E+00
         0.00000E+00
         0.00000E+00
         0.00000E+00
         0.00000E+00
         0.00000E+00
         0.00000E+00
         0.00000E+00
         0.00000E+00
         0.00000E+00
         0.00000E+00
         0.00000E+00
         0.00000E+00
         0.00000E+00
         0.00000E+00
         0.00000E+00
         0.00000E+00
         0.00000E+00
         0.00000E+00
         0.00000E+00
         0.00000E+00
         0.00000E+00
         0.00000E+00
         0.00000E+00
         0.00000E+00
         0.00000E+00
         0.00000E+00
         0.00000E+00
         0.00000E+00
         0.00000E+00
         0.00000E+00
         0.00000E+00
         0.00000E+00
         0.00000E+00
         0.00000E+00
         0.00000E+00
         0.00000E+00
         0.00000E+00
         0.00000E+00
         0.00000E+00
         0.00000E+00
         0.00000E+00
         0.00000E+00
         0.00000E+00
         0.00000E+00
         0.00000E+00
         0.00000E+00
         0.00000E+00
         0.00000E+00
         0.00000E+00
         0.00000E+00
         0.00000E+00
         0.00000E+00
         0.00000E+00
         0.00000E+00
         0.00000E+00
         0.00000E+00
         0.00000E+00
         0.00000E+00
         0.00000E+00
         0.00000E+00
         0.00000E+00
         0.00000E+00
         0.00000E+00
         0.00000E+00
         0.00000E+00
         0.00000E+00
         0.00000E+00
         0.00000E+00
         0.00000E+00
         0.00000E+00
         0.00000E+00
         0.00000E+00
         0.00000E+00
         0.00000E+00
         0.00000E+00
         0.00000E+00
         0.00000E+00
         0.00000E+00
         0.00000E+00
         0.00000E+00
         0.00000E+00
         0.00000E+00
         0.00000E+00
         0.00000E+00
         0.00000E+00
         0.00000E+00
         0.00000E+00
         0.00000E+00
         0.00000E+00
         0.00000E+00
         0.00000E+00
         0.00000E+00
         0.00000E+00
         0.00000E+00
         0.00000E+00
         0.00000E+00
         0.00000E+00
         0.00000E+00
         0.00000E+00
         0.00000E+00
         0.00000E+00
         0.00000E+00
         0.00000E+00
         0.00000E+00
         0.00000E+00
         0.00000E+00
         0.00000E+00
         0.00000E+00
         0.00000E+00
         0.00000E+00
         0.00000E+00
         0.00000E+00
         0.00000E+00
         0.00000E+00
         0.00000E+00
         0.00000E+00
         0.00000E+00
         0.00000E+00
         0.00000E+00
         0.00000E+00
         0.00000E+00
         0.00000E+00
         0.00000E+00
         0.00000E+00
         0.00000E+00
         0.00000E+00
         0.00000E+00
         0.00000E+00
         0.00000E+00
         0.00000E+00
         0.00000E+00
         0.00000E+00
         0.00000E+00
         0.00000E+00
         0.00000E+00
         0.00000E+00
         0.00000E+00
         0.00000E+00
         0.00000E+00
         0.00000E+00
         0.00000E+00
         0.00000E+00
         0.00000E+00
         0.00000E+00
         0.00000E+00
         0.00000E+00
         0.00000E+00
         0.00000E+00
         0.00000E+00
         0.00000E+00
         0.00000E+00
         0.00000E+00
         0.00000E+00
         0.00000E+00
         0.00000E+00
         0.00000E+00
         0.00000E+00
         0.00000E+00
         0.00000E+00
         0.00000E+00
         0.00000E+00
         0.00000E+00
         0.00000E+00
         0.00000E+00
         0.00000E+00
         0.00000E+00
         0.00000E+00
         0.00000E+00
         0.00000E+00
         0.00000E+00
         0.00000E+00
         0.00000E+00
         0.00000E+00
         0.00000E+00
         0.00000E+00
         0.00000E+00
         0.00000E+00
         0.00000E+00
         0.00000E+00
         0.00000E+00
         0.00000E+00
         0.00000E+00
         0.00000E+00
         0.00000E+00
         0.00000E+00
         0.00000E+00
         0.00000E+00
         0.00000E+00
         0.00000E+00
         0.00000E+00
         0.00000E+00
         0.00000E+00
         0.00000E+00
         0.00000E+00
         0.00000E+00
         0.00000E+00
         0.00000E+00
         0.00000E+00
         0.00000E+00
         0.00000E+00
         0.00000E+00
         0.00000E+00
         0.00000E+00
         0.00000E+00
         0.00000E+00
         0.00000E+00
         0.00000E+00
         0.00000E+00
         0.00000E+00
         0.00000E+00
         0.00000E+00
         0.00000E+00
         0.00000E+00
         0.00000E+00
         0.00000E+00
         0.00000E+00
         0.00000E+00
         0.00000E+00
         0.00000E+00
         0.00000E+00
         0.00000E+00
         0.00000E+00
         0.00000E+00
         0.00000E+00
         0.00000E+00
         0.00000E+00
         0.00000E+00
         0.00000E+00
         0.00000E+00
         0.00000E+00
         0.00000E+00
         0.00000E+00
         0.00000E+00
         0.00000E+00
         0.00000E+00
         0.00000E+00
         0.00000E+00
         0.00000E+00
         0.00000E+00
         0.00000E+00
         0.00000E+00
         0.00000E+00
         0.00000E+00
         0.00000E+00
         0.00000E+00
         0.00000E+00
         0.00000E+00
         0.00000E+00
         0.00000E+00
         0.00000E+00
         0.00000E+00
         0.00000E+00
         0.00000E+00
         0.00000E+00
         0.00000E+00
         0.00000E+00
         0.00000E+00
         0.00000E+00
         0.00000E+00
         0.00000E+00
         0.00000E+00
         0.00000E+00
         0.00000E+00
         0.00000E+00
         0.00000E+00
         0.00000E+00
         0.00000E+00
         0.00000E+00
         0.00000E+00
         0.00000E+00
         0.00000E+00
         0.00000E+00
         0.00000E+00
         0.00000E+00
         0.00000E+00
         0.00000E+00
         0.00000E+00
         0.00000E+00
         0.00000E+00
         0.00000E+00
         0.00000E+00
         0.00000E+00
         0.00000E+00
         0.00000E+00
         0.00000E+00
         0.00000E+00
         0.00000E+00
         0.00000E+00
         0.00000E+00
         0.00000E+00
         0.00000E+00
         0.00000E+00
         0.00000E+00
         0.00000E+00
         0.00000E+00
         0.00000E+00
         0.00000E+00
         0.00000E+00
         0.00000E+00
         0.00000E+00
         0.00000E+00
         0.00000E+00
         0.00000E+00
         0.00000E+00
         0.00000E+00
         0.00000E+00
         0.00000E+00
         0.00000E+00
         0.00000E+00
         0.00000E+00
         0.00000E+00
         0.00000E+00
         0.00000E+00
         0.00000E+00
         0.00000E+00
         0.00000E+00
         0.00000E+00
         0.00000E+00
         0.00000E+00
         0.00000E+00
         0.00000E+00
         0.00000E+00
         0.00000E+00
         0.00000E+00
         0.00000E+00
         0.00000E+00
         0.00000E+00
         0.00000E+00
         0.00000E+00
         0.00000E+00
         0.00000E+00
         0.00000E+00
         0.00000E+00
         0.00000E+00
         0.00000E+00
         0.00000E+00
         0.00000E+00
         0.00000E+00
         0.00000E+00
         0.00000E+00
         0.00000E+00
         0.00000E+00
         0.00000E+00
         0.00000E+00
         0.00000E+00
         0.00000E+00
         0.00000E+00
         0.00000E+00
         0.00000E+00
         0.00000E+00
         0.00000E+00
         0.00000E+00
         0.00000E+00
         0.00000E+00
         0.00000E+00
         0.00000E+00
         0.00000E+00
         0.00000E+00
         0.00000E+00
         0.00000E+00
         0.00000E+00
         0.00000E+00
         0.00000E+00
         0.00000E+00
         0.00000E+00
         0.00000E+00
         0.00000E+00
         0.00000E+00
         0.00000E+00
         0.00000E+00
         0.00000E+00
         0.00000E+00
         0.00000E+00
         0.00000E+00
         0.00000E+00
         0.00000E+00
         0.00000E+00
         0.00000E+00
         0.00000E+00
         0.00000E+00
         0.00000E+00
         0.00000E+00
         0.00000E+00
         0.00000E+00
         0.00000E+00
         0.00000E+00
         0.00000E+00
         0.00000E+00
         0.00000E+00
         0.00000E+00
         0.00000E+00
         0.00000E+00
         0.00000E+00
         0.00000E+00
         0.00000E+00
         0.00000E+00
         0.00000E+00
         0.00000E+00
         0.00000E+00
         0.00000E+00
         0.00000E+00
         0.00000E+00
         0.00000E+00
         0.00000E+00
         0.00000E+00
         0.00000E+00
         0.00000E+00
         0.00000E+00
         0.00000E+00
         0.00000E+00
         0.00000E+00
         0.00000E+00
         0.00000E+00
         0.00000E+00
         0.00000E+00
         0.00000E+00
         0.00000E+00
         0.00000E+00
         0.00000E+00
         0.00000E+00
         0.00000E+00
         0.00000E+00
         0.00000E+00
         0.00000E+00
         0.00000E+00
         0.00000E+00
         0.00000E+00
         0.00000E+00
         0.00000E+00
         0.00000E+00
         0.00000E+00
         0.00000E+00
         0.00000E+00
         0.00000E+00
         0.00000E+00
         0.00000E+00
         0.00000E+00
         0.00000E+00
         0.00000E+00
         0.00000E+00
         0.00000E+00
         0.00000E+00
         0.00000E+00
         0.00000E+00
         0.00000E+00
         0.00000E+00
         0.00000E+00
         0.00000E+00
         0.00000E+00
         0.00000E+00
         0.00000E+00
         0.00000E+00
         0.00000E+00
         0.00000E+00
         0.00000E+00
         0.00000E+00
         0.00000E+00
         0.00000E+00
         0.00000E+00
         0.00000E+00
         0.00000E+00
         0.00000E+00
         0.00000E+00
         0.00000E+00
         0.00000E+00
         0.00000E+00
         0.00000E+00
         0.00000E+00
         0.00000E+00
         0.00000E+00
         0.00000E+00
         0.00000E+00
         0.00000E+00
         0.00000E+00
         0.00000E+00
         0.00000E+00
         0.00000E+00
         0.00000E+00
         0.00000E+00
         0.00000E+00
         0.00000E+00
         0.00000E+00
         0.00000E+00
         0.00000E+00
         0.00000E+00
         0.00000E+00
         0.00000E+00
         0.00000E+00
         0.00000E+00
         0.00000E+00
         0.00000E+00
         0.00000E+00
         0.00000E+00
         0.00000E+00
         0.00000E+00
         0.00000E+00
         0.00000E+00
         0.00000E+00
         0.00000E+00
         0.00000E+00
         0.00000E+00
         0.00000E+00
         0.00000E+00
         0.00000E+00
         0.00000E+00
         0.00000E+00
         0.00000E+00
         0.00000E+00
         0.00000E+00
         0.00000E+00
         0.00000E+00
         0.00000E+00
         0.00000E+00
         0.00000E+00
         0.00000E+00
         0.00000E+00
         0.00000E+00
         0.00000E+00
         0.00000E+00
         0.00000E+00
         0.00000E+00
         0.00000E+00
         0.00000E+00
         0.00000E+00
         0.00000E+00
         0.00000E+00
         0.00000E+00
         0.00000E+00
         0.00000E+00
         0.00000E+00
         0.00000E+00
         0.00000E+00
         0.00000E+00
         0.00000E+00
         0.00000E+00
         0.00000E+00
         0.00000E+00
         0.00000E+00
         0.00000E+00
         0.00000E+00
         0.00000E+00
         0.00000E+00
         0.00000E+00
         0.00000E+00
         0.00000E+00
         0.00000E+00
         0.00000E+00
         0.00000E+00
         0.00000E+00
         0.00000E+00
         0.00000E+00
         0.00000E+00
         0.00000E+00
         0.00000E+00
         0.00000E+00
         0.00000E+00
         0.00000E+00
         0.00000E+00
         0.00000E+00
         0.00000E+00
         0.00000E+00
         0.00000E+00
         0.00000E+00
         0.00000E+00
         0.00000E+00
         0.00000E+00
         0.00000E+00
         0.00000E+00
         0.00000E+00
         0.00000E+00
         0.00000E+00
         0.00000E+00
         0.00000E+00
         0.00000E+00
         0.00000E+00
         0.00000E+00
         0.00000E+00
         0.00000E+00
         0.00000E+00
         0.00000E+00
         0.00000E+00
         0.00000E+00
         0.00000E+00
         0.00000E+00
         0.00000E+00
         0.00000E+00
         0.00000E+00
         0.00000E+00
         0.00000E+00
         0.00000E+00
         0.00000E+00
         0.00000E+00
         0.00000E+00
         0.00000E+00
         0.00000E+00
         0.00000E+00
         0.00000E+00
         0.00000E+00
         0.00000E+00
         0.00000E+00
         0.00000E+00
         0.00000E+00
         0.00000E+00
         0.00000E+00
         0.00000E+00
         0.00000E+00
         0.00000E+00
         0.00000E+00
         0.00000E+00
         0.00000E+00
         0.00000E+00
         0.00000E+00
         0.00000E+00
         0.00000E+00
         0.00000E+00
         0.00000E+00
         0.00000E+00
         0.00000E+00
         0.00000E+00
         0.00000E+00
         0.00000E+00
         0.00000E+00
         0.00000E+00
         0.00000E+00
         0.00000E+00
         0.00000E+00
         0.00000E+00
         0.00000E+00
         0.00000E+00
         0.00000E+00
         0.00000E+00
         0.00000E+00
         0.00000E+00
         0.00000E+00
         0.00000E+00
         0.00000E+00
         0.00000E+00
         0.00000E+00
         0.00000E+00
         0.00000E+00
         0.00000E+00
         0.00000E+00
         0.00000E+00
         0.00000E+00
         0.00000E+00
         0.00000E+00
         0.00000E+00
         0.00000E+00
         0.00000E+00
         0.00000E+00
         0.00000E+00
         0.00000E+00
         0.00000E+00
         0.00000E+00
         0.00000E+00
         0.00000E+00
         0.00000E+00
         0.00000E+00
         0.00000E+00
         0.00000E+00
         0.00000E+00
         0.00000E+00
         0.00000E+00
         0.00000E+00
         0.00000E+00
         0.00000E+00
         0.00000E+00
         0.00000E+00
         0.00000E+00
         0.00000E+00
         0.00000E+00
         0.00000E+00
         0.00000E+00
         0.00000E+00
         0.00000E+00
         0.00000E+00
         0.00000E+00
         0.00000E+00
         0.00000E+00
         0.00000E+00
         0.00000E+00
         0.00000E+00
         0.00000E+00
         0.00000E+00
         0.00000E+00
         0.00000E+00
         0.00000E+00
         0.00000E+00
         0.00000E+00
         0.00000E+00
         0.00000E+00
         0.00000E+00
         0.00000E+00
         0.00000E+00
         0.00000E+00
         0.00000E+00
         0.00000E+00
         0.00000E+00
         0.00000E+00
         0.00000E+00
         0.00000E+00
         0.00000E+00
         0.00000E+00
         0.00000E+00
         0.00000E+00
         0.00000E+00
         0.00000E+00
         0.00000E+00
         0.00000E+00
         0.00000E+00
         0.00000E+00
         0.00000E+00
         0.00000E+00
         0.00000E+00
         0.00000E+00
         0.00000E+00
         0.00000E+00
         0.00000E+00
         0.00000E+00
         0.00000E+00
         0.00000E+00
         0.00000E+00
         0.00000E+00
         0.00000E+00
         0.00000E+00
         0.00000E+00
         0.00000E+00
         0.00000E+00
         0.00000E+00
         0.00000E+00
         0.00000E+00
         0.00000E+00
         0.00000E+00
         0.00000E+00
         0.00000E+00
         0.00000E+00
         0.00000E+00
         0.00000E+00
         0.00000E+00
         0.00000E+00
         0.00000E+00
         0.00000E+00
         0.00000E+00
         0.00000E+00
         0.00000E+00
         0.00000E+00
         0.00000E+00
         0.00000E+00
         0.00000E+00
         0.00000E+00
         0.00000E+00
         0.00000E+00
         0.00000E+00
         0.00000E+00
         0.00000E+00
         0.00000E+00
         0.00000E+00
         0.00000E+00
         0.00000E+00
         0.00000E+00
         0.00000E+00
         0.00000E+00
         0.00000E+00
         0.00000E+00
         0.00000E+00
         0.00000E+00
         0.00000E+00
         0.00000E+00
         0.00000E+00
         0.00000E+00
         0.00000E+00
         0.00000E+00
         0.00000E+00
         0.00000E+00
         0.00000E+00
         0.00000E+00
         0.00000E+00
         0.00000E+00
         0.00000E+00
         0.00000E+00
         0.00000E+00
         0.00000E+00
         0.00000E+00
         0.00000E+00
         0.00000E+00
         0.00000E+00
         0.00000E+00
         0.00000E+00
         0.00000E+00
         0.00000E+00
         0.00000E+00
         0.00000E+00
         0.00000E+00
         0.00000E+00
         0.00000E+00
         0.00000E+00
         0.00000E+00
         0.00000E+00
         0.00000E+00
         0.00000E+00
         0.00000E+00
         0.00000E+00
         0.00000E+00
         0.00000E+00
         0.00000E+00
         0.00000E+00
         0.00000E+00
         0.00000E+00
         0.00000E+00
         0.00000E+00
         0.00000E+00
         0.00000E+00
         0.00000E+00
         0.00000E+00
         0.00000E+00
         0.00000E+00
         0.00000E+00
         0.00000E+00
         0.00000E+00
         0.00000E+00
         0.00000E+00
         0.00000E+00
         0.00000E+00
         0.00000E+00
         0.00000E+00
         0.00000E+00
         0.00000E+00
         0.00000E+00
         0.00000E+00
         0.00000E+00
         0.00000E+00
         0.00000E+00
         0.00000E+00
         0.00000E+00
         0.00000E+00
         0.00000E+00
         0.00000E+00
         0.00000E+00
         0.00000E+00
         0.00000E+00
         0.00000E+00
         0.00000E+00
         0.00000E+00
         0.00000E+00
         0.00000E+00
         0.00000E+00
         0.00000E+00
         0.00000E+00
         0.00000E+00
         0.00000E+00
         0.00000E+00
         0.00000E+00
         0.00000E+00
         0.00000E+00
         0.00000E+00
         0.00000E+00
         0.00000E+00
         0.00000E+00
         0.00000E+00
         0.00000E+00
         0.00000E+00
         0.00000E+00
         0.00000E+00
         0.00000E+00
         0.00000E+00
         0.00000E+00
         0.00000E+00
         0.00000E+00
         0.00000E+00
         0.00000E+00
         0.00000E+00
         0.00000E+00
         0.00000E+00
         0.00000E+00
         0.00000E+00
         0.00000E+00
         0.00000E+00
         0.00000E+00
         0.00000E+00
         0.00000E+00
         0.00000E+00
         0.00000E+00
         0.00000E+00
         0.00000E+00
         0.00000E+00
         0.00000E+00
         0.00000E+00
         0.00000E+00
         0.00000E+00
         0.00000E+00
         0.00000E+00
         0.00000E+00
         0.00000E+00
         0.00000E+00
         0.00000E+00
         0.00000E+00
         0.00000E+00
         0.00000E+00
         0.00000E+00
         0.00000E+00
         0.00000E+00
         0.00000E+00
         0.00000E+00
         0.00000E+00
         0.00000E+00
         0.00000E+00
         0.00000E+00
         0.00000E+00
         0.00000E+00
         0.00000E+00
         0.00000E+00
         0.00000E+00
         0.00000E+00
         0.00000E+00
         0.00000E+00
         0.00000E+00
         0.00000E+00
         0.00000E+00
         0.00000E+00
         0.00000E+00
         0.00000E+00
         0.00000E+00
         0.00000E+00
         0.00000E+00
         0.00000E+00
         0.00000E+00
         0.00000E+00
         0.00000E+00
         0.00000E+00
         0.00000E+00
         0.00000E+00
         0.00000E+00
         0.00000E+00
         0.00000E+00
         0.00000E+00
         0.00000E+00
         0.00000E+00
         0.00000E+00
         0.00000E+00
         0.00000E+00
         0.00000E+00
         0.00000E+00
         0.00000E+00
         0.00000E+00
         0.00000E+00
         0.00000E+00
         0.00000E+00
         0.00000E+00
         0.00000E+00
         0.00000E+00
         0.00000E+00
         0.00000E+00
         0.00000E+00
         0.00000E+00
         0.00000E+00
         0.00000E+00
         0.00000E+00
         0.00000E+00
         0.00000E+00
         0.00000E+00
         0.00000E+00
         0.00000E+00
         0.00000E+00
         0.00000E+00
         0.00000E+00
         0.00000E+00
         0.00000E+00
         0.00000E+00
         0.00000E+00
         0.00000E+00
         0.00000E+00
         0.00000E+00
         0.00000E+00
         0.00000E+00
         0.00000E+00
         0.00000E+00
         0.00000E+00
         0.00000E+00
         0.00000E+00
         0.00000E+00
         0.00000E+00
         0.00000E+00
         0.00000E+00
         0.00000E+00
         0.00000E+00
         0.00000E+00
         0.00000E+00
         0.00000E+00
         0.00000E+00
         0.00000E+00
         0.00000E+00
         0.00000E+00
         0.00000E+00
         0.00000E+00
         0.00000E+00
         0.00000E+00
         0.00000E+00
         0.00000E+00
         0.00000E+00
         0.00000E+00
         0.00000E+00
         0.00000E+00
         0.00000E+00
         0.00000E+00
         0.00000E+00
         0.00000E+00
         0.00000E+00
         0.00000E+00
         0.00000E+00
         0.00000E+00
         0.00000E+00
         0.00000E+00
         0.00000E+00
         0.00000E+00
         0.00000E+00
         0.00000E+00
         0.00000E+00
         0.00000E+00
         0.00000E+00
         0.00000E+00
         0.00000E+00
  
SCALARS                 acceleration_z  double 1
LOOKUP_TABLE default
         0.00000E+00
         0.00000E+00
         0.00000E+00
         0.00000E+00
         0.00000E+00
         0.00000E+00
         0.00000E+00
         0.00000E+00
         0.00000E+00
         0.00000E+00
         0.00000E+00
         0.00000E+00
         0.00000E+00
         0.00000E+00
         0.00000E+00
         0.00000E+00
         0.00000E+00
         0.00000E+00
         0.00000E+00
         0.00000E+00
         0.00000E+00
         0.00000E+00
         0.00000E+00
         0.00000E+00
         0.00000E+00
         0.00000E+00
         0.00000E+00
         0.00000E+00
         0.00000E+00
         0.00000E+00
         0.00000E+00
         0.00000E+00
         0.00000E+00
         0.00000E+00
         0.00000E+00
         0.00000E+00
         0.00000E+00
         0.00000E+00
         0.00000E+00
         0.00000E+00
         0.00000E+00
         0.00000E+00
         0.00000E+00
         0.00000E+00
         0.00000E+00
         0.00000E+00
         0.00000E+00
         0.00000E+00
         0.00000E+00
         0.00000E+00
         0.00000E+00
         0.00000E+00
         0.00000E+00
         0.00000E+00
         0.00000E+00
         0.00000E+00
         0.00000E+00
         0.00000E+00
         0.00000E+00
         0.00000E+00
         0.00000E+00
         0.00000E+00
         0.00000E+00
         0.00000E+00
         0.00000E+00
         0.00000E+00
         0.00000E+00
         0.00000E+00
         0.00000E+00
         0.00000E+00
         0.00000E+00
         0.00000E+00
         0.00000E+00
         0.00000E+00
         0.00000E+00
         0.00000E+00
         0.00000E+00
         0.00000E+00
         0.00000E+00
         0.00000E+00
         0.00000E+00
         0.00000E+00
         0.00000E+00
         0.00000E+00
         0.00000E+00
         0.00000E+00
         0.00000E+00
         0.00000E+00
         0.00000E+00
         0.00000E+00
         0.00000E+00
         0.00000E+00
         0.00000E+00
         0.00000E+00
         0.00000E+00
         0.00000E+00
         0.00000E+00
         0.00000E+00
         0.00000E+00
         0.00000E+00
         0.00000E+00
         0.00000E+00
         0.00000E+00
         0.00000E+00
         0.00000E+00
         0.00000E+00
         0.00000E+00
         0.00000E+00
         0.00000E+00
         0.00000E+00
         0.00000E+00
         0.00000E+00
         0.00000E+00
         0.00000E+00
         0.00000E+00
         0.00000E+00
         0.00000E+00
         0.00000E+00
         0.00000E+00
         0.00000E+00
         0.00000E+00
         0.00000E+00
         0.00000E+00
         0.00000E+00
         0.00000E+00
         0.00000E+00
         0.00000E+00
         0.00000E+00
         0.00000E+00
         0.00000E+00
         0.00000E+00
         0.00000E+00
         0.00000E+00
         0.00000E+00
         0.00000E+00
         0.00000E+00
         0.00000E+00
         0.00000E+00
         0.00000E+00
         0.00000E+00
         0.00000E+00
         0.00000E+00
         0.00000E+00
         0.00000E+00
         0.00000E+00
         0.00000E+00
         0.00000E+00
         0.00000E+00
         0.00000E+00
         0.00000E+00
         0.00000E+00
         0.00000E+00
         0.00000E+00
         0.00000E+00
         0.00000E+00
         0.00000E+00
         0.00000E+00
         0.00000E+00
         0.00000E+00
         0.00000E+00
         0.00000E+00
         0.00000E+00
         0.00000E+00
         0.00000E+00
         0.00000E+00
         0.00000E+00
         0.00000E+00
         0.00000E+00
         0.00000E+00
         0.00000E+00
         0.00000E+00
         0.00000E+00
         0.00000E+00
         0.00000E+00
         0.00000E+00
         0.00000E+00
         0.00000E+00
         0.00000E+00
         0.00000E+00
         0.00000E+00
         0.00000E+00
         0.00000E+00
         0.00000E+00
         0.00000E+00
         0.00000E+00
         0.00000E+00
         0.00000E+00
         0.00000E+00
         0.00000E+00
         0.00000E+00
         0.00000E+00
         0.00000E+00
         0.00000E+00
         0.00000E+00
         0.00000E+00
         0.00000E+00
         0.00000E+00
         0.00000E+00
         0.00000E+00
         0.00000E+00
         0.00000E+00
         0.00000E+00
         0.00000E+00
         0.00000E+00
         0.00000E+00
         0.00000E+00
         0.00000E+00
         0.00000E+00
         0.00000E+00
         0.00000E+00
         0.00000E+00
         0.00000E+00
         0.00000E+00
         0.00000E+00
         0.00000E+00
         0.00000E+00
         0.00000E+00
         0.00000E+00
         0.00000E+00
         0.00000E+00
         0.00000E+00
         0.00000E+00
         0.00000E+00
         0.00000E+00
         0.00000E+00
         0.00000E+00
         0.00000E+00
         0.00000E+00
         0.00000E+00
         0.00000E+00
         0.00000E+00
         0.00000E+00
         0.00000E+00
         0.00000E+00
         0.00000E+00
         0.00000E+00
         0.00000E+00
         0.00000E+00
         0.00000E+00
         0.00000E+00
         0.00000E+00
         0.00000E+00
         0.00000E+00
         0.00000E+00
         0.00000E+00
         0.00000E+00
         0.00000E+00
         0.00000E+00
         0.00000E+00
         0.00000E+00
         0.00000E+00
         0.00000E+00
         0.00000E+00
         0.00000E+00
         0.00000E+00
         0.00000E+00
         0.00000E+00
         0.00000E+00
         0.00000E+00
         0.00000E+00
         0.00000E+00
         0.00000E+00
         0.00000E+00
         0.00000E+00
         0.00000E+00
         0.00000E+00
         0.00000E+00
         0.00000E+00
         0.00000E+00
         0.00000E+00
         0.00000E+00
         0.00000E+00
         0.00000E+00
         0.00000E+00
         0.00000E+00
         0.00000E+00
         0.00000E+00
         0.00000E+00
         0.00000E+00
         0.00000E+00
         0.00000E+00
         0.00000E+00
         0.00000E+00
         0.00000E+00
         0.00000E+00
         0.00000E+00
         0.00000E+00
         0.00000E+00
         0.00000E+00
         0.00000E+00
         0.00000E+00
         0.00000E+00
         0.00000E+00
         0.00000E+00
         0.00000E+00
         0.00000E+00
         0.00000E+00
         0.00000E+00
         0.00000E+00
         0.00000E+00
         0.00000E+00
         0.00000E+00
         0.00000E+00
         0.00000E+00
         0.00000E+00
         0.00000E+00
         0.00000E+00
         0.00000E+00
         0.00000E+00
         0.00000E+00
         0.00000E+00
         0.00000E+00
         0.00000E+00
         0.00000E+00
         0.00000E+00
         0.00000E+00
         0.00000E+00
         0.00000E+00
         0.00000E+00
         0.00000E+00
         0.00000E+00
         0.00000E+00
         0.00000E+00
         0.00000E+00
         0.00000E+00
         0.00000E+00
         0.00000E+00
         0.00000E+00
         0.00000E+00
         0.00000E+00
         0.00000E+00
         0.00000E+00
         0.00000E+00
         0.00000E+00
         0.00000E+00
         0.00000E+00
         0.00000E+00
         0.00000E+00
         0.00000E+00
         0.00000E+00
         0.00000E+00
         0.00000E+00
         0.00000E+00
         0.00000E+00
         0.00000E+00
         0.00000E+00
         0.00000E+00
         0.00000E+00
         0.00000E+00
         0.00000E+00
         0.00000E+00
         0.00000E+00
         0.00000E+00
         0.00000E+00
         0.00000E+00
         0.00000E+00
         0.00000E+00
         0.00000E+00
         0.00000E+00
         0.00000E+00
         0.00000E+00
         0.00000E+00
         0.00000E+00
         0.00000E+00
         0.00000E+00
         0.00000E+00
         0.00000E+00
         0.00000E+00
         0.00000E+00
         0.00000E+00
         0.00000E+00
         0.00000E+00
         0.00000E+00
         0.00000E+00
         0.00000E+00
         0.00000E+00
         0.00000E+00
         0.00000E+00
         0.00000E+00
         0.00000E+00
         0.00000E+00
         0.00000E+00
         0.00000E+00
         0.00000E+00
         0.00000E+00
         0.00000E+00
         0.00000E+00
         0.00000E+00
         0.00000E+00
         0.00000E+00
         0.00000E+00
         0.00000E+00
         0.00000E+00
         0.00000E+00
         0.00000E+00
         0.00000E+00
         0.00000E+00
         0.00000E+00
         0.00000E+00
         0.00000E+00
         0.00000E+00
         0.00000E+00
         0.00000E+00
         0.00000E+00
         0.00000E+00
         0.00000E+00
         0.00000E+00
         0.00000E+00
         0.00000E+00
         0.00000E+00
         0.00000E+00
         0.00000E+00
         0.00000E+00
         0.00000E+00
         0.00000E+00
         0.00000E+00
         0.00000E+00
         0.00000E+00
         0.00000E+00
         0.00000E+00
         0.00000E+00
         0.00000E+00
         0.00000E+00
         0.00000E+00
         0.00000E+00
         0.00000E+00
         0.00000E+00
         0.00000E+00
         0.00000E+00
         0.00000E+00
         0.00000E+00
         0.00000E+00
         0.00000E+00
         0.00000E+00
         0.00000E+00
         0.00000E+00
         0.00000E+00
         0.00000E+00
         0.00000E+00
         0.00000E+00
         0.00000E+00
         0.00000E+00
         0.00000E+00
         0.00000E+00
         0.00000E+00
         0.00000E+00
         0.00000E+00
         0.00000E+00
         0.00000E+00
         0.00000E+00
         0.00000E+00
         0.00000E+00
         0.00000E+00
         0.00000E+00
         0.00000E+00
         0.00000E+00
         0.00000E+00
         0.00000E+00
         0.00000E+00
         0.00000E+00
         0.00000E+00
         0.00000E+00
         0.00000E+00
         0.00000E+00
         0.00000E+00
         0.00000E+00
         0.00000E+00
         0.00000E+00
         0.00000E+00
         0.00000E+00
         0.00000E+00
         0.00000E+00
         0.00000E+00
         0.00000E+00
         0.00000E+00
         0.00000E+00
         0.00000E+00
         0.00000E+00
         0.00000E+00
         0.00000E+00
         0.00000E+00
         0.00000E+00
         0.00000E+00
         0.00000E+00
         0.00000E+00
         0.00000E+00
         0.00000E+00
         0.00000E+00
         0.00000E+00
         0.00000E+00
         0.00000E+00
         0.00000E+00
         0.00000E+00
         0.00000E+00
         0.00000E+00
         0.00000E+00
         0.00000E+00
         0.00000E+00
         0.00000E+00
         0.00000E+00
         0.00000E+00
         0.00000E+00
         0.00000E+00
         0.00000E+00
         0.00000E+00
         0.00000E+00
         0.00000E+00
         0.00000E+00
         0.00000E+00
         0.00000E+00
         0.00000E+00
         0.00000E+00
         0.00000E+00
         0.00000E+00
         0.00000E+00
         0.00000E+00
         0.00000E+00
         0.00000E+00
         0.00000E+00
         0.00000E+00
         0.00000E+00
         0.00000E+00
         0.00000E+00
         0.00000E+00
         0.00000E+00
         0.00000E+00
         0.00000E+00
         0.00000E+00
         0.00000E+00
         0.00000E+00
         0.00000E+00
         0.00000E+00
         0.00000E+00
         0.00000E+00
         0.00000E+00
         0.00000E+00
         0.00000E+00
         0.00000E+00
         0.00000E+00
         0.00000E+00
         0.00000E+00
         0.00000E+00
         0.00000E+00
         0.00000E+00
         0.00000E+00
         0.00000E+00
         0.00000E+00
         0.00000E+00
         0.00000E+00
         0.00000E+00
         0.00000E+00
         0.00000E+00
         0.00000E+00
         0.00000E+00
         0.00000E+00
         0.00000E+00
         0.00000E+00
         0.00000E+00
         0.00000E+00
         0.00000E+00
         0.00000E+00
         0.00000E+00
         0.00000E+00
         0.00000E+00
         0.00000E+00
         0.00000E+00
         0.00000E+00
         0.00000E+00
         0.00000E+00
         0.00000E+00
         0.00000E+00
         0.00000E+00
         0.00000E+00
         0.00000E+00
         0.00000E+00
         0.00000E+00
         0.00000E+00
         0.00000E+00
         0.00000E+00
         0.00000E+00
         0.00000E+00
         0.00000E+00
         0.00000E+00
         0.00000E+00
         0.00000E+00
         0.00000E+00
         0.00000E+00
         0.00000E+00
         0.00000E+00
         0.00000E+00
         0.00000E+00
         0.00000E+00
         0.00000E+00
         0.00000E+00
         0.00000E+00
         0.00000E+00
         0.00000E+00
         0.00000E+00
         0.00000E+00
         0.00000E+00
         0.00000E+00
         0.00000E+00
         0.00000E+00
         0.00000E+00
         0.00000E+00
         0.00000E+00
         0.00000E+00
         0.00000E+00
         0.00000E+00
         0.00000E+00
         0.00000E+00
         0.00000E+00
         0.00000E+00
         0.00000E+00
         0.00000E+00
         0.00000E+00
         0.00000E+00
         0.00000E+00
         0.00000E+00
         0.00000E+00
         0.00000E+00
         0.00000E+00
         0.00000E+00
         0.00000E+00
         0.00000E+00
         0.00000E+00
         0.00000E+00
         0.00000E+00
         0.00000E+00
         0.00000E+00
         0.00000E+00
         0.00000E+00
         0.00000E+00
         0.00000E+00
         0.00000E+00
         0.00000E+00
         0.00000E+00
         0.00000E+00
         0.00000E+00
         0.00000E+00
         0.00000E+00
         0.00000E+00
         0.00000E+00
         0.00000E+00
         0.00000E+00
         0.00000E+00
         0.00000E+00
         0.00000E+00
         0.00000E+00
         0.00000E+00
         0.00000E+00
         0.00000E+00
         0.00000E+00
         0.00000E+00
         0.00000E+00
         0.00000E+00
         0.00000E+00
         0.00000E+00
         0.00000E+00
         0.00000E+00
         0.00000E+00
         0.00000E+00
         0.00000E+00
         0.00000E+00
         0.00000E+00
         0.00000E+00
         0.00000E+00
         0.00000E+00
         0.00000E+00
         0.00000E+00
         0.00000E+00
         0.00000E+00
         0.00000E+00
         0.00000E+00
         0.00000E+00
         0.00000E+00
         0.00000E+00
         0.00000E+00
         0.00000E+00
         0.00000E+00
         0.00000E+00
         0.00000E+00
         0.00000E+00
         0.00000E+00
         0.00000E+00
         0.00000E+00
         0.00000E+00
         0.00000E+00
         0.00000E+00
         0.00000E+00
         0.00000E+00
         0.00000E+00
         0.00000E+00
         0.00000E+00
         0.00000E+00
         0.00000E+00
         0.00000E+00
         0.00000E+00
         0.00000E+00
         0.00000E+00
         0.00000E+00
         0.00000E+00
         0.00000E+00
         0.00000E+00
         0.00000E+00
         0.00000E+00
         0.00000E+00
         0.00000E+00
         0.00000E+00
         0.00000E+00
         0.00000E+00
         0.00000E+00
         0.00000E+00
         0.00000E+00
         0.00000E+00
         0.00000E+00
         0.00000E+00
         0.00000E+00
         0.00000E+00
         0.00000E+00
         0.00000E+00
         0.00000E+00
         0.00000E+00
         0.00000E+00
         0.00000E+00
         0.00000E+00
         0.00000E+00
         0.00000E+00
         0.00000E+00
         0.00000E+00
         0.00000E+00
         0.00000E+00
         0.00000E+00
         0.00000E+00
         0.00000E+00
         0.00000E+00
         0.00000E+00
         0.00000E+00
         0.00000E+00
         0.00000E+00
         0.00000E+00
         0.00000E+00
         0.00000E+00
         0.00000E+00
         0.00000E+00
         0.00000E+00
         0.00000E+00
         0.00000E+00
         0.00000E+00
         0.00000E+00
         0.00000E+00
         0.00000E+00
         0.00000E+00
         0.00000E+00
         0.00000E+00
         0.00000E+00
         0.00000E+00
         0.00000E+00
         0.00000E+00
         0.00000E+00
         0.00000E+00
         0.00000E+00
         0.00000E+00
         0.00000E+00
         0.00000E+00
         0.00000E+00
         0.00000E+00
         0.00000E+00
         0.00000E+00
         0.00000E+00
         0.00000E+00
         0.00000E+00
         0.00000E+00
         0.00000E+00
         0.00000E+00
         0.00000E+00
         0.00000E+00
         0.00000E+00
         0.00000E+00
         0.00000E+00
         0.00000E+00
         0.00000E+00
         0.00000E+00
         0.00000E+00
         0.00000E+00
         0.00000E+00
         0.00000E+00
         0.00000E+00
         0.00000E+00
         0.00000E+00
         0.00000E+00
         0.00000E+00
         0.00000E+00
         0.00000E+00
         0.00000E+00
         0.00000E+00
         0.00000E+00
         0.00000E+00
         0.00000E+00
         0.00000E+00
         0.00000E+00
         0.00000E+00
         0.00000E+00
         0.00000E+00
         0.00000E+00
         0.00000E+00
         0.00000E+00
         0.00000E+00
         0.00000E+00
         0.00000E+00
         0.00000E+00
         0.00000E+00
         0.00000E+00
         0.00000E+00
         0.00000E+00
         0.00000E+00
         0.00000E+00
         0.00000E+00
         0.00000E+00
         0.00000E+00
         0.00000E+00
         0.00000E+00
         0.00000E+00
         0.00000E+00
         0.00000E+00
         0.00000E+00
         0.00000E+00
         0.00000E+00
         0.00000E+00
         0.00000E+00
         0.00000E+00
         0.00000E+00
         0.00000E+00
         0.00000E+00
         0.00000E+00
         0.00000E+00
         0.00000E+00
         0.00000E+00
         0.00000E+00
         0.00000E+00
         0.00000E+00
         0.00000E+00
         0.00000E+00
         0.00000E+00
         0.00000E+00
         0.00000E+00
         0.00000E+00
         0.00000E+00
         0.00000E+00
         0.00000E+00
         0.00000E+00
         0.00000E+00
         0.00000E+00
         0.00000E+00
         0.00000E+00
         0.00000E+00
         0.00000E+00
         0.00000E+00
         0.00000E+00
         0.00000E+00
         0.00000E+00
         0.00000E+00
         0.00000E+00
         0.00000E+00
         0.00000E+00
         0.00000E+00
         0.00000E+00
         0.00000E+00
         0.00000E+00
         0.00000E+00
         0.00000E+00
         0.00000E+00
         0.00000E+00
         0.00000E+00
         0.00000E+00
         0.00000E+00
         0.00000E+00
         0.00000E+00
         0.00000E+00
         0.00000E+00
         0.00000E+00
         0.00000E+00
         0.00000E+00
         0.00000E+00
         0.00000E+00
         0.00000E+00
         0.00000E+00
         0.00000E+00
         0.00000E+00
         0.00000E+00
         0.00000E+00
         0.00000E+00
         0.00000E+00
         0.00000E+00
         0.00000E+00
         0.00000E+00
         0.00000E+00
         0.00000E+00
         0.00000E+00
         0.00000E+00
         0.00000E+00
         0.00000E+00
         0.00000E+00
         0.00000E+00
         0.00000E+00
         0.00000E+00
         0.00000E+00
         0.00000E+00
         0.00000E+00
         0.00000E+00
         0.00000E+00
         0.00000E+00
         0.00000E+00
         0.00000E+00
         0.00000E+00
         0.00000E+00
         0.00000E+00
         0.00000E+00
         0.00000E+00
         0.00000E+00
         0.00000E+00
         0.00000E+00
         0.00000E+00
         0.00000E+00
         0.00000E+00
         0.00000E+00
         0.00000E+00
         0.00000E+00
         0.00000E+00
         0.00000E+00
         0.00000E+00
         0.00000E+00
         0.00000E+00
         0.00000E+00
         0.00000E+00
         0.00000E+00
         0.00000E+00
         0.00000E+00
         0.00000E+00
         0.00000E+00
         0.00000E+00
         0.00000E+00
         0.00000E+00
         0.00000E+00
         0.00000E+00
         0.00000E+00
         0.00000E+00
         0.00000E+00
         0.00000E+00
         0.00000E+00
         0.00000E+00
         0.00000E+00
         0.00000E+00
         0.00000E+00
         0.00000E+00
         0.00000E+00
         0.00000E+00
         0.00000E+00
         0.00000E+00
         0.00000E+00
         0.00000E+00
         0.00000E+00
         0.00000E+00
         0.00000E+00
         0.00000E+00
         0.00000E+00
         0.00000E+00
         0.00000E+00
         0.00000E+00
         0.00000E+00
         0.00000E+00
         0.00000E+00
         0.00000E+00
         0.00000E+00
         0.00000E+00
         0.00000E+00
         0.00000E+00
         0.00000E+00
         0.00000E+00
         0.00000E+00
         0.00000E+00
         0.00000E+00
         0.00000E+00
         0.00000E+00
         0.00000E+00
         0.00000E+00
         0.00000E+00
         0.00000E+00
         0.00000E+00
         0.00000E+00
         0.00000E+00
         0.00000E+00
         0.00000E+00
         0.00000E+00
         0.00000E+00
         0.00000E+00
         0.00000E+00
         0.00000E+00
         0.00000E+00
         0.00000E+00
         0.00000E+00
         0.00000E+00
         0.00000E+00
         0.00000E+00
         0.00000E+00
         0.00000E+00
         0.00000E+00
         0.00000E+00
         0.00000E+00
         0.00000E+00
         0.00000E+00
         0.00000E+00
         0.00000E+00
         0.00000E+00
         0.00000E+00
         0.00000E+00
         0.00000E+00
         0.00000E+00
         0.00000E+00
         0.00000E+00
         0.00000E+00
         0.00000E+00
         0.00000E+00
         0.00000E+00
         0.00000E+00
         0.00000E+00
         0.00000E+00
         0.00000E+00
         0.00000E+00
         0.00000E+00
         0.00000E+00
         0.00000E+00
         0.00000E+00
         0.00000E+00
         0.00000E+00
         0.00000E+00
         0.00000E+00
         0.00000E+00
         0.00000E+00
         0.00000E+00
         0.00000E+00
         0.00000E+00
         0.00000E+00
         0.00000E+00
         0.00000E+00
         0.00000E+00
         0.00000E+00
         0.00000E+00
         0.00000E+00
         0.00000E+00
         0.00000E+00
         0.00000E+00
         0.00000E+00
         0.00000E+00
         0.00000E+00
         0.00000E+00
         0.00000E+00
         0.00000E+00
         0.00000E+00
         0.00000E+00
         0.00000E+00
         0.00000E+00
         0.00000E+00
         0.00000E+00
         0.00000E+00
         0.00000E+00
         0.00000E+00
         0.00000E+00
         0.00000E+00
         0.00000E+00
         0.00000E+00
         0.00000E+00
         0.00000E+00
         0.00000E+00
         0.00000E+00
         0.00000E+00
         0.00000E+00
         0.00000E+00
         0.00000E+00
         0.00000E+00
         0.00000E+00
         0.00000E+00
         0.00000E+00
         0.00000E+00
         0.00000E+00
         0.00000E+00
         0.00000E+00
         0.00000E+00
         0.00000E+00
         0.00000E+00
         0.00000E+00
         0.00000E+00
         0.00000E+00
         0.00000E+00
         0.00000E+00
         0.00000E+00
         0.00000E+00
         0.00000E+00
         0.00000E+00
         0.00000E+00
         0.00000E+00
         0.00000E+00
         0.00000E+00
         0.00000E+00
         0.00000E+00
         0.00000E+00
         0.00000E+00
         0.00000E+00
         0.00000E+00
         0.00000E+00
         0.00000E+00
         0.00000E+00
         0.00000E+00
         0.00000E+00
         0.00000E+00
         0.00000E+00
         0.00000E+00
         0.00000E+00
         0.00000E+00
         0.00000E+00
         0.00000E+00
         0.00000E+00
         0.00000E+00
         0.00000E+00
         0.00000E+00
         0.00000E+00
         0.00000E+00
         0.00000E+00
         0.00000E+00
         0.00000E+00
         0.00000E+00
         0.00000E+00
         0.00000E+00
         0.00000E+00
         0.00000E+00
         0.00000E+00
         0.00000E+00
         0.00000E+00
         0.00000E+00
         0.00000E+00
         0.00000E+00
         0.00000E+00
         0.00000E+00
         0.00000E+00
         0.00000E+00
         0.00000E+00
         0.00000E+00
         0.00000E+00
         0.00000E+00
         0.00000E+00
         0.00000E+00
         0.00000E+00
         0.00000E+00
         0.00000E+00
         0.00000E+00
         0.00000E+00
         0.00000E+00
         0.00000E+00
         0.00000E+00
         0.00000E+00
         0.00000E+00
         0.00000E+00
         0.00000E+00
         0.00000E+00
         0.00000E+00
         0.00000E+00
         0.00000E+00
         0.00000E+00
         0.00000E+00
         0.00000E+00
         0.00000E+00
         0.00000E+00
         0.00000E+00
         0.00000E+00
         0.00000E+00
         0.00000E+00
         0.00000E+00
         0.00000E+00
         0.00000E+00
         0.00000E+00
         0.00000E+00
         0.00000E+00
         0.00000E+00
         0.00000E+00
         0.00000E+00
         0.00000E+00
         0.00000E+00
         0.00000E+00
         0.00000E+00
         0.00000E+00
         0.00000E+00
         0.00000E+00
         0.00000E+00
         0.00000E+00
         0.00000E+00
         0.00000E+00
         0.00000E+00
         0.00000E+00
         0.00000E+00
         0.00000E+00
         0.00000E+00
         0.00000E+00
         0.00000E+00
         0.00000E+00
         0.00000E+00
         0.00000E+00
         0.00000E+00
         0.00000E+00
         0.00000E+00
         0.00000E+00
         0.00000E+00
         0.00000E+00
         0.00000E+00
         0.00000E+00
         0.00000E+00
         0.00000E+00
         0.00000E+00
         0.00000E+00
         0.00000E+00
         0.00000E+00
         0.00000E+00
         0.00000E+00
         0.00000E+00
         0.00000E+00
         0.00000E+00
         0.00000E+00
         0.00000E+00
         0.00000E+00
         0.00000E+00
         0.00000E+00
         0.00000E+00
         0.00000E+00
         0.00000E+00
         0.00000E+00
         0.00000E+00
         0.00000E+00
         0.00000E+00
         0.00000E+00
         0.00000E+00
         0.00000E+00
         0.00000E+00
         0.00000E+00
         0.00000E+00
         0.00000E+00
         0.00000E+00
         0.00000E+00
         0.00000E+00
         0.00000E+00
         0.00000E+00
         0.00000E+00
         0.00000E+00
         0.00000E+00
         0.00000E+00
         0.00000E+00
         0.00000E+00
         0.00000E+00
         0.00000E+00
         0.00000E+00
         0.00000E+00
         0.00000E+00
         0.00000E+00
         0.00000E+00
         0.00000E+00
         0.00000E+00
         0.00000E+00
         0.00000E+00
         0.00000E+00
         0.00000E+00
         0.00000E+00
         0.00000E+00
         0.00000E+00
         0.00000E+00
         0.00000E+00
         0.00000E+00
         0.00000E+00
         0.00000E+00
         0.00000E+00
         0.00000E+00
         0.00000E+00
         0.00000E+00
         0.00000E+00
         0.00000E+00
         0.00000E+00
         0.00000E+00
         0.00000E+00
         0.00000E+00
         0.00000E+00
         0.00000E+00
         0.00000E+00
         0.00000E+00
         0.00000E+00
         0.00000E+00
         0.00000E+00
         0.00000E+00
         0.00000E+00
         0.00000E+00
         0.00000E+00
         0.00000E+00
         0.00000E+00
         0.00000E+00
         0.00000E+00
         0.00000E+00
         0.00000E+00
         0.00000E+00
         0.00000E+00
         0.00000E+00
         0.00000E+00
         0.00000E+00
         0.00000E+00
         0.00000E+00
         0.00000E+00
         0.00000E+00
         0.00000E+00
         0.00000E+00
         0.00000E+00
         0.00000E+00
         0.00000E+00
         0.00000E+00
         0.00000E+00
         0.00000E+00
         0.00000E+00
         0.00000E+00
         0.00000E+00
         0.00000E+00
         0.00000E+00
         0.00000E+00
         0.00000E+00
         0.00000E+00
         0.00000E+00
         0.00000E+00
         0.00000E+00
         0.00000E+00
         0.00000E+00
         0.00000E+00
         0.00000E+00
         0.00000E+00
         0.00000E+00
         0.00000E+00
         0.00000E+00
         0.00000E+00
         0.00000E+00
         0.00000E+00
         0.00000E+00
         0.00000E+00
         0.00000E+00
         0.00000E+00
         0.00000E+00
         0.00000E+00
         0.00000E+00
         0.00000E+00
         0.00000E+00
         0.00000E+00
         0.00000E+00
         0.00000E+00
         0.00000E+00
         0.00000E+00
         0.00000E+00
         0.00000E+00
         0.00000E+00
         0.00000E+00
         0.00000E+00
         0.00000E+00
         0.00000E+00
         0.00000E+00
         0.00000E+00
         0.00000E+00
         0.00000E+00
         0.00000E+00
         0.00000E+00
         0.00000E+00
         0.00000E+00
         0.00000E+00
         0.00000E+00
         0.00000E+00
         0.00000E+00
         0.00000E+00
         0.00000E+00
         0.00000E+00
         0.00000E+00
         0.00000E+00
         0.00000E+00
         0.00000E+00
         0.00000E+00
         0.00000E+00
         0.00000E+00
         0.00000E+00
         0.00000E+00
         0.00000E+00
         0.00000E+00
         0.00000E+00
         0.00000E+00
         0.00000E+00
         0.00000E+00
         0.00000E+00
         0.00000E+00
         0.00000E+00
         0.00000E+00
         0.00000E+00
         0.00000E+00
         0.00000E+00
         0.00000E+00
         0.00000E+00
         0.00000E+00
         0.00000E+00
         0.00000E+00
         0.00000E+00
         0.00000E+00
         0.00000E+00
         0.00000E+00
         0.00000E+00
         0.00000E+00
         0.00000E+00
         0.00000E+00
         0.00000E+00
         0.00000E+00
         0.00000E+00
         0.00000E+00
         0.00000E+00
         0.00000E+00
         0.00000E+00
         0.00000E+00
         0.00000E+00
         0.00000E+00
         0.00000E+00
         0.00000E+00
         0.00000E+00
         0.00000E+00
         0.00000E+00
         0.00000E+00
         0.00000E+00
         0.00000E+00
         0.00000E+00
         0.00000E+00
         0.00000E+00
         0.00000E+00
         0.00000E+00
         0.00000E+00
         0.00000E+00
         0.00000E+00
         0.00000E+00
         0.00000E+00
         0.00000E+00
         0.00000E+00
         0.00000E+00
         0.00000E+00
         0.00000E+00
         0.00000E+00
         0.00000E+00
         0.00000E+00
         0.00000E+00
         0.00000E+00
         0.00000E+00
         0.00000E+00
         0.00000E+00
         0.00000E+00
         0.00000E+00
         0.00000E+00
         0.00000E+00
         0.00000E+00
         0.00000E+00
         0.00000E+00
         0.00000E+00
         0.00000E+00
         0.00000E+00
         0.00000E+00
         0.00000E+00
         0.00000E+00
         0.00000E+00
         0.00000E+00
         0.00000E+00
         0.00000E+00
         0.00000E+00
         0.00000E+00
         0.00000E+00
         0.00000E+00
         0.00000E+00
         0.00000E+00
         0.00000E+00
         0.00000E+00
         0.00000E+00
         0.00000E+00
         0.00000E+00
         0.00000E+00
         0.00000E+00
         0.00000E+00
         0.00000E+00
         0.00000E+00
         0.00000E+00
         0.00000E+00
         0.00000E+00
         0.00000E+00
         0.00000E+00
         0.00000E+00
         0.00000E+00
         0.00000E+00
         0.00000E+00
         0.00000E+00
         0.00000E+00
         0.00000E+00
         0.00000E+00
         0.00000E+00
         0.00000E+00
         0.00000E+00
         0.00000E+00
         0.00000E+00
         0.00000E+00
         0.00000E+00
         0.00000E+00
         0.00000E+00
         0.00000E+00
         0.00000E+00
         0.00000E+00
         0.00000E+00
         0.00000E+00
         0.00000E+00
         0.00000E+00
         0.00000E+00
         0.00000E+00
         0.00000E+00
         0.00000E+00
         0.00000E+00
         0.00000E+00
         0.00000E+00
         0.00000E+00
         0.00000E+00
         0.00000E+00
         0.00000E+00
         0.00000E+00
         0.00000E+00
         0.00000E+00
         0.00000E+00
         0.00000E+00
         0.00000E+00
         0.00000E+00
         0.00000E+00
         0.00000E+00
         0.00000E+00
         0.00000E+00
         0.00000E+00
         0.00000E+00
         0.00000E+00
         0.00000E+00
         0.00000E+00
         0.00000E+00
         0.00000E+00
         0.00000E+00
         0.00000E+00
         0.00000E+00
         0.00000E+00
         0.00000E+00
         0.00000E+00
         0.00000E+00
         0.00000E+00
         0.00000E+00
         0.00000E+00
         0.00000E+00
         0.00000E+00
         0.00000E+00
         0.00000E+00
         0.00000E+00
         0.00000E+00
         0.00000E+00
         0.00000E+00
         0.00000E+00
         0.00000E+00
         0.00000E+00
         0.00000E+00
         0.00000E+00
         0.00000E+00
         0.00000E+00
         0.00000E+00
         0.00000E+00
         0.00000E+00
         0.00000E+00
         0.00000E+00
         0.00000E+00
         0.00000E+00
         0.00000E+00
         0.00000E+00
         0.00000E+00
         0.00000E+00
         0.00000E+00
         0.00000E+00
         0.00000E+00
         0.00000E+00
         0.00000E+00
         0.00000E+00
         0.00000E+00
         0.00000E+00
         0.00000E+00
         0.00000E+00
         0.00000E+00
         0.00000E+00
         0.00000E+00
         0.00000E+00
         0.00000E+00
         0.00000E+00
         0.00000E+00
         0.00000E+00
         0.00000E+00
         0.00000E+00
         0.00000E+00
         0.00000E+00
         0.00000E+00
         0.00000E+00
         0.00000E+00
         0.00000E+00
         0.00000E+00
         0.00000E+00
         0.00000E+00
         0.00000E+00
         0.00000E+00
         0.00000E+00
         0.00000E+00
         0.00000E+00
         0.00000E+00
         0.00000E+00
         0.00000E+00
         0.00000E+00
         0.00000E+00
         0.00000E+00
         0.00000E+00
         0.00000E+00
         0.00000E+00
         0.00000E+00
         0.00000E+00
         0.00000E+00
         0.00000E+00
         0.00000E+00
         0.00000E+00
         0.00000E+00
         0.00000E+00
         0.00000E+00
         0.00000E+00
         0.00000E+00
         0.00000E+00
         0.00000E+00
         0.00000E+00
         0.00000E+00
         0.00000E+00
         0.00000E+00
         0.00000E+00
         0.00000E+00
         0.00000E+00
         0.00000E+00
         0.00000E+00
         0.00000E+00
         0.00000E+00
         0.00000E+00
         0.00000E+00
         0.00000E+00
         0.00000E+00
         0.00000E+00
         0.00000E+00
         0.00000E+00
         0.00000E+00
         0.00000E+00
         0.00000E+00
         0.00000E+00
         0.00000E+00
         0.00000E+00
         0.00000E+00
         0.00000E+00
         0.00000E+00
         0.00000E+00
         0.00000E+00
         0.00000E+00
         0.00000E+00
         0.00000E+00
         0.00000E+00
         0.00000E+00
         0.00000E+00
         0.00000E+00
         0.00000E+00
         0.00000E+00
         0.00000E+00
         0.00000E+00
         0.00000E+00
         0.00000E+00
         0.00000E+00
         0.00000E+00
         0.00000E+00
         0.00000E+00
         0.00000E+00
         0.00000E+00
         0.00000E+00
         0.00000E+00
         0.00000E+00
         0.00000E+00
         0.00000E+00
         0.00000E+00
         0.00000E+00
         0.00000E+00
         0.00000E+00
         0.00000E+00
         0.00000E+00
         0.00000E+00
         0.00000E+00
         0.00000E+00
         0.00000E+00
         0.00000E+00
         0.00000E+00
         0.00000E+00
         0.00000E+00
         0.00000E+00
         0.00000E+00
         0.00000E+00
         0.00000E+00
         0.00000E+00
         0.00000E+00
         0.00000E+00
         0.00000E+00
         0.00000E+00
         0.00000E+00
         0.00000E+00
         0.00000E+00
         0.00000E+00
         0.00000E+00
         0.00000E+00
         0.00000E+00
         0.00000E+00
         0.00000E+00
         0.00000E+00
         0.00000E+00
         0.00000E+00
         0.00000E+00
         0.00000E+00
         0.00000E+00
         0.00000E+00
         0.00000E+00
         0.00000E+00
         0.00000E+00
         0.00000E+00
         0.00000E+00
         0.00000E+00
         0.00000E+00
         0.00000E+00
         0.00000E+00
         0.00000E+00
         0.00000E+00
         0.00000E+00
         0.00000E+00
         0.00000E+00
         0.00000E+00
         0.00000E+00
         0.00000E+00
         0.00000E+00
         0.00000E+00
         0.00000E+00
         0.00000E+00
         0.00000E+00
         0.00000E+00
         0.00000E+00
         0.00000E+00
         0.00000E+00
         0.00000E+00
         0.00000E+00
         0.00000E+00
         0.00000E+00
         0.00000E+00
         0.00000E+00
         0.00000E+00
         0.00000E+00
         0.00000E+00
         0.00000E+00
         0.00000E+00
         0.00000E+00
         0.00000E+00
         0.00000E+00
         0.00000E+00
         0.00000E+00
         0.00000E+00
         0.00000E+00
         0.00000E+00
         0.00000E+00
         0.00000E+00
         0.00000E+00
         0.00000E+00
         0.00000E+00
         0.00000E+00
         0.00000E+00
         0.00000E+00
         0.00000E+00
         0.00000E+00
         0.00000E+00
         0.00000E+00
         0.00000E+00
         0.00000E+00
         0.00000E+00
         0.00000E+00
         0.00000E+00
         0.00000E+00
         0.00000E+00
         0.00000E+00
         0.00000E+00
         0.00000E+00
         0.00000E+00
         0.00000E+00
         0.00000E+00
         0.00000E+00
         0.00000E+00
         0.00000E+00
         0.00000E+00
         0.00000E+00
         0.00000E+00
         0.00000E+00
         0.00000E+00
         0.00000E+00
         0.00000E+00
         0.00000E+00
         0.00000E+00
         0.00000E+00
         0.00000E+00
         0.00000E+00
         0.00000E+00
         0.00000E+00
         0.00000E+00
         0.00000E+00
         0.00000E+00
         0.00000E+00
         0.00000E+00
         0.00000E+00
         0.00000E+00
         0.00000E+00
         0.00000E+00
         0.00000E+00
         0.00000E+00
         0.00000E+00
         0.00000E+00
         0.00000E+00
         0.00000E+00
         0.00000E+00
         0.00000E+00
         0.00000E+00
         0.00000E+00
         0.00000E+00
         0.00000E+00
         0.00000E+00
         0.00000E+00
         0.00000E+00
         0.00000E+00
         0.00000E+00
         0.00000E+00
         0.00000E+00
         0.00000E+00
         0.00000E+00
         0.00000E+00
         0.00000E+00
         0.00000E+00
         0.00000E+00
         0.00000E+00
         0.00000E+00
         0.00000E+00
         0.00000E+00
         0.00000E+00
         0.00000E+00
         0.00000E+00
         0.00000E+00
         0.00000E+00
         0.00000E+00
         0.00000E+00
         0.00000E+00
         0.00000E+00
         0.00000E+00
         0.00000E+00
         0.00000E+00
         0.00000E+00
         0.00000E+00
         0.00000E+00
         0.00000E+00
         0.00000E+00
         0.00000E+00
         0.00000E+00
         0.00000E+00
         0.00000E+00
         0.00000E+00
         0.00000E+00
         0.00000E+00
         0.00000E+00
         0.00000E+00
         0.00000E+00
         0.00000E+00
         0.00000E+00
         0.00000E+00
         0.00000E+00
         0.00000E+00
         0.00000E+00
         0.00000E+00
         0.00000E+00
         0.00000E+00
         0.00000E+00
         0.00000E+00
         0.00000E+00
         0.00000E+00
         0.00000E+00
         0.00000E+00
         0.00000E+00
         0.00000E+00
         0.00000E+00
         0.00000E+00
         0.00000E+00
         0.00000E+00
         0.00000E+00
         0.00000E+00
         0.00000E+00
         0.00000E+00
         0.00000E+00
         0.00000E+00
         0.00000E+00
         0.00000E+00
         0.00000E+00
         0.00000E+00
         0.00000E+00
         0.00000E+00
         0.00000E+00
         0.00000E+00
         0.00000E+00
         0.00000E+00
         0.00000E+00
         0.00000E+00
         0.00000E+00
         0.00000E+00
         0.00000E+00
         0.00000E+00
         0.00000E+00
         0.00000E+00
         0.00000E+00
         0.00000E+00
         0.00000E+00
         0.00000E+00
         0.00000E+00
         0.00000E+00
         0.00000E+00
         0.00000E+00
         0.00000E+00
         0.00000E+00
         0.00000E+00
         0.00000E+00
         0.00000E+00
         0.00000E+00
         0.00000E+00
         0.00000E+00
         0.00000E+00
         0.00000E+00
         0.00000E+00
         0.00000E+00
         0.00000E+00
         0.00000E+00
         0.00000E+00
         0.00000E+00
  
SCALARS                         fint_x  double 1
LOOKUP_TABLE default
         0.00000E+00
         0.00000E+00
         0.00000E+00
         0.00000E+00
         0.00000E+00
         0.00000E+00
         0.00000E+00
         0.00000E+00
         0.00000E+00
         0.00000E+00
         0.00000E+00
         0.00000E+00
         0.00000E+00
         0.00000E+00
         0.00000E+00
         0.00000E+00
         0.00000E+00
         0.00000E+00
         0.00000E+00
         0.00000E+00
         0.00000E+00
         0.00000E+00
         0.00000E+00
         0.00000E+00
         0.00000E+00
         0.00000E+00
         0.00000E+00
         0.00000E+00
         0.00000E+00
         0.00000E+00
         0.00000E+00
         0.00000E+00
         0.00000E+00
         0.00000E+00
         0.00000E+00
         0.00000E+00
         0.00000E+00
         0.00000E+00
         0.00000E+00
         0.00000E+00
         0.00000E+00
         0.00000E+00
         0.00000E+00
         0.00000E+00
         0.00000E+00
         0.00000E+00
         0.00000E+00
         0.00000E+00
         0.00000E+00
         0.00000E+00
         0.00000E+00
         0.00000E+00
         0.00000E+00
         0.00000E+00
         0.00000E+00
         0.00000E+00
         0.00000E+00
         0.00000E+00
         0.00000E+00
         0.00000E+00
         0.00000E+00
         0.00000E+00
         0.00000E+00
         0.00000E+00
         0.00000E+00
         0.00000E+00
         0.00000E+00
         0.00000E+00
         0.00000E+00
         0.00000E+00
         0.00000E+00
         0.00000E+00
         0.00000E+00
         0.00000E+00
         0.00000E+00
         0.00000E+00
         0.00000E+00
         0.00000E+00
         0.00000E+00
         0.00000E+00
         0.00000E+00
         0.00000E+00
         0.00000E+00
         0.00000E+00
         0.00000E+00
         0.00000E+00
         0.00000E+00
         0.00000E+00
         0.00000E+00
         0.00000E+00
         0.00000E+00
         0.00000E+00
         0.00000E+00
         0.00000E+00
         0.00000E+00
         0.00000E+00
         0.00000E+00
         0.00000E+00
         0.00000E+00
         0.00000E+00
         0.00000E+00
         0.00000E+00
         0.00000E+00
         0.00000E+00
         0.00000E+00
         0.00000E+00
         0.00000E+00
         0.00000E+00
         0.00000E+00
         0.00000E+00
         0.00000E+00
         0.00000E+00
         0.00000E+00
         0.00000E+00
         0.00000E+00
         0.00000E+00
         0.00000E+00
         0.00000E+00
         0.00000E+00
         0.00000E+00
         0.00000E+00
         0.00000E+00
         0.00000E+00
         0.00000E+00
         0.00000E+00
         0.00000E+00
         0.00000E+00
         0.00000E+00
         0.00000E+00
         0.00000E+00
         0.00000E+00
         0.00000E+00
         0.00000E+00
         0.00000E+00
         0.00000E+00
         0.00000E+00
         0.00000E+00
         0.00000E+00
         0.00000E+00
         0.00000E+00
         0.00000E+00
         0.00000E+00
         0.00000E+00
         0.00000E+00
         0.00000E+00
         0.00000E+00
         0.00000E+00
         0.00000E+00
         0.00000E+00
         0.00000E+00
         0.00000E+00
         0.00000E+00
         0.00000E+00
         0.00000E+00
         0.00000E+00
         0.00000E+00
         0.00000E+00
         0.00000E+00
         0.00000E+00
         0.00000E+00
         0.00000E+00
         0.00000E+00
         0.00000E+00
         0.00000E+00
         0.00000E+00
         0.00000E+00
         0.00000E+00
         0.00000E+00
         0.00000E+00
         0.00000E+00
         0.00000E+00
         0.00000E+00
         0.00000E+00
         0.00000E+00
         0.00000E+00
         0.00000E+00
         0.00000E+00
         0.00000E+00
         0.00000E+00
         0.00000E+00
         0.00000E+00
         0.00000E+00
         0.00000E+00
         0.00000E+00
         0.00000E+00
         0.00000E+00
         0.00000E+00
         0.00000E+00
         0.00000E+00
         0.00000E+00
         0.00000E+00
         0.00000E+00
         0.00000E+00
         0.00000E+00
         0.00000E+00
         0.00000E+00
         0.00000E+00
         0.00000E+00
         0.00000E+00
         0.00000E+00
         0.00000E+00
         0.00000E+00
         0.00000E+00
         0.00000E+00
         0.00000E+00
         0.00000E+00
         0.00000E+00
         0.00000E+00
         0.00000E+00
         0.00000E+00
         0.00000E+00
         0.00000E+00
         0.00000E+00
         0.00000E+00
         0.00000E+00
         0.00000E+00
         0.00000E+00
         0.00000E+00
         0.00000E+00
         0.00000E+00
         0.00000E+00
         0.00000E+00
         0.00000E+00
         0.00000E+00
         0.00000E+00
         0.00000E+00
         0.00000E+00
         0.00000E+00
         0.00000E+00
         0.00000E+00
         0.00000E+00
         0.00000E+00
         0.00000E+00
         0.00000E+00
         0.00000E+00
         0.00000E+00
         0.00000E+00
         0.00000E+00
         0.00000E+00
         0.00000E+00
         0.00000E+00
         0.00000E+00
         0.00000E+00
         0.00000E+00
         0.00000E+00
         0.00000E+00
         0.00000E+00
         0.00000E+00
         0.00000E+00
         0.00000E+00
         0.00000E+00
         0.00000E+00
         0.00000E+00
         0.00000E+00
         0.00000E+00
         0.00000E+00
         0.00000E+00
         0.00000E+00
         0.00000E+00
         0.00000E+00
         0.00000E+00
         0.00000E+00
         0.00000E+00
         0.00000E+00
         0.00000E+00
         0.00000E+00
         0.00000E+00
         0.00000E+00
         0.00000E+00
         0.00000E+00
         0.00000E+00
         0.00000E+00
         0.00000E+00
         0.00000E+00
         0.00000E+00
         0.00000E+00
         0.00000E+00
         0.00000E+00
         0.00000E+00
         0.00000E+00
         0.00000E+00
         0.00000E+00
         0.00000E+00
         0.00000E+00
         0.00000E+00
         0.00000E+00
         0.00000E+00
         0.00000E+00
         0.00000E+00
         0.00000E+00
         0.00000E+00
         0.00000E+00
         0.00000E+00
         0.00000E+00
         0.00000E+00
         0.00000E+00
         0.00000E+00
         0.00000E+00
         0.00000E+00
         0.00000E+00
         0.00000E+00
         0.00000E+00
         0.00000E+00
         0.00000E+00
         0.00000E+00
         0.00000E+00
         0.00000E+00
         0.00000E+00
         0.00000E+00
         0.00000E+00
         0.00000E+00
         0.00000E+00
         0.00000E+00
         0.00000E+00
         0.00000E+00
         0.00000E+00
         0.00000E+00
         0.00000E+00
         0.00000E+00
         0.00000E+00
         0.00000E+00
         0.00000E+00
         0.00000E+00
         0.00000E+00
         0.00000E+00
         0.00000E+00
         0.00000E+00
         0.00000E+00
         0.00000E+00
         0.00000E+00
         0.00000E+00
         0.00000E+00
         0.00000E+00
         0.00000E+00
         0.00000E+00
         0.00000E+00
         0.00000E+00
         0.00000E+00
         0.00000E+00
         0.00000E+00
         0.00000E+00
         0.00000E+00
         0.00000E+00
         0.00000E+00
         0.00000E+00
         0.00000E+00
         0.00000E+00
         0.00000E+00
         0.00000E+00
         0.00000E+00
         0.00000E+00
         0.00000E+00
         0.00000E+00
         0.00000E+00
         0.00000E+00
         0.00000E+00
         0.00000E+00
         0.00000E+00
         0.00000E+00
         0.00000E+00
         0.00000E+00
         0.00000E+00
         0.00000E+00
         0.00000E+00
         0.00000E+00
         0.00000E+00
         0.00000E+00
         0.00000E+00
         0.00000E+00
         0.00000E+00
         0.00000E+00
         0.00000E+00
         0.00000E+00
         0.00000E+00
         0.00000E+00
         0.00000E+00
         0.00000E+00
         0.00000E+00
         0.00000E+00
         0.00000E+00
         0.00000E+00
         0.00000E+00
         0.00000E+00
         0.00000E+00
         0.00000E+00
         0.00000E+00
         0.00000E+00
         0.00000E+00
         0.00000E+00
         0.00000E+00
         0.00000E+00
         0.00000E+00
         0.00000E+00
         0.00000E+00
         0.00000E+00
         0.00000E+00
         0.00000E+00
         0.00000E+00
         0.00000E+00
         0.00000E+00
         0.00000E+00
         0.00000E+00
         0.00000E+00
         0.00000E+00
         0.00000E+00
         0.00000E+00
         0.00000E+00
         0.00000E+00
         0.00000E+00
         0.00000E+00
         0.00000E+00
         0.00000E+00
         0.00000E+00
         0.00000E+00
         0.00000E+00
         0.00000E+00
         0.00000E+00
         0.00000E+00
         0.00000E+00
         0.00000E+00
         0.00000E+00
         0.00000E+00
         0.00000E+00
         0.00000E+00
         0.00000E+00
         0.00000E+00
         0.00000E+00
         0.00000E+00
         0.00000E+00
         0.00000E+00
         0.00000E+00
         0.00000E+00
         0.00000E+00
         0.00000E+00
         0.00000E+00
         0.00000E+00
         0.00000E+00
         0.00000E+00
         0.00000E+00
         0.00000E+00
         0.00000E+00
         0.00000E+00
         0.00000E+00
         0.00000E+00
         0.00000E+00
         0.00000E+00
         0.00000E+00
         0.00000E+00
         0.00000E+00
         0.00000E+00
         0.00000E+00
         0.00000E+00
         0.00000E+00
         0.00000E+00
         0.00000E+00
         0.00000E+00
         0.00000E+00
         0.00000E+00
         0.00000E+00
         0.00000E+00
         0.00000E+00
         0.00000E+00
         0.00000E+00
         0.00000E+00
         0.00000E+00
         0.00000E+00
         0.00000E+00
         0.00000E+00
         0.00000E+00
         0.00000E+00
         0.00000E+00
         0.00000E+00
         0.00000E+00
         0.00000E+00
         0.00000E+00
         0.00000E+00
         0.00000E+00
         0.00000E+00
         0.00000E+00
         0.00000E+00
         0.00000E+00
         0.00000E+00
         0.00000E+00
         0.00000E+00
         0.00000E+00
         0.00000E+00
         0.00000E+00
         0.00000E+00
         0.00000E+00
         0.00000E+00
         0.00000E+00
         0.00000E+00
         0.00000E+00
         0.00000E+00
         0.00000E+00
         0.00000E+00
         0.00000E+00
         0.00000E+00
         0.00000E+00
         0.00000E+00
         0.00000E+00
         0.00000E+00
         0.00000E+00
         0.00000E+00
         0.00000E+00
         0.00000E+00
         0.00000E+00
         0.00000E+00
         0.00000E+00
         0.00000E+00
         0.00000E+00
         0.00000E+00
         0.00000E+00
         0.00000E+00
         0.00000E+00
         0.00000E+00
         0.00000E+00
         0.00000E+00
         0.00000E+00
         0.00000E+00
         0.00000E+00
         0.00000E+00
         0.00000E+00
         0.00000E+00
         0.00000E+00
         0.00000E+00
         0.00000E+00
         0.00000E+00
         0.00000E+00
         0.00000E+00
         0.00000E+00
         0.00000E+00
         0.00000E+00
         0.00000E+00
         0.00000E+00
         0.00000E+00
         0.00000E+00
         0.00000E+00
         0.00000E+00
         0.00000E+00
         0.00000E+00
         0.00000E+00
         0.00000E+00
         0.00000E+00
         0.00000E+00
         0.00000E+00
         0.00000E+00
         0.00000E+00
         0.00000E+00
         0.00000E+00
         0.00000E+00
         0.00000E+00
         0.00000E+00
         0.00000E+00
         0.00000E+00
         0.00000E+00
         0.00000E+00
         0.00000E+00
         0.00000E+00
         0.00000E+00
         0.00000E+00
         0.00000E+00
         0.00000E+00
         0.00000E+00
         0.00000E+00
         0.00000E+00
         0.00000E+00
         0.00000E+00
         0.00000E+00
         0.00000E+00
         0.00000E+00
         0.00000E+00
         0.00000E+00
         0.00000E+00
         0.00000E+00
         0.00000E+00
         0.00000E+00
         0.00000E+00
         0.00000E+00
         0.00000E+00
         0.00000E+00
         0.00000E+00
         0.00000E+00
         0.00000E+00
         0.00000E+00
         0.00000E+00
         0.00000E+00
         0.00000E+00
         0.00000E+00
         0.00000E+00
         0.00000E+00
         0.00000E+00
         0.00000E+00
         0.00000E+00
         0.00000E+00
         0.00000E+00
         0.00000E+00
         0.00000E+00
         0.00000E+00
         0.00000E+00
         0.00000E+00
         0.00000E+00
         0.00000E+00
         0.00000E+00
         0.00000E+00
         0.00000E+00
         0.00000E+00
         0.00000E+00
         0.00000E+00
         0.00000E+00
         0.00000E+00
         0.00000E+00
         0.00000E+00
         0.00000E+00
         0.00000E+00
         0.00000E+00
         0.00000E+00
         0.00000E+00
         0.00000E+00
         0.00000E+00
         0.00000E+00
         0.00000E+00
         0.00000E+00
         0.00000E+00
         0.00000E+00
         0.00000E+00
         0.00000E+00
         0.00000E+00
         0.00000E+00
         0.00000E+00
         0.00000E+00
         0.00000E+00
         0.00000E+00
         0.00000E+00
         0.00000E+00
         0.00000E+00
         0.00000E+00
         0.00000E+00
         0.00000E+00
         0.00000E+00
         0.00000E+00
         0.00000E+00
         0.00000E+00
         0.00000E+00
         0.00000E+00
         0.00000E+00
         0.00000E+00
         0.00000E+00
         0.00000E+00
         0.00000E+00
         0.00000E+00
         0.00000E+00
         0.00000E+00
         0.00000E+00
         0.00000E+00
         0.00000E+00
         0.00000E+00
         0.00000E+00
         0.00000E+00
         0.00000E+00
         0.00000E+00
         0.00000E+00
         0.00000E+00
         0.00000E+00
         0.00000E+00
         0.00000E+00
         0.00000E+00
         0.00000E+00
         0.00000E+00
         0.00000E+00
         0.00000E+00
         0.00000E+00
         0.00000E+00
         0.00000E+00
         0.00000E+00
         0.00000E+00
         0.00000E+00
         0.00000E+00
         0.00000E+00
         0.00000E+00
         0.00000E+00
         0.00000E+00
         0.00000E+00
         0.00000E+00
         0.00000E+00
         0.00000E+00
         0.00000E+00
         0.00000E+00
         0.00000E+00
         0.00000E+00
         0.00000E+00
         0.00000E+00
         0.00000E+00
         0.00000E+00
         0.00000E+00
         0.00000E+00
         0.00000E+00
         0.00000E+00
         0.00000E+00
         0.00000E+00
         0.00000E+00
         0.00000E+00
         0.00000E+00
         0.00000E+00
         0.00000E+00
         0.00000E+00
         0.00000E+00
         0.00000E+00
         0.00000E+00
         0.00000E+00
         0.00000E+00
         0.00000E+00
         0.00000E+00
         0.00000E+00
         0.00000E+00
         0.00000E+00
         0.00000E+00
         0.00000E+00
         0.00000E+00
         0.00000E+00
         0.00000E+00
         0.00000E+00
         0.00000E+00
         0.00000E+00
         0.00000E+00
         0.00000E+00
         0.00000E+00
         0.00000E+00
         0.00000E+00
         0.00000E+00
         0.00000E+00
         0.00000E+00
         0.00000E+00
         0.00000E+00
         0.00000E+00
         0.00000E+00
         0.00000E+00
         0.00000E+00
         0.00000E+00
         0.00000E+00
         0.00000E+00
         0.00000E+00
         0.00000E+00
         0.00000E+00
         0.00000E+00
         0.00000E+00
         0.00000E+00
         0.00000E+00
         0.00000E+00
         0.00000E+00
         0.00000E+00
         0.00000E+00
         0.00000E+00
         0.00000E+00
         0.00000E+00
         0.00000E+00
         0.00000E+00
         0.00000E+00
         0.00000E+00
         0.00000E+00
         0.00000E+00
         0.00000E+00
         0.00000E+00
         0.00000E+00
         0.00000E+00
         0.00000E+00
         0.00000E+00
         0.00000E+00
         0.00000E+00
         0.00000E+00
         0.00000E+00
         0.00000E+00
         0.00000E+00
         0.00000E+00
         0.00000E+00
         0.00000E+00
         0.00000E+00
         0.00000E+00
         0.00000E+00
         0.00000E+00
         0.00000E+00
         0.00000E+00
         0.00000E+00
         0.00000E+00
         0.00000E+00
         0.00000E+00
         0.00000E+00
         0.00000E+00
         0.00000E+00
         0.00000E+00
         0.00000E+00
         0.00000E+00
         0.00000E+00
         0.00000E+00
         0.00000E+00
         0.00000E+00
         0.00000E+00
         0.00000E+00
         0.00000E+00
         0.00000E+00
         0.00000E+00
         0.00000E+00
         0.00000E+00
         0.00000E+00
         0.00000E+00
         0.00000E+00
         0.00000E+00
         0.00000E+00
         0.00000E+00
         0.00000E+00
         0.00000E+00
         0.00000E+00
         0.00000E+00
         0.00000E+00
         0.00000E+00
         0.00000E+00
         0.00000E+00
         0.00000E+00
         0.00000E+00
         0.00000E+00
         0.00000E+00
         0.00000E+00
         0.00000E+00
         0.00000E+00
         0.00000E+00
         0.00000E+00
         0.00000E+00
         0.00000E+00
         0.00000E+00
         0.00000E+00
         0.00000E+00
         0.00000E+00
         0.00000E+00
         0.00000E+00
         0.00000E+00
         0.00000E+00
         0.00000E+00
         0.00000E+00
         0.00000E+00
         0.00000E+00
         0.00000E+00
         0.00000E+00
         0.00000E+00
         0.00000E+00
         0.00000E+00
         0.00000E+00
         0.00000E+00
         0.00000E+00
         0.00000E+00
         0.00000E+00
         0.00000E+00
         0.00000E+00
         0.00000E+00
         0.00000E+00
         0.00000E+00
         0.00000E+00
         0.00000E+00
         0.00000E+00
         0.00000E+00
         0.00000E+00
         0.00000E+00
         0.00000E+00
         0.00000E+00
         0.00000E+00
         0.00000E+00
         0.00000E+00
         0.00000E+00
         0.00000E+00
         0.00000E+00
         0.00000E+00
         0.00000E+00
         0.00000E+00
         0.00000E+00
         0.00000E+00
         0.00000E+00
         0.00000E+00
         0.00000E+00
         0.00000E+00
         0.00000E+00
         0.00000E+00
         0.00000E+00
         0.00000E+00
         0.00000E+00
         0.00000E+00
         0.00000E+00
         0.00000E+00
         0.00000E+00
         0.00000E+00
         0.00000E+00
         0.00000E+00
         0.00000E+00
         0.00000E+00
         0.00000E+00
         0.00000E+00
         0.00000E+00
         0.00000E+00
         0.00000E+00
         0.00000E+00
         0.00000E+00
         0.00000E+00
         0.00000E+00
         0.00000E+00
         0.00000E+00
         0.00000E+00
         0.00000E+00
         0.00000E+00
         0.00000E+00
         0.00000E+00
         0.00000E+00
         0.00000E+00
         0.00000E+00
         0.00000E+00
         0.00000E+00
         0.00000E+00
         0.00000E+00
         0.00000E+00
         0.00000E+00
         0.00000E+00
         0.00000E+00
         0.00000E+00
         0.00000E+00
         0.00000E+00
         0.00000E+00
         0.00000E+00
         0.00000E+00
         0.00000E+00
         0.00000E+00
         0.00000E+00
         0.00000E+00
         0.00000E+00
         0.00000E+00
         0.00000E+00
         0.00000E+00
         0.00000E+00
         0.00000E+00
         0.00000E+00
         0.00000E+00
         0.00000E+00
         0.00000E+00
         0.00000E+00
         0.00000E+00
         0.00000E+00
         0.00000E+00
         0.00000E+00
         0.00000E+00
         0.00000E+00
         0.00000E+00
         0.00000E+00
         0.00000E+00
         0.00000E+00
         0.00000E+00
         0.00000E+00
         0.00000E+00
         0.00000E+00
         0.00000E+00
         0.00000E+00
         0.00000E+00
         0.00000E+00
         0.00000E+00
         0.00000E+00
         0.00000E+00
         0.00000E+00
         0.00000E+00
         0.00000E+00
         0.00000E+00
         0.00000E+00
         0.00000E+00
         0.00000E+00
         0.00000E+00
         0.00000E+00
         0.00000E+00
         0.00000E+00
         0.00000E+00
         0.00000E+00
         0.00000E+00
         0.00000E+00
         0.00000E+00
         0.00000E+00
         0.00000E+00
         0.00000E+00
         0.00000E+00
         0.00000E+00
         0.00000E+00
         0.00000E+00
         0.00000E+00
         0.00000E+00
         0.00000E+00
         0.00000E+00
         0.00000E+00
         0.00000E+00
         0.00000E+00
         0.00000E+00
         0.00000E+00
         0.00000E+00
         0.00000E+00
         0.00000E+00
         0.00000E+00
         0.00000E+00
         0.00000E+00
         0.00000E+00
         0.00000E+00
         0.00000E+00
         0.00000E+00
         0.00000E+00
         0.00000E+00
         0.00000E+00
         0.00000E+00
         0.00000E+00
         0.00000E+00
         0.00000E+00
         0.00000E+00
         0.00000E+00
         0.00000E+00
         0.00000E+00
         0.00000E+00
         0.00000E+00
         0.00000E+00
         0.00000E+00
         0.00000E+00
         0.00000E+00
         0.00000E+00
         0.00000E+00
         0.00000E+00
         0.00000E+00
         0.00000E+00
         0.00000E+00
         0.00000E+00
         0.00000E+00
         0.00000E+00
         0.00000E+00
         0.00000E+00
         0.00000E+00
         0.00000E+00
         0.00000E+00
         0.00000E+00
         0.00000E+00
         0.00000E+00
         0.00000E+00
         0.00000E+00
         0.00000E+00
         0.00000E+00
         0.00000E+00
         0.00000E+00
         0.00000E+00
         0.00000E+00
         0.00000E+00
         0.00000E+00
         0.00000E+00
         0.00000E+00
         0.00000E+00
         0.00000E+00
         0.00000E+00
         0.00000E+00
         0.00000E+00
         0.00000E+00
         0.00000E+00
         0.00000E+00
         0.00000E+00
         0.00000E+00
         0.00000E+00
         0.00000E+00
         0.00000E+00
         0.00000E+00
         0.00000E+00
         0.00000E+00
         0.00000E+00
         0.00000E+00
         0.00000E+00
         0.00000E+00
         0.00000E+00
         0.00000E+00
         0.00000E+00
         0.00000E+00
         0.00000E+00
         0.00000E+00
         0.00000E+00
         0.00000E+00
         0.00000E+00
         0.00000E+00
         0.00000E+00
         0.00000E+00
         0.00000E+00
         0.00000E+00
         0.00000E+00
         0.00000E+00
         0.00000E+00
         0.00000E+00
         0.00000E+00
         0.00000E+00
         0.00000E+00
         0.00000E+00
         0.00000E+00
         0.00000E+00
         0.00000E+00
         0.00000E+00
         0.00000E+00
         0.00000E+00
         0.00000E+00
         0.00000E+00
         0.00000E+00
         0.00000E+00
         0.00000E+00
         0.00000E+00
         0.00000E+00
         0.00000E+00
         0.00000E+00
         0.00000E+00
         0.00000E+00
         0.00000E+00
         0.00000E+00
         0.00000E+00
         0.00000E+00
         0.00000E+00
         0.00000E+00
         0.00000E+00
         0.00000E+00
         0.00000E+00
         0.00000E+00
         0.00000E+00
         0.00000E+00
         0.00000E+00
         0.00000E+00
         0.00000E+00
         0.00000E+00
         0.00000E+00
         0.00000E+00
         0.00000E+00
         0.00000E+00
         0.00000E+00
         0.00000E+00
         0.00000E+00
         0.00000E+00
         0.00000E+00
         0.00000E+00
         0.00000E+00
         0.00000E+00
         0.00000E+00
         0.00000E+00
         0.00000E+00
         0.00000E+00
         0.00000E+00
         0.00000E+00
         0.00000E+00
         0.00000E+00
         0.00000E+00
         0.00000E+00
         0.00000E+00
         0.00000E+00
         0.00000E+00
         0.00000E+00
         0.00000E+00
         0.00000E+00
         0.00000E+00
         0.00000E+00
         0.00000E+00
         0.00000E+00
         0.00000E+00
         0.00000E+00
         0.00000E+00
         0.00000E+00
         0.00000E+00
         0.00000E+00
         0.00000E+00
         0.00000E+00
         0.00000E+00
         0.00000E+00
         0.00000E+00
         0.00000E+00
         0.00000E+00
         0.00000E+00
         0.00000E+00
         0.00000E+00
         0.00000E+00
         0.00000E+00
         0.00000E+00
         0.00000E+00
         0.00000E+00
         0.00000E+00
         0.00000E+00
         0.00000E+00
         0.00000E+00
         0.00000E+00
         0.00000E+00
         0.00000E+00
         0.00000E+00
         0.00000E+00
         0.00000E+00
         0.00000E+00
         0.00000E+00
         0.00000E+00
         0.00000E+00
         0.00000E+00
         0.00000E+00
         0.00000E+00
         0.00000E+00
         0.00000E+00
         0.00000E+00
         0.00000E+00
         0.00000E+00
         0.00000E+00
         0.00000E+00
         0.00000E+00
         0.00000E+00
         0.00000E+00
         0.00000E+00
         0.00000E+00
         0.00000E+00
         0.00000E+00
         0.00000E+00
         0.00000E+00
         0.00000E+00
         0.00000E+00
         0.00000E+00
         0.00000E+00
         0.00000E+00
         0.00000E+00
         0.00000E+00
         0.00000E+00
         0.00000E+00
         0.00000E+00
         0.00000E+00
         0.00000E+00
         0.00000E+00
         0.00000E+00
         0.00000E+00
         0.00000E+00
         0.00000E+00
         0.00000E+00
         0.00000E+00
         0.00000E+00
         0.00000E+00
         0.00000E+00
         0.00000E+00
         0.00000E+00
         0.00000E+00
         0.00000E+00
         0.00000E+00
         0.00000E+00
         0.00000E+00
         0.00000E+00
         0.00000E+00
         0.00000E+00
         0.00000E+00
         0.00000E+00
         0.00000E+00
         0.00000E+00
         0.00000E+00
         0.00000E+00
         0.00000E+00
         0.00000E+00
         0.00000E+00
         0.00000E+00
         0.00000E+00
         0.00000E+00
         0.00000E+00
         0.00000E+00
         0.00000E+00
         0.00000E+00
         0.00000E+00
         0.00000E+00
         0.00000E+00
         0.00000E+00
         0.00000E+00
         0.00000E+00
         0.00000E+00
         0.00000E+00
         0.00000E+00
         0.00000E+00
         0.00000E+00
         0.00000E+00
         0.00000E+00
         0.00000E+00
         0.00000E+00
         0.00000E+00
         0.00000E+00
         0.00000E+00
         0.00000E+00
         0.00000E+00
         0.00000E+00
         0.00000E+00
         0.00000E+00
         0.00000E+00
         0.00000E+00
         0.00000E+00
         0.00000E+00
         0.00000E+00
         0.00000E+00
         0.00000E+00
         0.00000E+00
         0.00000E+00
         0.00000E+00
         0.00000E+00
         0.00000E+00
         0.00000E+00
         0.00000E+00
         0.00000E+00
         0.00000E+00
         0.00000E+00
         0.00000E+00
         0.00000E+00
         0.00000E+00
         0.00000E+00
         0.00000E+00
         0.00000E+00
         0.00000E+00
         0.00000E+00
         0.00000E+00
         0.00000E+00
         0.00000E+00
         0.00000E+00
         0.00000E+00
         0.00000E+00
         0.00000E+00
         0.00000E+00
         0.00000E+00
         0.00000E+00
         0.00000E+00
         0.00000E+00
         0.00000E+00
         0.00000E+00
         0.00000E+00
         0.00000E+00
         0.00000E+00
         0.00000E+00
         0.00000E+00
         0.00000E+00
         0.00000E+00
         0.00000E+00
         0.00000E+00
         0.00000E+00
         0.00000E+00
         0.00000E+00
         0.00000E+00
         0.00000E+00
         0.00000E+00
         0.00000E+00
         0.00000E+00
         0.00000E+00
         0.00000E+00
         0.00000E+00
         0.00000E+00
         0.00000E+00
         0.00000E+00
         0.00000E+00
         0.00000E+00
         0.00000E+00
         0.00000E+00
         0.00000E+00
         0.00000E+00
         0.00000E+00
         0.00000E+00
         0.00000E+00
         0.00000E+00
         0.00000E+00
         0.00000E+00
         0.00000E+00
         0.00000E+00
         0.00000E+00
         0.00000E+00
         0.00000E+00
         0.00000E+00
         0.00000E+00
         0.00000E+00
         0.00000E+00
         0.00000E+00
         0.00000E+00
         0.00000E+00
         0.00000E+00
         0.00000E+00
         0.00000E+00
         0.00000E+00
         0.00000E+00
         0.00000E+00
         0.00000E+00
         0.00000E+00
         0.00000E+00
         0.00000E+00
         0.00000E+00
         0.00000E+00
         0.00000E+00
         0.00000E+00
         0.00000E+00
         0.00000E+00
         0.00000E+00
         0.00000E+00
         0.00000E+00
         0.00000E+00
         0.00000E+00
         0.00000E+00
         0.00000E+00
         0.00000E+00
         0.00000E+00
         0.00000E+00
         0.00000E+00
         0.00000E+00
         0.00000E+00
         0.00000E+00
         0.00000E+00
         0.00000E+00
         0.00000E+00
         0.00000E+00
         0.00000E+00
         0.00000E+00
         0.00000E+00
         0.00000E+00
         0.00000E+00
         0.00000E+00
         0.00000E+00
         0.00000E+00
         0.00000E+00
         0.00000E+00
         0.00000E+00
         0.00000E+00
         0.00000E+00
         0.00000E+00
         0.00000E+00
         0.00000E+00
         0.00000E+00
         0.00000E+00
         0.00000E+00
         0.00000E+00
         0.00000E+00
         0.00000E+00
         0.00000E+00
         0.00000E+00
         0.00000E+00
         0.00000E+00
         0.00000E+00
         0.00000E+00
         0.00000E+00
         0.00000E+00
         0.00000E+00
         0.00000E+00
         0.00000E+00
         0.00000E+00
         0.00000E+00
         0.00000E+00
         0.00000E+00
         0.00000E+00
         0.00000E+00
         0.00000E+00
         0.00000E+00
         0.00000E+00
         0.00000E+00
         0.00000E+00
         0.00000E+00
         0.00000E+00
         0.00000E+00
         0.00000E+00
         0.00000E+00
         0.00000E+00
         0.00000E+00
         0.00000E+00
         0.00000E+00
         0.00000E+00
         0.00000E+00
         0.00000E+00
         0.00000E+00
         0.00000E+00
         0.00000E+00
         0.00000E+00
         0.00000E+00
         0.00000E+00
         0.00000E+00
         0.00000E+00
         0.00000E+00
         0.00000E+00
         0.00000E+00
         0.00000E+00
         0.00000E+00
         0.00000E+00
         0.00000E+00
         0.00000E+00
         0.00000E+00
         0.00000E+00
         0.00000E+00
         0.00000E+00
         0.00000E+00
         0.00000E+00
         0.00000E+00
         0.00000E+00
         0.00000E+00
         0.00000E+00
         0.00000E+00
         0.00000E+00
         0.00000E+00
         0.00000E+00
         0.00000E+00
         0.00000E+00
         0.00000E+00
         0.00000E+00
         0.00000E+00
         0.00000E+00
         0.00000E+00
         0.00000E+00
         0.00000E+00
         0.00000E+00
         0.00000E+00
         0.00000E+00
         0.00000E+00
         0.00000E+00
         0.00000E+00
         0.00000E+00
         0.00000E+00
         0.00000E+00
         0.00000E+00
         0.00000E+00
         0.00000E+00
         0.00000E+00
         0.00000E+00
         0.00000E+00
         0.00000E+00
         0.00000E+00
         0.00000E+00
         0.00000E+00
         0.00000E+00
         0.00000E+00
         0.00000E+00
         0.00000E+00
         0.00000E+00
         0.00000E+00
         0.00000E+00
         0.00000E+00
         0.00000E+00
         0.00000E+00
         0.00000E+00
         0.00000E+00
         0.00000E+00
         0.00000E+00
         0.00000E+00
         0.00000E+00
         0.00000E+00
         0.00000E+00
         0.00000E+00
         0.00000E+00
         0.00000E+00
         0.00000E+00
         0.00000E+00
         0.00000E+00
         0.00000E+00
         0.00000E+00
         0.00000E+00
         0.00000E+00
         0.00000E+00
         0.00000E+00
         0.00000E+00
         0.00000E+00
         0.00000E+00
         0.00000E+00
         0.00000E+00
         0.00000E+00
         0.00000E+00
         0.00000E+00
         0.00000E+00
         0.00000E+00
         0.00000E+00
         0.00000E+00
         0.00000E+00
         0.00000E+00
         0.00000E+00
         0.00000E+00
         0.00000E+00
         0.00000E+00
         0.00000E+00
         0.00000E+00
         0.00000E+00
         0.00000E+00
         0.00000E+00
         0.00000E+00
         0.00000E+00
         0.00000E+00
         0.00000E+00
         0.00000E+00
         0.00000E+00
         0.00000E+00
         0.00000E+00
         0.00000E+00
         0.00000E+00
         0.00000E+00
         0.00000E+00
         0.00000E+00
         0.00000E+00
         0.00000E+00
         0.00000E+00
         0.00000E+00
         0.00000E+00
         0.00000E+00
         0.00000E+00
         0.00000E+00
         0.00000E+00
         0.00000E+00
         0.00000E+00
         0.00000E+00
         0.00000E+00
         0.00000E+00
         0.00000E+00
         0.00000E+00
         0.00000E+00
         0.00000E+00
         0.00000E+00
         0.00000E+00
         0.00000E+00
         0.00000E+00
         0.00000E+00
         0.00000E+00
         0.00000E+00
         0.00000E+00
         0.00000E+00
         0.00000E+00
         0.00000E+00
         0.00000E+00
         0.00000E+00
         0.00000E+00
         0.00000E+00
         0.00000E+00
         0.00000E+00
         0.00000E+00
         0.00000E+00
         0.00000E+00
         0.00000E+00
         0.00000E+00
         0.00000E+00
         0.00000E+00
         0.00000E+00
         0.00000E+00
         0.00000E+00
         0.00000E+00
         0.00000E+00
         0.00000E+00
         0.00000E+00
         0.00000E+00
         0.00000E+00
         0.00000E+00
         0.00000E+00
         0.00000E+00
         0.00000E+00
         0.00000E+00
         0.00000E+00
         0.00000E+00
         0.00000E+00
         0.00000E+00
         0.00000E+00
         0.00000E+00
         0.00000E+00
         0.00000E+00
         0.00000E+00
         0.00000E+00
         0.00000E+00
         0.00000E+00
         0.00000E+00
         0.00000E+00
         0.00000E+00
         0.00000E+00
         0.00000E+00
         0.00000E+00
         0.00000E+00
         0.00000E+00
         0.00000E+00
         0.00000E+00
         0.00000E+00
         0.00000E+00
         0.00000E+00
         0.00000E+00
         0.00000E+00
         0.00000E+00
         0.00000E+00
         0.00000E+00
         0.00000E+00
         0.00000E+00
         0.00000E+00
         0.00000E+00
         0.00000E+00
         0.00000E+00
         0.00000E+00
         0.00000E+00
         0.00000E+00
         0.00000E+00
         0.00000E+00
         0.00000E+00
         0.00000E+00
         0.00000E+00
         0.00000E+00
         0.00000E+00
         0.00000E+00
         0.00000E+00
         0.00000E+00
         0.00000E+00
         0.00000E+00
         0.00000E+00
         0.00000E+00
         0.00000E+00
         0.00000E+00
         0.00000E+00
         0.00000E+00
         0.00000E+00
         0.00000E+00
         0.00000E+00
         0.00000E+00
         0.00000E+00
         0.00000E+00
         0.00000E+00
         0.00000E+00
         0.00000E+00
         0.00000E+00
         0.00000E+00
         0.00000E+00
         0.00000E+00
         0.00000E+00
         0.00000E+00
         0.00000E+00
         0.00000E+00
         0.00000E+00
         0.00000E+00
         0.00000E+00
         0.00000E+00
         0.00000E+00
         0.00000E+00
         0.00000E+00
         0.00000E+00
         0.00000E+00
         0.00000E+00
         0.00000E+00
         0.00000E+00
         0.00000E+00
         0.00000E+00
         0.00000E+00
         0.00000E+00
         0.00000E+00
         0.00000E+00
         0.00000E+00
         0.00000E+00
         0.00000E+00
         0.00000E+00
         0.00000E+00
         0.00000E+00
         0.00000E+00
         0.00000E+00
         0.00000E+00
         0.00000E+00
         0.00000E+00
         0.00000E+00
         0.00000E+00
         0.00000E+00
         0.00000E+00
         0.00000E+00
         0.00000E+00
         0.00000E+00
         0.00000E+00
         0.00000E+00
         0.00000E+00
         0.00000E+00
         0.00000E+00
         0.00000E+00
         0.00000E+00
         0.00000E+00
         0.00000E+00
         0.00000E+00
         0.00000E+00
         0.00000E+00
         0.00000E+00
         0.00000E+00
         0.00000E+00
         0.00000E+00
         0.00000E+00
         0.00000E+00
         0.00000E+00
         0.00000E+00
         0.00000E+00
         0.00000E+00
         0.00000E+00
         0.00000E+00
         0.00000E+00
         0.00000E+00
         0.00000E+00
         0.00000E+00
         0.00000E+00
         0.00000E+00
         0.00000E+00
         0.00000E+00
         0.00000E+00
         0.00000E+00
         0.00000E+00
         0.00000E+00
         0.00000E+00
         0.00000E+00
         0.00000E+00
         0.00000E+00
         0.00000E+00
         0.00000E+00
         0.00000E+00
         0.00000E+00
         0.00000E+00
         0.00000E+00
         0.00000E+00
         0.00000E+00
         0.00000E+00
         0.00000E+00
         0.00000E+00
         0.00000E+00
         0.00000E+00
         0.00000E+00
         0.00000E+00
         0.00000E+00
         0.00000E+00
         0.00000E+00
         0.00000E+00
         0.00000E+00
         0.00000E+00
         0.00000E+00
         0.00000E+00
         0.00000E+00
         0.00000E+00
         0.00000E+00
         0.00000E+00
         0.00000E+00
         0.00000E+00
         0.00000E+00
         0.00000E+00
         0.00000E+00
         0.00000E+00
         0.00000E+00
         0.00000E+00
         0.00000E+00
         0.00000E+00
         0.00000E+00
         0.00000E+00
         0.00000E+00
         0.00000E+00
         0.00000E+00
         0.00000E+00
         0.00000E+00
         0.00000E+00
         0.00000E+00
         0.00000E+00
         0.00000E+00
         0.00000E+00
         0.00000E+00
         0.00000E+00
         0.00000E+00
         0.00000E+00
         0.00000E+00
         0.00000E+00
         0.00000E+00
         0.00000E+00
         0.00000E+00
         0.00000E+00
         0.00000E+00
         0.00000E+00
         0.00000E+00
         0.00000E+00
         0.00000E+00
         0.00000E+00
         0.00000E+00
         0.00000E+00
         0.00000E+00
         0.00000E+00
         0.00000E+00
         0.00000E+00
         0.00000E+00
         0.00000E+00
         0.00000E+00
         0.00000E+00
         0.00000E+00
         0.00000E+00
         0.00000E+00
         0.00000E+00
         0.00000E+00
         0.00000E+00
         0.00000E+00
         0.00000E+00
         0.00000E+00
         0.00000E+00
         0.00000E+00
         0.00000E+00
         0.00000E+00
         0.00000E+00
         0.00000E+00
         0.00000E+00
         0.00000E+00
         0.00000E+00
         0.00000E+00
         0.00000E+00
         0.00000E+00
         0.00000E+00
         0.00000E+00
         0.00000E+00
         0.00000E+00
         0.00000E+00
         0.00000E+00
         0.00000E+00
         0.00000E+00
         0.00000E+00
         0.00000E+00
         0.00000E+00
         0.00000E+00
         0.00000E+00
         0.00000E+00
         0.00000E+00
         0.00000E+00
         0.00000E+00
         0.00000E+00
         0.00000E+00
         0.00000E+00
         0.00000E+00
         0.00000E+00
         0.00000E+00
         0.00000E+00
         0.00000E+00
         0.00000E+00
         0.00000E+00
         0.00000E+00
         0.00000E+00
         0.00000E+00
         0.00000E+00
         0.00000E+00
         0.00000E+00
         0.00000E+00
         0.00000E+00
         0.00000E+00
         0.00000E+00
         0.00000E+00
         0.00000E+00
         0.00000E+00
         0.00000E+00
         0.00000E+00
         0.00000E+00
         0.00000E+00
         0.00000E+00
         0.00000E+00
         0.00000E+00
         0.00000E+00
         0.00000E+00
         0.00000E+00
         0.00000E+00
         0.00000E+00
         0.00000E+00
         0.00000E+00
         0.00000E+00
         0.00000E+00
         0.00000E+00
         0.00000E+00
         0.00000E+00
         0.00000E+00
         0.00000E+00
         0.00000E+00
         0.00000E+00
         0.00000E+00
         0.00000E+00
         0.00000E+00
         0.00000E+00
  
SCALARS                         fint_y  double 1
LOOKUP_TABLE default
         0.00000E+00
         0.00000E+00
         0.00000E+00
         0.00000E+00
         0.00000E+00
         0.00000E+00
         0.00000E+00
         0.00000E+00
         0.00000E+00
         0.00000E+00
         0.00000E+00
         0.00000E+00
         0.00000E+00
         0.00000E+00
         0.00000E+00
         0.00000E+00
         0.00000E+00
         0.00000E+00
         0.00000E+00
         0.00000E+00
         0.00000E+00
         0.00000E+00
         0.00000E+00
         0.00000E+00
         0.00000E+00
         0.00000E+00
         0.00000E+00
         0.00000E+00
         0.00000E+00
         0.00000E+00
         0.00000E+00
         0.00000E+00
         0.00000E+00
         0.00000E+00
         0.00000E+00
         0.00000E+00
         0.00000E+00
         0.00000E+00
         0.00000E+00
         0.00000E+00
         0.00000E+00
         0.00000E+00
         0.00000E+00
         0.00000E+00
         0.00000E+00
         0.00000E+00
         0.00000E+00
         0.00000E+00
         0.00000E+00
         0.00000E+00
         0.00000E+00
         0.00000E+00
         0.00000E+00
         0.00000E+00
         0.00000E+00
         0.00000E+00
         0.00000E+00
         0.00000E+00
         0.00000E+00
         0.00000E+00
         0.00000E+00
         0.00000E+00
         0.00000E+00
         0.00000E+00
         0.00000E+00
         0.00000E+00
         0.00000E+00
         0.00000E+00
         0.00000E+00
         0.00000E+00
         0.00000E+00
         0.00000E+00
         0.00000E+00
         0.00000E+00
         0.00000E+00
         0.00000E+00
         0.00000E+00
         0.00000E+00
         0.00000E+00
         0.00000E+00
         0.00000E+00
         0.00000E+00
         0.00000E+00
         0.00000E+00
         0.00000E+00
         0.00000E+00
         0.00000E+00
         0.00000E+00
         0.00000E+00
         0.00000E+00
         0.00000E+00
         0.00000E+00
         0.00000E+00
         0.00000E+00
         0.00000E+00
         0.00000E+00
         0.00000E+00
         0.00000E+00
         0.00000E+00
         0.00000E+00
         0.00000E+00
         0.00000E+00
         0.00000E+00
         0.00000E+00
         0.00000E+00
         0.00000E+00
         0.00000E+00
         0.00000E+00
         0.00000E+00
         0.00000E+00
         0.00000E+00
         0.00000E+00
         0.00000E+00
         0.00000E+00
         0.00000E+00
         0.00000E+00
         0.00000E+00
         0.00000E+00
         0.00000E+00
         0.00000E+00
         0.00000E+00
         0.00000E+00
         0.00000E+00
         0.00000E+00
         0.00000E+00
         0.00000E+00
         0.00000E+00
         0.00000E+00
         0.00000E+00
         0.00000E+00
         0.00000E+00
         0.00000E+00
         0.00000E+00
         0.00000E+00
         0.00000E+00
         0.00000E+00
         0.00000E+00
         0.00000E+00
         0.00000E+00
         0.00000E+00
         0.00000E+00
         0.00000E+00
         0.00000E+00
         0.00000E+00
         0.00000E+00
         0.00000E+00
         0.00000E+00
         0.00000E+00
         0.00000E+00
         0.00000E+00
         0.00000E+00
         0.00000E+00
         0.00000E+00
         0.00000E+00
         0.00000E+00
         0.00000E+00
         0.00000E+00
         0.00000E+00
         0.00000E+00
         0.00000E+00
         0.00000E+00
         0.00000E+00
         0.00000E+00
         0.00000E+00
         0.00000E+00
         0.00000E+00
         0.00000E+00
         0.00000E+00
         0.00000E+00
         0.00000E+00
         0.00000E+00
         0.00000E+00
         0.00000E+00
         0.00000E+00
         0.00000E+00
         0.00000E+00
         0.00000E+00
         0.00000E+00
         0.00000E+00
         0.00000E+00
         0.00000E+00
         0.00000E+00
         0.00000E+00
         0.00000E+00
         0.00000E+00
         0.00000E+00
         0.00000E+00
         0.00000E+00
         0.00000E+00
         0.00000E+00
         0.00000E+00
         0.00000E+00
         0.00000E+00
         0.00000E+00
         0.00000E+00
         0.00000E+00
         0.00000E+00
         0.00000E+00
         0.00000E+00
         0.00000E+00
         0.00000E+00
         0.00000E+00
         0.00000E+00
         0.00000E+00
         0.00000E+00
         0.00000E+00
         0.00000E+00
         0.00000E+00
         0.00000E+00
         0.00000E+00
         0.00000E+00
         0.00000E+00
         0.00000E+00
         0.00000E+00
         0.00000E+00
         0.00000E+00
         0.00000E+00
         0.00000E+00
         0.00000E+00
         0.00000E+00
         0.00000E+00
         0.00000E+00
         0.00000E+00
         0.00000E+00
         0.00000E+00
         0.00000E+00
         0.00000E+00
         0.00000E+00
         0.00000E+00
         0.00000E+00
         0.00000E+00
         0.00000E+00
         0.00000E+00
         0.00000E+00
         0.00000E+00
         0.00000E+00
         0.00000E+00
         0.00000E+00
         0.00000E+00
         0.00000E+00
         0.00000E+00
         0.00000E+00
         0.00000E+00
         0.00000E+00
         0.00000E+00
         0.00000E+00
         0.00000E+00
         0.00000E+00
         0.00000E+00
         0.00000E+00
         0.00000E+00
         0.00000E+00
         0.00000E+00
         0.00000E+00
         0.00000E+00
         0.00000E+00
         0.00000E+00
         0.00000E+00
         0.00000E+00
         0.00000E+00
         0.00000E+00
         0.00000E+00
         0.00000E+00
         0.00000E+00
         0.00000E+00
         0.00000E+00
         0.00000E+00
         0.00000E+00
         0.00000E+00
         0.00000E+00
         0.00000E+00
         0.00000E+00
         0.00000E+00
         0.00000E+00
         0.00000E+00
         0.00000E+00
         0.00000E+00
         0.00000E+00
         0.00000E+00
         0.00000E+00
         0.00000E+00
         0.00000E+00
         0.00000E+00
         0.00000E+00
         0.00000E+00
         0.00000E+00
         0.00000E+00
         0.00000E+00
         0.00000E+00
         0.00000E+00
         0.00000E+00
         0.00000E+00
         0.00000E+00
         0.00000E+00
         0.00000E+00
         0.00000E+00
         0.00000E+00
         0.00000E+00
         0.00000E+00
         0.00000E+00
         0.00000E+00
         0.00000E+00
         0.00000E+00
         0.00000E+00
         0.00000E+00
         0.00000E+00
         0.00000E+00
         0.00000E+00
         0.00000E+00
         0.00000E+00
         0.00000E+00
         0.00000E+00
         0.00000E+00
         0.00000E+00
         0.00000E+00
         0.00000E+00
         0.00000E+00
         0.00000E+00
         0.00000E+00
         0.00000E+00
         0.00000E+00
         0.00000E+00
         0.00000E+00
         0.00000E+00
         0.00000E+00
         0.00000E+00
         0.00000E+00
         0.00000E+00
         0.00000E+00
         0.00000E+00
         0.00000E+00
         0.00000E+00
         0.00000E+00
         0.00000E+00
         0.00000E+00
         0.00000E+00
         0.00000E+00
         0.00000E+00
         0.00000E+00
         0.00000E+00
         0.00000E+00
         0.00000E+00
         0.00000E+00
         0.00000E+00
         0.00000E+00
         0.00000E+00
         0.00000E+00
         0.00000E+00
         0.00000E+00
         0.00000E+00
         0.00000E+00
         0.00000E+00
         0.00000E+00
         0.00000E+00
         0.00000E+00
         0.00000E+00
         0.00000E+00
         0.00000E+00
         0.00000E+00
         0.00000E+00
         0.00000E+00
         0.00000E+00
         0.00000E+00
         0.00000E+00
         0.00000E+00
         0.00000E+00
         0.00000E+00
         0.00000E+00
         0.00000E+00
         0.00000E+00
         0.00000E+00
         0.00000E+00
         0.00000E+00
         0.00000E+00
         0.00000E+00
         0.00000E+00
         0.00000E+00
         0.00000E+00
         0.00000E+00
         0.00000E+00
         0.00000E+00
         0.00000E+00
         0.00000E+00
         0.00000E+00
         0.00000E+00
         0.00000E+00
         0.00000E+00
         0.00000E+00
         0.00000E+00
         0.00000E+00
         0.00000E+00
         0.00000E+00
         0.00000E+00
         0.00000E+00
         0.00000E+00
         0.00000E+00
         0.00000E+00
         0.00000E+00
         0.00000E+00
         0.00000E+00
         0.00000E+00
         0.00000E+00
         0.00000E+00
         0.00000E+00
         0.00000E+00
         0.00000E+00
         0.00000E+00
         0.00000E+00
         0.00000E+00
         0.00000E+00
         0.00000E+00
         0.00000E+00
         0.00000E+00
         0.00000E+00
         0.00000E+00
         0.00000E+00
         0.00000E+00
         0.00000E+00
         0.00000E+00
         0.00000E+00
         0.00000E+00
         0.00000E+00
         0.00000E+00
         0.00000E+00
         0.00000E+00
         0.00000E+00
         0.00000E+00
         0.00000E+00
         0.00000E+00
         0.00000E+00
         0.00000E+00
         0.00000E+00
         0.00000E+00
         0.00000E+00
         0.00000E+00
         0.00000E+00
         0.00000E+00
         0.00000E+00
         0.00000E+00
         0.00000E+00
         0.00000E+00
         0.00000E+00
         0.00000E+00
         0.00000E+00
         0.00000E+00
         0.00000E+00
         0.00000E+00
         0.00000E+00
         0.00000E+00
         0.00000E+00
         0.00000E+00
         0.00000E+00
         0.00000E+00
         0.00000E+00
         0.00000E+00
         0.00000E+00
         0.00000E+00
         0.00000E+00
         0.00000E+00
         0.00000E+00
         0.00000E+00
         0.00000E+00
         0.00000E+00
         0.00000E+00
         0.00000E+00
         0.00000E+00
         0.00000E+00
         0.00000E+00
         0.00000E+00
         0.00000E+00
         0.00000E+00
         0.00000E+00
         0.00000E+00
         0.00000E+00
         0.00000E+00
         0.00000E+00
         0.00000E+00
         0.00000E+00
         0.00000E+00
         0.00000E+00
         0.00000E+00
         0.00000E+00
         0.00000E+00
         0.00000E+00
         0.00000E+00
         0.00000E+00
         0.00000E+00
         0.00000E+00
         0.00000E+00
         0.00000E+00
         0.00000E+00
         0.00000E+00
         0.00000E+00
         0.00000E+00
         0.00000E+00
         0.00000E+00
         0.00000E+00
         0.00000E+00
         0.00000E+00
         0.00000E+00
         0.00000E+00
         0.00000E+00
         0.00000E+00
         0.00000E+00
         0.00000E+00
         0.00000E+00
         0.00000E+00
         0.00000E+00
         0.00000E+00
         0.00000E+00
         0.00000E+00
         0.00000E+00
         0.00000E+00
         0.00000E+00
         0.00000E+00
         0.00000E+00
         0.00000E+00
         0.00000E+00
         0.00000E+00
         0.00000E+00
         0.00000E+00
         0.00000E+00
         0.00000E+00
         0.00000E+00
         0.00000E+00
         0.00000E+00
         0.00000E+00
         0.00000E+00
         0.00000E+00
         0.00000E+00
         0.00000E+00
         0.00000E+00
         0.00000E+00
         0.00000E+00
         0.00000E+00
         0.00000E+00
         0.00000E+00
         0.00000E+00
         0.00000E+00
         0.00000E+00
         0.00000E+00
         0.00000E+00
         0.00000E+00
         0.00000E+00
         0.00000E+00
         0.00000E+00
         0.00000E+00
         0.00000E+00
         0.00000E+00
         0.00000E+00
         0.00000E+00
         0.00000E+00
         0.00000E+00
         0.00000E+00
         0.00000E+00
         0.00000E+00
         0.00000E+00
         0.00000E+00
         0.00000E+00
         0.00000E+00
         0.00000E+00
         0.00000E+00
         0.00000E+00
         0.00000E+00
         0.00000E+00
         0.00000E+00
         0.00000E+00
         0.00000E+00
         0.00000E+00
         0.00000E+00
         0.00000E+00
         0.00000E+00
         0.00000E+00
         0.00000E+00
         0.00000E+00
         0.00000E+00
         0.00000E+00
         0.00000E+00
         0.00000E+00
         0.00000E+00
         0.00000E+00
         0.00000E+00
         0.00000E+00
         0.00000E+00
         0.00000E+00
         0.00000E+00
         0.00000E+00
         0.00000E+00
         0.00000E+00
         0.00000E+00
         0.00000E+00
         0.00000E+00
         0.00000E+00
         0.00000E+00
         0.00000E+00
         0.00000E+00
         0.00000E+00
         0.00000E+00
         0.00000E+00
         0.00000E+00
         0.00000E+00
         0.00000E+00
         0.00000E+00
         0.00000E+00
         0.00000E+00
         0.00000E+00
         0.00000E+00
         0.00000E+00
         0.00000E+00
         0.00000E+00
         0.00000E+00
         0.00000E+00
         0.00000E+00
         0.00000E+00
         0.00000E+00
         0.00000E+00
         0.00000E+00
         0.00000E+00
         0.00000E+00
         0.00000E+00
         0.00000E+00
         0.00000E+00
         0.00000E+00
         0.00000E+00
         0.00000E+00
         0.00000E+00
         0.00000E+00
         0.00000E+00
         0.00000E+00
         0.00000E+00
         0.00000E+00
         0.00000E+00
         0.00000E+00
         0.00000E+00
         0.00000E+00
         0.00000E+00
         0.00000E+00
         0.00000E+00
         0.00000E+00
         0.00000E+00
         0.00000E+00
         0.00000E+00
         0.00000E+00
         0.00000E+00
         0.00000E+00
         0.00000E+00
         0.00000E+00
         0.00000E+00
         0.00000E+00
         0.00000E+00
         0.00000E+00
         0.00000E+00
         0.00000E+00
         0.00000E+00
         0.00000E+00
         0.00000E+00
         0.00000E+00
         0.00000E+00
         0.00000E+00
         0.00000E+00
         0.00000E+00
         0.00000E+00
         0.00000E+00
         0.00000E+00
         0.00000E+00
         0.00000E+00
         0.00000E+00
         0.00000E+00
         0.00000E+00
         0.00000E+00
         0.00000E+00
         0.00000E+00
         0.00000E+00
         0.00000E+00
         0.00000E+00
         0.00000E+00
         0.00000E+00
         0.00000E+00
         0.00000E+00
         0.00000E+00
         0.00000E+00
         0.00000E+00
         0.00000E+00
         0.00000E+00
         0.00000E+00
         0.00000E+00
         0.00000E+00
         0.00000E+00
         0.00000E+00
         0.00000E+00
         0.00000E+00
         0.00000E+00
         0.00000E+00
         0.00000E+00
         0.00000E+00
         0.00000E+00
         0.00000E+00
         0.00000E+00
         0.00000E+00
         0.00000E+00
         0.00000E+00
         0.00000E+00
         0.00000E+00
         0.00000E+00
         0.00000E+00
         0.00000E+00
         0.00000E+00
         0.00000E+00
         0.00000E+00
         0.00000E+00
         0.00000E+00
         0.00000E+00
         0.00000E+00
         0.00000E+00
         0.00000E+00
         0.00000E+00
         0.00000E+00
         0.00000E+00
         0.00000E+00
         0.00000E+00
         0.00000E+00
         0.00000E+00
         0.00000E+00
         0.00000E+00
         0.00000E+00
         0.00000E+00
         0.00000E+00
         0.00000E+00
         0.00000E+00
         0.00000E+00
         0.00000E+00
         0.00000E+00
         0.00000E+00
         0.00000E+00
         0.00000E+00
         0.00000E+00
         0.00000E+00
         0.00000E+00
         0.00000E+00
         0.00000E+00
         0.00000E+00
         0.00000E+00
         0.00000E+00
         0.00000E+00
         0.00000E+00
         0.00000E+00
         0.00000E+00
         0.00000E+00
         0.00000E+00
         0.00000E+00
         0.00000E+00
         0.00000E+00
         0.00000E+00
         0.00000E+00
         0.00000E+00
         0.00000E+00
         0.00000E+00
         0.00000E+00
         0.00000E+00
         0.00000E+00
         0.00000E+00
         0.00000E+00
         0.00000E+00
         0.00000E+00
         0.00000E+00
         0.00000E+00
         0.00000E+00
         0.00000E+00
         0.00000E+00
         0.00000E+00
         0.00000E+00
         0.00000E+00
         0.00000E+00
         0.00000E+00
         0.00000E+00
         0.00000E+00
         0.00000E+00
         0.00000E+00
         0.00000E+00
         0.00000E+00
         0.00000E+00
         0.00000E+00
         0.00000E+00
         0.00000E+00
         0.00000E+00
         0.00000E+00
         0.00000E+00
         0.00000E+00
         0.00000E+00
         0.00000E+00
         0.00000E+00
         0.00000E+00
         0.00000E+00
         0.00000E+00
         0.00000E+00
         0.00000E+00
         0.00000E+00
         0.00000E+00
         0.00000E+00
         0.00000E+00
         0.00000E+00
         0.00000E+00
         0.00000E+00
         0.00000E+00
         0.00000E+00
         0.00000E+00
         0.00000E+00
         0.00000E+00
         0.00000E+00
         0.00000E+00
         0.00000E+00
         0.00000E+00
         0.00000E+00
         0.00000E+00
         0.00000E+00
         0.00000E+00
         0.00000E+00
         0.00000E+00
         0.00000E+00
         0.00000E+00
         0.00000E+00
         0.00000E+00
         0.00000E+00
         0.00000E+00
         0.00000E+00
         0.00000E+00
         0.00000E+00
         0.00000E+00
         0.00000E+00
         0.00000E+00
         0.00000E+00
         0.00000E+00
         0.00000E+00
         0.00000E+00
         0.00000E+00
         0.00000E+00
         0.00000E+00
         0.00000E+00
         0.00000E+00
         0.00000E+00
         0.00000E+00
         0.00000E+00
         0.00000E+00
         0.00000E+00
         0.00000E+00
         0.00000E+00
         0.00000E+00
         0.00000E+00
         0.00000E+00
         0.00000E+00
         0.00000E+00
         0.00000E+00
         0.00000E+00
         0.00000E+00
         0.00000E+00
         0.00000E+00
         0.00000E+00
         0.00000E+00
         0.00000E+00
         0.00000E+00
         0.00000E+00
         0.00000E+00
         0.00000E+00
         0.00000E+00
         0.00000E+00
         0.00000E+00
         0.00000E+00
         0.00000E+00
         0.00000E+00
         0.00000E+00
         0.00000E+00
         0.00000E+00
         0.00000E+00
         0.00000E+00
         0.00000E+00
         0.00000E+00
         0.00000E+00
         0.00000E+00
         0.00000E+00
         0.00000E+00
         0.00000E+00
         0.00000E+00
         0.00000E+00
         0.00000E+00
         0.00000E+00
         0.00000E+00
         0.00000E+00
         0.00000E+00
         0.00000E+00
         0.00000E+00
         0.00000E+00
         0.00000E+00
         0.00000E+00
         0.00000E+00
         0.00000E+00
         0.00000E+00
         0.00000E+00
         0.00000E+00
         0.00000E+00
         0.00000E+00
         0.00000E+00
         0.00000E+00
         0.00000E+00
         0.00000E+00
         0.00000E+00
         0.00000E+00
         0.00000E+00
         0.00000E+00
         0.00000E+00
         0.00000E+00
         0.00000E+00
         0.00000E+00
         0.00000E+00
         0.00000E+00
         0.00000E+00
         0.00000E+00
         0.00000E+00
         0.00000E+00
         0.00000E+00
         0.00000E+00
         0.00000E+00
         0.00000E+00
         0.00000E+00
         0.00000E+00
         0.00000E+00
         0.00000E+00
         0.00000E+00
         0.00000E+00
         0.00000E+00
         0.00000E+00
         0.00000E+00
         0.00000E+00
         0.00000E+00
         0.00000E+00
         0.00000E+00
         0.00000E+00
         0.00000E+00
         0.00000E+00
         0.00000E+00
         0.00000E+00
         0.00000E+00
         0.00000E+00
         0.00000E+00
         0.00000E+00
         0.00000E+00
         0.00000E+00
         0.00000E+00
         0.00000E+00
         0.00000E+00
         0.00000E+00
         0.00000E+00
         0.00000E+00
         0.00000E+00
         0.00000E+00
         0.00000E+00
         0.00000E+00
         0.00000E+00
         0.00000E+00
         0.00000E+00
         0.00000E+00
         0.00000E+00
         0.00000E+00
         0.00000E+00
         0.00000E+00
         0.00000E+00
         0.00000E+00
         0.00000E+00
         0.00000E+00
         0.00000E+00
         0.00000E+00
         0.00000E+00
         0.00000E+00
         0.00000E+00
         0.00000E+00
         0.00000E+00
         0.00000E+00
         0.00000E+00
         0.00000E+00
         0.00000E+00
         0.00000E+00
         0.00000E+00
         0.00000E+00
         0.00000E+00
         0.00000E+00
         0.00000E+00
         0.00000E+00
         0.00000E+00
         0.00000E+00
         0.00000E+00
         0.00000E+00
         0.00000E+00
         0.00000E+00
         0.00000E+00
         0.00000E+00
         0.00000E+00
         0.00000E+00
         0.00000E+00
         0.00000E+00
         0.00000E+00
         0.00000E+00
         0.00000E+00
         0.00000E+00
         0.00000E+00
         0.00000E+00
         0.00000E+00
         0.00000E+00
         0.00000E+00
         0.00000E+00
         0.00000E+00
         0.00000E+00
         0.00000E+00
         0.00000E+00
         0.00000E+00
         0.00000E+00
         0.00000E+00
         0.00000E+00
         0.00000E+00
         0.00000E+00
         0.00000E+00
         0.00000E+00
         0.00000E+00
         0.00000E+00
         0.00000E+00
         0.00000E+00
         0.00000E+00
         0.00000E+00
         0.00000E+00
         0.00000E+00
         0.00000E+00
         0.00000E+00
         0.00000E+00
         0.00000E+00
         0.00000E+00
         0.00000E+00
         0.00000E+00
         0.00000E+00
         0.00000E+00
         0.00000E+00
         0.00000E+00
         0.00000E+00
         0.00000E+00
         0.00000E+00
         0.00000E+00
         0.00000E+00
         0.00000E+00
         0.00000E+00
         0.00000E+00
         0.00000E+00
         0.00000E+00
         0.00000E+00
         0.00000E+00
         0.00000E+00
         0.00000E+00
         0.00000E+00
         0.00000E+00
         0.00000E+00
         0.00000E+00
         0.00000E+00
         0.00000E+00
         0.00000E+00
         0.00000E+00
         0.00000E+00
         0.00000E+00
         0.00000E+00
         0.00000E+00
         0.00000E+00
         0.00000E+00
         0.00000E+00
         0.00000E+00
         0.00000E+00
         0.00000E+00
         0.00000E+00
         0.00000E+00
         0.00000E+00
         0.00000E+00
         0.00000E+00
         0.00000E+00
         0.00000E+00
         0.00000E+00
         0.00000E+00
         0.00000E+00
         0.00000E+00
         0.00000E+00
         0.00000E+00
         0.00000E+00
         0.00000E+00
         0.00000E+00
         0.00000E+00
         0.00000E+00
         0.00000E+00
         0.00000E+00
         0.00000E+00
         0.00000E+00
         0.00000E+00
         0.00000E+00
         0.00000E+00
         0.00000E+00
         0.00000E+00
         0.00000E+00
         0.00000E+00
         0.00000E+00
         0.00000E+00
         0.00000E+00
         0.00000E+00
         0.00000E+00
         0.00000E+00
         0.00000E+00
         0.00000E+00
         0.00000E+00
         0.00000E+00
         0.00000E+00
         0.00000E+00
         0.00000E+00
         0.00000E+00
         0.00000E+00
         0.00000E+00
         0.00000E+00
         0.00000E+00
         0.00000E+00
         0.00000E+00
         0.00000E+00
         0.00000E+00
         0.00000E+00
         0.00000E+00
         0.00000E+00
         0.00000E+00
         0.00000E+00
         0.00000E+00
         0.00000E+00
         0.00000E+00
         0.00000E+00
         0.00000E+00
         0.00000E+00
         0.00000E+00
         0.00000E+00
         0.00000E+00
         0.00000E+00
         0.00000E+00
         0.00000E+00
         0.00000E+00
         0.00000E+00
         0.00000E+00
         0.00000E+00
         0.00000E+00
         0.00000E+00
         0.00000E+00
         0.00000E+00
         0.00000E+00
         0.00000E+00
         0.00000E+00
         0.00000E+00
         0.00000E+00
         0.00000E+00
         0.00000E+00
         0.00000E+00
         0.00000E+00
         0.00000E+00
         0.00000E+00
         0.00000E+00
         0.00000E+00
         0.00000E+00
         0.00000E+00
         0.00000E+00
         0.00000E+00
         0.00000E+00
         0.00000E+00
         0.00000E+00
         0.00000E+00
         0.00000E+00
         0.00000E+00
         0.00000E+00
         0.00000E+00
         0.00000E+00
         0.00000E+00
         0.00000E+00
         0.00000E+00
         0.00000E+00
         0.00000E+00
         0.00000E+00
         0.00000E+00
         0.00000E+00
         0.00000E+00
         0.00000E+00
         0.00000E+00
         0.00000E+00
         0.00000E+00
         0.00000E+00
         0.00000E+00
         0.00000E+00
         0.00000E+00
         0.00000E+00
         0.00000E+00
         0.00000E+00
         0.00000E+00
         0.00000E+00
         0.00000E+00
         0.00000E+00
         0.00000E+00
         0.00000E+00
         0.00000E+00
         0.00000E+00
         0.00000E+00
         0.00000E+00
         0.00000E+00
         0.00000E+00
         0.00000E+00
         0.00000E+00
         0.00000E+00
         0.00000E+00
         0.00000E+00
         0.00000E+00
         0.00000E+00
         0.00000E+00
         0.00000E+00
         0.00000E+00
         0.00000E+00
         0.00000E+00
         0.00000E+00
         0.00000E+00
         0.00000E+00
         0.00000E+00
         0.00000E+00
         0.00000E+00
         0.00000E+00
         0.00000E+00
         0.00000E+00
         0.00000E+00
         0.00000E+00
         0.00000E+00
         0.00000E+00
         0.00000E+00
         0.00000E+00
         0.00000E+00
         0.00000E+00
         0.00000E+00
         0.00000E+00
         0.00000E+00
         0.00000E+00
         0.00000E+00
         0.00000E+00
         0.00000E+00
         0.00000E+00
         0.00000E+00
         0.00000E+00
         0.00000E+00
         0.00000E+00
         0.00000E+00
         0.00000E+00
         0.00000E+00
         0.00000E+00
         0.00000E+00
         0.00000E+00
         0.00000E+00
         0.00000E+00
         0.00000E+00
         0.00000E+00
         0.00000E+00
         0.00000E+00
         0.00000E+00
         0.00000E+00
         0.00000E+00
         0.00000E+00
         0.00000E+00
         0.00000E+00
         0.00000E+00
         0.00000E+00
         0.00000E+00
         0.00000E+00
         0.00000E+00
         0.00000E+00
         0.00000E+00
         0.00000E+00
         0.00000E+00
         0.00000E+00
         0.00000E+00
         0.00000E+00
         0.00000E+00
         0.00000E+00
         0.00000E+00
         0.00000E+00
         0.00000E+00
         0.00000E+00
         0.00000E+00
         0.00000E+00
         0.00000E+00
         0.00000E+00
         0.00000E+00
         0.00000E+00
         0.00000E+00
         0.00000E+00
         0.00000E+00
         0.00000E+00
         0.00000E+00
         0.00000E+00
         0.00000E+00
         0.00000E+00
         0.00000E+00
         0.00000E+00
         0.00000E+00
         0.00000E+00
         0.00000E+00
         0.00000E+00
         0.00000E+00
         0.00000E+00
         0.00000E+00
         0.00000E+00
         0.00000E+00
         0.00000E+00
         0.00000E+00
         0.00000E+00
         0.00000E+00
         0.00000E+00
         0.00000E+00
         0.00000E+00
         0.00000E+00
         0.00000E+00
         0.00000E+00
         0.00000E+00
         0.00000E+00
         0.00000E+00
         0.00000E+00
         0.00000E+00
         0.00000E+00
         0.00000E+00
         0.00000E+00
         0.00000E+00
         0.00000E+00
         0.00000E+00
         0.00000E+00
         0.00000E+00
         0.00000E+00
         0.00000E+00
         0.00000E+00
         0.00000E+00
         0.00000E+00
         0.00000E+00
         0.00000E+00
         0.00000E+00
         0.00000E+00
         0.00000E+00
         0.00000E+00
         0.00000E+00
         0.00000E+00
         0.00000E+00
         0.00000E+00
         0.00000E+00
         0.00000E+00
         0.00000E+00
         0.00000E+00
         0.00000E+00
         0.00000E+00
         0.00000E+00
         0.00000E+00
         0.00000E+00
         0.00000E+00
         0.00000E+00
         0.00000E+00
         0.00000E+00
         0.00000E+00
         0.00000E+00
         0.00000E+00
         0.00000E+00
         0.00000E+00
         0.00000E+00
         0.00000E+00
         0.00000E+00
         0.00000E+00
         0.00000E+00
         0.00000E+00
         0.00000E+00
         0.00000E+00
         0.00000E+00
         0.00000E+00
         0.00000E+00
         0.00000E+00
         0.00000E+00
         0.00000E+00
         0.00000E+00
         0.00000E+00
         0.00000E+00
         0.00000E+00
         0.00000E+00
         0.00000E+00
         0.00000E+00
         0.00000E+00
         0.00000E+00
         0.00000E+00
         0.00000E+00
         0.00000E+00
         0.00000E+00
         0.00000E+00
         0.00000E+00
         0.00000E+00
         0.00000E+00
         0.00000E+00
         0.00000E+00
         0.00000E+00
         0.00000E+00
         0.00000E+00
         0.00000E+00
         0.00000E+00
         0.00000E+00
         0.00000E+00
         0.00000E+00
         0.00000E+00
         0.00000E+00
         0.00000E+00
         0.00000E+00
         0.00000E+00
         0.00000E+00
         0.00000E+00
         0.00000E+00
         0.00000E+00
         0.00000E+00
         0.00000E+00
         0.00000E+00
         0.00000E+00
         0.00000E+00
         0.00000E+00
         0.00000E+00
         0.00000E+00
         0.00000E+00
         0.00000E+00
         0.00000E+00
         0.00000E+00
         0.00000E+00
         0.00000E+00
         0.00000E+00
         0.00000E+00
         0.00000E+00
         0.00000E+00
         0.00000E+00
         0.00000E+00
         0.00000E+00
         0.00000E+00
         0.00000E+00
         0.00000E+00
         0.00000E+00
         0.00000E+00
         0.00000E+00
         0.00000E+00
         0.00000E+00
         0.00000E+00
         0.00000E+00
         0.00000E+00
         0.00000E+00
         0.00000E+00
         0.00000E+00
         0.00000E+00
         0.00000E+00
         0.00000E+00
         0.00000E+00
         0.00000E+00
         0.00000E+00
         0.00000E+00
         0.00000E+00
         0.00000E+00
         0.00000E+00
         0.00000E+00
         0.00000E+00
         0.00000E+00
         0.00000E+00
         0.00000E+00
         0.00000E+00
         0.00000E+00
         0.00000E+00
         0.00000E+00
         0.00000E+00
         0.00000E+00
         0.00000E+00
         0.00000E+00
         0.00000E+00
         0.00000E+00
         0.00000E+00
         0.00000E+00
         0.00000E+00
         0.00000E+00
         0.00000E+00
         0.00000E+00
         0.00000E+00
         0.00000E+00
         0.00000E+00
         0.00000E+00
         0.00000E+00
         0.00000E+00
         0.00000E+00
         0.00000E+00
         0.00000E+00
         0.00000E+00
         0.00000E+00
         0.00000E+00
         0.00000E+00
         0.00000E+00
         0.00000E+00
         0.00000E+00
         0.00000E+00
         0.00000E+00
         0.00000E+00
         0.00000E+00
         0.00000E+00
         0.00000E+00
         0.00000E+00
         0.00000E+00
         0.00000E+00
         0.00000E+00
         0.00000E+00
         0.00000E+00
         0.00000E+00
         0.00000E+00
         0.00000E+00
         0.00000E+00
         0.00000E+00
         0.00000E+00
         0.00000E+00
         0.00000E+00
         0.00000E+00
         0.00000E+00
         0.00000E+00
         0.00000E+00
         0.00000E+00
         0.00000E+00
         0.00000E+00
         0.00000E+00
         0.00000E+00
         0.00000E+00
         0.00000E+00
         0.00000E+00
         0.00000E+00
         0.00000E+00
         0.00000E+00
         0.00000E+00
         0.00000E+00
         0.00000E+00
         0.00000E+00
         0.00000E+00
         0.00000E+00
         0.00000E+00
         0.00000E+00
         0.00000E+00
         0.00000E+00
         0.00000E+00
         0.00000E+00
         0.00000E+00
         0.00000E+00
         0.00000E+00
         0.00000E+00
         0.00000E+00
         0.00000E+00
         0.00000E+00
         0.00000E+00
         0.00000E+00
         0.00000E+00
         0.00000E+00
         0.00000E+00
         0.00000E+00
         0.00000E+00
         0.00000E+00
         0.00000E+00
         0.00000E+00
         0.00000E+00
         0.00000E+00
         0.00000E+00
         0.00000E+00
         0.00000E+00
         0.00000E+00
         0.00000E+00
         0.00000E+00
         0.00000E+00
         0.00000E+00
         0.00000E+00
         0.00000E+00
         0.00000E+00
         0.00000E+00
         0.00000E+00
         0.00000E+00
         0.00000E+00
         0.00000E+00
         0.00000E+00
         0.00000E+00
         0.00000E+00
         0.00000E+00
         0.00000E+00
         0.00000E+00
         0.00000E+00
         0.00000E+00
         0.00000E+00
         0.00000E+00
         0.00000E+00
         0.00000E+00
         0.00000E+00
         0.00000E+00
         0.00000E+00
         0.00000E+00
         0.00000E+00
         0.00000E+00
         0.00000E+00
         0.00000E+00
         0.00000E+00
         0.00000E+00
         0.00000E+00
         0.00000E+00
         0.00000E+00
         0.00000E+00
         0.00000E+00
         0.00000E+00
         0.00000E+00
         0.00000E+00
         0.00000E+00
         0.00000E+00
         0.00000E+00
         0.00000E+00
         0.00000E+00
         0.00000E+00
         0.00000E+00
         0.00000E+00
         0.00000E+00
         0.00000E+00
         0.00000E+00
         0.00000E+00
         0.00000E+00
         0.00000E+00
         0.00000E+00
         0.00000E+00
         0.00000E+00
         0.00000E+00
         0.00000E+00
         0.00000E+00
         0.00000E+00
         0.00000E+00
         0.00000E+00
         0.00000E+00
         0.00000E+00
         0.00000E+00
         0.00000E+00
         0.00000E+00
         0.00000E+00
         0.00000E+00
         0.00000E+00
         0.00000E+00
         0.00000E+00
         0.00000E+00
         0.00000E+00
         0.00000E+00
         0.00000E+00
         0.00000E+00
         0.00000E+00
         0.00000E+00
         0.00000E+00
         0.00000E+00
         0.00000E+00
         0.00000E+00
         0.00000E+00
         0.00000E+00
         0.00000E+00
         0.00000E+00
         0.00000E+00
         0.00000E+00
         0.00000E+00
         0.00000E+00
         0.00000E+00
         0.00000E+00
         0.00000E+00
         0.00000E+00
         0.00000E+00
         0.00000E+00
         0.00000E+00
         0.00000E+00
         0.00000E+00
         0.00000E+00
         0.00000E+00
         0.00000E+00
         0.00000E+00
         0.00000E+00
         0.00000E+00
         0.00000E+00
         0.00000E+00
         0.00000E+00
         0.00000E+00
         0.00000E+00
         0.00000E+00
         0.00000E+00
         0.00000E+00
         0.00000E+00
         0.00000E+00
         0.00000E+00
         0.00000E+00
         0.00000E+00
         0.00000E+00
         0.00000E+00
         0.00000E+00
         0.00000E+00
         0.00000E+00
         0.00000E+00
         0.00000E+00
         0.00000E+00
         0.00000E+00
         0.00000E+00
         0.00000E+00
         0.00000E+00
         0.00000E+00
         0.00000E+00
         0.00000E+00
         0.00000E+00
         0.00000E+00
         0.00000E+00
         0.00000E+00
         0.00000E+00
         0.00000E+00
         0.00000E+00
         0.00000E+00
         0.00000E+00
         0.00000E+00
         0.00000E+00
         0.00000E+00
         0.00000E+00
         0.00000E+00
         0.00000E+00
         0.00000E+00
         0.00000E+00
         0.00000E+00
         0.00000E+00
         0.00000E+00
         0.00000E+00
         0.00000E+00
         0.00000E+00
         0.00000E+00
         0.00000E+00
         0.00000E+00
         0.00000E+00
         0.00000E+00
         0.00000E+00
         0.00000E+00
         0.00000E+00
         0.00000E+00
         0.00000E+00
         0.00000E+00
         0.00000E+00
         0.00000E+00
         0.00000E+00
         0.00000E+00
         0.00000E+00
         0.00000E+00
         0.00000E+00
         0.00000E+00
         0.00000E+00
         0.00000E+00
         0.00000E+00
         0.00000E+00
         0.00000E+00
         0.00000E+00
         0.00000E+00
         0.00000E+00
         0.00000E+00
         0.00000E+00
         0.00000E+00
         0.00000E+00
         0.00000E+00
         0.00000E+00
         0.00000E+00
         0.00000E+00
         0.00000E+00
         0.00000E+00
         0.00000E+00
         0.00000E+00
         0.00000E+00
         0.00000E+00
         0.00000E+00
         0.00000E+00
         0.00000E+00
         0.00000E+00
         0.00000E+00
         0.00000E+00
         0.00000E+00
         0.00000E+00
         0.00000E+00
         0.00000E+00
         0.00000E+00
         0.00000E+00
         0.00000E+00
         0.00000E+00
         0.00000E+00
         0.00000E+00
         0.00000E+00
         0.00000E+00
         0.00000E+00
         0.00000E+00
         0.00000E+00
         0.00000E+00
         0.00000E+00
         0.00000E+00
         0.00000E+00
         0.00000E+00
         0.00000E+00
         0.00000E+00
         0.00000E+00
         0.00000E+00
         0.00000E+00
         0.00000E+00
         0.00000E+00
         0.00000E+00
         0.00000E+00
         0.00000E+00
         0.00000E+00
         0.00000E+00
         0.00000E+00
         0.00000E+00
         0.00000E+00
         0.00000E+00
         0.00000E+00
         0.00000E+00
         0.00000E+00
         0.00000E+00
         0.00000E+00
         0.00000E+00
         0.00000E+00
         0.00000E+00
         0.00000E+00
         0.00000E+00
         0.00000E+00
         0.00000E+00
         0.00000E+00
         0.00000E+00
         0.00000E+00
         0.00000E+00
         0.00000E+00
         0.00000E+00
         0.00000E+00
         0.00000E+00
         0.00000E+00
         0.00000E+00
         0.00000E+00
         0.00000E+00
         0.00000E+00
         0.00000E+00
         0.00000E+00
         0.00000E+00
         0.00000E+00
         0.00000E+00
         0.00000E+00
         0.00000E+00
         0.00000E+00
         0.00000E+00
         0.00000E+00
         0.00000E+00
         0.00000E+00
         0.00000E+00
         0.00000E+00
         0.00000E+00
         0.00000E+00
         0.00000E+00
         0.00000E+00
         0.00000E+00
         0.00000E+00
         0.00000E+00
         0.00000E+00
         0.00000E+00
         0.00000E+00
         0.00000E+00
         0.00000E+00
         0.00000E+00
         0.00000E+00
         0.00000E+00
         0.00000E+00
         0.00000E+00
         0.00000E+00
         0.00000E+00
         0.00000E+00
         0.00000E+00
         0.00000E+00
         0.00000E+00
         0.00000E+00
         0.00000E+00
         0.00000E+00
         0.00000E+00
         0.00000E+00
         0.00000E+00
         0.00000E+00
         0.00000E+00
         0.00000E+00
         0.00000E+00
         0.00000E+00
         0.00000E+00
         0.00000E+00
         0.00000E+00
         0.00000E+00
         0.00000E+00
         0.00000E+00
         0.00000E+00
         0.00000E+00
         0.00000E+00
         0.00000E+00
         0.00000E+00
         0.00000E+00
         0.00000E+00
         0.00000E+00
         0.00000E+00
         0.00000E+00
         0.00000E+00
         0.00000E+00
         0.00000E+00
         0.00000E+00
         0.00000E+00
         0.00000E+00
         0.00000E+00
         0.00000E+00
         0.00000E+00
         0.00000E+00
         0.00000E+00
         0.00000E+00
         0.00000E+00
         0.00000E+00
         0.00000E+00
         0.00000E+00
         0.00000E+00
         0.00000E+00
         0.00000E+00
         0.00000E+00
         0.00000E+00
         0.00000E+00
         0.00000E+00
         0.00000E+00
         0.00000E+00
         0.00000E+00
         0.00000E+00
         0.00000E+00
         0.00000E+00
         0.00000E+00
         0.00000E+00
         0.00000E+00
         0.00000E+00
         0.00000E+00
         0.00000E+00
         0.00000E+00
         0.00000E+00
         0.00000E+00
         0.00000E+00
         0.00000E+00
         0.00000E+00
         0.00000E+00
         0.00000E+00
         0.00000E+00
         0.00000E+00
         0.00000E+00
         0.00000E+00
         0.00000E+00
         0.00000E+00
         0.00000E+00
         0.00000E+00
         0.00000E+00
         0.00000E+00
  
SCALARS                         fint_z  double 1
LOOKUP_TABLE default
         0.00000E+00
         0.00000E+00
         0.00000E+00
         0.00000E+00
         0.00000E+00
         0.00000E+00
         0.00000E+00
         0.00000E+00
         0.00000E+00
         0.00000E+00
         0.00000E+00
         0.00000E+00
         0.00000E+00
         0.00000E+00
         0.00000E+00
         0.00000E+00
         0.00000E+00
         0.00000E+00
         0.00000E+00
         0.00000E+00
         0.00000E+00
         0.00000E+00
         0.00000E+00
         0.00000E+00
         0.00000E+00
         0.00000E+00
         0.00000E+00
         0.00000E+00
         0.00000E+00
         0.00000E+00
         0.00000E+00
         0.00000E+00
         0.00000E+00
         0.00000E+00
         0.00000E+00
         0.00000E+00
         0.00000E+00
         0.00000E+00
         0.00000E+00
         0.00000E+00
         0.00000E+00
         0.00000E+00
         0.00000E+00
         0.00000E+00
         0.00000E+00
         0.00000E+00
         0.00000E+00
         0.00000E+00
         0.00000E+00
         0.00000E+00
         0.00000E+00
         0.00000E+00
         0.00000E+00
         0.00000E+00
         0.00000E+00
         0.00000E+00
         0.00000E+00
         0.00000E+00
         0.00000E+00
         0.00000E+00
         0.00000E+00
         0.00000E+00
         0.00000E+00
         0.00000E+00
         0.00000E+00
         0.00000E+00
         0.00000E+00
         0.00000E+00
         0.00000E+00
         0.00000E+00
         0.00000E+00
         0.00000E+00
         0.00000E+00
         0.00000E+00
         0.00000E+00
         0.00000E+00
         0.00000E+00
         0.00000E+00
         0.00000E+00
         0.00000E+00
         0.00000E+00
         0.00000E+00
         0.00000E+00
         0.00000E+00
         0.00000E+00
         0.00000E+00
         0.00000E+00
         0.00000E+00
         0.00000E+00
         0.00000E+00
         0.00000E+00
         0.00000E+00
         0.00000E+00
         0.00000E+00
         0.00000E+00
         0.00000E+00
         0.00000E+00
         0.00000E+00
         0.00000E+00
         0.00000E+00
         0.00000E+00
         0.00000E+00
         0.00000E+00
         0.00000E+00
         0.00000E+00
         0.00000E+00
         0.00000E+00
         0.00000E+00
         0.00000E+00
         0.00000E+00
         0.00000E+00
         0.00000E+00
         0.00000E+00
         0.00000E+00
         0.00000E+00
         0.00000E+00
         0.00000E+00
         0.00000E+00
         0.00000E+00
         0.00000E+00
         0.00000E+00
         0.00000E+00
         0.00000E+00
         0.00000E+00
         0.00000E+00
         0.00000E+00
         0.00000E+00
         0.00000E+00
         0.00000E+00
         0.00000E+00
         0.00000E+00
         0.00000E+00
         0.00000E+00
         0.00000E+00
         0.00000E+00
         0.00000E+00
         0.00000E+00
         0.00000E+00
         0.00000E+00
         0.00000E+00
         0.00000E+00
         0.00000E+00
         0.00000E+00
         0.00000E+00
         0.00000E+00
         0.00000E+00
         0.00000E+00
         0.00000E+00
         0.00000E+00
         0.00000E+00
         0.00000E+00
         0.00000E+00
         0.00000E+00
         0.00000E+00
         0.00000E+00
         0.00000E+00
         0.00000E+00
         0.00000E+00
         0.00000E+00
         0.00000E+00
         0.00000E+00
         0.00000E+00
         0.00000E+00
         0.00000E+00
         0.00000E+00
         0.00000E+00
         0.00000E+00
         0.00000E+00
         0.00000E+00
         0.00000E+00
         0.00000E+00
         0.00000E+00
         0.00000E+00
         0.00000E+00
         0.00000E+00
         0.00000E+00
         0.00000E+00
         0.00000E+00
         0.00000E+00
         0.00000E+00
         0.00000E+00
         0.00000E+00
         0.00000E+00
         0.00000E+00
         0.00000E+00
         0.00000E+00
         0.00000E+00
         0.00000E+00
         0.00000E+00
         0.00000E+00
         0.00000E+00
         0.00000E+00
         0.00000E+00
         0.00000E+00
         0.00000E+00
         0.00000E+00
         0.00000E+00
         0.00000E+00
         0.00000E+00
         0.00000E+00
         0.00000E+00
         0.00000E+00
         0.00000E+00
         0.00000E+00
         0.00000E+00
         0.00000E+00
         0.00000E+00
         0.00000E+00
         0.00000E+00
         0.00000E+00
         0.00000E+00
         0.00000E+00
         0.00000E+00
         0.00000E+00
         0.00000E+00
         0.00000E+00
         0.00000E+00
         0.00000E+00
         0.00000E+00
         0.00000E+00
         0.00000E+00
         0.00000E+00
         0.00000E+00
         0.00000E+00
         0.00000E+00
         0.00000E+00
         0.00000E+00
         0.00000E+00
         0.00000E+00
         0.00000E+00
         0.00000E+00
         0.00000E+00
         0.00000E+00
         0.00000E+00
         0.00000E+00
         0.00000E+00
         0.00000E+00
         0.00000E+00
         0.00000E+00
         0.00000E+00
         0.00000E+00
         0.00000E+00
         0.00000E+00
         0.00000E+00
         0.00000E+00
         0.00000E+00
         0.00000E+00
         0.00000E+00
         0.00000E+00
         0.00000E+00
         0.00000E+00
         0.00000E+00
         0.00000E+00
         0.00000E+00
         0.00000E+00
         0.00000E+00
         0.00000E+00
         0.00000E+00
         0.00000E+00
         0.00000E+00
         0.00000E+00
         0.00000E+00
         0.00000E+00
         0.00000E+00
         0.00000E+00
         0.00000E+00
         0.00000E+00
         0.00000E+00
         0.00000E+00
         0.00000E+00
         0.00000E+00
         0.00000E+00
         0.00000E+00
         0.00000E+00
         0.00000E+00
         0.00000E+00
         0.00000E+00
         0.00000E+00
         0.00000E+00
         0.00000E+00
         0.00000E+00
         0.00000E+00
         0.00000E+00
         0.00000E+00
         0.00000E+00
         0.00000E+00
         0.00000E+00
         0.00000E+00
         0.00000E+00
         0.00000E+00
         0.00000E+00
         0.00000E+00
         0.00000E+00
         0.00000E+00
         0.00000E+00
         0.00000E+00
         0.00000E+00
         0.00000E+00
         0.00000E+00
         0.00000E+00
         0.00000E+00
         0.00000E+00
         0.00000E+00
         0.00000E+00
         0.00000E+00
         0.00000E+00
         0.00000E+00
         0.00000E+00
         0.00000E+00
         0.00000E+00
         0.00000E+00
         0.00000E+00
         0.00000E+00
         0.00000E+00
         0.00000E+00
         0.00000E+00
         0.00000E+00
         0.00000E+00
         0.00000E+00
         0.00000E+00
         0.00000E+00
         0.00000E+00
         0.00000E+00
         0.00000E+00
         0.00000E+00
         0.00000E+00
         0.00000E+00
         0.00000E+00
         0.00000E+00
         0.00000E+00
         0.00000E+00
         0.00000E+00
         0.00000E+00
         0.00000E+00
         0.00000E+00
         0.00000E+00
         0.00000E+00
         0.00000E+00
         0.00000E+00
         0.00000E+00
         0.00000E+00
         0.00000E+00
         0.00000E+00
         0.00000E+00
         0.00000E+00
         0.00000E+00
         0.00000E+00
         0.00000E+00
         0.00000E+00
         0.00000E+00
         0.00000E+00
         0.00000E+00
         0.00000E+00
         0.00000E+00
         0.00000E+00
         0.00000E+00
         0.00000E+00
         0.00000E+00
         0.00000E+00
         0.00000E+00
         0.00000E+00
         0.00000E+00
         0.00000E+00
         0.00000E+00
         0.00000E+00
         0.00000E+00
         0.00000E+00
         0.00000E+00
         0.00000E+00
         0.00000E+00
         0.00000E+00
         0.00000E+00
         0.00000E+00
         0.00000E+00
         0.00000E+00
         0.00000E+00
         0.00000E+00
         0.00000E+00
         0.00000E+00
         0.00000E+00
         0.00000E+00
         0.00000E+00
         0.00000E+00
         0.00000E+00
         0.00000E+00
         0.00000E+00
         0.00000E+00
         0.00000E+00
         0.00000E+00
         0.00000E+00
         0.00000E+00
         0.00000E+00
         0.00000E+00
         0.00000E+00
         0.00000E+00
         0.00000E+00
         0.00000E+00
         0.00000E+00
         0.00000E+00
         0.00000E+00
         0.00000E+00
         0.00000E+00
         0.00000E+00
         0.00000E+00
         0.00000E+00
         0.00000E+00
         0.00000E+00
         0.00000E+00
         0.00000E+00
         0.00000E+00
         0.00000E+00
         0.00000E+00
         0.00000E+00
         0.00000E+00
         0.00000E+00
         0.00000E+00
         0.00000E+00
         0.00000E+00
         0.00000E+00
         0.00000E+00
         0.00000E+00
         0.00000E+00
         0.00000E+00
         0.00000E+00
         0.00000E+00
         0.00000E+00
         0.00000E+00
         0.00000E+00
         0.00000E+00
         0.00000E+00
         0.00000E+00
         0.00000E+00
         0.00000E+00
         0.00000E+00
         0.00000E+00
         0.00000E+00
         0.00000E+00
         0.00000E+00
         0.00000E+00
         0.00000E+00
         0.00000E+00
         0.00000E+00
         0.00000E+00
         0.00000E+00
         0.00000E+00
         0.00000E+00
         0.00000E+00
         0.00000E+00
         0.00000E+00
         0.00000E+00
         0.00000E+00
         0.00000E+00
         0.00000E+00
         0.00000E+00
         0.00000E+00
         0.00000E+00
         0.00000E+00
         0.00000E+00
         0.00000E+00
         0.00000E+00
         0.00000E+00
         0.00000E+00
         0.00000E+00
         0.00000E+00
         0.00000E+00
         0.00000E+00
         0.00000E+00
         0.00000E+00
         0.00000E+00
         0.00000E+00
         0.00000E+00
         0.00000E+00
         0.00000E+00
         0.00000E+00
         0.00000E+00
         0.00000E+00
         0.00000E+00
         0.00000E+00
         0.00000E+00
         0.00000E+00
         0.00000E+00
         0.00000E+00
         0.00000E+00
         0.00000E+00
         0.00000E+00
         0.00000E+00
         0.00000E+00
         0.00000E+00
         0.00000E+00
         0.00000E+00
         0.00000E+00
         0.00000E+00
         0.00000E+00
         0.00000E+00
         0.00000E+00
         0.00000E+00
         0.00000E+00
         0.00000E+00
         0.00000E+00
         0.00000E+00
         0.00000E+00
         0.00000E+00
         0.00000E+00
         0.00000E+00
         0.00000E+00
         0.00000E+00
         0.00000E+00
         0.00000E+00
         0.00000E+00
         0.00000E+00
         0.00000E+00
         0.00000E+00
         0.00000E+00
         0.00000E+00
         0.00000E+00
         0.00000E+00
         0.00000E+00
         0.00000E+00
         0.00000E+00
         0.00000E+00
         0.00000E+00
         0.00000E+00
         0.00000E+00
         0.00000E+00
         0.00000E+00
         0.00000E+00
         0.00000E+00
         0.00000E+00
         0.00000E+00
         0.00000E+00
         0.00000E+00
         0.00000E+00
         0.00000E+00
         0.00000E+00
         0.00000E+00
         0.00000E+00
         0.00000E+00
         0.00000E+00
         0.00000E+00
         0.00000E+00
         0.00000E+00
         0.00000E+00
         0.00000E+00
         0.00000E+00
         0.00000E+00
         0.00000E+00
         0.00000E+00
         0.00000E+00
         0.00000E+00
         0.00000E+00
         0.00000E+00
         0.00000E+00
         0.00000E+00
         0.00000E+00
         0.00000E+00
         0.00000E+00
         0.00000E+00
         0.00000E+00
         0.00000E+00
         0.00000E+00
         0.00000E+00
         0.00000E+00
         0.00000E+00
         0.00000E+00
         0.00000E+00
         0.00000E+00
         0.00000E+00
         0.00000E+00
         0.00000E+00
         0.00000E+00
         0.00000E+00
         0.00000E+00
         0.00000E+00
         0.00000E+00
         0.00000E+00
         0.00000E+00
         0.00000E+00
         0.00000E+00
         0.00000E+00
         0.00000E+00
         0.00000E+00
         0.00000E+00
         0.00000E+00
         0.00000E+00
         0.00000E+00
         0.00000E+00
         0.00000E+00
         0.00000E+00
         0.00000E+00
         0.00000E+00
         0.00000E+00
         0.00000E+00
         0.00000E+00
         0.00000E+00
         0.00000E+00
         0.00000E+00
         0.00000E+00
         0.00000E+00
         0.00000E+00
         0.00000E+00
         0.00000E+00
         0.00000E+00
         0.00000E+00
         0.00000E+00
         0.00000E+00
         0.00000E+00
         0.00000E+00
         0.00000E+00
         0.00000E+00
         0.00000E+00
         0.00000E+00
         0.00000E+00
         0.00000E+00
         0.00000E+00
         0.00000E+00
         0.00000E+00
         0.00000E+00
         0.00000E+00
         0.00000E+00
         0.00000E+00
         0.00000E+00
         0.00000E+00
         0.00000E+00
         0.00000E+00
         0.00000E+00
         0.00000E+00
         0.00000E+00
         0.00000E+00
         0.00000E+00
         0.00000E+00
         0.00000E+00
         0.00000E+00
         0.00000E+00
         0.00000E+00
         0.00000E+00
         0.00000E+00
         0.00000E+00
         0.00000E+00
         0.00000E+00
         0.00000E+00
         0.00000E+00
         0.00000E+00
         0.00000E+00
         0.00000E+00
         0.00000E+00
         0.00000E+00
         0.00000E+00
         0.00000E+00
         0.00000E+00
         0.00000E+00
         0.00000E+00
         0.00000E+00
         0.00000E+00
         0.00000E+00
         0.00000E+00
         0.00000E+00
         0.00000E+00
         0.00000E+00
         0.00000E+00
         0.00000E+00
         0.00000E+00
         0.00000E+00
         0.00000E+00
         0.00000E+00
         0.00000E+00
         0.00000E+00
         0.00000E+00
         0.00000E+00
         0.00000E+00
         0.00000E+00
         0.00000E+00
         0.00000E+00
         0.00000E+00
         0.00000E+00
         0.00000E+00
         0.00000E+00
         0.00000E+00
         0.00000E+00
         0.00000E+00
         0.00000E+00
         0.00000E+00
         0.00000E+00
         0.00000E+00
         0.00000E+00
         0.00000E+00
         0.00000E+00
         0.00000E+00
         0.00000E+00
         0.00000E+00
         0.00000E+00
         0.00000E+00
         0.00000E+00
         0.00000E+00
         0.00000E+00
         0.00000E+00
         0.00000E+00
         0.00000E+00
         0.00000E+00
         0.00000E+00
         0.00000E+00
         0.00000E+00
         0.00000E+00
         0.00000E+00
         0.00000E+00
         0.00000E+00
         0.00000E+00
         0.00000E+00
         0.00000E+00
         0.00000E+00
         0.00000E+00
         0.00000E+00
         0.00000E+00
         0.00000E+00
         0.00000E+00
         0.00000E+00
         0.00000E+00
         0.00000E+00
         0.00000E+00
         0.00000E+00
         0.00000E+00
         0.00000E+00
         0.00000E+00
         0.00000E+00
         0.00000E+00
         0.00000E+00
         0.00000E+00
         0.00000E+00
         0.00000E+00
         0.00000E+00
         0.00000E+00
         0.00000E+00
         0.00000E+00
         0.00000E+00
         0.00000E+00
         0.00000E+00
         0.00000E+00
         0.00000E+00
         0.00000E+00
         0.00000E+00
         0.00000E+00
         0.00000E+00
         0.00000E+00
         0.00000E+00
         0.00000E+00
         0.00000E+00
         0.00000E+00
         0.00000E+00
         0.00000E+00
         0.00000E+00
         0.00000E+00
         0.00000E+00
         0.00000E+00
         0.00000E+00
         0.00000E+00
         0.00000E+00
         0.00000E+00
         0.00000E+00
         0.00000E+00
         0.00000E+00
         0.00000E+00
         0.00000E+00
         0.00000E+00
         0.00000E+00
         0.00000E+00
         0.00000E+00
         0.00000E+00
         0.00000E+00
         0.00000E+00
         0.00000E+00
         0.00000E+00
         0.00000E+00
         0.00000E+00
         0.00000E+00
         0.00000E+00
         0.00000E+00
         0.00000E+00
         0.00000E+00
         0.00000E+00
         0.00000E+00
         0.00000E+00
         0.00000E+00
         0.00000E+00
         0.00000E+00
         0.00000E+00
         0.00000E+00
         0.00000E+00
         0.00000E+00
         0.00000E+00
         0.00000E+00
         0.00000E+00
         0.00000E+00
         0.00000E+00
         0.00000E+00
         0.00000E+00
         0.00000E+00
         0.00000E+00
         0.00000E+00
         0.00000E+00
         0.00000E+00
         0.00000E+00
         0.00000E+00
         0.00000E+00
         0.00000E+00
         0.00000E+00
         0.00000E+00
         0.00000E+00
         0.00000E+00
         0.00000E+00
         0.00000E+00
         0.00000E+00
         0.00000E+00
         0.00000E+00
         0.00000E+00
         0.00000E+00
         0.00000E+00
         0.00000E+00
         0.00000E+00
         0.00000E+00
         0.00000E+00
         0.00000E+00
         0.00000E+00
         0.00000E+00
         0.00000E+00
         0.00000E+00
         0.00000E+00
         0.00000E+00
         0.00000E+00
         0.00000E+00
         0.00000E+00
         0.00000E+00
         0.00000E+00
         0.00000E+00
         0.00000E+00
         0.00000E+00
         0.00000E+00
         0.00000E+00
         0.00000E+00
         0.00000E+00
         0.00000E+00
         0.00000E+00
         0.00000E+00
         0.00000E+00
         0.00000E+00
         0.00000E+00
         0.00000E+00
         0.00000E+00
         0.00000E+00
         0.00000E+00
         0.00000E+00
         0.00000E+00
         0.00000E+00
         0.00000E+00
         0.00000E+00
         0.00000E+00
         0.00000E+00
         0.00000E+00
         0.00000E+00
         0.00000E+00
         0.00000E+00
         0.00000E+00
         0.00000E+00
         0.00000E+00
         0.00000E+00
         0.00000E+00
         0.00000E+00
         0.00000E+00
         0.00000E+00
         0.00000E+00
         0.00000E+00
         0.00000E+00
         0.00000E+00
         0.00000E+00
         0.00000E+00
         0.00000E+00
         0.00000E+00
         0.00000E+00
         0.00000E+00
         0.00000E+00
         0.00000E+00
         0.00000E+00
         0.00000E+00
         0.00000E+00
         0.00000E+00
         0.00000E+00
         0.00000E+00
         0.00000E+00
         0.00000E+00
         0.00000E+00
         0.00000E+00
         0.00000E+00
         0.00000E+00
         0.00000E+00
         0.00000E+00
         0.00000E+00
         0.00000E+00
         0.00000E+00
         0.00000E+00
         0.00000E+00
         0.00000E+00
         0.00000E+00
         0.00000E+00
         0.00000E+00
         0.00000E+00
         0.00000E+00
         0.00000E+00
         0.00000E+00
         0.00000E+00
         0.00000E+00
         0.00000E+00
         0.00000E+00
         0.00000E+00
         0.00000E+00
         0.00000E+00
         0.00000E+00
         0.00000E+00
         0.00000E+00
         0.00000E+00
         0.00000E+00
         0.00000E+00
         0.00000E+00
         0.00000E+00
         0.00000E+00
         0.00000E+00
         0.00000E+00
         0.00000E+00
         0.00000E+00
         0.00000E+00
         0.00000E+00
         0.00000E+00
         0.00000E+00
         0.00000E+00
         0.00000E+00
         0.00000E+00
         0.00000E+00
         0.00000E+00
         0.00000E+00
         0.00000E+00
         0.00000E+00
         0.00000E+00
         0.00000E+00
         0.00000E+00
         0.00000E+00
         0.00000E+00
         0.00000E+00
         0.00000E+00
         0.00000E+00
         0.00000E+00
         0.00000E+00
         0.00000E+00
         0.00000E+00
         0.00000E+00
         0.00000E+00
         0.00000E+00
         0.00000E+00
         0.00000E+00
         0.00000E+00
         0.00000E+00
         0.00000E+00
         0.00000E+00
         0.00000E+00
         0.00000E+00
         0.00000E+00
         0.00000E+00
         0.00000E+00
         0.00000E+00
         0.00000E+00
         0.00000E+00
         0.00000E+00
         0.00000E+00
         0.00000E+00
         0.00000E+00
         0.00000E+00
         0.00000E+00
         0.00000E+00
         0.00000E+00
         0.00000E+00
         0.00000E+00
         0.00000E+00
         0.00000E+00
         0.00000E+00
         0.00000E+00
         0.00000E+00
         0.00000E+00
         0.00000E+00
         0.00000E+00
         0.00000E+00
         0.00000E+00
         0.00000E+00
         0.00000E+00
         0.00000E+00
         0.00000E+00
         0.00000E+00
         0.00000E+00
         0.00000E+00
         0.00000E+00
         0.00000E+00
         0.00000E+00
         0.00000E+00
         0.00000E+00
         0.00000E+00
         0.00000E+00
         0.00000E+00
         0.00000E+00
         0.00000E+00
         0.00000E+00
         0.00000E+00
         0.00000E+00
         0.00000E+00
         0.00000E+00
         0.00000E+00
         0.00000E+00
         0.00000E+00
         0.00000E+00
         0.00000E+00
         0.00000E+00
         0.00000E+00
         0.00000E+00
         0.00000E+00
         0.00000E+00
         0.00000E+00
         0.00000E+00
         0.00000E+00
         0.00000E+00
         0.00000E+00
         0.00000E+00
         0.00000E+00
         0.00000E+00
         0.00000E+00
         0.00000E+00
         0.00000E+00
         0.00000E+00
         0.00000E+00
         0.00000E+00
         0.00000E+00
         0.00000E+00
         0.00000E+00
         0.00000E+00
         0.00000E+00
         0.00000E+00
         0.00000E+00
         0.00000E+00
         0.00000E+00
         0.00000E+00
         0.00000E+00
         0.00000E+00
         0.00000E+00
         0.00000E+00
         0.00000E+00
         0.00000E+00
         0.00000E+00
         0.00000E+00
         0.00000E+00
         0.00000E+00
         0.00000E+00
         0.00000E+00
         0.00000E+00
         0.00000E+00
         0.00000E+00
         0.00000E+00
         0.00000E+00
         0.00000E+00
         0.00000E+00
         0.00000E+00
         0.00000E+00
         0.00000E+00
         0.00000E+00
         0.00000E+00
         0.00000E+00
         0.00000E+00
         0.00000E+00
         0.00000E+00
         0.00000E+00
         0.00000E+00
         0.00000E+00
         0.00000E+00
         0.00000E+00
         0.00000E+00
         0.00000E+00
         0.00000E+00
         0.00000E+00
         0.00000E+00
         0.00000E+00
         0.00000E+00
         0.00000E+00
         0.00000E+00
         0.00000E+00
         0.00000E+00
         0.00000E+00
         0.00000E+00
         0.00000E+00
         0.00000E+00
         0.00000E+00
         0.00000E+00
         0.00000E+00
         0.00000E+00
         0.00000E+00
         0.00000E+00
         0.00000E+00
         0.00000E+00
         0.00000E+00
         0.00000E+00
         0.00000E+00
         0.00000E+00
         0.00000E+00
         0.00000E+00
         0.00000E+00
         0.00000E+00
         0.00000E+00
         0.00000E+00
         0.00000E+00
         0.00000E+00
         0.00000E+00
         0.00000E+00
         0.00000E+00
         0.00000E+00
         0.00000E+00
         0.00000E+00
         0.00000E+00
         0.00000E+00
         0.00000E+00
         0.00000E+00
         0.00000E+00
         0.00000E+00
         0.00000E+00
         0.00000E+00
         0.00000E+00
         0.00000E+00
         0.00000E+00
         0.00000E+00
         0.00000E+00
         0.00000E+00
         0.00000E+00
         0.00000E+00
         0.00000E+00
         0.00000E+00
         0.00000E+00
         0.00000E+00
         0.00000E+00
         0.00000E+00
         0.00000E+00
         0.00000E+00
         0.00000E+00
         0.00000E+00
         0.00000E+00
         0.00000E+00
         0.00000E+00
         0.00000E+00
         0.00000E+00
         0.00000E+00
         0.00000E+00
         0.00000E+00
         0.00000E+00
         0.00000E+00
         0.00000E+00
         0.00000E+00
         0.00000E+00
         0.00000E+00
         0.00000E+00
         0.00000E+00
         0.00000E+00
         0.00000E+00
         0.00000E+00
         0.00000E+00
         0.00000E+00
         0.00000E+00
         0.00000E+00
         0.00000E+00
         0.00000E+00
         0.00000E+00
         0.00000E+00
         0.00000E+00
         0.00000E+00
         0.00000E+00
         0.00000E+00
         0.00000E+00
         0.00000E+00
         0.00000E+00
         0.00000E+00
         0.00000E+00
         0.00000E+00
         0.00000E+00
         0.00000E+00
         0.00000E+00
         0.00000E+00
         0.00000E+00
         0.00000E+00
         0.00000E+00
         0.00000E+00
         0.00000E+00
         0.00000E+00
         0.00000E+00
         0.00000E+00
         0.00000E+00
         0.00000E+00
         0.00000E+00
         0.00000E+00
         0.00000E+00
         0.00000E+00
         0.00000E+00
         0.00000E+00
         0.00000E+00
         0.00000E+00
         0.00000E+00
         0.00000E+00
         0.00000E+00
         0.00000E+00
         0.00000E+00
         0.00000E+00
         0.00000E+00
         0.00000E+00
         0.00000E+00
         0.00000E+00
         0.00000E+00
         0.00000E+00
         0.00000E+00
         0.00000E+00
         0.00000E+00
         0.00000E+00
         0.00000E+00
         0.00000E+00
         0.00000E+00
         0.00000E+00
         0.00000E+00
         0.00000E+00
         0.00000E+00
         0.00000E+00
         0.00000E+00
         0.00000E+00
         0.00000E+00
         0.00000E+00
         0.00000E+00
         0.00000E+00
         0.00000E+00
         0.00000E+00
         0.00000E+00
         0.00000E+00
         0.00000E+00
         0.00000E+00
         0.00000E+00
         0.00000E+00
         0.00000E+00
         0.00000E+00
         0.00000E+00
         0.00000E+00
         0.00000E+00
         0.00000E+00
         0.00000E+00
         0.00000E+00
         0.00000E+00
         0.00000E+00
         0.00000E+00
         0.00000E+00
         0.00000E+00
         0.00000E+00
         0.00000E+00
         0.00000E+00
         0.00000E+00
         0.00000E+00
         0.00000E+00
         0.00000E+00
         0.00000E+00
         0.00000E+00
         0.00000E+00
         0.00000E+00
         0.00000E+00
         0.00000E+00
         0.00000E+00
         0.00000E+00
         0.00000E+00
         0.00000E+00
         0.00000E+00
         0.00000E+00
         0.00000E+00
         0.00000E+00
         0.00000E+00
         0.00000E+00
         0.00000E+00
         0.00000E+00
         0.00000E+00
         0.00000E+00
         0.00000E+00
         0.00000E+00
         0.00000E+00
         0.00000E+00
         0.00000E+00
         0.00000E+00
         0.00000E+00
         0.00000E+00
         0.00000E+00
         0.00000E+00
         0.00000E+00
         0.00000E+00
         0.00000E+00
         0.00000E+00
         0.00000E+00
         0.00000E+00
         0.00000E+00
         0.00000E+00
         0.00000E+00
         0.00000E+00
         0.00000E+00
         0.00000E+00
         0.00000E+00
         0.00000E+00
         0.00000E+00
         0.00000E+00
         0.00000E+00
         0.00000E+00
         0.00000E+00
         0.00000E+00
         0.00000E+00
         0.00000E+00
         0.00000E+00
         0.00000E+00
         0.00000E+00
         0.00000E+00
         0.00000E+00
         0.00000E+00
         0.00000E+00
         0.00000E+00
         0.00000E+00
         0.00000E+00
         0.00000E+00
         0.00000E+00
         0.00000E+00
         0.00000E+00
         0.00000E+00
         0.00000E+00
         0.00000E+00
         0.00000E+00
         0.00000E+00
         0.00000E+00
         0.00000E+00
         0.00000E+00
         0.00000E+00
         0.00000E+00
         0.00000E+00
         0.00000E+00
         0.00000E+00
         0.00000E+00
         0.00000E+00
         0.00000E+00
         0.00000E+00
         0.00000E+00
         0.00000E+00
         0.00000E+00
         0.00000E+00
         0.00000E+00
         0.00000E+00
         0.00000E+00
         0.00000E+00
         0.00000E+00
         0.00000E+00
         0.00000E+00
         0.00000E+00
         0.00000E+00
         0.00000E+00
         0.00000E+00
         0.00000E+00
         0.00000E+00
         0.00000E+00
         0.00000E+00
         0.00000E+00
         0.00000E+00
         0.00000E+00
         0.00000E+00
         0.00000E+00
         0.00000E+00
         0.00000E+00
         0.00000E+00
         0.00000E+00
         0.00000E+00
         0.00000E+00
         0.00000E+00
         0.00000E+00
         0.00000E+00
         0.00000E+00
         0.00000E+00
         0.00000E+00
         0.00000E+00
         0.00000E+00
         0.00000E+00
         0.00000E+00
         0.00000E+00
         0.00000E+00
         0.00000E+00
         0.00000E+00
         0.00000E+00
         0.00000E+00
         0.00000E+00
         0.00000E+00
         0.00000E+00
         0.00000E+00
         0.00000E+00
         0.00000E+00
         0.00000E+00
         0.00000E+00
         0.00000E+00
         0.00000E+00
         0.00000E+00
         0.00000E+00
         0.00000E+00
         0.00000E+00
         0.00000E+00
         0.00000E+00
         0.00000E+00
         0.00000E+00
         0.00000E+00
         0.00000E+00
         0.00000E+00
         0.00000E+00
         0.00000E+00
         0.00000E+00
         0.00000E+00
         0.00000E+00
         0.00000E+00
         0.00000E+00
         0.00000E+00
         0.00000E+00
         0.00000E+00
         0.00000E+00
         0.00000E+00
         0.00000E+00
         0.00000E+00
         0.00000E+00
         0.00000E+00
         0.00000E+00
         0.00000E+00
         0.00000E+00
         0.00000E+00
         0.00000E+00
         0.00000E+00
         0.00000E+00
         0.00000E+00
         0.00000E+00
         0.00000E+00
         0.00000E+00
         0.00000E+00
         0.00000E+00
         0.00000E+00
         0.00000E+00
         0.00000E+00
         0.00000E+00
         0.00000E+00
         0.00000E+00
         0.00000E+00
         0.00000E+00
         0.00000E+00
         0.00000E+00
         0.00000E+00
         0.00000E+00
         0.00000E+00
         0.00000E+00
         0.00000E+00
         0.00000E+00
         0.00000E+00
         0.00000E+00
         0.00000E+00
         0.00000E+00
         0.00000E+00
         0.00000E+00
         0.00000E+00
         0.00000E+00
         0.00000E+00
         0.00000E+00
         0.00000E+00
         0.00000E+00
         0.00000E+00
         0.00000E+00
         0.00000E+00
         0.00000E+00
         0.00000E+00
         0.00000E+00
         0.00000E+00
         0.00000E+00
         0.00000E+00
         0.00000E+00
         0.00000E+00
         0.00000E+00
         0.00000E+00
         0.00000E+00
         0.00000E+00
         0.00000E+00
         0.00000E+00
         0.00000E+00
         0.00000E+00
         0.00000E+00
         0.00000E+00
         0.00000E+00
         0.00000E+00
         0.00000E+00
         0.00000E+00
         0.00000E+00
         0.00000E+00
         0.00000E+00
         0.00000E+00
         0.00000E+00
         0.00000E+00
         0.00000E+00
         0.00000E+00
         0.00000E+00
         0.00000E+00
         0.00000E+00
         0.00000E+00
         0.00000E+00
         0.00000E+00
         0.00000E+00
         0.00000E+00
         0.00000E+00
         0.00000E+00
         0.00000E+00
         0.00000E+00
         0.00000E+00
         0.00000E+00
         0.00000E+00
         0.00000E+00
         0.00000E+00
         0.00000E+00
         0.00000E+00
         0.00000E+00
         0.00000E+00
         0.00000E+00
         0.00000E+00
         0.00000E+00
         0.00000E+00
         0.00000E+00
         0.00000E+00
         0.00000E+00
         0.00000E+00
         0.00000E+00
         0.00000E+00
         0.00000E+00
         0.00000E+00
         0.00000E+00
         0.00000E+00
         0.00000E+00
         0.00000E+00
         0.00000E+00
         0.00000E+00
         0.00000E+00
         0.00000E+00
         0.00000E+00
         0.00000E+00
         0.00000E+00
         0.00000E+00
         0.00000E+00
         0.00000E+00
         0.00000E+00
         0.00000E+00
         0.00000E+00
         0.00000E+00
         0.00000E+00
         0.00000E+00
         0.00000E+00
         0.00000E+00
         0.00000E+00
         0.00000E+00
         0.00000E+00
         0.00000E+00
         0.00000E+00
         0.00000E+00
         0.00000E+00
         0.00000E+00
         0.00000E+00
         0.00000E+00
         0.00000E+00
         0.00000E+00
         0.00000E+00
         0.00000E+00
         0.00000E+00
         0.00000E+00
         0.00000E+00
         0.00000E+00
         0.00000E+00
         0.00000E+00
         0.00000E+00
         0.00000E+00
         0.00000E+00
         0.00000E+00
         0.00000E+00
         0.00000E+00
         0.00000E+00
         0.00000E+00
         0.00000E+00
         0.00000E+00
         0.00000E+00
         0.00000E+00
         0.00000E+00
         0.00000E+00
         0.00000E+00
         0.00000E+00
         0.00000E+00
         0.00000E+00
         0.00000E+00
         0.00000E+00
         0.00000E+00
         0.00000E+00
         0.00000E+00
         0.00000E+00
         0.00000E+00
         0.00000E+00
         0.00000E+00
         0.00000E+00
         0.00000E+00
         0.00000E+00
         0.00000E+00
         0.00000E+00
         0.00000E+00
         0.00000E+00
         0.00000E+00
         0.00000E+00
         0.00000E+00
         0.00000E+00
         0.00000E+00
         0.00000E+00
         0.00000E+00
         0.00000E+00
         0.00000E+00
         0.00000E+00
         0.00000E+00
         0.00000E+00
         0.00000E+00
         0.00000E+00
         0.00000E+00
         0.00000E+00
         0.00000E+00
         0.00000E+00
         0.00000E+00
         0.00000E+00
         0.00000E+00
         0.00000E+00
         0.00000E+00
         0.00000E+00
         0.00000E+00
         0.00000E+00
         0.00000E+00
         0.00000E+00
         0.00000E+00
         0.00000E+00
         0.00000E+00
         0.00000E+00
         0.00000E+00
         0.00000E+00
         0.00000E+00
         0.00000E+00
         0.00000E+00
         0.00000E+00
         0.00000E+00
         0.00000E+00
         0.00000E+00
         0.00000E+00
         0.00000E+00
         0.00000E+00
         0.00000E+00
         0.00000E+00
         0.00000E+00
         0.00000E+00
         0.00000E+00
         0.00000E+00
         0.00000E+00
         0.00000E+00
         0.00000E+00
         0.00000E+00
         0.00000E+00
         0.00000E+00
         0.00000E+00
         0.00000E+00
         0.00000E+00
         0.00000E+00
         0.00000E+00
         0.00000E+00
         0.00000E+00
         0.00000E+00
         0.00000E+00
         0.00000E+00
         0.00000E+00
         0.00000E+00
         0.00000E+00
         0.00000E+00
         0.00000E+00
         0.00000E+00
         0.00000E+00
         0.00000E+00
         0.00000E+00
         0.00000E+00
         0.00000E+00
         0.00000E+00
         0.00000E+00
         0.00000E+00
         0.00000E+00
         0.00000E+00
         0.00000E+00
         0.00000E+00
         0.00000E+00
         0.00000E+00
         0.00000E+00
         0.00000E+00
         0.00000E+00
         0.00000E+00
         0.00000E+00
         0.00000E+00
         0.00000E+00
         0.00000E+00
         0.00000E+00
         0.00000E+00
         0.00000E+00
         0.00000E+00
         0.00000E+00
         0.00000E+00
         0.00000E+00
         0.00000E+00
         0.00000E+00
         0.00000E+00
         0.00000E+00
         0.00000E+00
         0.00000E+00
         0.00000E+00
         0.00000E+00
         0.00000E+00
         0.00000E+00
         0.00000E+00
         0.00000E+00
         0.00000E+00
         0.00000E+00
         0.00000E+00
         0.00000E+00
         0.00000E+00
         0.00000E+00
         0.00000E+00
         0.00000E+00
         0.00000E+00
         0.00000E+00
         0.00000E+00
         0.00000E+00
         0.00000E+00
         0.00000E+00
         0.00000E+00
         0.00000E+00
         0.00000E+00
         0.00000E+00
         0.00000E+00
         0.00000E+00
         0.00000E+00
         0.00000E+00
         0.00000E+00
         0.00000E+00
         0.00000E+00
         0.00000E+00
         0.00000E+00
         0.00000E+00
         0.00000E+00
         0.00000E+00
         0.00000E+00
         0.00000E+00
         0.00000E+00
         0.00000E+00
         0.00000E+00
         0.00000E+00
         0.00000E+00
         0.00000E+00
         0.00000E+00
         0.00000E+00
         0.00000E+00
         0.00000E+00
         0.00000E+00
         0.00000E+00
         0.00000E+00
         0.00000E+00
         0.00000E+00
         0.00000E+00
         0.00000E+00
         0.00000E+00
         0.00000E+00
         0.00000E+00
         0.00000E+00
         0.00000E+00
         0.00000E+00
         0.00000E+00
         0.00000E+00
         0.00000E+00
         0.00000E+00
         0.00000E+00
         0.00000E+00
         0.00000E+00
         0.00000E+00
         0.00000E+00
         0.00000E+00
         0.00000E+00
         0.00000E+00
         0.00000E+00
         0.00000E+00
         0.00000E+00
         0.00000E+00
         0.00000E+00
         0.00000E+00
         0.00000E+00
         0.00000E+00
         0.00000E+00
         0.00000E+00
         0.00000E+00
         0.00000E+00
         0.00000E+00
         0.00000E+00
         0.00000E+00
         0.00000E+00
         0.00000E+00
         0.00000E+00
         0.00000E+00
         0.00000E+00
         0.00000E+00
         0.00000E+00
         0.00000E+00
         0.00000E+00
         0.00000E+00
         0.00000E+00
         0.00000E+00
         0.00000E+00
         0.00000E+00
         0.00000E+00
         0.00000E+00
         0.00000E+00
         0.00000E+00
         0.00000E+00
         0.00000E+00
         0.00000E+00
         0.00000E+00
         0.00000E+00
         0.00000E+00
         0.00000E+00
         0.00000E+00
         0.00000E+00
         0.00000E+00
         0.00000E+00
         0.00000E+00
         0.00000E+00
         0.00000E+00
         0.00000E+00
         0.00000E+00
         0.00000E+00
         0.00000E+00
         0.00000E+00
         0.00000E+00
         0.00000E+00
         0.00000E+00
         0.00000E+00
         0.00000E+00
         0.00000E+00
         0.00000E+00
         0.00000E+00
         0.00000E+00
         0.00000E+00
         0.00000E+00
         0.00000E+00
         0.00000E+00
         0.00000E+00
         0.00000E+00
         0.00000E+00
         0.00000E+00
         0.00000E+00
         0.00000E+00
         0.00000E+00
         0.00000E+00
         0.00000E+00
         0.00000E+00
         0.00000E+00
         0.00000E+00
         0.00000E+00
         0.00000E+00
         0.00000E+00
         0.00000E+00
         0.00000E+00
         0.00000E+00
         0.00000E+00
         0.00000E+00
         0.00000E+00
         0.00000E+00
         0.00000E+00
         0.00000E+00
         0.00000E+00
         0.00000E+00
         0.00000E+00
         0.00000E+00
         0.00000E+00
         0.00000E+00
         0.00000E+00
         0.00000E+00
         0.00000E+00
         0.00000E+00
         0.00000E+00
         0.00000E+00
         0.00000E+00
         0.00000E+00
         0.00000E+00
         0.00000E+00
         0.00000E+00
         0.00000E+00
         0.00000E+00
         0.00000E+00
         0.00000E+00
         0.00000E+00
         0.00000E+00
         0.00000E+00
         0.00000E+00
         0.00000E+00
         0.00000E+00
         0.00000E+00
         0.00000E+00
         0.00000E+00
         0.00000E+00
         0.00000E+00
         0.00000E+00
         0.00000E+00
         0.00000E+00
         0.00000E+00
         0.00000E+00
         0.00000E+00
         0.00000E+00
         0.00000E+00
         0.00000E+00
         0.00000E+00
         0.00000E+00
         0.00000E+00
         0.00000E+00
         0.00000E+00
         0.00000E+00
         0.00000E+00
         0.00000E+00
         0.00000E+00
         0.00000E+00
         0.00000E+00
         0.00000E+00
         0.00000E+00
         0.00000E+00
         0.00000E+00
         0.00000E+00
         0.00000E+00
         0.00000E+00
         0.00000E+00
         0.00000E+00
         0.00000E+00
         0.00000E+00
         0.00000E+00
         0.00000E+00
         0.00000E+00
         0.00000E+00
         0.00000E+00
         0.00000E+00
         0.00000E+00
         0.00000E+00
         0.00000E+00
  
SCALARS        characteristic_distance  double 1
LOOKUP_TABLE default
         0.00000E+00
         0.00000E+00
         0.00000E+00
         0.00000E+00
         0.00000E+00
         0.00000E+00
         0.00000E+00
         0.00000E+00
         0.00000E+00
         0.00000E+00
         0.00000E+00
         0.00000E+00
         0.00000E+00
         0.00000E+00
         0.00000E+00
         0.00000E+00
         0.00000E+00
         0.00000E+00
         0.00000E+00
         0.00000E+00
         0.00000E+00
         0.00000E+00
         0.00000E+00
         0.00000E+00
         0.00000E+00
         0.00000E+00
         0.00000E+00
         0.00000E+00
         0.00000E+00
         0.00000E+00
         0.00000E+00
         0.00000E+00
         0.00000E+00
         0.00000E+00
         0.00000E+00
         0.00000E+00
         0.00000E+00
         0.00000E+00
         0.00000E+00
         0.00000E+00
         0.00000E+00
         0.00000E+00
         0.00000E+00
         0.00000E+00
         0.00000E+00
         0.00000E+00
         0.00000E+00
         0.00000E+00
         0.00000E+00
         0.00000E+00
         0.00000E+00
         0.00000E+00
         0.00000E+00
         0.00000E+00
         0.00000E+00
         0.00000E+00
         0.00000E+00
         0.00000E+00
         0.00000E+00
         0.00000E+00
         0.00000E+00
         0.00000E+00
         0.00000E+00
         0.00000E+00
         0.00000E+00
         0.00000E+00
         0.00000E+00
         0.00000E+00
         0.00000E+00
         0.00000E+00
         0.00000E+00
         0.00000E+00
         0.00000E+00
         0.00000E+00
         0.00000E+00
         0.00000E+00
         0.00000E+00
         0.00000E+00
         0.00000E+00
         0.00000E+00
         0.00000E+00
         0.00000E+00
         0.00000E+00
         0.00000E+00
         0.00000E+00
         0.00000E+00
         0.00000E+00
         0.00000E+00
         0.00000E+00
         0.00000E+00
         0.00000E+00
         0.00000E+00
         0.00000E+00
         0.00000E+00
         0.00000E+00
         0.00000E+00
         0.00000E+00
         0.00000E+00
         0.00000E+00
         0.00000E+00
         0.00000E+00
         0.00000E+00
         0.00000E+00
         0.00000E+00
         0.00000E+00
         0.00000E+00
         0.00000E+00
         0.00000E+00
         0.00000E+00
         0.00000E+00
         0.00000E+00
         0.00000E+00
         0.00000E+00
         0.00000E+00
         0.00000E+00
         0.00000E+00
         0.00000E+00
         0.00000E+00
         0.00000E+00
         0.00000E+00
         0.00000E+00
         0.00000E+00
         0.00000E+00
         0.00000E+00
         0.00000E+00
         0.00000E+00
         0.00000E+00
         0.00000E+00
         0.00000E+00
         0.00000E+00
         0.00000E+00
         0.00000E+00
         0.00000E+00
         0.00000E+00
         0.00000E+00
         0.00000E+00
         0.00000E+00
         0.00000E+00
         0.00000E+00
         0.00000E+00
         0.00000E+00
         0.00000E+00
         0.00000E+00
         0.00000E+00
         0.00000E+00
         0.00000E+00
         0.00000E+00
         0.00000E+00
         0.00000E+00
         0.00000E+00
         0.00000E+00
         0.00000E+00
         0.00000E+00
         0.00000E+00
         0.00000E+00
         0.00000E+00
         0.00000E+00
         0.00000E+00
         0.00000E+00
         0.00000E+00
         0.00000E+00
         0.00000E+00
         0.00000E+00
         0.00000E+00
         0.00000E+00
         0.00000E+00
         0.00000E+00
         0.00000E+00
         0.00000E+00
         0.00000E+00
         0.00000E+00
         0.00000E+00
         0.00000E+00
         0.00000E+00
         0.00000E+00
         0.00000E+00
         0.00000E+00
         0.00000E+00
         0.00000E+00
         0.00000E+00
         0.00000E+00
         0.00000E+00
         0.00000E+00
         0.00000E+00
         0.00000E+00
         0.00000E+00
         0.00000E+00
         0.00000E+00
         0.00000E+00
         0.00000E+00
         0.00000E+00
         0.00000E+00
         0.00000E+00
         0.00000E+00
         0.00000E+00
         0.00000E+00
         0.00000E+00
         0.00000E+00
         0.00000E+00
         0.00000E+00
         0.00000E+00
         0.00000E+00
         0.00000E+00
         0.00000E+00
         0.00000E+00
         0.00000E+00
         0.00000E+00
         0.00000E+00
         0.00000E+00
         0.00000E+00
         0.00000E+00
         0.00000E+00
         0.00000E+00
         0.00000E+00
         0.00000E+00
         0.00000E+00
         0.00000E+00
         0.00000E+00
         0.00000E+00
         0.00000E+00
         0.00000E+00
         0.00000E+00
         0.00000E+00
         0.00000E+00
         0.00000E+00
         0.00000E+00
         0.00000E+00
         0.00000E+00
         0.00000E+00
         0.00000E+00
         0.00000E+00
         0.00000E+00
         0.00000E+00
         0.00000E+00
         0.00000E+00
         0.00000E+00
         0.00000E+00
         0.00000E+00
         0.00000E+00
         0.00000E+00
         0.00000E+00
         0.00000E+00
         0.00000E+00
         0.00000E+00
         0.00000E+00
         0.00000E+00
         0.00000E+00
         0.00000E+00
         0.00000E+00
         0.00000E+00
         0.00000E+00
         0.00000E+00
         0.00000E+00
         0.00000E+00
         0.00000E+00
         0.00000E+00
         0.00000E+00
         0.00000E+00
         0.00000E+00
         0.00000E+00
         0.00000E+00
         0.00000E+00
         0.00000E+00
         0.00000E+00
         0.00000E+00
         0.00000E+00
         0.00000E+00
         0.00000E+00
         0.00000E+00
         0.00000E+00
         0.00000E+00
         0.00000E+00
         0.00000E+00
         0.00000E+00
         0.00000E+00
         0.00000E+00
         0.00000E+00
         0.00000E+00
         0.00000E+00
         0.00000E+00
         0.00000E+00
         0.00000E+00
         0.00000E+00
         0.00000E+00
         0.00000E+00
         0.00000E+00
         0.00000E+00
         0.00000E+00
         0.00000E+00
         0.00000E+00
         0.00000E+00
         0.00000E+00
         0.00000E+00
         0.00000E+00
         0.00000E+00
         0.00000E+00
         0.00000E+00
         0.00000E+00
         0.00000E+00
         0.00000E+00
         0.00000E+00
         0.00000E+00
         0.00000E+00
         0.00000E+00
         0.00000E+00
         0.00000E+00
         0.00000E+00
         0.00000E+00
         0.00000E+00
         0.00000E+00
         0.00000E+00
         0.00000E+00
         0.00000E+00
         0.00000E+00
         0.00000E+00
         0.00000E+00
         0.00000E+00
         0.00000E+00
         0.00000E+00
         0.00000E+00
         0.00000E+00
         0.00000E+00
         0.00000E+00
         0.00000E+00
         0.00000E+00
         0.00000E+00
         0.00000E+00
         0.00000E+00
         0.00000E+00
         0.00000E+00
         0.00000E+00
         0.00000E+00
         0.00000E+00
         0.00000E+00
         0.00000E+00
         0.00000E+00
         0.00000E+00
         0.00000E+00
         0.00000E+00
         0.00000E+00
         0.00000E+00
         0.00000E+00
         0.00000E+00
         0.00000E+00
         0.00000E+00
         0.00000E+00
         0.00000E+00
         0.00000E+00
         0.00000E+00
         0.00000E+00
         0.00000E+00
         0.00000E+00
         0.00000E+00
         0.00000E+00
         0.00000E+00
         0.00000E+00
         0.00000E+00
         0.00000E+00
         0.00000E+00
         0.00000E+00
         0.00000E+00
         0.00000E+00
         0.00000E+00
         0.00000E+00
         0.00000E+00
         0.00000E+00
         0.00000E+00
         0.00000E+00
         0.00000E+00
         0.00000E+00
         0.00000E+00
         0.00000E+00
         0.00000E+00
         0.00000E+00
         0.00000E+00
         0.00000E+00
         0.00000E+00
         0.00000E+00
         0.00000E+00
         0.00000E+00
         0.00000E+00
         0.00000E+00
         0.00000E+00
         0.00000E+00
         0.00000E+00
         0.00000E+00
         0.00000E+00
         0.00000E+00
         0.00000E+00
         0.00000E+00
         0.00000E+00
         0.00000E+00
         0.00000E+00
         0.00000E+00
         0.00000E+00
         0.00000E+00
         0.00000E+00
         0.00000E+00
         0.00000E+00
         0.00000E+00
         0.00000E+00
         0.00000E+00
         0.00000E+00
         0.00000E+00
         0.00000E+00
         0.00000E+00
         0.00000E+00
         0.00000E+00
         0.00000E+00
         0.00000E+00
         0.00000E+00
         0.00000E+00
         0.00000E+00
         0.00000E+00
         0.00000E+00
         0.00000E+00
         0.00000E+00
         0.00000E+00
         0.00000E+00
         0.00000E+00
         0.00000E+00
         0.00000E+00
         0.00000E+00
         0.00000E+00
         0.00000E+00
         0.00000E+00
         0.00000E+00
         0.00000E+00
         0.00000E+00
         0.00000E+00
         0.00000E+00
         0.00000E+00
         0.00000E+00
         0.00000E+00
         0.00000E+00
         0.00000E+00
         0.00000E+00
         0.00000E+00
         0.00000E+00
         0.00000E+00
         0.00000E+00
         0.00000E+00
         0.00000E+00
         0.00000E+00
         0.00000E+00
         0.00000E+00
         0.00000E+00
         0.00000E+00
         0.00000E+00
         0.00000E+00
         0.00000E+00
         0.00000E+00
         0.00000E+00
         0.00000E+00
         0.00000E+00
         0.00000E+00
         0.00000E+00
         0.00000E+00
         0.00000E+00
         0.00000E+00
         0.00000E+00
         0.00000E+00
         0.00000E+00
         0.00000E+00
         0.00000E+00
         0.00000E+00
         0.00000E+00
         0.00000E+00
         0.00000E+00
         0.00000E+00
         0.00000E+00
         0.00000E+00
         0.00000E+00
         0.00000E+00
         0.00000E+00
         0.00000E+00
         0.00000E+00
         0.00000E+00
         0.00000E+00
         0.00000E+00
         0.00000E+00
         0.00000E+00
         0.00000E+00
         0.00000E+00
         0.00000E+00
         0.00000E+00
         0.00000E+00
         0.00000E+00
         0.00000E+00
         0.00000E+00
         0.00000E+00
         0.00000E+00
         0.00000E+00
         0.00000E+00
         0.00000E+00
         0.00000E+00
         0.00000E+00
         0.00000E+00
         0.00000E+00
         0.00000E+00
         0.00000E+00
         0.00000E+00
         0.00000E+00
         0.00000E+00
         0.00000E+00
         0.00000E+00
         0.00000E+00
         0.00000E+00
         0.00000E+00
         0.00000E+00
         0.00000E+00
         0.00000E+00
         0.00000E+00
         0.00000E+00
         0.00000E+00
         0.00000E+00
         0.00000E+00
         0.00000E+00
         0.00000E+00
         0.00000E+00
         0.00000E+00
         0.00000E+00
         0.00000E+00
         0.00000E+00
         0.00000E+00
         0.00000E+00
         0.00000E+00
         0.00000E+00
         0.00000E+00
         0.00000E+00
         0.00000E+00
         0.00000E+00
         0.00000E+00
         0.00000E+00
         0.00000E+00
         0.00000E+00
         0.00000E+00
         0.00000E+00
         0.00000E+00
         0.00000E+00
         0.00000E+00
         0.00000E+00
         0.00000E+00
         0.00000E+00
         0.00000E+00
         0.00000E+00
         0.00000E+00
         0.00000E+00
         0.00000E+00
         0.00000E+00
         0.00000E+00
         0.00000E+00
         0.00000E+00
         0.00000E+00
         0.00000E+00
         0.00000E+00
         0.00000E+00
         0.00000E+00
         0.00000E+00
         0.00000E+00
         0.00000E+00
         0.00000E+00
         0.00000E+00
         0.00000E+00
         0.00000E+00
         0.00000E+00
         0.00000E+00
         0.00000E+00
         0.00000E+00
         0.00000E+00
         0.00000E+00
         0.00000E+00
         0.00000E+00
         0.00000E+00
         0.00000E+00
         0.00000E+00
         0.00000E+00
         0.00000E+00
         0.00000E+00
         0.00000E+00
         0.00000E+00
         0.00000E+00
         0.00000E+00
         0.00000E+00
         0.00000E+00
         0.00000E+00
         0.00000E+00
         0.00000E+00
         0.00000E+00
         0.00000E+00
         0.00000E+00
         0.00000E+00
         0.00000E+00
         0.00000E+00
         0.00000E+00
         0.00000E+00
         0.00000E+00
         0.00000E+00
         0.00000E+00
         0.00000E+00
         0.00000E+00
         0.00000E+00
         0.00000E+00
         0.00000E+00
         0.00000E+00
         0.00000E+00
         0.00000E+00
         0.00000E+00
         0.00000E+00
         0.00000E+00
         0.00000E+00
         0.00000E+00
         0.00000E+00
         0.00000E+00
         0.00000E+00
         0.00000E+00
         0.00000E+00
         0.00000E+00
         0.00000E+00
         0.00000E+00
         0.00000E+00
         0.00000E+00
         0.00000E+00
         0.00000E+00
         0.00000E+00
         0.00000E+00
         0.00000E+00
         0.00000E+00
         0.00000E+00
         0.00000E+00
         0.00000E+00
         0.00000E+00
         0.00000E+00
         0.00000E+00
         0.00000E+00
         0.00000E+00
         0.00000E+00
         0.00000E+00
         0.00000E+00
         0.00000E+00
         0.00000E+00
         0.00000E+00
         0.00000E+00
         0.00000E+00
         0.00000E+00
         0.00000E+00
         0.00000E+00
         0.00000E+00
         0.00000E+00
         0.00000E+00
         0.00000E+00
         0.00000E+00
         0.00000E+00
         0.00000E+00
         0.00000E+00
         0.00000E+00
         0.00000E+00
         0.00000E+00
         0.00000E+00
         0.00000E+00
         0.00000E+00
         0.00000E+00
         0.00000E+00
         0.00000E+00
         0.00000E+00
         0.00000E+00
         0.00000E+00
         0.00000E+00
         0.00000E+00
         0.00000E+00
         0.00000E+00
         0.00000E+00
         0.00000E+00
         0.00000E+00
         0.00000E+00
         0.00000E+00
         0.00000E+00
         0.00000E+00
         0.00000E+00
         0.00000E+00
         0.00000E+00
         0.00000E+00
         0.00000E+00
         0.00000E+00
         0.00000E+00
         0.00000E+00
         0.00000E+00
         0.00000E+00
         0.00000E+00
         0.00000E+00
         0.00000E+00
         0.00000E+00
         0.00000E+00
         0.00000E+00
         0.00000E+00
         0.00000E+00
         0.00000E+00
         0.00000E+00
         0.00000E+00
         0.00000E+00
         0.00000E+00
         0.00000E+00
         0.00000E+00
         0.00000E+00
         0.00000E+00
         0.00000E+00
         0.00000E+00
         0.00000E+00
         0.00000E+00
         0.00000E+00
         0.00000E+00
         0.00000E+00
         0.00000E+00
         0.00000E+00
         0.00000E+00
         0.00000E+00
         0.00000E+00
         0.00000E+00
         0.00000E+00
         0.00000E+00
         0.00000E+00
         0.00000E+00
         0.00000E+00
         0.00000E+00
         0.00000E+00
         0.00000E+00
         0.00000E+00
         0.00000E+00
         0.00000E+00
         0.00000E+00
         0.00000E+00
         0.00000E+00
         0.00000E+00
         0.00000E+00
         0.00000E+00
         0.00000E+00
         0.00000E+00
         0.00000E+00
         0.00000E+00
         0.00000E+00
         0.00000E+00
         0.00000E+00
         0.00000E+00
         0.00000E+00
         0.00000E+00
         0.00000E+00
         0.00000E+00
         0.00000E+00
         0.00000E+00
         0.00000E+00
         0.00000E+00
         0.00000E+00
         0.00000E+00
         0.00000E+00
         0.00000E+00
         0.00000E+00
         0.00000E+00
         0.00000E+00
         0.00000E+00
         0.00000E+00
         0.00000E+00
         0.00000E+00
         0.00000E+00
         0.00000E+00
         0.00000E+00
         0.00000E+00
         0.00000E+00
         0.00000E+00
         0.00000E+00
         0.00000E+00
         0.00000E+00
         0.00000E+00
         0.00000E+00
         0.00000E+00
         0.00000E+00
         0.00000E+00
         0.00000E+00
         0.00000E+00
         0.00000E+00
         0.00000E+00
         0.00000E+00
         0.00000E+00
         0.00000E+00
         0.00000E+00
         0.00000E+00
         0.00000E+00
         0.00000E+00
         0.00000E+00
         0.00000E+00
         0.00000E+00
         0.00000E+00
         0.00000E+00
         0.00000E+00
         0.00000E+00
         0.00000E+00
         0.00000E+00
         0.00000E+00
         0.00000E+00
         0.00000E+00
         0.00000E+00
         0.00000E+00
         0.00000E+00
         0.00000E+00
         0.00000E+00
         0.00000E+00
         0.00000E+00
         0.00000E+00
         0.00000E+00
         0.00000E+00
         0.00000E+00
         0.00000E+00
         0.00000E+00
         0.00000E+00
         0.00000E+00
         0.00000E+00
         0.00000E+00
         0.00000E+00
         0.00000E+00
         0.00000E+00
         0.00000E+00
         0.00000E+00
         0.00000E+00
         0.00000E+00
         0.00000E+00
         0.00000E+00
         0.00000E+00
         0.00000E+00
         0.00000E+00
         0.00000E+00
         0.00000E+00
         0.00000E+00
         0.00000E+00
         0.00000E+00
         0.00000E+00
         0.00000E+00
         0.00000E+00
         0.00000E+00
         0.00000E+00
         0.00000E+00
         0.00000E+00
         0.00000E+00
         0.00000E+00
         0.00000E+00
         0.00000E+00
         0.00000E+00
         0.00000E+00
         0.00000E+00
         0.00000E+00
         0.00000E+00
         0.00000E+00
         0.00000E+00
         0.00000E+00
         0.00000E+00
         0.00000E+00
         0.00000E+00
         0.00000E+00
         0.00000E+00
         0.00000E+00
         0.00000E+00
         0.00000E+00
         0.00000E+00
         0.00000E+00
         0.00000E+00
         0.00000E+00
         0.00000E+00
         0.00000E+00
         0.00000E+00
         0.00000E+00
         0.00000E+00
         0.00000E+00
         0.00000E+00
         0.00000E+00
         0.00000E+00
         0.00000E+00
         0.00000E+00
         0.00000E+00
         0.00000E+00
         0.00000E+00
         0.00000E+00
         0.00000E+00
         0.00000E+00
         0.00000E+00
         0.00000E+00
         0.00000E+00
         0.00000E+00
         0.00000E+00
         0.00000E+00
         0.00000E+00
         0.00000E+00
         0.00000E+00
         0.00000E+00
         0.00000E+00
         0.00000E+00
         0.00000E+00
         0.00000E+00
         0.00000E+00
         0.00000E+00
         0.00000E+00
         0.00000E+00
         0.00000E+00
         0.00000E+00
         0.00000E+00
         0.00000E+00
         0.00000E+00
         0.00000E+00
         0.00000E+00
         0.00000E+00
         0.00000E+00
         0.00000E+00
         0.00000E+00
         0.00000E+00
         0.00000E+00
         0.00000E+00
         0.00000E+00
         0.00000E+00
         0.00000E+00
         0.00000E+00
         0.00000E+00
         0.00000E+00
         0.00000E+00
         0.00000E+00
         0.00000E+00
         0.00000E+00
         0.00000E+00
         0.00000E+00
         0.00000E+00
         0.00000E+00
         0.00000E+00
         0.00000E+00
         0.00000E+00
         0.00000E+00
         0.00000E+00
         0.00000E+00
         0.00000E+00
         0.00000E+00
         0.00000E+00
         0.00000E+00
         0.00000E+00
         0.00000E+00
         0.00000E+00
         0.00000E+00
         0.00000E+00
         0.00000E+00
         0.00000E+00
         0.00000E+00
         0.00000E+00
         0.00000E+00
         0.00000E+00
         0.00000E+00
         0.00000E+00
         0.00000E+00
         0.00000E+00
         0.00000E+00
         0.00000E+00
         0.00000E+00
         0.00000E+00
         0.00000E+00
         0.00000E+00
         0.00000E+00
         0.00000E+00
         0.00000E+00
         0.00000E+00
         0.00000E+00
         0.00000E+00
         0.00000E+00
         0.00000E+00
         0.00000E+00
         0.00000E+00
         0.00000E+00
         0.00000E+00
         0.00000E+00
         0.00000E+00
         0.00000E+00
         0.00000E+00
         0.00000E+00
         0.00000E+00
         0.00000E+00
         0.00000E+00
         0.00000E+00
         0.00000E+00
         0.00000E+00
         0.00000E+00
         0.00000E+00
         0.00000E+00
         0.00000E+00
         0.00000E+00
         0.00000E+00
         0.00000E+00
         0.00000E+00
         0.00000E+00
         0.00000E+00
         0.00000E+00
         0.00000E+00
         0.00000E+00
         0.00000E+00
         0.00000E+00
         0.00000E+00
         0.00000E+00
         0.00000E+00
         0.00000E+00
         0.00000E+00
         0.00000E+00
         0.00000E+00
         0.00000E+00
         0.00000E+00
         0.00000E+00
         0.00000E+00
         0.00000E+00
         0.00000E+00
         0.00000E+00
         0.00000E+00
         0.00000E+00
         0.00000E+00
         0.00000E+00
         0.00000E+00
         0.00000E+00
         0.00000E+00
         0.00000E+00
         0.00000E+00
         0.00000E+00
         0.00000E+00
         0.00000E+00
         0.00000E+00
         0.00000E+00
         0.00000E+00
         0.00000E+00
         0.00000E+00
         0.00000E+00
         0.00000E+00
         0.00000E+00
         0.00000E+00
         0.00000E+00
         0.00000E+00
         0.00000E+00
         0.00000E+00
         0.00000E+00
         0.00000E+00
         0.00000E+00
         0.00000E+00
         0.00000E+00
         0.00000E+00
         0.00000E+00
         0.00000E+00
         0.00000E+00
         0.00000E+00
         0.00000E+00
         0.00000E+00
         0.00000E+00
         0.00000E+00
         0.00000E+00
         0.00000E+00
         0.00000E+00
         0.00000E+00
         0.00000E+00
         0.00000E+00
         0.00000E+00
         0.00000E+00
         0.00000E+00
         0.00000E+00
         0.00000E+00
         0.00000E+00
         0.00000E+00
         0.00000E+00
         0.00000E+00
         0.00000E+00
         0.00000E+00
         0.00000E+00
         0.00000E+00
         0.00000E+00
         0.00000E+00
         0.00000E+00
         0.00000E+00
         0.00000E+00
         0.00000E+00
         0.00000E+00
         0.00000E+00
         0.00000E+00
         0.00000E+00
         0.00000E+00
         0.00000E+00
         0.00000E+00
         0.00000E+00
         0.00000E+00
         0.00000E+00
         0.00000E+00
         0.00000E+00
         0.00000E+00
         0.00000E+00
         0.00000E+00
         0.00000E+00
         0.00000E+00
         0.00000E+00
         0.00000E+00
         0.00000E+00
         0.00000E+00
         0.00000E+00
         0.00000E+00
         0.00000E+00
         0.00000E+00
         0.00000E+00
         0.00000E+00
         0.00000E+00
         0.00000E+00
         0.00000E+00
         0.00000E+00
         0.00000E+00
         0.00000E+00
         0.00000E+00
         0.00000E+00
         0.00000E+00
         0.00000E+00
         0.00000E+00
         0.00000E+00
         0.00000E+00
         0.00000E+00
         0.00000E+00
         0.00000E+00
         0.00000E+00
         0.00000E+00
         0.00000E+00
         0.00000E+00
         0.00000E+00
         0.00000E+00
         0.00000E+00
         0.00000E+00
         0.00000E+00
         0.00000E+00
         0.00000E+00
         0.00000E+00
         0.00000E+00
         0.00000E+00
         0.00000E+00
         0.00000E+00
         0.00000E+00
         0.00000E+00
         0.00000E+00
         0.00000E+00
         0.00000E+00
         0.00000E+00
         0.00000E+00
         0.00000E+00
         0.00000E+00
         0.00000E+00
         0.00000E+00
         0.00000E+00
         0.00000E+00
         0.00000E+00
         0.00000E+00
         0.00000E+00
         0.00000E+00
         0.00000E+00
         0.00000E+00
         0.00000E+00
         0.00000E+00
         0.00000E+00
         0.00000E+00
         0.00000E+00
         0.00000E+00
         0.00000E+00
         0.00000E+00
         0.00000E+00
         0.00000E+00
         0.00000E+00
         0.00000E+00
         0.00000E+00
         0.00000E+00
         0.00000E+00
         0.00000E+00
         0.00000E+00
         0.00000E+00
         0.00000E+00
         0.00000E+00
         0.00000E+00
         0.00000E+00
         0.00000E+00
         0.00000E+00
         0.00000E+00
         0.00000E+00
         0.00000E+00
         0.00000E+00
         0.00000E+00
         0.00000E+00
         0.00000E+00
         0.00000E+00
         0.00000E+00
         0.00000E+00
         0.00000E+00
         0.00000E+00
         0.00000E+00
         0.00000E+00
         0.00000E+00
         0.00000E+00
         0.00000E+00
         0.00000E+00
         0.00000E+00
         0.00000E+00
         0.00000E+00
         0.00000E+00
         0.00000E+00
         0.00000E+00
         0.00000E+00
         0.00000E+00
         0.00000E+00
         0.00000E+00
         0.00000E+00
         0.00000E+00
         0.00000E+00
         0.00000E+00
         0.00000E+00
         0.00000E+00
         0.00000E+00
         0.00000E+00
         0.00000E+00
         0.00000E+00
         0.00000E+00
         0.00000E+00
         0.00000E+00
         0.00000E+00
         0.00000E+00
         0.00000E+00
         0.00000E+00
         0.00000E+00
         0.00000E+00
         0.00000E+00
         0.00000E+00
         0.00000E+00
         0.00000E+00
         0.00000E+00
         0.00000E+00
         0.00000E+00
         0.00000E+00
         0.00000E+00
         0.00000E+00
         0.00000E+00
         0.00000E+00
         0.00000E+00
         0.00000E+00
         0.00000E+00
         0.00000E+00
         0.00000E+00
         0.00000E+00
         0.00000E+00
         0.00000E+00
         0.00000E+00
         0.00000E+00
         0.00000E+00
         0.00000E+00
         0.00000E+00
         0.00000E+00
         0.00000E+00
         0.00000E+00
         0.00000E+00
         0.00000E+00
         0.00000E+00
         0.00000E+00
         0.00000E+00
         0.00000E+00
         0.00000E+00
         0.00000E+00
         0.00000E+00
         0.00000E+00
         0.00000E+00
         0.00000E+00
         0.00000E+00
         0.00000E+00
         0.00000E+00
         0.00000E+00
         0.00000E+00
         0.00000E+00
         0.00000E+00
         0.00000E+00
         0.00000E+00
         0.00000E+00
         0.00000E+00
         0.00000E+00
         0.00000E+00
         0.00000E+00
         0.00000E+00
         0.00000E+00
         0.00000E+00
         0.00000E+00
         0.00000E+00
         0.00000E+00
         0.00000E+00
         0.00000E+00
         0.00000E+00
         0.00000E+00
         0.00000E+00
         0.00000E+00
         0.00000E+00
         0.00000E+00
         0.00000E+00
         0.00000E+00
         0.00000E+00
         0.00000E+00
         0.00000E+00
         0.00000E+00
         0.00000E+00
         0.00000E+00
         0.00000E+00
         0.00000E+00
         0.00000E+00
         0.00000E+00
         0.00000E+00
         0.00000E+00
         0.00000E+00
         0.00000E+00
         0.00000E+00
         0.00000E+00
         0.00000E+00
         0.00000E+00
         0.00000E+00
         0.00000E+00
         0.00000E+00
         0.00000E+00
         0.00000E+00
         0.00000E+00
         0.00000E+00
         0.00000E+00
         0.00000E+00
         0.00000E+00
         0.00000E+00
         0.00000E+00
         0.00000E+00
         0.00000E+00
         0.00000E+00
         0.00000E+00
         0.00000E+00
         0.00000E+00
         0.00000E+00
         0.00000E+00
         0.00000E+00
         0.00000E+00
         0.00000E+00
         0.00000E+00
         0.00000E+00
         0.00000E+00
         0.00000E+00
         0.00000E+00
         0.00000E+00
         0.00000E+00
         0.00000E+00
         0.00000E+00
         0.00000E+00
         0.00000E+00
         0.00000E+00
         0.00000E+00
         0.00000E+00
         0.00000E+00
         0.00000E+00
         0.00000E+00
         0.00000E+00
         0.00000E+00
         0.00000E+00
         0.00000E+00
         0.00000E+00
         0.00000E+00
         0.00000E+00
         0.00000E+00
         0.00000E+00
         0.00000E+00
         0.00000E+00
         0.00000E+00
         0.00000E+00
         0.00000E+00
         0.00000E+00
         0.00000E+00
         0.00000E+00
         0.00000E+00
         0.00000E+00
         0.00000E+00
         0.00000E+00
         0.00000E+00
         0.00000E+00
         0.00000E+00
         0.00000E+00
         0.00000E+00
         0.00000E+00
         0.00000E+00
         0.00000E+00
         0.00000E+00
         0.00000E+00
         0.00000E+00
         0.00000E+00
         0.00000E+00
         0.00000E+00
         0.00000E+00
         0.00000E+00
         0.00000E+00
         0.00000E+00
         0.00000E+00
         0.00000E+00
         0.00000E+00
         0.00000E+00
         0.00000E+00
         0.00000E+00
         0.00000E+00
         0.00000E+00
         0.00000E+00
         0.00000E+00
         0.00000E+00
         0.00000E+00
         0.00000E+00
         0.00000E+00
         0.00000E+00
         0.00000E+00
         0.00000E+00
         0.00000E+00
         0.00000E+00
         0.00000E+00
         0.00000E+00
         0.00000E+00
         0.00000E+00
         0.00000E+00
         0.00000E+00
         0.00000E+00
         0.00000E+00
         0.00000E+00
         0.00000E+00
         0.00000E+00
         0.00000E+00
         0.00000E+00
         0.00000E+00
         0.00000E+00
         0.00000E+00
         0.00000E+00
         0.00000E+00
         0.00000E+00
         0.00000E+00
         0.00000E+00
         0.00000E+00
         0.00000E+00
         0.00000E+00
         0.00000E+00
         0.00000E+00
         0.00000E+00
         0.00000E+00
         0.00000E+00
         0.00000E+00
         0.00000E+00
         0.00000E+00
         0.00000E+00
         0.00000E+00
         0.00000E+00
         0.00000E+00
         0.00000E+00
         0.00000E+00
         0.00000E+00
         0.00000E+00
         0.00000E+00
         0.00000E+00
         0.00000E+00
         0.00000E+00
         0.00000E+00
         0.00000E+00
         0.00000E+00
         0.00000E+00
         0.00000E+00
         0.00000E+00
         0.00000E+00
         0.00000E+00
         0.00000E+00
         0.00000E+00
         0.00000E+00
         0.00000E+00
         0.00000E+00
         0.00000E+00
         0.00000E+00
         0.00000E+00
         0.00000E+00
         0.00000E+00
         0.00000E+00
         0.00000E+00
         0.00000E+00
         0.00000E+00
         0.00000E+00
         0.00000E+00
         0.00000E+00
         0.00000E+00
         0.00000E+00
         0.00000E+00
         0.00000E+00
         0.00000E+00
         0.00000E+00
         0.00000E+00
         0.00000E+00
         0.00000E+00
         0.00000E+00
         0.00000E+00
         0.00000E+00
         0.00000E+00
         0.00000E+00
         0.00000E+00
         0.00000E+00
         0.00000E+00
         0.00000E+00
         0.00000E+00
         0.00000E+00
         0.00000E+00
         0.00000E+00
         0.00000E+00
         0.00000E+00
         0.00000E+00
         0.00000E+00
         0.00000E+00
         0.00000E+00
         0.00000E+00
         0.00000E+00
         0.00000E+00
         0.00000E+00
         0.00000E+00
         0.00000E+00
         0.00000E+00
         0.00000E+00
         0.00000E+00
         0.00000E+00
         0.00000E+00
         0.00000E+00
         0.00000E+00
         0.00000E+00
         0.00000E+00
         0.00000E+00
         0.00000E+00
         0.00000E+00
         0.00000E+00
         0.00000E+00
         0.00000E+00
         0.00000E+00
         0.00000E+00
         0.00000E+00
         0.00000E+00
         0.00000E+00
         0.00000E+00
         0.00000E+00
         0.00000E+00
         0.00000E+00
         0.00000E+00
         0.00000E+00
         0.00000E+00
         0.00000E+00
         0.00000E+00
         0.00000E+00
         0.00000E+00
         0.00000E+00
         0.00000E+00
         0.00000E+00
         0.00000E+00
         0.00000E+00
         0.00000E+00
         0.00000E+00
         0.00000E+00
         0.00000E+00
         0.00000E+00
         0.00000E+00
         0.00000E+00
         0.00000E+00
         0.00000E+00
         0.00000E+00
         0.00000E+00
         0.00000E+00
         0.00000E+00
         0.00000E+00
         0.00000E+00
         0.00000E+00
         0.00000E+00
         0.00000E+00
         0.00000E+00
         0.00000E+00
         0.00000E+00
         0.00000E+00
         0.00000E+00
         0.00000E+00
         0.00000E+00
         0.00000E+00
         0.00000E+00
         0.00000E+00
         0.00000E+00
         0.00000E+00
         0.00000E+00
         0.00000E+00
         0.00000E+00
         0.00000E+00
         0.00000E+00
         0.00000E+00
         0.00000E+00
         0.00000E+00
         0.00000E+00
         0.00000E+00
         0.00000E+00
         0.00000E+00
         0.00000E+00
         0.00000E+00
         0.00000E+00
         0.00000E+00
         0.00000E+00
         0.00000E+00
         0.00000E+00
         0.00000E+00
         0.00000E+00
         0.00000E+00
         0.00000E+00
         0.00000E+00
         0.00000E+00
         0.00000E+00
         0.00000E+00
         0.00000E+00
         0.00000E+00
         0.00000E+00
         0.00000E+00
         0.00000E+00
         0.00000E+00
         0.00000E+00
         0.00000E+00
         0.00000E+00
         0.00000E+00
         0.00000E+00
         0.00000E+00
         0.00000E+00
         0.00000E+00
         0.00000E+00
         0.00000E+00
         0.00000E+00
         0.00000E+00
         0.00000E+00
         0.00000E+00
         0.00000E+00
         0.00000E+00
         0.00000E+00
         0.00000E+00
         0.00000E+00
         0.00000E+00
         0.00000E+00
         0.00000E+00
         0.00000E+00
         0.00000E+00
         0.00000E+00
         0.00000E+00
         0.00000E+00
         0.00000E+00
         0.00000E+00
         0.00000E+00
         0.00000E+00
         0.00000E+00
         0.00000E+00
         0.00000E+00
         0.00000E+00
         0.00000E+00
         0.00000E+00
         0.00000E+00
         0.00000E+00
         0.00000E+00
         0.00000E+00
         0.00000E+00
         0.00000E+00
         0.00000E+00
         0.00000E+00
         0.00000E+00
         0.00000E+00
         0.00000E+00
         0.00000E+00
         0.00000E+00
         0.00000E+00
         0.00000E+00
         0.00000E+00
         0.00000E+00
         0.00000E+00
         0.00000E+00
         0.00000E+00
         0.00000E+00
         0.00000E+00
         0.00000E+00
         0.00000E+00
         0.00000E+00
         0.00000E+00
         0.00000E+00
         0.00000E+00
         0.00000E+00
         0.00000E+00
         0.00000E+00
         0.00000E+00
         0.00000E+00
         0.00000E+00
         0.00000E+00
         0.00000E+00
         0.00000E+00
         0.00000E+00
         0.00000E+00
         0.00000E+00
         0.00000E+00
         0.00000E+00
         0.00000E+00
         0.00000E+00
         0.00000E+00
         0.00000E+00
         0.00000E+00
         0.00000E+00
         0.00000E+00
         0.00000E+00
         0.00000E+00
         0.00000E+00
         0.00000E+00
         0.00000E+00
         0.00000E+00
         0.00000E+00
         0.00000E+00
         0.00000E+00
         0.00000E+00
         0.00000E+00
         0.00000E+00
         0.00000E+00
         0.00000E+00
         0.00000E+00
         0.00000E+00
         0.00000E+00
         0.00000E+00
         0.00000E+00
         0.00000E+00
         0.00000E+00
         0.00000E+00
         0.00000E+00
         0.00000E+00
         0.00000E+00
         0.00000E+00
         0.00000E+00
         0.00000E+00
         0.00000E+00
         0.00000E+00
         0.00000E+00
         0.00000E+00
         0.00000E+00
         0.00000E+00
         0.00000E+00
         0.00000E+00
         0.00000E+00
         0.00000E+00
         0.00000E+00
         0.00000E+00
         0.00000E+00
         0.00000E+00
         0.00000E+00
         0.00000E+00
         0.00000E+00
         0.00000E+00
         0.00000E+00
         0.00000E+00
         0.00000E+00
         0.00000E+00
         0.00000E+00
         0.00000E+00
         0.00000E+00
         0.00000E+00
         0.00000E+00
         0.00000E+00
         0.00000E+00
         0.00000E+00
         0.00000E+00
         0.00000E+00
         0.00000E+00
         0.00000E+00
         0.00000E+00
         0.00000E+00
         0.00000E+00
         0.00000E+00
         0.00000E+00
         0.00000E+00
         0.00000E+00
         0.00000E+00
         0.00000E+00
         0.00000E+00
         0.00000E+00
         0.00000E+00
         0.00000E+00
         0.00000E+00
         0.00000E+00
         0.00000E+00
         0.00000E+00
         0.00000E+00
         0.00000E+00
         0.00000E+00
         0.00000E+00
         0.00000E+00
         0.00000E+00
         0.00000E+00
         0.00000E+00
         0.00000E+00
         0.00000E+00
         0.00000E+00
         0.00000E+00
         0.00000E+00
         0.00000E+00
         0.00000E+00
         0.00000E+00
         0.00000E+00
         0.00000E+00
         0.00000E+00
         0.00000E+00
         0.00000E+00
         0.00000E+00
         0.00000E+00
         0.00000E+00
         0.00000E+00
         0.00000E+00
         0.00000E+00
         0.00000E+00
         0.00000E+00
         0.00000E+00
         0.00000E+00
         0.00000E+00
         0.00000E+00
         0.00000E+00
         0.00000E+00
         0.00000E+00
         0.00000E+00
         0.00000E+00
         0.00000E+00
         0.00000E+00
         0.00000E+00
         0.00000E+00
         0.00000E+00
         0.00000E+00
         0.00000E+00
         0.00000E+00
         0.00000E+00
         0.00000E+00
         0.00000E+00
         0.00000E+00
         0.00000E+00
         0.00000E+00
         0.00000E+00
         0.00000E+00
         0.00000E+00
         0.00000E+00
         0.00000E+00
         0.00000E+00
         0.00000E+00
         0.00000E+00
         0.00000E+00
         0.00000E+00
         0.00000E+00
         0.00000E+00
         0.00000E+00
         0.00000E+00
         0.00000E+00
         0.00000E+00
         0.00000E+00
         0.00000E+00
         0.00000E+00
         0.00000E+00
         0.00000E+00
         0.00000E+00
         0.00000E+00
         0.00000E+00
         0.00000E+00
         0.00000E+00
         0.00000E+00
         0.00000E+00
         0.00000E+00
         0.00000E+00
         0.00000E+00
         0.00000E+00
         0.00000E+00
         0.00000E+00
         0.00000E+00
         0.00000E+00
         0.00000E+00
         0.00000E+00
         0.00000E+00
         0.00000E+00
         0.00000E+00
         0.00000E+00
         0.00000E+00
         0.00000E+00
         0.00000E+00
         0.00000E+00
         0.00000E+00
         0.00000E+00
         0.00000E+00
         0.00000E+00
         0.00000E+00
         0.00000E+00
         0.00000E+00
         0.00000E+00
         0.00000E+00
         0.00000E+00
         0.00000E+00
         0.00000E+00
         0.00000E+00
         0.00000E+00
         0.00000E+00
         0.00000E+00
         0.00000E+00
         0.00000E+00
         0.00000E+00
         0.00000E+00
         0.00000E+00
         0.00000E+00
         0.00000E+00
         0.00000E+00
         0.00000E+00
         0.00000E+00
         0.00000E+00
         0.00000E+00
         0.00000E+00
         0.00000E+00
         0.00000E+00
         0.00000E+00
         0.00000E+00
         0.00000E+00
         0.00000E+00
         0.00000E+00
         0.00000E+00
         0.00000E+00
         0.00000E+00
         0.00000E+00
         0.00000E+00
         0.00000E+00
         0.00000E+00
         0.00000E+00
         0.00000E+00
         0.00000E+00
         0.00000E+00
         0.00000E+00
         0.00000E+00
         0.00000E+00
         0.00000E+00
         0.00000E+00
         0.00000E+00
         0.00000E+00
         0.00000E+00
         0.00000E+00
         0.00000E+00
         0.00000E+00
         0.00000E+00
         0.00000E+00
         0.00000E+00
         0.00000E+00
         0.00000E+00
         0.00000E+00
         0.00000E+00
         0.00000E+00
         0.00000E+00
         0.00000E+00
         0.00000E+00
         0.00000E+00
         0.00000E+00
         0.00000E+00
         0.00000E+00
         0.00000E+00
         0.00000E+00
         0.00000E+00
  
SCALARS                   max_wave_vel  double 1
LOOKUP_TABLE default
         0.00000E+00
         0.00000E+00
         0.00000E+00
         0.00000E+00
         0.00000E+00
         0.00000E+00
         0.00000E+00
         0.00000E+00
         0.00000E+00
         0.00000E+00
         0.00000E+00
         0.00000E+00
         0.00000E+00
         0.00000E+00
         0.00000E+00
         0.00000E+00
         0.00000E+00
         0.00000E+00
         0.00000E+00
         0.00000E+00
         0.00000E+00
         0.00000E+00
         0.00000E+00
         0.00000E+00
         0.00000E+00
         0.00000E+00
         0.00000E+00
         0.00000E+00
         0.00000E+00
         0.00000E+00
         0.00000E+00
         0.00000E+00
         0.00000E+00
         0.00000E+00
         0.00000E+00
         0.00000E+00
         0.00000E+00
         0.00000E+00
         0.00000E+00
         0.00000E+00
         0.00000E+00
         0.00000E+00
         0.00000E+00
         0.00000E+00
         0.00000E+00
         0.00000E+00
         0.00000E+00
         0.00000E+00
         0.00000E+00
         0.00000E+00
         0.00000E+00
         0.00000E+00
         0.00000E+00
         0.00000E+00
         0.00000E+00
         0.00000E+00
         0.00000E+00
         0.00000E+00
         0.00000E+00
         0.00000E+00
         0.00000E+00
         0.00000E+00
         0.00000E+00
         0.00000E+00
         0.00000E+00
         0.00000E+00
         0.00000E+00
         0.00000E+00
         0.00000E+00
         0.00000E+00
         0.00000E+00
         0.00000E+00
         0.00000E+00
         0.00000E+00
         0.00000E+00
         0.00000E+00
         0.00000E+00
         0.00000E+00
         0.00000E+00
         0.00000E+00
         0.00000E+00
         0.00000E+00
         0.00000E+00
         0.00000E+00
         0.00000E+00
         0.00000E+00
         0.00000E+00
         0.00000E+00
         0.00000E+00
         0.00000E+00
         0.00000E+00
         0.00000E+00
         0.00000E+00
         0.00000E+00
         0.00000E+00
         0.00000E+00
         0.00000E+00
         0.00000E+00
         0.00000E+00
         0.00000E+00
         0.00000E+00
         0.00000E+00
         0.00000E+00
         0.00000E+00
         0.00000E+00
         0.00000E+00
         0.00000E+00
         0.00000E+00
         0.00000E+00
         0.00000E+00
         0.00000E+00
         0.00000E+00
         0.00000E+00
         0.00000E+00
         0.00000E+00
         0.00000E+00
         0.00000E+00
         0.00000E+00
         0.00000E+00
         0.00000E+00
         0.00000E+00
         0.00000E+00
         0.00000E+00
         0.00000E+00
         0.00000E+00
         0.00000E+00
         0.00000E+00
         0.00000E+00
         0.00000E+00
         0.00000E+00
         0.00000E+00
         0.00000E+00
         0.00000E+00
         0.00000E+00
         0.00000E+00
         0.00000E+00
         0.00000E+00
         0.00000E+00
         0.00000E+00
         0.00000E+00
         0.00000E+00
         0.00000E+00
         0.00000E+00
         0.00000E+00
         0.00000E+00
         0.00000E+00
         0.00000E+00
         0.00000E+00
         0.00000E+00
         0.00000E+00
         0.00000E+00
         0.00000E+00
         0.00000E+00
         0.00000E+00
         0.00000E+00
         0.00000E+00
         0.00000E+00
         0.00000E+00
         0.00000E+00
         0.00000E+00
         0.00000E+00
         0.00000E+00
         0.00000E+00
         0.00000E+00
         0.00000E+00
         0.00000E+00
         0.00000E+00
         0.00000E+00
         0.00000E+00
         0.00000E+00
         0.00000E+00
         0.00000E+00
         0.00000E+00
         0.00000E+00
         0.00000E+00
         0.00000E+00
         0.00000E+00
         0.00000E+00
         0.00000E+00
         0.00000E+00
         0.00000E+00
         0.00000E+00
         0.00000E+00
         0.00000E+00
         0.00000E+00
         0.00000E+00
         0.00000E+00
         0.00000E+00
         0.00000E+00
         0.00000E+00
         0.00000E+00
         0.00000E+00
         0.00000E+00
         0.00000E+00
         0.00000E+00
         0.00000E+00
         0.00000E+00
         0.00000E+00
         0.00000E+00
         0.00000E+00
         0.00000E+00
         0.00000E+00
         0.00000E+00
         0.00000E+00
         0.00000E+00
         0.00000E+00
         0.00000E+00
         0.00000E+00
         0.00000E+00
         0.00000E+00
         0.00000E+00
         0.00000E+00
         0.00000E+00
         0.00000E+00
         0.00000E+00
         0.00000E+00
         0.00000E+00
         0.00000E+00
         0.00000E+00
         0.00000E+00
         0.00000E+00
         0.00000E+00
         0.00000E+00
         0.00000E+00
         0.00000E+00
         0.00000E+00
         0.00000E+00
         0.00000E+00
         0.00000E+00
         0.00000E+00
         0.00000E+00
         0.00000E+00
         0.00000E+00
         0.00000E+00
         0.00000E+00
         0.00000E+00
         0.00000E+00
         0.00000E+00
         0.00000E+00
         0.00000E+00
         0.00000E+00
         0.00000E+00
         0.00000E+00
         0.00000E+00
         0.00000E+00
         0.00000E+00
         0.00000E+00
         0.00000E+00
         0.00000E+00
         0.00000E+00
         0.00000E+00
         0.00000E+00
         0.00000E+00
         0.00000E+00
         0.00000E+00
         0.00000E+00
         0.00000E+00
         0.00000E+00
         0.00000E+00
         0.00000E+00
         0.00000E+00
         0.00000E+00
         0.00000E+00
         0.00000E+00
         0.00000E+00
         0.00000E+00
         0.00000E+00
         0.00000E+00
         0.00000E+00
         0.00000E+00
         0.00000E+00
         0.00000E+00
         0.00000E+00
         0.00000E+00
         0.00000E+00
         0.00000E+00
         0.00000E+00
         0.00000E+00
         0.00000E+00
         0.00000E+00
         0.00000E+00
         0.00000E+00
         0.00000E+00
         0.00000E+00
         0.00000E+00
         0.00000E+00
         0.00000E+00
         0.00000E+00
         0.00000E+00
         0.00000E+00
         0.00000E+00
         0.00000E+00
         0.00000E+00
         0.00000E+00
         0.00000E+00
         0.00000E+00
         0.00000E+00
         0.00000E+00
         0.00000E+00
         0.00000E+00
         0.00000E+00
         0.00000E+00
         0.00000E+00
         0.00000E+00
         0.00000E+00
         0.00000E+00
         0.00000E+00
         0.00000E+00
         0.00000E+00
         0.00000E+00
         0.00000E+00
         0.00000E+00
         0.00000E+00
         0.00000E+00
         0.00000E+00
         0.00000E+00
         0.00000E+00
         0.00000E+00
         0.00000E+00
         0.00000E+00
         0.00000E+00
         0.00000E+00
         0.00000E+00
         0.00000E+00
         0.00000E+00
         0.00000E+00
         0.00000E+00
         0.00000E+00
         0.00000E+00
         0.00000E+00
         0.00000E+00
         0.00000E+00
         0.00000E+00
         0.00000E+00
         0.00000E+00
         0.00000E+00
         0.00000E+00
         0.00000E+00
         0.00000E+00
         0.00000E+00
         0.00000E+00
         0.00000E+00
         0.00000E+00
         0.00000E+00
         0.00000E+00
         0.00000E+00
         0.00000E+00
         0.00000E+00
         0.00000E+00
         0.00000E+00
         0.00000E+00
         0.00000E+00
         0.00000E+00
         0.00000E+00
         0.00000E+00
         0.00000E+00
         0.00000E+00
         0.00000E+00
         0.00000E+00
         0.00000E+00
         0.00000E+00
         0.00000E+00
         0.00000E+00
         0.00000E+00
         0.00000E+00
         0.00000E+00
         0.00000E+00
         0.00000E+00
         0.00000E+00
         0.00000E+00
         0.00000E+00
         0.00000E+00
         0.00000E+00
         0.00000E+00
         0.00000E+00
         0.00000E+00
         0.00000E+00
         0.00000E+00
         0.00000E+00
         0.00000E+00
         0.00000E+00
         0.00000E+00
         0.00000E+00
         0.00000E+00
         0.00000E+00
         0.00000E+00
         0.00000E+00
         0.00000E+00
         0.00000E+00
         0.00000E+00
         0.00000E+00
         0.00000E+00
         0.00000E+00
         0.00000E+00
         0.00000E+00
         0.00000E+00
         0.00000E+00
         0.00000E+00
         0.00000E+00
         0.00000E+00
         0.00000E+00
         0.00000E+00
         0.00000E+00
         0.00000E+00
         0.00000E+00
         0.00000E+00
         0.00000E+00
         0.00000E+00
         0.00000E+00
         0.00000E+00
         0.00000E+00
         0.00000E+00
         0.00000E+00
         0.00000E+00
         0.00000E+00
         0.00000E+00
         0.00000E+00
         0.00000E+00
         0.00000E+00
         0.00000E+00
         0.00000E+00
         0.00000E+00
         0.00000E+00
         0.00000E+00
         0.00000E+00
         0.00000E+00
         0.00000E+00
         0.00000E+00
         0.00000E+00
         0.00000E+00
         0.00000E+00
         0.00000E+00
         0.00000E+00
         0.00000E+00
         0.00000E+00
         0.00000E+00
         0.00000E+00
         0.00000E+00
         0.00000E+00
         0.00000E+00
         0.00000E+00
         0.00000E+00
         0.00000E+00
         0.00000E+00
         0.00000E+00
         0.00000E+00
         0.00000E+00
         0.00000E+00
         0.00000E+00
         0.00000E+00
         0.00000E+00
         0.00000E+00
         0.00000E+00
         0.00000E+00
         0.00000E+00
         0.00000E+00
         0.00000E+00
         0.00000E+00
         0.00000E+00
         0.00000E+00
         0.00000E+00
         0.00000E+00
         0.00000E+00
         0.00000E+00
         0.00000E+00
         0.00000E+00
         0.00000E+00
         0.00000E+00
         0.00000E+00
         0.00000E+00
         0.00000E+00
         0.00000E+00
         0.00000E+00
         0.00000E+00
         0.00000E+00
         0.00000E+00
         0.00000E+00
         0.00000E+00
         0.00000E+00
         0.00000E+00
         0.00000E+00
         0.00000E+00
         0.00000E+00
         0.00000E+00
         0.00000E+00
         0.00000E+00
         0.00000E+00
         0.00000E+00
         0.00000E+00
         0.00000E+00
         0.00000E+00
         0.00000E+00
         0.00000E+00
         0.00000E+00
         0.00000E+00
         0.00000E+00
         0.00000E+00
         0.00000E+00
         0.00000E+00
         0.00000E+00
         0.00000E+00
         0.00000E+00
         0.00000E+00
         0.00000E+00
         0.00000E+00
         0.00000E+00
         0.00000E+00
         0.00000E+00
         0.00000E+00
         0.00000E+00
         0.00000E+00
         0.00000E+00
         0.00000E+00
         0.00000E+00
         0.00000E+00
         0.00000E+00
         0.00000E+00
         0.00000E+00
         0.00000E+00
         0.00000E+00
         0.00000E+00
         0.00000E+00
         0.00000E+00
         0.00000E+00
         0.00000E+00
         0.00000E+00
         0.00000E+00
         0.00000E+00
         0.00000E+00
         0.00000E+00
         0.00000E+00
         0.00000E+00
         0.00000E+00
         0.00000E+00
         0.00000E+00
         0.00000E+00
         0.00000E+00
         0.00000E+00
         0.00000E+00
         0.00000E+00
         0.00000E+00
         0.00000E+00
         0.00000E+00
         0.00000E+00
         0.00000E+00
         0.00000E+00
         0.00000E+00
         0.00000E+00
         0.00000E+00
         0.00000E+00
         0.00000E+00
         0.00000E+00
         0.00000E+00
         0.00000E+00
         0.00000E+00
         0.00000E+00
         0.00000E+00
         0.00000E+00
         0.00000E+00
         0.00000E+00
         0.00000E+00
         0.00000E+00
         0.00000E+00
         0.00000E+00
         0.00000E+00
         0.00000E+00
         0.00000E+00
         0.00000E+00
         0.00000E+00
         0.00000E+00
         0.00000E+00
         0.00000E+00
         0.00000E+00
         0.00000E+00
         0.00000E+00
         0.00000E+00
         0.00000E+00
         0.00000E+00
         0.00000E+00
         0.00000E+00
         0.00000E+00
         0.00000E+00
         0.00000E+00
         0.00000E+00
         0.00000E+00
         0.00000E+00
         0.00000E+00
         0.00000E+00
         0.00000E+00
         0.00000E+00
         0.00000E+00
         0.00000E+00
         0.00000E+00
         0.00000E+00
         0.00000E+00
         0.00000E+00
         0.00000E+00
         0.00000E+00
         0.00000E+00
         0.00000E+00
         0.00000E+00
         0.00000E+00
         0.00000E+00
         0.00000E+00
         0.00000E+00
         0.00000E+00
         0.00000E+00
         0.00000E+00
         0.00000E+00
         0.00000E+00
         0.00000E+00
         0.00000E+00
         0.00000E+00
         0.00000E+00
         0.00000E+00
         0.00000E+00
         0.00000E+00
         0.00000E+00
         0.00000E+00
         0.00000E+00
         0.00000E+00
         0.00000E+00
         0.00000E+00
         0.00000E+00
         0.00000E+00
         0.00000E+00
         0.00000E+00
         0.00000E+00
         0.00000E+00
         0.00000E+00
         0.00000E+00
         0.00000E+00
         0.00000E+00
         0.00000E+00
         0.00000E+00
         0.00000E+00
         0.00000E+00
         0.00000E+00
         0.00000E+00
         0.00000E+00
         0.00000E+00
         0.00000E+00
         0.00000E+00
         0.00000E+00
         0.00000E+00
         0.00000E+00
         0.00000E+00
         0.00000E+00
         0.00000E+00
         0.00000E+00
         0.00000E+00
         0.00000E+00
         0.00000E+00
         0.00000E+00
         0.00000E+00
         0.00000E+00
         0.00000E+00
         0.00000E+00
         0.00000E+00
         0.00000E+00
         0.00000E+00
         0.00000E+00
         0.00000E+00
         0.00000E+00
         0.00000E+00
         0.00000E+00
         0.00000E+00
         0.00000E+00
         0.00000E+00
         0.00000E+00
         0.00000E+00
         0.00000E+00
         0.00000E+00
         0.00000E+00
         0.00000E+00
         0.00000E+00
         0.00000E+00
         0.00000E+00
         0.00000E+00
         0.00000E+00
         0.00000E+00
         0.00000E+00
         0.00000E+00
         0.00000E+00
         0.00000E+00
         0.00000E+00
         0.00000E+00
         0.00000E+00
         0.00000E+00
         0.00000E+00
         0.00000E+00
         0.00000E+00
         0.00000E+00
         0.00000E+00
         0.00000E+00
         0.00000E+00
         0.00000E+00
         0.00000E+00
         0.00000E+00
         0.00000E+00
         0.00000E+00
         0.00000E+00
         0.00000E+00
         0.00000E+00
         0.00000E+00
         0.00000E+00
         0.00000E+00
         0.00000E+00
         0.00000E+00
         0.00000E+00
         0.00000E+00
         0.00000E+00
         0.00000E+00
         0.00000E+00
         0.00000E+00
         0.00000E+00
         0.00000E+00
         0.00000E+00
         0.00000E+00
         0.00000E+00
         0.00000E+00
         0.00000E+00
         0.00000E+00
         0.00000E+00
         0.00000E+00
         0.00000E+00
         0.00000E+00
         0.00000E+00
         0.00000E+00
         0.00000E+00
         0.00000E+00
         0.00000E+00
         0.00000E+00
         0.00000E+00
         0.00000E+00
         0.00000E+00
         0.00000E+00
         0.00000E+00
         0.00000E+00
         0.00000E+00
         0.00000E+00
         0.00000E+00
         0.00000E+00
         0.00000E+00
         0.00000E+00
         0.00000E+00
         0.00000E+00
         0.00000E+00
         0.00000E+00
         0.00000E+00
         0.00000E+00
         0.00000E+00
         0.00000E+00
         0.00000E+00
         0.00000E+00
         0.00000E+00
         0.00000E+00
         0.00000E+00
         0.00000E+00
         0.00000E+00
         0.00000E+00
         0.00000E+00
         0.00000E+00
         0.00000E+00
         0.00000E+00
         0.00000E+00
         0.00000E+00
         0.00000E+00
         0.00000E+00
         0.00000E+00
         0.00000E+00
         0.00000E+00
         0.00000E+00
         0.00000E+00
         0.00000E+00
         0.00000E+00
         0.00000E+00
         0.00000E+00
         0.00000E+00
         0.00000E+00
         0.00000E+00
         0.00000E+00
         0.00000E+00
         0.00000E+00
         0.00000E+00
         0.00000E+00
         0.00000E+00
         0.00000E+00
         0.00000E+00
         0.00000E+00
         0.00000E+00
         0.00000E+00
         0.00000E+00
         0.00000E+00
         0.00000E+00
         0.00000E+00
         0.00000E+00
         0.00000E+00
         0.00000E+00
         0.00000E+00
         0.00000E+00
         0.00000E+00
         0.00000E+00
         0.00000E+00
         0.00000E+00
         0.00000E+00
         0.00000E+00
         0.00000E+00
         0.00000E+00
         0.00000E+00
         0.00000E+00
         0.00000E+00
         0.00000E+00
         0.00000E+00
         0.00000E+00
         0.00000E+00
         0.00000E+00
         0.00000E+00
         0.00000E+00
         0.00000E+00
         0.00000E+00
         0.00000E+00
         0.00000E+00
         0.00000E+00
         0.00000E+00
         0.00000E+00
         0.00000E+00
         0.00000E+00
         0.00000E+00
         0.00000E+00
         0.00000E+00
         0.00000E+00
         0.00000E+00
         0.00000E+00
         0.00000E+00
         0.00000E+00
         0.00000E+00
         0.00000E+00
         0.00000E+00
         0.00000E+00
         0.00000E+00
         0.00000E+00
         0.00000E+00
         0.00000E+00
         0.00000E+00
         0.00000E+00
         0.00000E+00
         0.00000E+00
         0.00000E+00
         0.00000E+00
         0.00000E+00
         0.00000E+00
         0.00000E+00
         0.00000E+00
         0.00000E+00
         0.00000E+00
         0.00000E+00
         0.00000E+00
         0.00000E+00
         0.00000E+00
         0.00000E+00
         0.00000E+00
         0.00000E+00
         0.00000E+00
         0.00000E+00
         0.00000E+00
         0.00000E+00
         0.00000E+00
         0.00000E+00
         0.00000E+00
         0.00000E+00
         0.00000E+00
         0.00000E+00
         0.00000E+00
         0.00000E+00
         0.00000E+00
         0.00000E+00
         0.00000E+00
         0.00000E+00
         0.00000E+00
         0.00000E+00
         0.00000E+00
         0.00000E+00
         0.00000E+00
         0.00000E+00
         0.00000E+00
         0.00000E+00
         0.00000E+00
         0.00000E+00
         0.00000E+00
         0.00000E+00
         0.00000E+00
         0.00000E+00
         0.00000E+00
         0.00000E+00
         0.00000E+00
         0.00000E+00
         0.00000E+00
         0.00000E+00
         0.00000E+00
         0.00000E+00
         0.00000E+00
         0.00000E+00
         0.00000E+00
         0.00000E+00
         0.00000E+00
         0.00000E+00
         0.00000E+00
         0.00000E+00
         0.00000E+00
         0.00000E+00
         0.00000E+00
         0.00000E+00
         0.00000E+00
         0.00000E+00
         0.00000E+00
         0.00000E+00
         0.00000E+00
         0.00000E+00
         0.00000E+00
         0.00000E+00
         0.00000E+00
         0.00000E+00
         0.00000E+00
         0.00000E+00
         0.00000E+00
         0.00000E+00
         0.00000E+00
         0.00000E+00
         0.00000E+00
         0.00000E+00
         0.00000E+00
         0.00000E+00
         0.00000E+00
         0.00000E+00
         0.00000E+00
         0.00000E+00
         0.00000E+00
         0.00000E+00
         0.00000E+00
         0.00000E+00
         0.00000E+00
         0.00000E+00
         0.00000E+00
         0.00000E+00
         0.00000E+00
         0.00000E+00
         0.00000E+00
         0.00000E+00
         0.00000E+00
         0.00000E+00
         0.00000E+00
         0.00000E+00
         0.00000E+00
         0.00000E+00
         0.00000E+00
         0.00000E+00
         0.00000E+00
         0.00000E+00
         0.00000E+00
         0.00000E+00
         0.00000E+00
         0.00000E+00
         0.00000E+00
         0.00000E+00
         0.00000E+00
         0.00000E+00
         0.00000E+00
         0.00000E+00
         0.00000E+00
         0.00000E+00
         0.00000E+00
         0.00000E+00
         0.00000E+00
         0.00000E+00
         0.00000E+00
         0.00000E+00
         0.00000E+00
         0.00000E+00
         0.00000E+00
         0.00000E+00
         0.00000E+00
         0.00000E+00
         0.00000E+00
         0.00000E+00
         0.00000E+00
         0.00000E+00
         0.00000E+00
         0.00000E+00
         0.00000E+00
         0.00000E+00
         0.00000E+00
         0.00000E+00
         0.00000E+00
         0.00000E+00
         0.00000E+00
         0.00000E+00
         0.00000E+00
         0.00000E+00
         0.00000E+00
         0.00000E+00
         0.00000E+00
         0.00000E+00
         0.00000E+00
         0.00000E+00
         0.00000E+00
         0.00000E+00
         0.00000E+00
         0.00000E+00
         0.00000E+00
         0.00000E+00
         0.00000E+00
         0.00000E+00
         0.00000E+00
         0.00000E+00
         0.00000E+00
         0.00000E+00
         0.00000E+00
         0.00000E+00
         0.00000E+00
         0.00000E+00
         0.00000E+00
         0.00000E+00
         0.00000E+00
         0.00000E+00
         0.00000E+00
         0.00000E+00
         0.00000E+00
         0.00000E+00
         0.00000E+00
         0.00000E+00
         0.00000E+00
         0.00000E+00
         0.00000E+00
         0.00000E+00
         0.00000E+00
         0.00000E+00
         0.00000E+00
         0.00000E+00
         0.00000E+00
         0.00000E+00
         0.00000E+00
         0.00000E+00
         0.00000E+00
         0.00000E+00
         0.00000E+00
         0.00000E+00
         0.00000E+00
         0.00000E+00
         0.00000E+00
         0.00000E+00
         0.00000E+00
         0.00000E+00
         0.00000E+00
         0.00000E+00
         0.00000E+00
         0.00000E+00
         0.00000E+00
         0.00000E+00
         0.00000E+00
         0.00000E+00
         0.00000E+00
         0.00000E+00
         0.00000E+00
         0.00000E+00
         0.00000E+00
         0.00000E+00
         0.00000E+00
         0.00000E+00
         0.00000E+00
         0.00000E+00
         0.00000E+00
         0.00000E+00
         0.00000E+00
         0.00000E+00
         0.00000E+00
         0.00000E+00
         0.00000E+00
         0.00000E+00
         0.00000E+00
         0.00000E+00
         0.00000E+00
         0.00000E+00
         0.00000E+00
         0.00000E+00
         0.00000E+00
         0.00000E+00
         0.00000E+00
         0.00000E+00
         0.00000E+00
         0.00000E+00
         0.00000E+00
         0.00000E+00
         0.00000E+00
         0.00000E+00
         0.00000E+00
         0.00000E+00
         0.00000E+00
         0.00000E+00
         0.00000E+00
         0.00000E+00
         0.00000E+00
         0.00000E+00
         0.00000E+00
         0.00000E+00
         0.00000E+00
         0.00000E+00
         0.00000E+00
         0.00000E+00
         0.00000E+00
         0.00000E+00
         0.00000E+00
         0.00000E+00
         0.00000E+00
         0.00000E+00
         0.00000E+00
         0.00000E+00
         0.00000E+00
         0.00000E+00
         0.00000E+00
         0.00000E+00
         0.00000E+00
         0.00000E+00
         0.00000E+00
         0.00000E+00
         0.00000E+00
         0.00000E+00
         0.00000E+00
         0.00000E+00
         0.00000E+00
         0.00000E+00
         0.00000E+00
         0.00000E+00
         0.00000E+00
         0.00000E+00
         0.00000E+00
         0.00000E+00
         0.00000E+00
         0.00000E+00
         0.00000E+00
         0.00000E+00
         0.00000E+00
         0.00000E+00
         0.00000E+00
         0.00000E+00
         0.00000E+00
         0.00000E+00
         0.00000E+00
         0.00000E+00
         0.00000E+00
         0.00000E+00
         0.00000E+00
         0.00000E+00
         0.00000E+00
         0.00000E+00
         0.00000E+00
         0.00000E+00
         0.00000E+00
         0.00000E+00
         0.00000E+00
         0.00000E+00
         0.00000E+00
         0.00000E+00
         0.00000E+00
         0.00000E+00
         0.00000E+00
         0.00000E+00
         0.00000E+00
         0.00000E+00
         0.00000E+00
         0.00000E+00
         0.00000E+00
         0.00000E+00
         0.00000E+00
         0.00000E+00
         0.00000E+00
         0.00000E+00
         0.00000E+00
         0.00000E+00
         0.00000E+00
         0.00000E+00
         0.00000E+00
         0.00000E+00
         0.00000E+00
         0.00000E+00
         0.00000E+00
         0.00000E+00
         0.00000E+00
         0.00000E+00
         0.00000E+00
         0.00000E+00
         0.00000E+00
         0.00000E+00
         0.00000E+00
         0.00000E+00
         0.00000E+00
         0.00000E+00
         0.00000E+00
         0.00000E+00
         0.00000E+00
         0.00000E+00
         0.00000E+00
         0.00000E+00
         0.00000E+00
         0.00000E+00
         0.00000E+00
         0.00000E+00
         0.00000E+00
         0.00000E+00
         0.00000E+00
         0.00000E+00
         0.00000E+00
         0.00000E+00
         0.00000E+00
         0.00000E+00
         0.00000E+00
         0.00000E+00
         0.00000E+00
         0.00000E+00
         0.00000E+00
         0.00000E+00
         0.00000E+00
         0.00000E+00
         0.00000E+00
         0.00000E+00
         0.00000E+00
         0.00000E+00
         0.00000E+00
         0.00000E+00
         0.00000E+00
         0.00000E+00
         0.00000E+00
         0.00000E+00
         0.00000E+00
         0.00000E+00
         0.00000E+00
         0.00000E+00
         0.00000E+00
         0.00000E+00
         0.00000E+00
         0.00000E+00
         0.00000E+00
         0.00000E+00
         0.00000E+00
         0.00000E+00
         0.00000E+00
         0.00000E+00
         0.00000E+00
         0.00000E+00
         0.00000E+00
         0.00000E+00
         0.00000E+00
         0.00000E+00
         0.00000E+00
         0.00000E+00
         0.00000E+00
         0.00000E+00
         0.00000E+00
         0.00000E+00
         0.00000E+00
         0.00000E+00
         0.00000E+00
         0.00000E+00
         0.00000E+00
         0.00000E+00
         0.00000E+00
         0.00000E+00
         0.00000E+00
         0.00000E+00
         0.00000E+00
         0.00000E+00
         0.00000E+00
         0.00000E+00
         0.00000E+00
         0.00000E+00
         0.00000E+00
         0.00000E+00
         0.00000E+00
         0.00000E+00
         0.00000E+00
         0.00000E+00
         0.00000E+00
         0.00000E+00
         0.00000E+00
         0.00000E+00
         0.00000E+00
         0.00000E+00
         0.00000E+00
         0.00000E+00
         0.00000E+00
         0.00000E+00
         0.00000E+00
         0.00000E+00
         0.00000E+00
         0.00000E+00
         0.00000E+00
         0.00000E+00
         0.00000E+00
         0.00000E+00
         0.00000E+00
         0.00000E+00
         0.00000E+00
         0.00000E+00
         0.00000E+00
         0.00000E+00
         0.00000E+00
         0.00000E+00
         0.00000E+00
         0.00000E+00
         0.00000E+00
         0.00000E+00
         0.00000E+00
         0.00000E+00
         0.00000E+00
         0.00000E+00
         0.00000E+00
         0.00000E+00
         0.00000E+00
         0.00000E+00
         0.00000E+00
         0.00000E+00
         0.00000E+00
         0.00000E+00
         0.00000E+00
         0.00000E+00
         0.00000E+00
         0.00000E+00
         0.00000E+00
         0.00000E+00
         0.00000E+00
         0.00000E+00
         0.00000E+00
         0.00000E+00
         0.00000E+00
         0.00000E+00
         0.00000E+00
         0.00000E+00
         0.00000E+00
         0.00000E+00
         0.00000E+00
         0.00000E+00
         0.00000E+00
         0.00000E+00
         0.00000E+00
         0.00000E+00
         0.00000E+00
         0.00000E+00
         0.00000E+00
         0.00000E+00
         0.00000E+00
         0.00000E+00
         0.00000E+00
         0.00000E+00
         0.00000E+00
         0.00000E+00
         0.00000E+00
         0.00000E+00
         0.00000E+00
         0.00000E+00
         0.00000E+00
         0.00000E+00
         0.00000E+00
         0.00000E+00
         0.00000E+00
         0.00000E+00
         0.00000E+00
         0.00000E+00
         0.00000E+00
         0.00000E+00
         0.00000E+00
         0.00000E+00
         0.00000E+00
         0.00000E+00
         0.00000E+00
         0.00000E+00
         0.00000E+00
         0.00000E+00
         0.00000E+00
         0.00000E+00
         0.00000E+00
         0.00000E+00
         0.00000E+00
         0.00000E+00
         0.00000E+00
         0.00000E+00
         0.00000E+00
         0.00000E+00
         0.00000E+00
         0.00000E+00
         0.00000E+00
         0.00000E+00
         0.00000E+00
         0.00000E+00
         0.00000E+00
         0.00000E+00
         0.00000E+00
         0.00000E+00
         0.00000E+00
         0.00000E+00
         0.00000E+00
         0.00000E+00
         0.00000E+00
         0.00000E+00
         0.00000E+00
         0.00000E+00
         0.00000E+00
         0.00000E+00
         0.00000E+00
         0.00000E+00
         0.00000E+00
         0.00000E+00
         0.00000E+00
         0.00000E+00
         0.00000E+00
         0.00000E+00
         0.00000E+00
         0.00000E+00
         0.00000E+00
         0.00000E+00
         0.00000E+00
         0.00000E+00
         0.00000E+00
         0.00000E+00
         0.00000E+00
         0.00000E+00
         0.00000E+00
         0.00000E+00
         0.00000E+00
         0.00000E+00
         0.00000E+00
         0.00000E+00
         0.00000E+00
         0.00000E+00
         0.00000E+00
         0.00000E+00
         0.00000E+00
         0.00000E+00
         0.00000E+00
         0.00000E+00
         0.00000E+00
         0.00000E+00
         0.00000E+00
         0.00000E+00
         0.00000E+00
         0.00000E+00
         0.00000E+00
         0.00000E+00
         0.00000E+00
         0.00000E+00
         0.00000E+00
         0.00000E+00
         0.00000E+00
         0.00000E+00
         0.00000E+00
         0.00000E+00
         0.00000E+00
         0.00000E+00
         0.00000E+00
         0.00000E+00
         0.00000E+00
         0.00000E+00
         0.00000E+00
         0.00000E+00
         0.00000E+00
         0.00000E+00
         0.00000E+00
         0.00000E+00
         0.00000E+00
         0.00000E+00
         0.00000E+00
         0.00000E+00
         0.00000E+00
         0.00000E+00
         0.00000E+00
         0.00000E+00
         0.00000E+00
         0.00000E+00
         0.00000E+00
         0.00000E+00
         0.00000E+00
         0.00000E+00
         0.00000E+00
         0.00000E+00
         0.00000E+00
         0.00000E+00
         0.00000E+00
         0.00000E+00
         0.00000E+00
         0.00000E+00
         0.00000E+00
         0.00000E+00
         0.00000E+00
         0.00000E+00
         0.00000E+00
         0.00000E+00
         0.00000E+00
         0.00000E+00
         0.00000E+00
         0.00000E+00
         0.00000E+00
         0.00000E+00
         0.00000E+00
         0.00000E+00
         0.00000E+00
         0.00000E+00
         0.00000E+00
         0.00000E+00
         0.00000E+00
         0.00000E+00
         0.00000E+00
         0.00000E+00
         0.00000E+00
         0.00000E+00
         0.00000E+00
         0.00000E+00
         0.00000E+00
         0.00000E+00
         0.00000E+00
         0.00000E+00
         0.00000E+00
         0.00000E+00
         0.00000E+00
         0.00000E+00
         0.00000E+00
         0.00000E+00
         0.00000E+00
         0.00000E+00
         0.00000E+00
         0.00000E+00
         0.00000E+00
         0.00000E+00
         0.00000E+00
         0.00000E+00
         0.00000E+00
         0.00000E+00
         0.00000E+00
         0.00000E+00
         0.00000E+00
         0.00000E+00
         0.00000E+00
         0.00000E+00
         0.00000E+00
         0.00000E+00
         0.00000E+00
         0.00000E+00
         0.00000E+00
         0.00000E+00
         0.00000E+00
         0.00000E+00
         0.00000E+00
         0.00000E+00
         0.00000E+00
         0.00000E+00
         0.00000E+00
         0.00000E+00
         0.00000E+00
         0.00000E+00
         0.00000E+00
         0.00000E+00
         0.00000E+00
         0.00000E+00
         0.00000E+00
         0.00000E+00
         0.00000E+00
         0.00000E+00
         0.00000E+00
         0.00000E+00
         0.00000E+00
         0.00000E+00
         0.00000E+00
         0.00000E+00
         0.00000E+00
         0.00000E+00
         0.00000E+00
         0.00000E+00
         0.00000E+00
         0.00000E+00
         0.00000E+00
         0.00000E+00
         0.00000E+00
         0.00000E+00
         0.00000E+00
         0.00000E+00
         0.00000E+00
         0.00000E+00
         0.00000E+00
         0.00000E+00
         0.00000E+00
         0.00000E+00
         0.00000E+00
         0.00000E+00
         0.00000E+00
         0.00000E+00
         0.00000E+00
         0.00000E+00
         0.00000E+00
         0.00000E+00
         0.00000E+00
         0.00000E+00
         0.00000E+00
         0.00000E+00
         0.00000E+00
         0.00000E+00
         0.00000E+00
         0.00000E+00
         0.00000E+00
         0.00000E+00
         0.00000E+00
         0.00000E+00
         0.00000E+00
         0.00000E+00
         0.00000E+00
         0.00000E+00
         0.00000E+00
         0.00000E+00
         0.00000E+00
         0.00000E+00
         0.00000E+00
         0.00000E+00
         0.00000E+00
         0.00000E+00
         0.00000E+00
         0.00000E+00
         0.00000E+00
         0.00000E+00
         0.00000E+00
         0.00000E+00
         0.00000E+00
         0.00000E+00
         0.00000E+00
         0.00000E+00
         0.00000E+00
         0.00000E+00
         0.00000E+00
         0.00000E+00
         0.00000E+00
         0.00000E+00
         0.00000E+00
         0.00000E+00
         0.00000E+00
         0.00000E+00
         0.00000E+00
         0.00000E+00
         0.00000E+00
         0.00000E+00
         0.00000E+00
         0.00000E+00
         0.00000E+00
         0.00000E+00
         0.00000E+00
         0.00000E+00
         0.00000E+00
         0.00000E+00
         0.00000E+00
         0.00000E+00
         0.00000E+00
         0.00000E+00
         0.00000E+00
         0.00000E+00
         0.00000E+00
         0.00000E+00
         0.00000E+00
         0.00000E+00
         0.00000E+00
         0.00000E+00
         0.00000E+00
         0.00000E+00
         0.00000E+00
         0.00000E+00
         0.00000E+00
         0.00000E+00
         0.00000E+00
         0.00000E+00
         0.00000E+00
         0.00000E+00
         0.00000E+00
         0.00000E+00
         0.00000E+00
         0.00000E+00
         0.00000E+00
         0.00000E+00
         0.00000E+00
         0.00000E+00
         0.00000E+00
         0.00000E+00
         0.00000E+00
         0.00000E+00
         0.00000E+00
         0.00000E+00
         0.00000E+00
         0.00000E+00
         0.00000E+00
         0.00000E+00
         0.00000E+00
         0.00000E+00
         0.00000E+00
         0.00000E+00
         0.00000E+00
         0.00000E+00
         0.00000E+00
         0.00000E+00
         0.00000E+00
         0.00000E+00
         0.00000E+00
         0.00000E+00
         0.00000E+00
         0.00000E+00
         0.00000E+00
         0.00000E+00
         0.00000E+00
         0.00000E+00
         0.00000E+00
         0.00000E+00
         0.00000E+00
         0.00000E+00
         0.00000E+00
         0.00000E+00
         0.00000E+00
         0.00000E+00
         0.00000E+00
         0.00000E+00
         0.00000E+00
         0.00000E+00
         0.00000E+00
         0.00000E+00
         0.00000E+00
         0.00000E+00
         0.00000E+00
         0.00000E+00
         0.00000E+00
         0.00000E+00
         0.00000E+00
         0.00000E+00
         0.00000E+00
         0.00000E+00
         0.00000E+00
         0.00000E+00
         0.00000E+00
         0.00000E+00
         0.00000E+00
         0.00000E+00
         0.00000E+00
         0.00000E+00
         0.00000E+00
         0.00000E+00
         0.00000E+00
         0.00000E+00
         0.00000E+00
         0.00000E+00
         0.00000E+00
         0.00000E+00
         0.00000E+00
         0.00000E+00
         0.00000E+00
         0.00000E+00
         0.00000E+00
         0.00000E+00
         0.00000E+00
         0.00000E+00
         0.00000E+00
         0.00000E+00
         0.00000E+00
         0.00000E+00
         0.00000E+00
         0.00000E+00
         0.00000E+00
         0.00000E+00
         0.00000E+00
         0.00000E+00
         0.00000E+00
         0.00000E+00
         0.00000E+00
         0.00000E+00
         0.00000E+00
         0.00000E+00
         0.00000E+00
         0.00000E+00
         0.00000E+00
         0.00000E+00
         0.00000E+00
         0.00000E+00
         0.00000E+00
         0.00000E+00
         0.00000E+00
         0.00000E+00
         0.00000E+00
         0.00000E+00
         0.00000E+00
         0.00000E+00
         0.00000E+00
         0.00000E+00
         0.00000E+00
         0.00000E+00
         0.00000E+00
         0.00000E+00
         0.00000E+00
         0.00000E+00
         0.00000E+00
         0.00000E+00
         0.00000E+00
         0.00000E+00
         0.00000E+00
         0.00000E+00
         0.00000E+00
         0.00000E+00
         0.00000E+00
         0.00000E+00
         0.00000E+00
         0.00000E+00
         0.00000E+00
         0.00000E+00
         0.00000E+00
         0.00000E+00
         0.00000E+00
         0.00000E+00
         0.00000E+00
         0.00000E+00
         0.00000E+00
         0.00000E+00
         0.00000E+00
         0.00000E+00
         0.00000E+00
         0.00000E+00
         0.00000E+00
         0.00000E+00
         0.00000E+00
         0.00000E+00
         0.00000E+00
         0.00000E+00
         0.00000E+00
         0.00000E+00
         0.00000E+00
         0.00000E+00
         0.00000E+00
         0.00000E+00
         0.00000E+00
         0.00000E+00
         0.00000E+00
         0.00000E+00
         0.00000E+00
         0.00000E+00
         0.00000E+00
         0.00000E+00
         0.00000E+00
         0.00000E+00
         0.00000E+00
         0.00000E+00
         0.00000E+00
         0.00000E+00
         0.00000E+00
         0.00000E+00
         0.00000E+00
         0.00000E+00
         0.00000E+00
         0.00000E+00
         0.00000E+00
         0.00000E+00
         0.00000E+00
         0.00000E+00
         0.00000E+00
         0.00000E+00
         0.00000E+00
         0.00000E+00
         0.00000E+00
         0.00000E+00
         0.00000E+00
         0.00000E+00
         0.00000E+00
         0.00000E+00
         0.00000E+00
         0.00000E+00
         0.00000E+00
         0.00000E+00
         0.00000E+00
         0.00000E+00
         0.00000E+00
         0.00000E+00
         0.00000E+00
         0.00000E+00
         0.00000E+00
         0.00000E+00
         0.00000E+00
         0.00000E+00
         0.00000E+00
         0.00000E+00
         0.00000E+00
         0.00000E+00
         0.00000E+00
         0.00000E+00
         0.00000E+00
         0.00000E+00
         0.00000E+00
         0.00000E+00
         0.00000E+00
         0.00000E+00
         0.00000E+00
         0.00000E+00
         0.00000E+00
         0.00000E+00
         0.00000E+00
         0.00000E+00
         0.00000E+00
         0.00000E+00
         0.00000E+00
         0.00000E+00
         0.00000E+00
         0.00000E+00
         0.00000E+00
         0.00000E+00
         0.00000E+00
         0.00000E+00
         0.00000E+00
         0.00000E+00
         0.00000E+00
         0.00000E+00
         0.00000E+00
         0.00000E+00
         0.00000E+00
         0.00000E+00
         0.00000E+00
         0.00000E+00
         0.00000E+00
         0.00000E+00
         0.00000E+00
         0.00000E+00
         0.00000E+00
         0.00000E+00
         0.00000E+00
         0.00000E+00
         0.00000E+00
         0.00000E+00
         0.00000E+00
         0.00000E+00
         0.00000E+00
         0.00000E+00
         0.00000E+00
         0.00000E+00
         0.00000E+00
         0.00000E+00
         0.00000E+00
         0.00000E+00
         0.00000E+00
         0.00000E+00
         0.00000E+00
         0.00000E+00
         0.00000E+00
         0.00000E+00
         0.00000E+00
         0.00000E+00
         0.00000E+00
  
SCALARS                      eps_shear  double 1
LOOKUP_TABLE default
         0.00000E+00
         0.00000E+00
         0.00000E+00
         0.00000E+00
         0.00000E+00
         0.00000E+00
         0.00000E+00
         0.00000E+00
         0.00000E+00
         0.00000E+00
         0.00000E+00
         0.00000E+00
         0.00000E+00
         0.00000E+00
         0.00000E+00
         0.00000E+00
         0.00000E+00
         0.00000E+00
         0.00000E+00
         0.00000E+00
         0.00000E+00
         0.00000E+00
         0.00000E+00
         0.00000E+00
         0.00000E+00
         0.00000E+00
         0.00000E+00
         0.00000E+00
         0.00000E+00
         0.00000E+00
         0.00000E+00
         0.00000E+00
         0.00000E+00
         0.00000E+00
         0.00000E+00
         0.00000E+00
         0.00000E+00
         0.00000E+00
         0.00000E+00
         0.00000E+00
         0.00000E+00
         0.00000E+00
         0.00000E+00
         0.00000E+00
         0.00000E+00
         0.00000E+00
         0.00000E+00
         0.00000E+00
         0.00000E+00
         0.00000E+00
         0.00000E+00
         0.00000E+00
         0.00000E+00
         0.00000E+00
         0.00000E+00
         0.00000E+00
         0.00000E+00
         0.00000E+00
         0.00000E+00
         0.00000E+00
         0.00000E+00
         0.00000E+00
         0.00000E+00
         0.00000E+00
         0.00000E+00
         0.00000E+00
         0.00000E+00
         0.00000E+00
         0.00000E+00
         0.00000E+00
         0.00000E+00
         0.00000E+00
         0.00000E+00
         0.00000E+00
         0.00000E+00
         0.00000E+00
         0.00000E+00
         0.00000E+00
         0.00000E+00
         0.00000E+00
         0.00000E+00
         0.00000E+00
         0.00000E+00
         0.00000E+00
         0.00000E+00
         0.00000E+00
         0.00000E+00
         0.00000E+00
         0.00000E+00
         0.00000E+00
         0.00000E+00
         0.00000E+00
         0.00000E+00
         0.00000E+00
         0.00000E+00
         0.00000E+00
         0.00000E+00
         0.00000E+00
         0.00000E+00
         0.00000E+00
         0.00000E+00
         0.00000E+00
         0.00000E+00
         0.00000E+00
         0.00000E+00
         0.00000E+00
         0.00000E+00
         0.00000E+00
         0.00000E+00
         0.00000E+00
         0.00000E+00
         0.00000E+00
         0.00000E+00
         0.00000E+00
         0.00000E+00
         0.00000E+00
         0.00000E+00
         0.00000E+00
         0.00000E+00
         0.00000E+00
         0.00000E+00
         0.00000E+00
         0.00000E+00
         0.00000E+00
         0.00000E+00
         0.00000E+00
         0.00000E+00
         0.00000E+00
         0.00000E+00
         0.00000E+00
         0.00000E+00
         0.00000E+00
         0.00000E+00
         0.00000E+00
         0.00000E+00
         0.00000E+00
         0.00000E+00
         0.00000E+00
         0.00000E+00
         0.00000E+00
         0.00000E+00
         0.00000E+00
         0.00000E+00
         0.00000E+00
         0.00000E+00
         0.00000E+00
         0.00000E+00
         0.00000E+00
         0.00000E+00
         0.00000E+00
         0.00000E+00
         0.00000E+00
         0.00000E+00
         0.00000E+00
         0.00000E+00
         0.00000E+00
         0.00000E+00
         0.00000E+00
         0.00000E+00
         0.00000E+00
         0.00000E+00
         0.00000E+00
         0.00000E+00
         0.00000E+00
         0.00000E+00
         0.00000E+00
         0.00000E+00
         0.00000E+00
         0.00000E+00
         0.00000E+00
         0.00000E+00
         0.00000E+00
         0.00000E+00
         0.00000E+00
         0.00000E+00
         0.00000E+00
         0.00000E+00
         0.00000E+00
         0.00000E+00
         0.00000E+00
         0.00000E+00
         0.00000E+00
         0.00000E+00
         0.00000E+00
         0.00000E+00
         0.00000E+00
         0.00000E+00
         0.00000E+00
         0.00000E+00
         0.00000E+00
         0.00000E+00
         0.00000E+00
         0.00000E+00
         0.00000E+00
         0.00000E+00
         0.00000E+00
         0.00000E+00
         0.00000E+00
         0.00000E+00
         0.00000E+00
         0.00000E+00
         0.00000E+00
         0.00000E+00
         0.00000E+00
         0.00000E+00
         0.00000E+00
         0.00000E+00
         0.00000E+00
         0.00000E+00
         0.00000E+00
         0.00000E+00
         0.00000E+00
         0.00000E+00
         0.00000E+00
         0.00000E+00
         0.00000E+00
         0.00000E+00
         0.00000E+00
         0.00000E+00
         0.00000E+00
         0.00000E+00
         0.00000E+00
         0.00000E+00
         0.00000E+00
         0.00000E+00
         0.00000E+00
         0.00000E+00
         0.00000E+00
         0.00000E+00
         0.00000E+00
         0.00000E+00
         0.00000E+00
         0.00000E+00
         0.00000E+00
         0.00000E+00
         0.00000E+00
         0.00000E+00
         0.00000E+00
         0.00000E+00
         0.00000E+00
         0.00000E+00
         0.00000E+00
         0.00000E+00
         0.00000E+00
         0.00000E+00
         0.00000E+00
         0.00000E+00
         0.00000E+00
         0.00000E+00
         0.00000E+00
         0.00000E+00
         0.00000E+00
         0.00000E+00
         0.00000E+00
         0.00000E+00
         0.00000E+00
         0.00000E+00
         0.00000E+00
         0.00000E+00
         0.00000E+00
         0.00000E+00
         0.00000E+00
         0.00000E+00
         0.00000E+00
         0.00000E+00
         0.00000E+00
         0.00000E+00
         0.00000E+00
         0.00000E+00
         0.00000E+00
         0.00000E+00
         0.00000E+00
         0.00000E+00
         0.00000E+00
         0.00000E+00
         0.00000E+00
         0.00000E+00
         0.00000E+00
         0.00000E+00
         0.00000E+00
         0.00000E+00
         0.00000E+00
         0.00000E+00
         0.00000E+00
         0.00000E+00
         0.00000E+00
         0.00000E+00
         0.00000E+00
         0.00000E+00
         0.00000E+00
         0.00000E+00
         0.00000E+00
         0.00000E+00
         0.00000E+00
         0.00000E+00
         0.00000E+00
         0.00000E+00
         0.00000E+00
         0.00000E+00
         0.00000E+00
         0.00000E+00
         0.00000E+00
         0.00000E+00
         0.00000E+00
         0.00000E+00
         0.00000E+00
         0.00000E+00
         0.00000E+00
         0.00000E+00
         0.00000E+00
         0.00000E+00
         0.00000E+00
         0.00000E+00
         0.00000E+00
         0.00000E+00
         0.00000E+00
         0.00000E+00
         0.00000E+00
         0.00000E+00
         0.00000E+00
         0.00000E+00
         0.00000E+00
         0.00000E+00
         0.00000E+00
         0.00000E+00
         0.00000E+00
         0.00000E+00
         0.00000E+00
         0.00000E+00
         0.00000E+00
         0.00000E+00
         0.00000E+00
         0.00000E+00
         0.00000E+00
         0.00000E+00
         0.00000E+00
         0.00000E+00
         0.00000E+00
         0.00000E+00
         0.00000E+00
         0.00000E+00
         0.00000E+00
         0.00000E+00
         0.00000E+00
         0.00000E+00
         0.00000E+00
         0.00000E+00
         0.00000E+00
         0.00000E+00
         0.00000E+00
         0.00000E+00
         0.00000E+00
         0.00000E+00
         0.00000E+00
         0.00000E+00
         0.00000E+00
         0.00000E+00
         0.00000E+00
         0.00000E+00
         0.00000E+00
         0.00000E+00
         0.00000E+00
         0.00000E+00
         0.00000E+00
         0.00000E+00
         0.00000E+00
         0.00000E+00
         0.00000E+00
         0.00000E+00
         0.00000E+00
         0.00000E+00
         0.00000E+00
         0.00000E+00
         0.00000E+00
         0.00000E+00
         0.00000E+00
         0.00000E+00
         0.00000E+00
         0.00000E+00
         0.00000E+00
         0.00000E+00
         0.00000E+00
         0.00000E+00
         0.00000E+00
         0.00000E+00
         0.00000E+00
         0.00000E+00
         0.00000E+00
         0.00000E+00
         0.00000E+00
         0.00000E+00
         0.00000E+00
         0.00000E+00
         0.00000E+00
         0.00000E+00
         0.00000E+00
         0.00000E+00
         0.00000E+00
         0.00000E+00
         0.00000E+00
         0.00000E+00
         0.00000E+00
         0.00000E+00
         0.00000E+00
         0.00000E+00
         0.00000E+00
         0.00000E+00
         0.00000E+00
         0.00000E+00
         0.00000E+00
         0.00000E+00
         0.00000E+00
         0.00000E+00
         0.00000E+00
         0.00000E+00
         0.00000E+00
         0.00000E+00
         0.00000E+00
         0.00000E+00
         0.00000E+00
         0.00000E+00
         0.00000E+00
         0.00000E+00
         0.00000E+00
         0.00000E+00
         0.00000E+00
         0.00000E+00
         0.00000E+00
         0.00000E+00
         0.00000E+00
         0.00000E+00
         0.00000E+00
         0.00000E+00
         0.00000E+00
         0.00000E+00
         0.00000E+00
         0.00000E+00
         0.00000E+00
         0.00000E+00
         0.00000E+00
         0.00000E+00
         0.00000E+00
         0.00000E+00
         0.00000E+00
         0.00000E+00
         0.00000E+00
         0.00000E+00
         0.00000E+00
         0.00000E+00
         0.00000E+00
         0.00000E+00
         0.00000E+00
         0.00000E+00
         0.00000E+00
         0.00000E+00
         0.00000E+00
         0.00000E+00
         0.00000E+00
         0.00000E+00
         0.00000E+00
         0.00000E+00
         0.00000E+00
         0.00000E+00
         0.00000E+00
         0.00000E+00
         0.00000E+00
         0.00000E+00
         0.00000E+00
         0.00000E+00
         0.00000E+00
         0.00000E+00
         0.00000E+00
         0.00000E+00
         0.00000E+00
         0.00000E+00
         0.00000E+00
         0.00000E+00
         0.00000E+00
         0.00000E+00
         0.00000E+00
         0.00000E+00
         0.00000E+00
         0.00000E+00
         0.00000E+00
         0.00000E+00
         0.00000E+00
         0.00000E+00
         0.00000E+00
         0.00000E+00
         0.00000E+00
         0.00000E+00
         0.00000E+00
         0.00000E+00
         0.00000E+00
         0.00000E+00
         0.00000E+00
         0.00000E+00
         0.00000E+00
         0.00000E+00
         0.00000E+00
         0.00000E+00
         0.00000E+00
         0.00000E+00
         0.00000E+00
         0.00000E+00
         0.00000E+00
         0.00000E+00
         0.00000E+00
         0.00000E+00
         0.00000E+00
         0.00000E+00
         0.00000E+00
         0.00000E+00
         0.00000E+00
         0.00000E+00
         0.00000E+00
         0.00000E+00
         0.00000E+00
         0.00000E+00
         0.00000E+00
         0.00000E+00
         0.00000E+00
         0.00000E+00
         0.00000E+00
         0.00000E+00
         0.00000E+00
         0.00000E+00
         0.00000E+00
         0.00000E+00
         0.00000E+00
         0.00000E+00
         0.00000E+00
         0.00000E+00
         0.00000E+00
         0.00000E+00
         0.00000E+00
         0.00000E+00
         0.00000E+00
         0.00000E+00
         0.00000E+00
         0.00000E+00
         0.00000E+00
         0.00000E+00
         0.00000E+00
         0.00000E+00
         0.00000E+00
         0.00000E+00
         0.00000E+00
         0.00000E+00
         0.00000E+00
         0.00000E+00
         0.00000E+00
         0.00000E+00
         0.00000E+00
         0.00000E+00
         0.00000E+00
         0.00000E+00
         0.00000E+00
         0.00000E+00
         0.00000E+00
         0.00000E+00
         0.00000E+00
         0.00000E+00
         0.00000E+00
         0.00000E+00
         0.00000E+00
         0.00000E+00
         0.00000E+00
         0.00000E+00
         0.00000E+00
         0.00000E+00
         0.00000E+00
         0.00000E+00
         0.00000E+00
         0.00000E+00
         0.00000E+00
         0.00000E+00
         0.00000E+00
         0.00000E+00
         0.00000E+00
         0.00000E+00
         0.00000E+00
         0.00000E+00
         0.00000E+00
         0.00000E+00
         0.00000E+00
         0.00000E+00
         0.00000E+00
         0.00000E+00
         0.00000E+00
         0.00000E+00
         0.00000E+00
         0.00000E+00
         0.00000E+00
         0.00000E+00
         0.00000E+00
         0.00000E+00
         0.00000E+00
         0.00000E+00
         0.00000E+00
         0.00000E+00
         0.00000E+00
         0.00000E+00
         0.00000E+00
         0.00000E+00
         0.00000E+00
         0.00000E+00
         0.00000E+00
         0.00000E+00
         0.00000E+00
         0.00000E+00
         0.00000E+00
         0.00000E+00
         0.00000E+00
         0.00000E+00
         0.00000E+00
         0.00000E+00
         0.00000E+00
         0.00000E+00
         0.00000E+00
         0.00000E+00
         0.00000E+00
         0.00000E+00
         0.00000E+00
         0.00000E+00
         0.00000E+00
         0.00000E+00
         0.00000E+00
         0.00000E+00
         0.00000E+00
         0.00000E+00
         0.00000E+00
         0.00000E+00
         0.00000E+00
         0.00000E+00
         0.00000E+00
         0.00000E+00
         0.00000E+00
         0.00000E+00
         0.00000E+00
         0.00000E+00
         0.00000E+00
         0.00000E+00
         0.00000E+00
         0.00000E+00
         0.00000E+00
         0.00000E+00
         0.00000E+00
         0.00000E+00
         0.00000E+00
         0.00000E+00
         0.00000E+00
         0.00000E+00
         0.00000E+00
         0.00000E+00
         0.00000E+00
         0.00000E+00
         0.00000E+00
         0.00000E+00
         0.00000E+00
         0.00000E+00
         0.00000E+00
         0.00000E+00
         0.00000E+00
         0.00000E+00
         0.00000E+00
         0.00000E+00
         0.00000E+00
         0.00000E+00
         0.00000E+00
         0.00000E+00
         0.00000E+00
         0.00000E+00
         0.00000E+00
         0.00000E+00
         0.00000E+00
         0.00000E+00
         0.00000E+00
         0.00000E+00
         0.00000E+00
         0.00000E+00
         0.00000E+00
         0.00000E+00
         0.00000E+00
         0.00000E+00
         0.00000E+00
         0.00000E+00
         0.00000E+00
         0.00000E+00
         0.00000E+00
         0.00000E+00
         0.00000E+00
         0.00000E+00
         0.00000E+00
         0.00000E+00
         0.00000E+00
         0.00000E+00
         0.00000E+00
         0.00000E+00
         0.00000E+00
         0.00000E+00
         0.00000E+00
         0.00000E+00
         0.00000E+00
         0.00000E+00
         0.00000E+00
         0.00000E+00
         0.00000E+00
         0.00000E+00
         0.00000E+00
         0.00000E+00
         0.00000E+00
         0.00000E+00
         0.00000E+00
         0.00000E+00
         0.00000E+00
         0.00000E+00
         0.00000E+00
         0.00000E+00
         0.00000E+00
         0.00000E+00
         0.00000E+00
         0.00000E+00
         0.00000E+00
         0.00000E+00
         0.00000E+00
         0.00000E+00
         0.00000E+00
         0.00000E+00
         0.00000E+00
         0.00000E+00
         0.00000E+00
         0.00000E+00
         0.00000E+00
         0.00000E+00
         0.00000E+00
         0.00000E+00
         0.00000E+00
         0.00000E+00
         0.00000E+00
         0.00000E+00
         0.00000E+00
         0.00000E+00
         0.00000E+00
         0.00000E+00
         0.00000E+00
         0.00000E+00
         0.00000E+00
         0.00000E+00
         0.00000E+00
         0.00000E+00
         0.00000E+00
         0.00000E+00
         0.00000E+00
         0.00000E+00
         0.00000E+00
         0.00000E+00
         0.00000E+00
         0.00000E+00
         0.00000E+00
         0.00000E+00
         0.00000E+00
         0.00000E+00
         0.00000E+00
         0.00000E+00
         0.00000E+00
         0.00000E+00
         0.00000E+00
         0.00000E+00
         0.00000E+00
         0.00000E+00
         0.00000E+00
         0.00000E+00
         0.00000E+00
         0.00000E+00
         0.00000E+00
         0.00000E+00
         0.00000E+00
         0.00000E+00
         0.00000E+00
         0.00000E+00
         0.00000E+00
         0.00000E+00
         0.00000E+00
         0.00000E+00
         0.00000E+00
         0.00000E+00
         0.00000E+00
         0.00000E+00
         0.00000E+00
         0.00000E+00
         0.00000E+00
         0.00000E+00
         0.00000E+00
         0.00000E+00
         0.00000E+00
         0.00000E+00
         0.00000E+00
         0.00000E+00
         0.00000E+00
         0.00000E+00
         0.00000E+00
         0.00000E+00
         0.00000E+00
         0.00000E+00
         0.00000E+00
         0.00000E+00
         0.00000E+00
         0.00000E+00
         0.00000E+00
         0.00000E+00
         0.00000E+00
         0.00000E+00
         0.00000E+00
         0.00000E+00
         0.00000E+00
         0.00000E+00
         0.00000E+00
         0.00000E+00
         0.00000E+00
         0.00000E+00
         0.00000E+00
         0.00000E+00
         0.00000E+00
         0.00000E+00
         0.00000E+00
         0.00000E+00
         0.00000E+00
         0.00000E+00
         0.00000E+00
         0.00000E+00
         0.00000E+00
         0.00000E+00
         0.00000E+00
         0.00000E+00
         0.00000E+00
         0.00000E+00
         0.00000E+00
         0.00000E+00
         0.00000E+00
         0.00000E+00
         0.00000E+00
         0.00000E+00
         0.00000E+00
         0.00000E+00
         0.00000E+00
         0.00000E+00
         0.00000E+00
         0.00000E+00
         0.00000E+00
         0.00000E+00
         0.00000E+00
         0.00000E+00
         0.00000E+00
         0.00000E+00
         0.00000E+00
         0.00000E+00
         0.00000E+00
         0.00000E+00
         0.00000E+00
         0.00000E+00
         0.00000E+00
         0.00000E+00
         0.00000E+00
         0.00000E+00
         0.00000E+00
         0.00000E+00
         0.00000E+00
         0.00000E+00
         0.00000E+00
         0.00000E+00
         0.00000E+00
         0.00000E+00
         0.00000E+00
         0.00000E+00
         0.00000E+00
         0.00000E+00
         0.00000E+00
         0.00000E+00
         0.00000E+00
         0.00000E+00
         0.00000E+00
         0.00000E+00
         0.00000E+00
         0.00000E+00
         0.00000E+00
         0.00000E+00
         0.00000E+00
         0.00000E+00
         0.00000E+00
         0.00000E+00
         0.00000E+00
         0.00000E+00
         0.00000E+00
         0.00000E+00
         0.00000E+00
         0.00000E+00
         0.00000E+00
         0.00000E+00
         0.00000E+00
         0.00000E+00
         0.00000E+00
         0.00000E+00
         0.00000E+00
         0.00000E+00
         0.00000E+00
         0.00000E+00
         0.00000E+00
         0.00000E+00
         0.00000E+00
         0.00000E+00
         0.00000E+00
         0.00000E+00
         0.00000E+00
         0.00000E+00
         0.00000E+00
         0.00000E+00
         0.00000E+00
         0.00000E+00
         0.00000E+00
         0.00000E+00
         0.00000E+00
         0.00000E+00
         0.00000E+00
         0.00000E+00
         0.00000E+00
         0.00000E+00
         0.00000E+00
         0.00000E+00
         0.00000E+00
         0.00000E+00
         0.00000E+00
         0.00000E+00
         0.00000E+00
         0.00000E+00
         0.00000E+00
         0.00000E+00
         0.00000E+00
         0.00000E+00
         0.00000E+00
         0.00000E+00
         0.00000E+00
         0.00000E+00
         0.00000E+00
         0.00000E+00
         0.00000E+00
         0.00000E+00
         0.00000E+00
         0.00000E+00
         0.00000E+00
         0.00000E+00
         0.00000E+00
         0.00000E+00
         0.00000E+00
         0.00000E+00
         0.00000E+00
         0.00000E+00
         0.00000E+00
         0.00000E+00
         0.00000E+00
         0.00000E+00
         0.00000E+00
         0.00000E+00
         0.00000E+00
         0.00000E+00
         0.00000E+00
         0.00000E+00
         0.00000E+00
         0.00000E+00
         0.00000E+00
         0.00000E+00
         0.00000E+00
         0.00000E+00
         0.00000E+00
         0.00000E+00
         0.00000E+00
         0.00000E+00
         0.00000E+00
         0.00000E+00
         0.00000E+00
         0.00000E+00
         0.00000E+00
         0.00000E+00
         0.00000E+00
         0.00000E+00
         0.00000E+00
         0.00000E+00
         0.00000E+00
         0.00000E+00
         0.00000E+00
         0.00000E+00
         0.00000E+00
         0.00000E+00
         0.00000E+00
         0.00000E+00
         0.00000E+00
         0.00000E+00
         0.00000E+00
         0.00000E+00
         0.00000E+00
         0.00000E+00
         0.00000E+00
         0.00000E+00
         0.00000E+00
         0.00000E+00
         0.00000E+00
         0.00000E+00
         0.00000E+00
         0.00000E+00
         0.00000E+00
         0.00000E+00
         0.00000E+00
         0.00000E+00
         0.00000E+00
         0.00000E+00
         0.00000E+00
         0.00000E+00
         0.00000E+00
         0.00000E+00
         0.00000E+00
         0.00000E+00
         0.00000E+00
         0.00000E+00
         0.00000E+00
         0.00000E+00
         0.00000E+00
         0.00000E+00
         0.00000E+00
         0.00000E+00
         0.00000E+00
         0.00000E+00
         0.00000E+00
         0.00000E+00
         0.00000E+00
         0.00000E+00
         0.00000E+00
         0.00000E+00
         0.00000E+00
         0.00000E+00
         0.00000E+00
         0.00000E+00
         0.00000E+00
         0.00000E+00
         0.00000E+00
         0.00000E+00
         0.00000E+00
         0.00000E+00
         0.00000E+00
         0.00000E+00
         0.00000E+00
         0.00000E+00
         0.00000E+00
         0.00000E+00
         0.00000E+00
         0.00000E+00
         0.00000E+00
         0.00000E+00
         0.00000E+00
         0.00000E+00
         0.00000E+00
         0.00000E+00
         0.00000E+00
         0.00000E+00
         0.00000E+00
         0.00000E+00
         0.00000E+00
         0.00000E+00
         0.00000E+00
         0.00000E+00
         0.00000E+00
         0.00000E+00
         0.00000E+00
         0.00000E+00
         0.00000E+00
         0.00000E+00
         0.00000E+00
         0.00000E+00
         0.00000E+00
         0.00000E+00
         0.00000E+00
         0.00000E+00
         0.00000E+00
         0.00000E+00
         0.00000E+00
         0.00000E+00
         0.00000E+00
         0.00000E+00
         0.00000E+00
         0.00000E+00
         0.00000E+00
         0.00000E+00
         0.00000E+00
         0.00000E+00
         0.00000E+00
         0.00000E+00
         0.00000E+00
         0.00000E+00
         0.00000E+00
         0.00000E+00
         0.00000E+00
         0.00000E+00
         0.00000E+00
         0.00000E+00
         0.00000E+00
         0.00000E+00
         0.00000E+00
         0.00000E+00
         0.00000E+00
         0.00000E+00
         0.00000E+00
         0.00000E+00
         0.00000E+00
         0.00000E+00
         0.00000E+00
         0.00000E+00
         0.00000E+00
         0.00000E+00
         0.00000E+00
         0.00000E+00
         0.00000E+00
         0.00000E+00
         0.00000E+00
         0.00000E+00
         0.00000E+00
         0.00000E+00
         0.00000E+00
         0.00000E+00
         0.00000E+00
         0.00000E+00
         0.00000E+00
         0.00000E+00
         0.00000E+00
         0.00000E+00
         0.00000E+00
         0.00000E+00
         0.00000E+00
         0.00000E+00
         0.00000E+00
         0.00000E+00
         0.00000E+00
         0.00000E+00
         0.00000E+00
         0.00000E+00
         0.00000E+00
         0.00000E+00
         0.00000E+00
         0.00000E+00
         0.00000E+00
         0.00000E+00
         0.00000E+00
         0.00000E+00
         0.00000E+00
         0.00000E+00
         0.00000E+00
         0.00000E+00
         0.00000E+00
         0.00000E+00
         0.00000E+00
         0.00000E+00
         0.00000E+00
         0.00000E+00
         0.00000E+00
         0.00000E+00
         0.00000E+00
         0.00000E+00
         0.00000E+00
         0.00000E+00
         0.00000E+00
         0.00000E+00
         0.00000E+00
         0.00000E+00
         0.00000E+00
         0.00000E+00
         0.00000E+00
         0.00000E+00
         0.00000E+00
         0.00000E+00
         0.00000E+00
         0.00000E+00
         0.00000E+00
         0.00000E+00
         0.00000E+00
         0.00000E+00
         0.00000E+00
         0.00000E+00
         0.00000E+00
         0.00000E+00
         0.00000E+00
         0.00000E+00
         0.00000E+00
         0.00000E+00
         0.00000E+00
         0.00000E+00
         0.00000E+00
         0.00000E+00
         0.00000E+00
         0.00000E+00
         0.00000E+00
         0.00000E+00
         0.00000E+00
         0.00000E+00
         0.00000E+00
         0.00000E+00
         0.00000E+00
         0.00000E+00
         0.00000E+00
         0.00000E+00
         0.00000E+00
         0.00000E+00
         0.00000E+00
         0.00000E+00
         0.00000E+00
         0.00000E+00
         0.00000E+00
         0.00000E+00
         0.00000E+00
         0.00000E+00
         0.00000E+00
         0.00000E+00
         0.00000E+00
         0.00000E+00
         0.00000E+00
         0.00000E+00
         0.00000E+00
         0.00000E+00
         0.00000E+00
         0.00000E+00
         0.00000E+00
         0.00000E+00
         0.00000E+00
         0.00000E+00
         0.00000E+00
         0.00000E+00
         0.00000E+00
         0.00000E+00
         0.00000E+00
         0.00000E+00
         0.00000E+00
         0.00000E+00
         0.00000E+00
         0.00000E+00
         0.00000E+00
         0.00000E+00
         0.00000E+00
         0.00000E+00
         0.00000E+00
         0.00000E+00
         0.00000E+00
         0.00000E+00
         0.00000E+00
         0.00000E+00
         0.00000E+00
         0.00000E+00
         0.00000E+00
         0.00000E+00
         0.00000E+00
         0.00000E+00
         0.00000E+00
         0.00000E+00
         0.00000E+00
         0.00000E+00
         0.00000E+00
         0.00000E+00
         0.00000E+00
         0.00000E+00
         0.00000E+00
         0.00000E+00
         0.00000E+00
         0.00000E+00
         0.00000E+00
         0.00000E+00
         0.00000E+00
         0.00000E+00
         0.00000E+00
         0.00000E+00
         0.00000E+00
         0.00000E+00
         0.00000E+00
         0.00000E+00
         0.00000E+00
         0.00000E+00
         0.00000E+00
         0.00000E+00
         0.00000E+00
         0.00000E+00
         0.00000E+00
         0.00000E+00
         0.00000E+00
         0.00000E+00
         0.00000E+00
         0.00000E+00
         0.00000E+00
         0.00000E+00
         0.00000E+00
         0.00000E+00
         0.00000E+00
         0.00000E+00
         0.00000E+00
         0.00000E+00
         0.00000E+00
         0.00000E+00
         0.00000E+00
         0.00000E+00
         0.00000E+00
         0.00000E+00
         0.00000E+00
         0.00000E+00
         0.00000E+00
         0.00000E+00
         0.00000E+00
         0.00000E+00
         0.00000E+00
         0.00000E+00
         0.00000E+00
         0.00000E+00
         0.00000E+00
         0.00000E+00
         0.00000E+00
         0.00000E+00
         0.00000E+00
         0.00000E+00
         0.00000E+00
         0.00000E+00
         0.00000E+00
         0.00000E+00
         0.00000E+00
         0.00000E+00
         0.00000E+00
         0.00000E+00
         0.00000E+00
         0.00000E+00
         0.00000E+00
         0.00000E+00
         0.00000E+00
         0.00000E+00
         0.00000E+00
         0.00000E+00
         0.00000E+00
         0.00000E+00
         0.00000E+00
         0.00000E+00
         0.00000E+00
         0.00000E+00
         0.00000E+00
         0.00000E+00
         0.00000E+00
         0.00000E+00
         0.00000E+00
         0.00000E+00
         0.00000E+00
         0.00000E+00
         0.00000E+00
         0.00000E+00
         0.00000E+00
         0.00000E+00
         0.00000E+00
         0.00000E+00
         0.00000E+00
         0.00000E+00
         0.00000E+00
         0.00000E+00
         0.00000E+00
         0.00000E+00
         0.00000E+00
         0.00000E+00
         0.00000E+00
         0.00000E+00
         0.00000E+00
         0.00000E+00
         0.00000E+00
         0.00000E+00
         0.00000E+00
         0.00000E+00
         0.00000E+00
         0.00000E+00
         0.00000E+00
         0.00000E+00
         0.00000E+00
         0.00000E+00
         0.00000E+00
         0.00000E+00
         0.00000E+00
         0.00000E+00
         0.00000E+00
         0.00000E+00
         0.00000E+00
         0.00000E+00
         0.00000E+00
         0.00000E+00
         0.00000E+00
         0.00000E+00
         0.00000E+00
         0.00000E+00
         0.00000E+00
         0.00000E+00
         0.00000E+00
         0.00000E+00
         0.00000E+00
         0.00000E+00
         0.00000E+00
         0.00000E+00
         0.00000E+00
         0.00000E+00
         0.00000E+00
         0.00000E+00
         0.00000E+00
         0.00000E+00
         0.00000E+00
         0.00000E+00
         0.00000E+00
         0.00000E+00
         0.00000E+00
         0.00000E+00
         0.00000E+00
         0.00000E+00
         0.00000E+00
         0.00000E+00
         0.00000E+00
         0.00000E+00
         0.00000E+00
         0.00000E+00
         0.00000E+00
         0.00000E+00
         0.00000E+00
         0.00000E+00
         0.00000E+00
         0.00000E+00
         0.00000E+00
         0.00000E+00
         0.00000E+00
         0.00000E+00
         0.00000E+00
         0.00000E+00
         0.00000E+00
         0.00000E+00
         0.00000E+00
         0.00000E+00
         0.00000E+00
         0.00000E+00
         0.00000E+00
         0.00000E+00
         0.00000E+00
         0.00000E+00
         0.00000E+00
         0.00000E+00
         0.00000E+00
         0.00000E+00
         0.00000E+00
         0.00000E+00
         0.00000E+00
         0.00000E+00
         0.00000E+00
         0.00000E+00
         0.00000E+00
         0.00000E+00
         0.00000E+00
         0.00000E+00
         0.00000E+00
         0.00000E+00
         0.00000E+00
         0.00000E+00
         0.00000E+00
         0.00000E+00
         0.00000E+00
         0.00000E+00
         0.00000E+00
         0.00000E+00
         0.00000E+00
         0.00000E+00
         0.00000E+00
         0.00000E+00
         0.00000E+00
         0.00000E+00
         0.00000E+00
         0.00000E+00
         0.00000E+00
         0.00000E+00
         0.00000E+00
         0.00000E+00
         0.00000E+00
         0.00000E+00
         0.00000E+00
         0.00000E+00
         0.00000E+00
         0.00000E+00
         0.00000E+00
         0.00000E+00
         0.00000E+00
         0.00000E+00
         0.00000E+00
         0.00000E+00
         0.00000E+00
         0.00000E+00
         0.00000E+00
         0.00000E+00
         0.00000E+00
         0.00000E+00
         0.00000E+00
         0.00000E+00
         0.00000E+00
         0.00000E+00
         0.00000E+00
         0.00000E+00
         0.00000E+00
         0.00000E+00
         0.00000E+00
         0.00000E+00
         0.00000E+00
         0.00000E+00
         0.00000E+00
         0.00000E+00
         0.00000E+00
         0.00000E+00
         0.00000E+00
         0.00000E+00
         0.00000E+00
         0.00000E+00
         0.00000E+00
         0.00000E+00
         0.00000E+00
         0.00000E+00
         0.00000E+00
         0.00000E+00
         0.00000E+00
         0.00000E+00
         0.00000E+00
         0.00000E+00
         0.00000E+00
         0.00000E+00
         0.00000E+00
         0.00000E+00
         0.00000E+00
         0.00000E+00
         0.00000E+00
         0.00000E+00
         0.00000E+00
         0.00000E+00
         0.00000E+00
         0.00000E+00
         0.00000E+00
         0.00000E+00
         0.00000E+00
         0.00000E+00
         0.00000E+00
         0.00000E+00
         0.00000E+00
         0.00000E+00
         0.00000E+00
         0.00000E+00
         0.00000E+00
         0.00000E+00
         0.00000E+00
         0.00000E+00
         0.00000E+00
         0.00000E+00
         0.00000E+00
         0.00000E+00
         0.00000E+00
         0.00000E+00
         0.00000E+00
         0.00000E+00
         0.00000E+00
         0.00000E+00
         0.00000E+00
         0.00000E+00
         0.00000E+00
         0.00000E+00
         0.00000E+00
         0.00000E+00
         0.00000E+00
         0.00000E+00
         0.00000E+00
         0.00000E+00
         0.00000E+00
         0.00000E+00
         0.00000E+00
         0.00000E+00
         0.00000E+00
         0.00000E+00
         0.00000E+00
         0.00000E+00
         0.00000E+00
         0.00000E+00
         0.00000E+00
         0.00000E+00
         0.00000E+00
         0.00000E+00
         0.00000E+00
         0.00000E+00
         0.00000E+00
         0.00000E+00
         0.00000E+00
         0.00000E+00
         0.00000E+00
         0.00000E+00
         0.00000E+00
         0.00000E+00
         0.00000E+00
         0.00000E+00
         0.00000E+00
         0.00000E+00
         0.00000E+00
         0.00000E+00
         0.00000E+00
         0.00000E+00
         0.00000E+00
         0.00000E+00
         0.00000E+00
         0.00000E+00
         0.00000E+00
         0.00000E+00
         0.00000E+00
         0.00000E+00
         0.00000E+00
         0.00000E+00
         0.00000E+00
         0.00000E+00
         0.00000E+00
         0.00000E+00
         0.00000E+00
         0.00000E+00
         0.00000E+00
         0.00000E+00
         0.00000E+00
         0.00000E+00
         0.00000E+00
         0.00000E+00
         0.00000E+00
         0.00000E+00
         0.00000E+00
         0.00000E+00
         0.00000E+00
         0.00000E+00
         0.00000E+00
         0.00000E+00
         0.00000E+00
         0.00000E+00
         0.00000E+00
         0.00000E+00
         0.00000E+00
         0.00000E+00
         0.00000E+00
         0.00000E+00
         0.00000E+00
         0.00000E+00
         0.00000E+00
         0.00000E+00
         0.00000E+00
         0.00000E+00
         0.00000E+00
         0.00000E+00
         0.00000E+00
         0.00000E+00
         0.00000E+00
         0.00000E+00
         0.00000E+00
         0.00000E+00
         0.00000E+00
         0.00000E+00
         0.00000E+00
         0.00000E+00
         0.00000E+00
         0.00000E+00
         0.00000E+00
         0.00000E+00
         0.00000E+00
         0.00000E+00
         0.00000E+00
         0.00000E+00
         0.00000E+00
         0.00000E+00
         0.00000E+00
         0.00000E+00
         0.00000E+00
         0.00000E+00
         0.00000E+00
         0.00000E+00
         0.00000E+00
         0.00000E+00
         0.00000E+00
         0.00000E+00
         0.00000E+00
         0.00000E+00
         0.00000E+00
         0.00000E+00
         0.00000E+00
         0.00000E+00
         0.00000E+00
         0.00000E+00
         0.00000E+00
         0.00000E+00
         0.00000E+00
         0.00000E+00
         0.00000E+00
         0.00000E+00
         0.00000E+00
         0.00000E+00
         0.00000E+00
         0.00000E+00
         0.00000E+00
         0.00000E+00
         0.00000E+00
         0.00000E+00
         0.00000E+00
         0.00000E+00
         0.00000E+00
         0.00000E+00
         0.00000E+00
         0.00000E+00
         0.00000E+00
         0.00000E+00
         0.00000E+00
         0.00000E+00
         0.00000E+00
         0.00000E+00
         0.00000E+00
         0.00000E+00
         0.00000E+00
         0.00000E+00
         0.00000E+00
         0.00000E+00
         0.00000E+00
         0.00000E+00
         0.00000E+00
         0.00000E+00
         0.00000E+00
         0.00000E+00
         0.00000E+00
         0.00000E+00
         0.00000E+00
         0.00000E+00
         0.00000E+00
         0.00000E+00
         0.00000E+00
         0.00000E+00
         0.00000E+00
         0.00000E+00
         0.00000E+00
         0.00000E+00
         0.00000E+00
         0.00000E+00
         0.00000E+00
         0.00000E+00
         0.00000E+00
         0.00000E+00
         0.00000E+00
         0.00000E+00
         0.00000E+00
         0.00000E+00
         0.00000E+00
         0.00000E+00
         0.00000E+00
         0.00000E+00
         0.00000E+00
         0.00000E+00
         0.00000E+00
         0.00000E+00
         0.00000E+00
         0.00000E+00
         0.00000E+00
         0.00000E+00
         0.00000E+00
         0.00000E+00
         0.00000E+00
         0.00000E+00
         0.00000E+00
         0.00000E+00
         0.00000E+00
         0.00000E+00
         0.00000E+00
         0.00000E+00
         0.00000E+00
         0.00000E+00
         0.00000E+00
         0.00000E+00
         0.00000E+00
         0.00000E+00
         0.00000E+00
         0.00000E+00
         0.00000E+00
         0.00000E+00
         0.00000E+00
         0.00000E+00
         0.00000E+00
         0.00000E+00
         0.00000E+00
         0.00000E+00
         0.00000E+00
         0.00000E+00
         0.00000E+00
         0.00000E+00
         0.00000E+00
         0.00000E+00
         0.00000E+00
         0.00000E+00
         0.00000E+00
         0.00000E+00
         0.00000E+00
         0.00000E+00
         0.00000E+00
         0.00000E+00
         0.00000E+00
         0.00000E+00
         0.00000E+00
         0.00000E+00
         0.00000E+00
         0.00000E+00
         0.00000E+00
         0.00000E+00
         0.00000E+00
         0.00000E+00
         0.00000E+00
         0.00000E+00
         0.00000E+00
         0.00000E+00
         0.00000E+00
         0.00000E+00
         0.00000E+00
         0.00000E+00
         0.00000E+00
         0.00000E+00
         0.00000E+00
         0.00000E+00
         0.00000E+00
         0.00000E+00
         0.00000E+00
         0.00000E+00
         0.00000E+00
         0.00000E+00
         0.00000E+00
         0.00000E+00
         0.00000E+00
         0.00000E+00
         0.00000E+00
         0.00000E+00
         0.00000E+00
         0.00000E+00
         0.00000E+00
         0.00000E+00
         0.00000E+00
         0.00000E+00
         0.00000E+00
         0.00000E+00
         0.00000E+00
         0.00000E+00
         0.00000E+00
         0.00000E+00
         0.00000E+00
         0.00000E+00
         0.00000E+00
         0.00000E+00
         0.00000E+00
         0.00000E+00
         0.00000E+00
         0.00000E+00
         0.00000E+00
         0.00000E+00
         0.00000E+00
         0.00000E+00
         0.00000E+00
         0.00000E+00
         0.00000E+00
         0.00000E+00
         0.00000E+00
         0.00000E+00
         0.00000E+00
         0.00000E+00
         0.00000E+00
         0.00000E+00
         0.00000E+00
         0.00000E+00
         0.00000E+00
         0.00000E+00
         0.00000E+00
         0.00000E+00
         0.00000E+00
         0.00000E+00
         0.00000E+00
         0.00000E+00
         0.00000E+00
         0.00000E+00
         0.00000E+00
         0.00000E+00
         0.00000E+00
         0.00000E+00
         0.00000E+00
         0.00000E+00
         0.00000E+00
         0.00000E+00
         0.00000E+00
         0.00000E+00
         0.00000E+00
         0.00000E+00
         0.00000E+00
         0.00000E+00
         0.00000E+00
         0.00000E+00
         0.00000E+00
         0.00000E+00
         0.00000E+00
         0.00000E+00
         0.00000E+00
         0.00000E+00
         0.00000E+00
         0.00000E+00
         0.00000E+00
         0.00000E+00
         0.00000E+00
         0.00000E+00
         0.00000E+00
         0.00000E+00
         0.00000E+00
         0.00000E+00
         0.00000E+00
         0.00000E+00
         0.00000E+00
         0.00000E+00
         0.00000E+00
         0.00000E+00
         0.00000E+00
         0.00000E+00
         0.00000E+00
         0.00000E+00
         0.00000E+00
         0.00000E+00
         0.00000E+00
         0.00000E+00
         0.00000E+00
         0.00000E+00
         0.00000E+00
         0.00000E+00
         0.00000E+00
         0.00000E+00
         0.00000E+00
         0.00000E+00
         0.00000E+00
         0.00000E+00
         0.00000E+00
         0.00000E+00
         0.00000E+00
         0.00000E+00
         0.00000E+00
         0.00000E+00
         0.00000E+00
         0.00000E+00
         0.00000E+00
         0.00000E+00
         0.00000E+00
         0.00000E+00
         0.00000E+00
  
SCALARS                        eps_vol  double 1
LOOKUP_TABLE default
         0.00000E+00
         0.00000E+00
         0.00000E+00
         0.00000E+00
         0.00000E+00
         0.00000E+00
         0.00000E+00
         0.00000E+00
         0.00000E+00
         0.00000E+00
         0.00000E+00
         0.00000E+00
         0.00000E+00
         0.00000E+00
         0.00000E+00
         0.00000E+00
         0.00000E+00
         0.00000E+00
         0.00000E+00
         0.00000E+00
         0.00000E+00
         0.00000E+00
         0.00000E+00
         0.00000E+00
         0.00000E+00
         0.00000E+00
         0.00000E+00
         0.00000E+00
         0.00000E+00
         0.00000E+00
         0.00000E+00
         0.00000E+00
         0.00000E+00
         0.00000E+00
         0.00000E+00
         0.00000E+00
         0.00000E+00
         0.00000E+00
         0.00000E+00
         0.00000E+00
         0.00000E+00
         0.00000E+00
         0.00000E+00
         0.00000E+00
         0.00000E+00
         0.00000E+00
         0.00000E+00
         0.00000E+00
         0.00000E+00
         0.00000E+00
         0.00000E+00
         0.00000E+00
         0.00000E+00
         0.00000E+00
         0.00000E+00
         0.00000E+00
         0.00000E+00
         0.00000E+00
         0.00000E+00
         0.00000E+00
         0.00000E+00
         0.00000E+00
         0.00000E+00
         0.00000E+00
         0.00000E+00
         0.00000E+00
         0.00000E+00
         0.00000E+00
         0.00000E+00
         0.00000E+00
         0.00000E+00
         0.00000E+00
         0.00000E+00
         0.00000E+00
         0.00000E+00
         0.00000E+00
         0.00000E+00
         0.00000E+00
         0.00000E+00
         0.00000E+00
         0.00000E+00
         0.00000E+00
         0.00000E+00
         0.00000E+00
         0.00000E+00
         0.00000E+00
         0.00000E+00
         0.00000E+00
         0.00000E+00
         0.00000E+00
         0.00000E+00
         0.00000E+00
         0.00000E+00
         0.00000E+00
         0.00000E+00
         0.00000E+00
         0.00000E+00
         0.00000E+00
         0.00000E+00
         0.00000E+00
         0.00000E+00
         0.00000E+00
         0.00000E+00
         0.00000E+00
         0.00000E+00
         0.00000E+00
         0.00000E+00
         0.00000E+00
         0.00000E+00
         0.00000E+00
         0.00000E+00
         0.00000E+00
         0.00000E+00
         0.00000E+00
         0.00000E+00
         0.00000E+00
         0.00000E+00
         0.00000E+00
         0.00000E+00
         0.00000E+00
         0.00000E+00
         0.00000E+00
         0.00000E+00
         0.00000E+00
         0.00000E+00
         0.00000E+00
         0.00000E+00
         0.00000E+00
         0.00000E+00
         0.00000E+00
         0.00000E+00
         0.00000E+00
         0.00000E+00
         0.00000E+00
         0.00000E+00
         0.00000E+00
         0.00000E+00
         0.00000E+00
         0.00000E+00
         0.00000E+00
         0.00000E+00
         0.00000E+00
         0.00000E+00
         0.00000E+00
         0.00000E+00
         0.00000E+00
         0.00000E+00
         0.00000E+00
         0.00000E+00
         0.00000E+00
         0.00000E+00
         0.00000E+00
         0.00000E+00
         0.00000E+00
         0.00000E+00
         0.00000E+00
         0.00000E+00
         0.00000E+00
         0.00000E+00
         0.00000E+00
         0.00000E+00
         0.00000E+00
         0.00000E+00
         0.00000E+00
         0.00000E+00
         0.00000E+00
         0.00000E+00
         0.00000E+00
         0.00000E+00
         0.00000E+00
         0.00000E+00
         0.00000E+00
         0.00000E+00
         0.00000E+00
         0.00000E+00
         0.00000E+00
         0.00000E+00
         0.00000E+00
         0.00000E+00
         0.00000E+00
         0.00000E+00
         0.00000E+00
         0.00000E+00
         0.00000E+00
         0.00000E+00
         0.00000E+00
         0.00000E+00
         0.00000E+00
         0.00000E+00
         0.00000E+00
         0.00000E+00
         0.00000E+00
         0.00000E+00
         0.00000E+00
         0.00000E+00
         0.00000E+00
         0.00000E+00
         0.00000E+00
         0.00000E+00
         0.00000E+00
         0.00000E+00
         0.00000E+00
         0.00000E+00
         0.00000E+00
         0.00000E+00
         0.00000E+00
         0.00000E+00
         0.00000E+00
         0.00000E+00
         0.00000E+00
         0.00000E+00
         0.00000E+00
         0.00000E+00
         0.00000E+00
         0.00000E+00
         0.00000E+00
         0.00000E+00
         0.00000E+00
         0.00000E+00
         0.00000E+00
         0.00000E+00
         0.00000E+00
         0.00000E+00
         0.00000E+00
         0.00000E+00
         0.00000E+00
         0.00000E+00
         0.00000E+00
         0.00000E+00
         0.00000E+00
         0.00000E+00
         0.00000E+00
         0.00000E+00
         0.00000E+00
         0.00000E+00
         0.00000E+00
         0.00000E+00
         0.00000E+00
         0.00000E+00
         0.00000E+00
         0.00000E+00
         0.00000E+00
         0.00000E+00
         0.00000E+00
         0.00000E+00
         0.00000E+00
         0.00000E+00
         0.00000E+00
         0.00000E+00
         0.00000E+00
         0.00000E+00
         0.00000E+00
         0.00000E+00
         0.00000E+00
         0.00000E+00
         0.00000E+00
         0.00000E+00
         0.00000E+00
         0.00000E+00
         0.00000E+00
         0.00000E+00
         0.00000E+00
         0.00000E+00
         0.00000E+00
         0.00000E+00
         0.00000E+00
         0.00000E+00
         0.00000E+00
         0.00000E+00
         0.00000E+00
         0.00000E+00
         0.00000E+00
         0.00000E+00
         0.00000E+00
         0.00000E+00
         0.00000E+00
         0.00000E+00
         0.00000E+00
         0.00000E+00
         0.00000E+00
         0.00000E+00
         0.00000E+00
         0.00000E+00
         0.00000E+00
         0.00000E+00
         0.00000E+00
         0.00000E+00
         0.00000E+00
         0.00000E+00
         0.00000E+00
         0.00000E+00
         0.00000E+00
         0.00000E+00
         0.00000E+00
         0.00000E+00
         0.00000E+00
         0.00000E+00
         0.00000E+00
         0.00000E+00
         0.00000E+00
         0.00000E+00
         0.00000E+00
         0.00000E+00
         0.00000E+00
         0.00000E+00
         0.00000E+00
         0.00000E+00
         0.00000E+00
         0.00000E+00
         0.00000E+00
         0.00000E+00
         0.00000E+00
         0.00000E+00
         0.00000E+00
         0.00000E+00
         0.00000E+00
         0.00000E+00
         0.00000E+00
         0.00000E+00
         0.00000E+00
         0.00000E+00
         0.00000E+00
         0.00000E+00
         0.00000E+00
         0.00000E+00
         0.00000E+00
         0.00000E+00
         0.00000E+00
         0.00000E+00
         0.00000E+00
         0.00000E+00
         0.00000E+00
         0.00000E+00
         0.00000E+00
         0.00000E+00
         0.00000E+00
         0.00000E+00
         0.00000E+00
         0.00000E+00
         0.00000E+00
         0.00000E+00
         0.00000E+00
         0.00000E+00
         0.00000E+00
         0.00000E+00
         0.00000E+00
         0.00000E+00
         0.00000E+00
         0.00000E+00
         0.00000E+00
         0.00000E+00
         0.00000E+00
         0.00000E+00
         0.00000E+00
         0.00000E+00
         0.00000E+00
         0.00000E+00
         0.00000E+00
         0.00000E+00
         0.00000E+00
         0.00000E+00
         0.00000E+00
         0.00000E+00
         0.00000E+00
         0.00000E+00
         0.00000E+00
         0.00000E+00
         0.00000E+00
         0.00000E+00
         0.00000E+00
         0.00000E+00
         0.00000E+00
         0.00000E+00
         0.00000E+00
         0.00000E+00
         0.00000E+00
         0.00000E+00
         0.00000E+00
         0.00000E+00
         0.00000E+00
         0.00000E+00
         0.00000E+00
         0.00000E+00
         0.00000E+00
         0.00000E+00
         0.00000E+00
         0.00000E+00
         0.00000E+00
         0.00000E+00
         0.00000E+00
         0.00000E+00
         0.00000E+00
         0.00000E+00
         0.00000E+00
         0.00000E+00
         0.00000E+00
         0.00000E+00
         0.00000E+00
         0.00000E+00
         0.00000E+00
         0.00000E+00
         0.00000E+00
         0.00000E+00
         0.00000E+00
         0.00000E+00
         0.00000E+00
         0.00000E+00
         0.00000E+00
         0.00000E+00
         0.00000E+00
         0.00000E+00
         0.00000E+00
         0.00000E+00
         0.00000E+00
         0.00000E+00
         0.00000E+00
         0.00000E+00
         0.00000E+00
         0.00000E+00
         0.00000E+00
         0.00000E+00
         0.00000E+00
         0.00000E+00
         0.00000E+00
         0.00000E+00
         0.00000E+00
         0.00000E+00
         0.00000E+00
         0.00000E+00
         0.00000E+00
         0.00000E+00
         0.00000E+00
         0.00000E+00
         0.00000E+00
         0.00000E+00
         0.00000E+00
         0.00000E+00
         0.00000E+00
         0.00000E+00
         0.00000E+00
         0.00000E+00
         0.00000E+00
         0.00000E+00
         0.00000E+00
         0.00000E+00
         0.00000E+00
         0.00000E+00
         0.00000E+00
         0.00000E+00
         0.00000E+00
         0.00000E+00
         0.00000E+00
         0.00000E+00
         0.00000E+00
         0.00000E+00
         0.00000E+00
         0.00000E+00
         0.00000E+00
         0.00000E+00
         0.00000E+00
         0.00000E+00
         0.00000E+00
         0.00000E+00
         0.00000E+00
         0.00000E+00
         0.00000E+00
         0.00000E+00
         0.00000E+00
         0.00000E+00
         0.00000E+00
         0.00000E+00
         0.00000E+00
         0.00000E+00
         0.00000E+00
         0.00000E+00
         0.00000E+00
         0.00000E+00
         0.00000E+00
         0.00000E+00
         0.00000E+00
         0.00000E+00
         0.00000E+00
         0.00000E+00
         0.00000E+00
         0.00000E+00
         0.00000E+00
         0.00000E+00
         0.00000E+00
         0.00000E+00
         0.00000E+00
         0.00000E+00
         0.00000E+00
         0.00000E+00
         0.00000E+00
         0.00000E+00
         0.00000E+00
         0.00000E+00
         0.00000E+00
         0.00000E+00
         0.00000E+00
         0.00000E+00
         0.00000E+00
         0.00000E+00
         0.00000E+00
         0.00000E+00
         0.00000E+00
         0.00000E+00
         0.00000E+00
         0.00000E+00
         0.00000E+00
         0.00000E+00
         0.00000E+00
         0.00000E+00
         0.00000E+00
         0.00000E+00
         0.00000E+00
         0.00000E+00
         0.00000E+00
         0.00000E+00
         0.00000E+00
         0.00000E+00
         0.00000E+00
         0.00000E+00
         0.00000E+00
         0.00000E+00
         0.00000E+00
         0.00000E+00
         0.00000E+00
         0.00000E+00
         0.00000E+00
         0.00000E+00
         0.00000E+00
         0.00000E+00
         0.00000E+00
         0.00000E+00
         0.00000E+00
         0.00000E+00
         0.00000E+00
         0.00000E+00
         0.00000E+00
         0.00000E+00
         0.00000E+00
         0.00000E+00
         0.00000E+00
         0.00000E+00
         0.00000E+00
         0.00000E+00
         0.00000E+00
         0.00000E+00
         0.00000E+00
         0.00000E+00
         0.00000E+00
         0.00000E+00
         0.00000E+00
         0.00000E+00
         0.00000E+00
         0.00000E+00
         0.00000E+00
         0.00000E+00
         0.00000E+00
         0.00000E+00
         0.00000E+00
         0.00000E+00
         0.00000E+00
         0.00000E+00
         0.00000E+00
         0.00000E+00
         0.00000E+00
         0.00000E+00
         0.00000E+00
         0.00000E+00
         0.00000E+00
         0.00000E+00
         0.00000E+00
         0.00000E+00
         0.00000E+00
         0.00000E+00
         0.00000E+00
         0.00000E+00
         0.00000E+00
         0.00000E+00
         0.00000E+00
         0.00000E+00
         0.00000E+00
         0.00000E+00
         0.00000E+00
         0.00000E+00
         0.00000E+00
         0.00000E+00
         0.00000E+00
         0.00000E+00
         0.00000E+00
         0.00000E+00
         0.00000E+00
         0.00000E+00
         0.00000E+00
         0.00000E+00
         0.00000E+00
         0.00000E+00
         0.00000E+00
         0.00000E+00
         0.00000E+00
         0.00000E+00
         0.00000E+00
         0.00000E+00
         0.00000E+00
         0.00000E+00
         0.00000E+00
         0.00000E+00
         0.00000E+00
         0.00000E+00
         0.00000E+00
         0.00000E+00
         0.00000E+00
         0.00000E+00
         0.00000E+00
         0.00000E+00
         0.00000E+00
         0.00000E+00
         0.00000E+00
         0.00000E+00
         0.00000E+00
         0.00000E+00
         0.00000E+00
         0.00000E+00
         0.00000E+00
         0.00000E+00
         0.00000E+00
         0.00000E+00
         0.00000E+00
         0.00000E+00
         0.00000E+00
         0.00000E+00
         0.00000E+00
         0.00000E+00
         0.00000E+00
         0.00000E+00
         0.00000E+00
         0.00000E+00
         0.00000E+00
         0.00000E+00
         0.00000E+00
         0.00000E+00
         0.00000E+00
         0.00000E+00
         0.00000E+00
         0.00000E+00
         0.00000E+00
         0.00000E+00
         0.00000E+00
         0.00000E+00
         0.00000E+00
         0.00000E+00
         0.00000E+00
         0.00000E+00
         0.00000E+00
         0.00000E+00
         0.00000E+00
         0.00000E+00
         0.00000E+00
         0.00000E+00
         0.00000E+00
         0.00000E+00
         0.00000E+00
         0.00000E+00
         0.00000E+00
         0.00000E+00
         0.00000E+00
         0.00000E+00
         0.00000E+00
         0.00000E+00
         0.00000E+00
         0.00000E+00
         0.00000E+00
         0.00000E+00
         0.00000E+00
         0.00000E+00
         0.00000E+00
         0.00000E+00
         0.00000E+00
         0.00000E+00
         0.00000E+00
         0.00000E+00
         0.00000E+00
         0.00000E+00
         0.00000E+00
         0.00000E+00
         0.00000E+00
         0.00000E+00
         0.00000E+00
         0.00000E+00
         0.00000E+00
         0.00000E+00
         0.00000E+00
         0.00000E+00
         0.00000E+00
         0.00000E+00
         0.00000E+00
         0.00000E+00
         0.00000E+00
         0.00000E+00
         0.00000E+00
         0.00000E+00
         0.00000E+00
         0.00000E+00
         0.00000E+00
         0.00000E+00
         0.00000E+00
         0.00000E+00
         0.00000E+00
         0.00000E+00
         0.00000E+00
         0.00000E+00
         0.00000E+00
         0.00000E+00
         0.00000E+00
         0.00000E+00
         0.00000E+00
         0.00000E+00
         0.00000E+00
         0.00000E+00
         0.00000E+00
         0.00000E+00
         0.00000E+00
         0.00000E+00
         0.00000E+00
         0.00000E+00
         0.00000E+00
         0.00000E+00
         0.00000E+00
         0.00000E+00
         0.00000E+00
         0.00000E+00
         0.00000E+00
         0.00000E+00
         0.00000E+00
         0.00000E+00
         0.00000E+00
         0.00000E+00
         0.00000E+00
         0.00000E+00
         0.00000E+00
         0.00000E+00
         0.00000E+00
         0.00000E+00
         0.00000E+00
         0.00000E+00
         0.00000E+00
         0.00000E+00
         0.00000E+00
         0.00000E+00
         0.00000E+00
         0.00000E+00
         0.00000E+00
         0.00000E+00
         0.00000E+00
         0.00000E+00
         0.00000E+00
         0.00000E+00
         0.00000E+00
         0.00000E+00
         0.00000E+00
         0.00000E+00
         0.00000E+00
         0.00000E+00
         0.00000E+00
         0.00000E+00
         0.00000E+00
         0.00000E+00
         0.00000E+00
         0.00000E+00
         0.00000E+00
         0.00000E+00
         0.00000E+00
         0.00000E+00
         0.00000E+00
         0.00000E+00
         0.00000E+00
         0.00000E+00
         0.00000E+00
         0.00000E+00
         0.00000E+00
         0.00000E+00
         0.00000E+00
         0.00000E+00
         0.00000E+00
         0.00000E+00
         0.00000E+00
         0.00000E+00
         0.00000E+00
         0.00000E+00
         0.00000E+00
         0.00000E+00
         0.00000E+00
         0.00000E+00
         0.00000E+00
         0.00000E+00
         0.00000E+00
         0.00000E+00
         0.00000E+00
         0.00000E+00
         0.00000E+00
         0.00000E+00
         0.00000E+00
         0.00000E+00
         0.00000E+00
         0.00000E+00
         0.00000E+00
         0.00000E+00
         0.00000E+00
         0.00000E+00
         0.00000E+00
         0.00000E+00
         0.00000E+00
         0.00000E+00
         0.00000E+00
         0.00000E+00
         0.00000E+00
         0.00000E+00
         0.00000E+00
         0.00000E+00
         0.00000E+00
         0.00000E+00
         0.00000E+00
         0.00000E+00
         0.00000E+00
         0.00000E+00
         0.00000E+00
         0.00000E+00
         0.00000E+00
         0.00000E+00
         0.00000E+00
         0.00000E+00
         0.00000E+00
         0.00000E+00
         0.00000E+00
         0.00000E+00
         0.00000E+00
         0.00000E+00
         0.00000E+00
         0.00000E+00
         0.00000E+00
         0.00000E+00
         0.00000E+00
         0.00000E+00
         0.00000E+00
         0.00000E+00
         0.00000E+00
         0.00000E+00
         0.00000E+00
         0.00000E+00
         0.00000E+00
         0.00000E+00
         0.00000E+00
         0.00000E+00
         0.00000E+00
         0.00000E+00
         0.00000E+00
         0.00000E+00
         0.00000E+00
         0.00000E+00
         0.00000E+00
         0.00000E+00
         0.00000E+00
         0.00000E+00
         0.00000E+00
         0.00000E+00
         0.00000E+00
         0.00000E+00
         0.00000E+00
         0.00000E+00
         0.00000E+00
         0.00000E+00
         0.00000E+00
         0.00000E+00
         0.00000E+00
         0.00000E+00
         0.00000E+00
         0.00000E+00
         0.00000E+00
         0.00000E+00
         0.00000E+00
         0.00000E+00
         0.00000E+00
         0.00000E+00
         0.00000E+00
         0.00000E+00
         0.00000E+00
         0.00000E+00
         0.00000E+00
         0.00000E+00
         0.00000E+00
         0.00000E+00
         0.00000E+00
         0.00000E+00
         0.00000E+00
         0.00000E+00
         0.00000E+00
         0.00000E+00
         0.00000E+00
         0.00000E+00
         0.00000E+00
         0.00000E+00
         0.00000E+00
         0.00000E+00
         0.00000E+00
         0.00000E+00
         0.00000E+00
         0.00000E+00
         0.00000E+00
         0.00000E+00
         0.00000E+00
         0.00000E+00
         0.00000E+00
         0.00000E+00
         0.00000E+00
         0.00000E+00
         0.00000E+00
         0.00000E+00
         0.00000E+00
         0.00000E+00
         0.00000E+00
         0.00000E+00
         0.00000E+00
         0.00000E+00
         0.00000E+00
         0.00000E+00
         0.00000E+00
         0.00000E+00
         0.00000E+00
         0.00000E+00
         0.00000E+00
         0.00000E+00
         0.00000E+00
         0.00000E+00
         0.00000E+00
         0.00000E+00
         0.00000E+00
         0.00000E+00
         0.00000E+00
         0.00000E+00
         0.00000E+00
         0.00000E+00
         0.00000E+00
         0.00000E+00
         0.00000E+00
         0.00000E+00
         0.00000E+00
         0.00000E+00
         0.00000E+00
         0.00000E+00
         0.00000E+00
         0.00000E+00
         0.00000E+00
         0.00000E+00
         0.00000E+00
         0.00000E+00
         0.00000E+00
         0.00000E+00
         0.00000E+00
         0.00000E+00
         0.00000E+00
         0.00000E+00
         0.00000E+00
         0.00000E+00
         0.00000E+00
         0.00000E+00
         0.00000E+00
         0.00000E+00
         0.00000E+00
         0.00000E+00
         0.00000E+00
         0.00000E+00
         0.00000E+00
         0.00000E+00
         0.00000E+00
         0.00000E+00
         0.00000E+00
         0.00000E+00
         0.00000E+00
         0.00000E+00
         0.00000E+00
         0.00000E+00
         0.00000E+00
         0.00000E+00
         0.00000E+00
         0.00000E+00
         0.00000E+00
         0.00000E+00
         0.00000E+00
         0.00000E+00
         0.00000E+00
         0.00000E+00
         0.00000E+00
         0.00000E+00
         0.00000E+00
         0.00000E+00
         0.00000E+00
         0.00000E+00
         0.00000E+00
         0.00000E+00
         0.00000E+00
         0.00000E+00
         0.00000E+00
         0.00000E+00
         0.00000E+00
         0.00000E+00
         0.00000E+00
         0.00000E+00
         0.00000E+00
         0.00000E+00
         0.00000E+00
         0.00000E+00
         0.00000E+00
         0.00000E+00
         0.00000E+00
         0.00000E+00
         0.00000E+00
         0.00000E+00
         0.00000E+00
         0.00000E+00
         0.00000E+00
         0.00000E+00
         0.00000E+00
         0.00000E+00
         0.00000E+00
         0.00000E+00
         0.00000E+00
         0.00000E+00
         0.00000E+00
         0.00000E+00
         0.00000E+00
         0.00000E+00
         0.00000E+00
         0.00000E+00
         0.00000E+00
         0.00000E+00
         0.00000E+00
         0.00000E+00
         0.00000E+00
         0.00000E+00
         0.00000E+00
         0.00000E+00
         0.00000E+00
         0.00000E+00
         0.00000E+00
         0.00000E+00
         0.00000E+00
         0.00000E+00
         0.00000E+00
         0.00000E+00
         0.00000E+00
         0.00000E+00
         0.00000E+00
         0.00000E+00
         0.00000E+00
         0.00000E+00
         0.00000E+00
         0.00000E+00
         0.00000E+00
         0.00000E+00
         0.00000E+00
         0.00000E+00
         0.00000E+00
         0.00000E+00
         0.00000E+00
         0.00000E+00
         0.00000E+00
         0.00000E+00
         0.00000E+00
         0.00000E+00
         0.00000E+00
         0.00000E+00
         0.00000E+00
         0.00000E+00
         0.00000E+00
         0.00000E+00
         0.00000E+00
         0.00000E+00
         0.00000E+00
         0.00000E+00
         0.00000E+00
         0.00000E+00
         0.00000E+00
         0.00000E+00
         0.00000E+00
         0.00000E+00
         0.00000E+00
         0.00000E+00
         0.00000E+00
         0.00000E+00
         0.00000E+00
         0.00000E+00
         0.00000E+00
         0.00000E+00
         0.00000E+00
         0.00000E+00
         0.00000E+00
         0.00000E+00
         0.00000E+00
         0.00000E+00
         0.00000E+00
         0.00000E+00
         0.00000E+00
         0.00000E+00
         0.00000E+00
         0.00000E+00
         0.00000E+00
         0.00000E+00
         0.00000E+00
         0.00000E+00
         0.00000E+00
         0.00000E+00
         0.00000E+00
         0.00000E+00
         0.00000E+00
         0.00000E+00
         0.00000E+00
         0.00000E+00
         0.00000E+00
         0.00000E+00
         0.00000E+00
         0.00000E+00
         0.00000E+00
         0.00000E+00
         0.00000E+00
         0.00000E+00
         0.00000E+00
         0.00000E+00
         0.00000E+00
         0.00000E+00
         0.00000E+00
         0.00000E+00
         0.00000E+00
         0.00000E+00
         0.00000E+00
         0.00000E+00
         0.00000E+00
         0.00000E+00
         0.00000E+00
         0.00000E+00
         0.00000E+00
         0.00000E+00
         0.00000E+00
         0.00000E+00
         0.00000E+00
         0.00000E+00
         0.00000E+00
         0.00000E+00
         0.00000E+00
         0.00000E+00
         0.00000E+00
         0.00000E+00
         0.00000E+00
         0.00000E+00
         0.00000E+00
         0.00000E+00
         0.00000E+00
         0.00000E+00
         0.00000E+00
         0.00000E+00
         0.00000E+00
         0.00000E+00
         0.00000E+00
         0.00000E+00
         0.00000E+00
         0.00000E+00
         0.00000E+00
         0.00000E+00
         0.00000E+00
         0.00000E+00
         0.00000E+00
         0.00000E+00
         0.00000E+00
         0.00000E+00
         0.00000E+00
         0.00000E+00
         0.00000E+00
         0.00000E+00
         0.00000E+00
         0.00000E+00
         0.00000E+00
         0.00000E+00
         0.00000E+00
         0.00000E+00
         0.00000E+00
         0.00000E+00
         0.00000E+00
         0.00000E+00
         0.00000E+00
         0.00000E+00
         0.00000E+00
         0.00000E+00
         0.00000E+00
         0.00000E+00
         0.00000E+00
         0.00000E+00
         0.00000E+00
         0.00000E+00
         0.00000E+00
         0.00000E+00
         0.00000E+00
         0.00000E+00
         0.00000E+00
         0.00000E+00
         0.00000E+00
         0.00000E+00
         0.00000E+00
         0.00000E+00
         0.00000E+00
         0.00000E+00
         0.00000E+00
         0.00000E+00
         0.00000E+00
         0.00000E+00
         0.00000E+00
         0.00000E+00
         0.00000E+00
         0.00000E+00
         0.00000E+00
         0.00000E+00
         0.00000E+00
         0.00000E+00
         0.00000E+00
         0.00000E+00
         0.00000E+00
         0.00000E+00
         0.00000E+00
         0.00000E+00
         0.00000E+00
         0.00000E+00
         0.00000E+00
         0.00000E+00
         0.00000E+00
         0.00000E+00
         0.00000E+00
         0.00000E+00
         0.00000E+00
         0.00000E+00
         0.00000E+00
         0.00000E+00
         0.00000E+00
         0.00000E+00
         0.00000E+00
         0.00000E+00
         0.00000E+00
         0.00000E+00
         0.00000E+00
         0.00000E+00
         0.00000E+00
         0.00000E+00
         0.00000E+00
         0.00000E+00
         0.00000E+00
         0.00000E+00
         0.00000E+00
         0.00000E+00
         0.00000E+00
         0.00000E+00
         0.00000E+00
         0.00000E+00
         0.00000E+00
         0.00000E+00
         0.00000E+00
         0.00000E+00
         0.00000E+00
         0.00000E+00
         0.00000E+00
         0.00000E+00
         0.00000E+00
         0.00000E+00
         0.00000E+00
         0.00000E+00
         0.00000E+00
         0.00000E+00
         0.00000E+00
         0.00000E+00
         0.00000E+00
         0.00000E+00
         0.00000E+00
         0.00000E+00
         0.00000E+00
         0.00000E+00
         0.00000E+00
         0.00000E+00
         0.00000E+00
         0.00000E+00
         0.00000E+00
         0.00000E+00
         0.00000E+00
         0.00000E+00
         0.00000E+00
         0.00000E+00
         0.00000E+00
         0.00000E+00
         0.00000E+00
         0.00000E+00
         0.00000E+00
         0.00000E+00
         0.00000E+00
         0.00000E+00
         0.00000E+00
         0.00000E+00
         0.00000E+00
         0.00000E+00
         0.00000E+00
         0.00000E+00
         0.00000E+00
         0.00000E+00
         0.00000E+00
         0.00000E+00
         0.00000E+00
         0.00000E+00
         0.00000E+00
         0.00000E+00
         0.00000E+00
         0.00000E+00
         0.00000E+00
         0.00000E+00
         0.00000E+00
         0.00000E+00
         0.00000E+00
         0.00000E+00
         0.00000E+00
         0.00000E+00
         0.00000E+00
         0.00000E+00
         0.00000E+00
         0.00000E+00
         0.00000E+00
         0.00000E+00
         0.00000E+00
         0.00000E+00
         0.00000E+00
         0.00000E+00
         0.00000E+00
         0.00000E+00
         0.00000E+00
         0.00000E+00
         0.00000E+00
         0.00000E+00
         0.00000E+00
         0.00000E+00
         0.00000E+00
         0.00000E+00
         0.00000E+00
         0.00000E+00
         0.00000E+00
         0.00000E+00
         0.00000E+00
         0.00000E+00
         0.00000E+00
         0.00000E+00
         0.00000E+00
         0.00000E+00
         0.00000E+00
         0.00000E+00
         0.00000E+00
         0.00000E+00
         0.00000E+00
         0.00000E+00
         0.00000E+00
         0.00000E+00
         0.00000E+00
         0.00000E+00
         0.00000E+00
         0.00000E+00
         0.00000E+00
         0.00000E+00
         0.00000E+00
         0.00000E+00
         0.00000E+00
         0.00000E+00
         0.00000E+00
         0.00000E+00
         0.00000E+00
         0.00000E+00
         0.00000E+00
         0.00000E+00
         0.00000E+00
         0.00000E+00
         0.00000E+00
         0.00000E+00
         0.00000E+00
         0.00000E+00
         0.00000E+00
         0.00000E+00
         0.00000E+00
         0.00000E+00
         0.00000E+00
         0.00000E+00
         0.00000E+00
         0.00000E+00
         0.00000E+00
         0.00000E+00
         0.00000E+00
         0.00000E+00
         0.00000E+00
         0.00000E+00
         0.00000E+00
         0.00000E+00
         0.00000E+00
         0.00000E+00
         0.00000E+00
         0.00000E+00
         0.00000E+00
         0.00000E+00
         0.00000E+00
         0.00000E+00
         0.00000E+00
         0.00000E+00
         0.00000E+00
         0.00000E+00
         0.00000E+00
         0.00000E+00
         0.00000E+00
         0.00000E+00
         0.00000E+00
         0.00000E+00
         0.00000E+00
         0.00000E+00
         0.00000E+00
         0.00000E+00
         0.00000E+00
         0.00000E+00
         0.00000E+00
         0.00000E+00
         0.00000E+00
         0.00000E+00
         0.00000E+00
         0.00000E+00
         0.00000E+00
         0.00000E+00
         0.00000E+00
         0.00000E+00
         0.00000E+00
         0.00000E+00
         0.00000E+00
         0.00000E+00
         0.00000E+00
         0.00000E+00
         0.00000E+00
         0.00000E+00
         0.00000E+00
         0.00000E+00
         0.00000E+00
         0.00000E+00
         0.00000E+00
         0.00000E+00
         0.00000E+00
         0.00000E+00
         0.00000E+00
         0.00000E+00
         0.00000E+00
         0.00000E+00
         0.00000E+00
         0.00000E+00
         0.00000E+00
         0.00000E+00
         0.00000E+00
         0.00000E+00
         0.00000E+00
         0.00000E+00
         0.00000E+00
         0.00000E+00
         0.00000E+00
         0.00000E+00
         0.00000E+00
         0.00000E+00
         0.00000E+00
         0.00000E+00
         0.00000E+00
         0.00000E+00
         0.00000E+00
         0.00000E+00
         0.00000E+00
         0.00000E+00
         0.00000E+00
         0.00000E+00
         0.00000E+00
         0.00000E+00
         0.00000E+00
         0.00000E+00
         0.00000E+00
         0.00000E+00
         0.00000E+00
         0.00000E+00
         0.00000E+00
         0.00000E+00
         0.00000E+00
         0.00000E+00
         0.00000E+00
         0.00000E+00
         0.00000E+00
         0.00000E+00
         0.00000E+00
         0.00000E+00
         0.00000E+00
         0.00000E+00
         0.00000E+00
         0.00000E+00
         0.00000E+00
         0.00000E+00
         0.00000E+00
         0.00000E+00
         0.00000E+00
         0.00000E+00
         0.00000E+00
         0.00000E+00
         0.00000E+00
         0.00000E+00
         0.00000E+00
         0.00000E+00
         0.00000E+00
         0.00000E+00
         0.00000E+00
         0.00000E+00
         0.00000E+00
         0.00000E+00
         0.00000E+00
         0.00000E+00
         0.00000E+00
         0.00000E+00
         0.00000E+00
         0.00000E+00
         0.00000E+00
         0.00000E+00
         0.00000E+00
         0.00000E+00
         0.00000E+00
         0.00000E+00
         0.00000E+00
         0.00000E+00
         0.00000E+00
         0.00000E+00
         0.00000E+00
         0.00000E+00
         0.00000E+00
         0.00000E+00
         0.00000E+00
         0.00000E+00
         0.00000E+00
         0.00000E+00
         0.00000E+00
         0.00000E+00
         0.00000E+00
         0.00000E+00
         0.00000E+00
         0.00000E+00
         0.00000E+00
         0.00000E+00
         0.00000E+00
         0.00000E+00
         0.00000E+00
         0.00000E+00
         0.00000E+00
         0.00000E+00
         0.00000E+00
         0.00000E+00
         0.00000E+00
         0.00000E+00
         0.00000E+00
         0.00000E+00
         0.00000E+00
         0.00000E+00
         0.00000E+00
         0.00000E+00
         0.00000E+00
         0.00000E+00
         0.00000E+00
         0.00000E+00
         0.00000E+00
         0.00000E+00
         0.00000E+00
         0.00000E+00
         0.00000E+00
         0.00000E+00
         0.00000E+00
         0.00000E+00
         0.00000E+00
         0.00000E+00
         0.00000E+00
         0.00000E+00
         0.00000E+00
         0.00000E+00
         0.00000E+00
         0.00000E+00
         0.00000E+00
         0.00000E+00
         0.00000E+00
         0.00000E+00
         0.00000E+00
         0.00000E+00
         0.00000E+00
         0.00000E+00
         0.00000E+00
         0.00000E+00
         0.00000E+00
         0.00000E+00
         0.00000E+00
         0.00000E+00
         0.00000E+00
         0.00000E+00
         0.00000E+00
         0.00000E+00
         0.00000E+00
         0.00000E+00
         0.00000E+00
         0.00000E+00
         0.00000E+00
         0.00000E+00
         0.00000E+00
         0.00000E+00
         0.00000E+00
         0.00000E+00
         0.00000E+00
         0.00000E+00
         0.00000E+00
         0.00000E+00
         0.00000E+00
         0.00000E+00
         0.00000E+00
         0.00000E+00
         0.00000E+00
         0.00000E+00
         0.00000E+00
         0.00000E+00
         0.00000E+00
         0.00000E+00
         0.00000E+00
         0.00000E+00
         0.00000E+00
         0.00000E+00
         0.00000E+00
         0.00000E+00
         0.00000E+00
         0.00000E+00
         0.00000E+00
         0.00000E+00
         0.00000E+00
         0.00000E+00
         0.00000E+00
         0.00000E+00
         0.00000E+00
         0.00000E+00
         0.00000E+00
         0.00000E+00
         0.00000E+00
         0.00000E+00
         0.00000E+00
         0.00000E+00
         0.00000E+00
         0.00000E+00
         0.00000E+00
         0.00000E+00
         0.00000E+00
         0.00000E+00
         0.00000E+00
         0.00000E+00
         0.00000E+00
         0.00000E+00
         0.00000E+00
         0.00000E+00
         0.00000E+00
         0.00000E+00
         0.00000E+00
         0.00000E+00
         0.00000E+00
         0.00000E+00
         0.00000E+00
         0.00000E+00
         0.00000E+00
         0.00000E+00
         0.00000E+00
         0.00000E+00
         0.00000E+00
         0.00000E+00
         0.00000E+00
         0.00000E+00
         0.00000E+00
         0.00000E+00
         0.00000E+00
         0.00000E+00
         0.00000E+00
         0.00000E+00
         0.00000E+00
         0.00000E+00
         0.00000E+00
         0.00000E+00
         0.00000E+00
         0.00000E+00
         0.00000E+00
         0.00000E+00
         0.00000E+00
         0.00000E+00
         0.00000E+00
         0.00000E+00
         0.00000E+00
         0.00000E+00
         0.00000E+00
         0.00000E+00
         0.00000E+00
         0.00000E+00
         0.00000E+00
         0.00000E+00
         0.00000E+00
         0.00000E+00
         0.00000E+00
         0.00000E+00
         0.00000E+00
         0.00000E+00
         0.00000E+00
         0.00000E+00
         0.00000E+00
         0.00000E+00
         0.00000E+00
         0.00000E+00
         0.00000E+00
         0.00000E+00
         0.00000E+00
         0.00000E+00
         0.00000E+00
         0.00000E+00
         0.00000E+00
         0.00000E+00
         0.00000E+00
         0.00000E+00
         0.00000E+00
         0.00000E+00
         0.00000E+00
         0.00000E+00
         0.00000E+00
         0.00000E+00
         0.00000E+00
         0.00000E+00
         0.00000E+00
         0.00000E+00
         0.00000E+00
         0.00000E+00
         0.00000E+00
         0.00000E+00
         0.00000E+00
         0.00000E+00
         0.00000E+00
         0.00000E+00
         0.00000E+00
         0.00000E+00
         0.00000E+00
         0.00000E+00
         0.00000E+00
         0.00000E+00
         0.00000E+00
         0.00000E+00
         0.00000E+00
         0.00000E+00
         0.00000E+00
         0.00000E+00
         0.00000E+00
         0.00000E+00
         0.00000E+00
         0.00000E+00
         0.00000E+00
         0.00000E+00
         0.00000E+00
         0.00000E+00
         0.00000E+00
         0.00000E+00
         0.00000E+00
         0.00000E+00
         0.00000E+00
         0.00000E+00
         0.00000E+00
         0.00000E+00
         0.00000E+00
         0.00000E+00
         0.00000E+00
         0.00000E+00
         0.00000E+00
         0.00000E+00
         0.00000E+00
         0.00000E+00
         0.00000E+00
         0.00000E+00
         0.00000E+00
         0.00000E+00
         0.00000E+00
         0.00000E+00
         0.00000E+00
         0.00000E+00
         0.00000E+00
         0.00000E+00
         0.00000E+00
         0.00000E+00
         0.00000E+00
         0.00000E+00
         0.00000E+00
         0.00000E+00
         0.00000E+00
         0.00000E+00
         0.00000E+00
         0.00000E+00
         0.00000E+00
         0.00000E+00
         0.00000E+00
         0.00000E+00
         0.00000E+00
         0.00000E+00
         0.00000E+00
         0.00000E+00
         0.00000E+00
         0.00000E+00
         0.00000E+00
         0.00000E+00
         0.00000E+00
         0.00000E+00
         0.00000E+00
         0.00000E+00
         0.00000E+00
         0.00000E+00
         0.00000E+00
         0.00000E+00
         0.00000E+00
         0.00000E+00
         0.00000E+00
         0.00000E+00
         0.00000E+00
         0.00000E+00
         0.00000E+00
         0.00000E+00
         0.00000E+00
         0.00000E+00
         0.00000E+00
         0.00000E+00
         0.00000E+00
         0.00000E+00
         0.00000E+00
         0.00000E+00
         0.00000E+00
         0.00000E+00
         0.00000E+00
         0.00000E+00
         0.00000E+00
         0.00000E+00
         0.00000E+00
         0.00000E+00
         0.00000E+00
         0.00000E+00
         0.00000E+00
         0.00000E+00
         0.00000E+00
         0.00000E+00
         0.00000E+00
         0.00000E+00
         0.00000E+00
         0.00000E+00
         0.00000E+00
         0.00000E+00
         0.00000E+00
         0.00000E+00
         0.00000E+00
         0.00000E+00
         0.00000E+00
         0.00000E+00
         0.00000E+00
         0.00000E+00
         0.00000E+00
         0.00000E+00
         0.00000E+00
         0.00000E+00
         0.00000E+00
         0.00000E+00
         0.00000E+00
         0.00000E+00
         0.00000E+00
         0.00000E+00
         0.00000E+00
         0.00000E+00
         0.00000E+00
         0.00000E+00
         0.00000E+00
         0.00000E+00
         0.00000E+00
         0.00000E+00
         0.00000E+00
         0.00000E+00
         0.00000E+00
         0.00000E+00
         0.00000E+00
         0.00000E+00
         0.00000E+00
         0.00000E+00
         0.00000E+00
         0.00000E+00
         0.00000E+00
         0.00000E+00
         0.00000E+00
         0.00000E+00
         0.00000E+00
         0.00000E+00
         0.00000E+00
         0.00000E+00
         0.00000E+00
         0.00000E+00
         0.00000E+00
         0.00000E+00
         0.00000E+00
         0.00000E+00
         0.00000E+00
         0.00000E+00
         0.00000E+00
         0.00000E+00
         0.00000E+00
         0.00000E+00
         0.00000E+00
         0.00000E+00
         0.00000E+00
         0.00000E+00
         0.00000E+00
         0.00000E+00
         0.00000E+00
         0.00000E+00
         0.00000E+00
         0.00000E+00
         0.00000E+00
         0.00000E+00
         0.00000E+00
         0.00000E+00
         0.00000E+00
         0.00000E+00
         0.00000E+00
         0.00000E+00
         0.00000E+00
         0.00000E+00
         0.00000E+00
         0.00000E+00
         0.00000E+00
         0.00000E+00
         0.00000E+00
         0.00000E+00
         0.00000E+00
         0.00000E+00
         0.00000E+00
         0.00000E+00
         0.00000E+00
         0.00000E+00
         0.00000E+00
         0.00000E+00
         0.00000E+00
         0.00000E+00
         0.00000E+00
  
SCALARS                            eps  double 1
LOOKUP_TABLE default
         0.10215E+02
         0.10089E+02
         0.10169E+02
         0.10311E+02
         0.00000E+00
         0.00000E+00
         0.00000E+00
         0.00000E+00
         0.10086E+02
         0.10128E+02
         0.00000E+00
         0.00000E+00
         0.99077E+01
         0.99010E+01
         0.00000E+00
         0.00000E+00
         0.10291E+02
         0.99109E+01
         0.00000E+00
         0.00000E+00
         0.97710E+01
         0.96628E+01
         0.98356E+01
         0.00000E+00
         0.00000E+00
         0.00000E+00
         0.96667E+01
         0.95082E+01
         0.00000E+00
         0.00000E+00
         0.10284E+02
         0.10119E+02
         0.10444E+02
         0.00000E+00
         0.00000E+00
         0.00000E+00
         0.10188E+02
         0.99777E+01
         0.00000E+00
         0.00000E+00
         0.10105E+02
         0.99427E+01
         0.00000E+00
         0.00000E+00
         0.10243E+02
         0.10303E+02
         0.00000E+00
         0.00000E+00
         0.98119E+01
         0.00000E+00
         0.10291E+02
         0.00000E+00
         0.96209E+01
         0.00000E+00
         0.95710E+01
         0.00000E+00
         0.95720E+01
         0.97490E+01
         0.00000E+00
         0.00000E+00
         0.10280E+02
         0.10217E+02
         0.00000E+00
         0.00000E+00
         0.10320E+02
         0.00000E+00
         0.10245E+02
         0.00000E+00
         0.10047E+02
         0.10027E+02
         0.00000E+00
         0.00000E+00
         0.99816E+01
         0.00000E+00
         0.94519E+01
         0.00000E+00
         0.94242E+01
         0.00000E+00
         0.94384E+01
         0.00000E+00
         0.95161E+01
         0.95951E+01
         0.00000E+00
         0.00000E+00
         0.97552E+01
         0.00000E+00
         0.10239E+02
         0.00000E+00
         0.10164E+02
         0.00000E+00
         0.10103E+02
         0.10068E+02
         0.00000E+00
         0.00000E+00
         0.10110E+02
         0.00000E+00
         0.10140E+02
         0.00000E+00
         0.10113E+02
         0.00000E+00
         0.10104E+02
         0.10131E+02
         0.00000E+00
         0.00000E+00
         0.99581E+01
         0.10031E+02
         0.00000E+00
         0.00000E+00
         0.99456E+01
         0.00000E+00
         0.10029E+02
         0.00000E+00
         0.99474E+01
         0.00000E+00
         0.97671E+01
         0.00000E+00
         0.95928E+01
         0.00000E+00
         0.94878E+01
         0.00000E+00
         0.94771E+01
         0.00000E+00
         0.94803E+01
         0.00000E+00
         0.95939E+01
         0.00000E+00
         0.98079E+01
         0.00000E+00
         0.10042E+02
         0.00000E+00
         0.10177E+02
         0.00000E+00
         0.10312E+02
         0.00000E+00
         0.10401E+02
         0.00000E+00
         0.10398E+02
         0.00000E+00
         0.10180E+02
         0.00000E+00
         0.10028E+02
         0.00000E+00
         0.99776E+01
         0.00000E+00
         0.10060E+02
         0.00000E+00
         0.10101E+02
         0.00000E+00
         0.10029E+02
         0.00000E+00
         0.10029E+02
         0.00000E+00
         0.10083E+02
         0.00000E+00
         0.10154E+02
         0.00000E+00
         0.33178E+00
         0.33513E+00
         0.33465E+00
         0.33042E+00
         0.33875E+00
         0.33429E+00
         0.33983E+00
         0.33684E+00
         0.33106E+00
         0.33455E+00
         0.34329E+00
         0.34450E+00
         0.34159E+00
         0.34131E+00
         0.34327E+00
         0.33061E+00
         0.33136E+00
         0.32931E+00
         0.33551E+00
         0.33429E+00
         0.33612E+00
         0.33496E+00
         0.33715E+00
         0.33649E+00
         0.33440E+00
         0.33453E+00
         0.33821E+00
         0.33786E+00
         0.34079E+00
         0.33645E+00
         0.33098E+00
         0.33518E+00
         0.33100E+00
         0.33370E+00
         0.34526E+00
         0.34122E+00
         0.33943E+00
         0.34160E+00
         0.34186E+00
         0.34552E+00
         0.34842E+00
         0.34172E+00
         0.33607E+00
         0.33676E+00
         0.33962E+00
         0.34513E+00
         0.34036E+00
         0.33578E+00
         0.33608E+00
         0.33961E+00
         0.34356E+00
         0.33833E+00
         0.35664E+00
         0.35117E+00
         0.35215E+00
         0.35097E+00
         0.35143E+00
         0.35459E+00
         0.35768E+00
         0.35849E+00
         0.35797E+00
         0.35839E+00
         0.35970E+00
         0.35159E+00
         0.34847E+00
         0.34730E+00
         0.34564E+00
         0.34443E+00
         0.34458E+00
         0.34691E+00
         0.35484E+00
         0.35296E+00
         0.35005E+00
         0.34997E+00
         0.35047E+00
         0.35310E+00
         0.34923E+00
         0.34789E+00
         0.73157E-02
         0.31344E-02
         0.27787E-02
         0.92670E-03
         0.77203E-02
         0.43585E-02
         0.18424E-03
         0.71424E-02
         0.32933E-02
         0.65462E-02
         0.15828E-02
         0.17316E-01
         0.12359E-01
         0.45831E-02
         0.18293E-01
         0.44484E-02
         0.71392E-03
         0.00000E+00
         0.19717E-02
         0.00000E+00
         0.12915E-01
         0.11915E-01
         0.11518E-01
         0.67191E-03
         0.31053E-02
         0.00000E+00
         0.41458E-02
         0.00000E+00
         0.00000E+00
         0.36339E-02
         0.33417E-02
         0.32110E-03
         0.10658E-02
         0.50374E-03
         0.10922E-01
         0.52516E-02
         0.77346E-02
         0.14309E-01
         0.10256E-01
         0.93221E-02
         0.14606E-01
         0.12934E-01
         0.13042E-01
         0.93641E-02
         0.80188E-02
         0.12157E-01
         0.68613E-02
         0.53587E-02
         0.38655E-02
         0.51353E-02
         0.10425E-01
         0.61535E-02
         0.57162E-01
         0.58617E-01
         0.61437E-01
         0.60965E-01
         0.65231E-01
         0.70310E-01
         0.67319E-01
         0.59453E-01
         0.57844E-01
         0.62162E-01
         0.60850E-01
         0.59972E-01
         0.48950E-01
         0.46357E-01
         0.51279E-01
         0.55182E-01
         0.57402E-01
         0.63022E-01
         0.60482E-01
         0.62218E-01
         0.55661E-01
         0.52667E-01
         0.56407E-01
         0.55061E-01
         0.56766E-01
         0.56257E-01
         0.73236E-02
         0.31358E-02
         0.27821E-02
         0.93247E-03
         0.77154E-02
         0.43541E-02
         0.19418E-03
         0.71524E-02
         0.33044E-02
         0.65748E-02
         0.15827E-02
         0.17315E-01
         0.12365E-01
         0.45649E-02
         0.18315E-01
         0.44545E-02
         0.72460E-03
         0.00000E+00
         0.19747E-02
         0.00000E+00
         0.12916E-01
         0.11914E-01
         0.11518E-01
         0.67181E-03
         0.31321E-02
         0.00000E+00
         0.41482E-02
         0.00000E+00
         0.00000E+00
         0.36458E-02
         0.33479E-02
         0.31999E-03
         0.10587E-02
         0.50702E-03
         0.10928E-01
         0.52492E-02
         0.77321E-02
         0.14337E-01
         0.10286E-01
         0.93395E-02
         0.14618E-01
         0.12943E-01
         0.13044E-01
         0.93638E-02
         0.80165E-02
         0.12156E-01
         0.68615E-02
         0.53582E-02
         0.38555E-02
         0.51239E-02
         0.10418E-01
         0.61391E-02
         0.57140E-01
         0.58602E-01
         0.61436E-01
         0.60965E-01
         0.65219E-01
         0.70285E-01
         0.67289E-01
         0.59436E-01
         0.57828E-01
         0.62143E-01
         0.60839E-01
         0.59974E-01
         0.48945E-01
         0.46355E-01
         0.51285E-01
         0.55196E-01
         0.57417E-01
         0.63036E-01
         0.60478E-01
         0.62214E-01
         0.55655E-01
         0.52663E-01
         0.56386E-01
         0.55023E-01
         0.56732E-01
         0.56225E-01
         0.73316E-02
         0.31372E-02
         0.27854E-02
         0.93828E-03
         0.77104E-02
         0.43500E-02
         0.20416E-03
         0.71624E-02
         0.33156E-02
         0.66033E-02
         0.15826E-02
         0.17315E-01
         0.12371E-01
         0.45468E-02
         0.18337E-01
         0.44607E-02
         0.73546E-03
         0.00000E+00
         0.19777E-02
         0.00000E+00
         0.12918E-01
         0.11913E-01
         0.11517E-01
         0.67164E-03
         0.31587E-02
         0.00000E+00
         0.41506E-02
         0.00000E+00
         0.00000E+00
         0.36574E-02
         0.33543E-02
         0.31888E-03
         0.10517E-02
         0.51027E-03
         0.10935E-01
         0.52471E-02
         0.77295E-02
         0.14364E-01
         0.10316E-01
         0.93570E-02
         0.14630E-01
         0.12951E-01
         0.13046E-01
         0.93642E-02
         0.80147E-02
         0.12156E-01
         0.68616E-02
         0.53576E-02
         0.38456E-02
         0.51125E-02
         0.10410E-01
         0.61248E-02
         0.57118E-01
         0.58587E-01
         0.61436E-01
         0.60966E-01
         0.65208E-01
         0.70260E-01
         0.67260E-01
         0.59419E-01
         0.57813E-01
         0.62123E-01
         0.60828E-01
         0.59976E-01
         0.48940E-01
         0.46353E-01
         0.51291E-01
         0.55210E-01
         0.57433E-01
         0.63050E-01
         0.60474E-01
         0.62211E-01
         0.55648E-01
         0.52660E-01
         0.56366E-01
         0.54985E-01
         0.56698E-01
         0.56194E-01
         0.73396E-02
         0.31387E-02
         0.27888E-02
         0.94409E-03
         0.77054E-02
         0.43457E-02
         0.21423E-03
         0.71722E-02
         0.33267E-02
         0.66311E-02
         0.15827E-02
         0.17314E-01
         0.12378E-01
         0.45287E-02
         0.18360E-01
         0.44675E-02
         0.74675E-03
         0.00000E+00
         0.19809E-02
         0.00000E+00
         0.12920E-01
         0.11912E-01
         0.11517E-01
         0.67126E-03
         0.31848E-02
         0.00000E+00
         0.41526E-02
         0.00000E+00
         0.00000E+00
         0.36678E-02
         0.33609E-02
         0.31803E-03
         0.10446E-02
         0.51355E-03
         0.10941E-01
         0.52447E-02
         0.77269E-02
         0.14391E-01
         0.10347E-01
         0.93755E-02
         0.14643E-01
         0.12960E-01
         0.13049E-01
         0.93655E-02
         0.80134E-02
         0.12156E-01
         0.68623E-02
         0.53571E-02
         0.38357E-02
         0.51011E-02
         0.10402E-01
         0.61104E-02
         0.57096E-01
         0.58572E-01
         0.61436E-01
         0.60966E-01
         0.65197E-01
         0.70235E-01
         0.67230E-01
         0.59403E-01
         0.57797E-01
         0.62103E-01
         0.60817E-01
         0.59979E-01
         0.48937E-01
         0.46351E-01
         0.51299E-01
         0.55227E-01
         0.57451E-01
         0.63066E-01
         0.60471E-01
         0.62207E-01
         0.55642E-01
         0.52656E-01
         0.56345E-01
         0.54946E-01
         0.56664E-01
         0.56162E-01
         0.73475E-02
         0.31401E-02
         0.27922E-02
         0.94989E-03
         0.77005E-02
         0.43414E-02
         0.22422E-03
         0.71820E-02
         0.33377E-02
         0.66583E-02
         0.15828E-02
         0.17313E-01
         0.12384E-01
         0.45106E-02
         0.18382E-01
         0.44749E-02
         0.75845E-03
         0.00000E+00
         0.19843E-02
         0.00000E+00
         0.12922E-01
         0.11912E-01
         0.11518E-01
         0.67069E-03
         0.32103E-02
         0.00000E+00
         0.41543E-02
         0.00000E+00
         0.00000E+00
         0.36772E-02
         0.33677E-02
         0.31728E-03
         0.10375E-02
         0.51681E-03
         0.10947E-01
         0.52424E-02
         0.77245E-02
         0.14419E-01
         0.10379E-01
         0.93948E-02
         0.14656E-01
         0.12970E-01
         0.13053E-01
         0.93682E-02
         0.80129E-02
         0.12156E-01
         0.68636E-02
         0.53570E-02
         0.38259E-02
         0.50895E-02
         0.10395E-01
         0.60961E-02
         0.57074E-01
         0.58557E-01
         0.61435E-01
         0.60966E-01
         0.65185E-01
         0.70210E-01
         0.67200E-01
         0.59386E-01
         0.57782E-01
         0.62083E-01
         0.60807E-01
         0.59983E-01
         0.48934E-01
         0.46350E-01
         0.51307E-01
         0.55246E-01
         0.57472E-01
         0.63082E-01
         0.60468E-01
         0.62203E-01
         0.55635E-01
         0.52653E-01
         0.56325E-01
         0.54908E-01
         0.56630E-01
         0.56130E-01
         0.73550E-02
         0.31411E-02
         0.27954E-02
         0.95569E-03
         0.76956E-02
         0.43371E-02
         0.23395E-03
         0.71911E-02
         0.33488E-02
         0.66848E-02
         0.15833E-02
         0.17313E-01
         0.12390E-01
         0.44925E-02
         0.18404E-01
         0.44824E-02
         0.77022E-03
         0.00000E+00
         0.19876E-02
         0.00000E+00
         0.12925E-01
         0.11912E-01
         0.11519E-01
         0.67010E-03
         0.32352E-02
         0.00000E+00
         0.41560E-02
         0.00000E+00
         0.00000E+00
         0.36864E-02
         0.33744E-02
         0.31629E-03
         0.10304E-02
         0.52009E-03
         0.10954E-01
         0.52405E-02
         0.77223E-02
         0.14447E-01
         0.10411E-01
         0.94146E-02
         0.14670E-01
         0.12979E-01
         0.13057E-01
         0.93713E-02
         0.80133E-02
         0.12158E-01
         0.68650E-02
         0.53572E-02
         0.38166E-02
         0.50783E-02
         0.10388E-01
         0.60820E-02
         0.57052E-01
         0.58542E-01
         0.61435E-01
         0.60967E-01
         0.65174E-01
         0.70185E-01
         0.67170E-01
         0.59369E-01
         0.57766E-01
         0.62063E-01
         0.60796E-01
         0.59988E-01
         0.48933E-01
         0.46349E-01
         0.51315E-01
         0.55265E-01
         0.57493E-01
         0.63098E-01
         0.60464E-01
         0.62199E-01
         0.55629E-01
         0.52649E-01
         0.56304E-01
         0.54870E-01
         0.56596E-01
         0.56098E-01
         0.73619E-02
         0.31413E-02
         0.27985E-02
         0.96156E-03
         0.76909E-02
         0.43330E-02
         0.24334E-03
         0.71988E-02
         0.33601E-02
         0.67101E-02
         0.15845E-02
         0.17313E-01
         0.12397E-01
         0.44747E-02
         0.18427E-01
         0.44900E-02
         0.78178E-03
         0.00000E+00
         0.19911E-02
         0.00000E+00
         0.12928E-01
         0.11912E-01
         0.11521E-01
         0.66964E-03
         0.32593E-02
         0.00000E+00
         0.41579E-02
         0.00000E+00
         0.00000E+00
         0.36954E-02
         0.33806E-02
         0.31463E-03
         0.10232E-02
         0.52323E-03
         0.10960E-01
         0.52389E-02
         0.77204E-02
         0.14475E-01
         0.10443E-01
         0.94345E-02
         0.14685E-01
         0.12989E-01
         0.13061E-01
         0.93745E-02
         0.80140E-02
         0.12160E-01
         0.68672E-02
         0.53582E-02
         0.38086E-02
         0.50677E-02
         0.10381E-01
         0.60680E-02
         0.57030E-01
         0.58528E-01
         0.61434E-01
         0.60967E-01
         0.65163E-01
         0.70160E-01
         0.67140E-01
         0.59352E-01
         0.57751E-01
         0.62043E-01
         0.60786E-01
         0.59992E-01
         0.48931E-01
         0.46348E-01
         0.51323E-01
         0.55285E-01
         0.57514E-01
         0.63114E-01
         0.60460E-01
         0.62195E-01
         0.55624E-01
         0.52646E-01
         0.56284E-01
         0.54831E-01
         0.56563E-01
         0.56067E-01
         0.73685E-02
         0.31413E-02
         0.28016E-02
         0.96741E-03
         0.76864E-02
         0.43287E-02
         0.25242E-03
         0.72059E-02
         0.33716E-02
         0.67349E-02
         0.15861E-02
         0.17313E-01
         0.12404E-01
         0.44568E-02
         0.18450E-01
         0.44976E-02
         0.79323E-03
         0.00000E+00
         0.19945E-02
         0.00000E+00
         0.12931E-01
         0.11912E-01
         0.11523E-01
         0.66915E-03
         0.32831E-02
         0.00000E+00
         0.41599E-02
         0.00000E+00
         0.00000E+00
         0.37045E-02
         0.33866E-02
         0.31258E-03
         0.10161E-02
         0.52637E-03
         0.10967E-01
         0.52376E-02
         0.77190E-02
         0.14503E-01
         0.10475E-01
         0.94546E-02
         0.14699E-01
         0.12999E-01
         0.13065E-01
         0.93780E-02
         0.80151E-02
         0.12162E-01
         0.68696E-02
         0.53595E-02
         0.38012E-02
         0.50572E-02
         0.10374E-01
         0.60543E-02
         0.57008E-01
         0.58513E-01
         0.61434E-01
         0.60968E-01
         0.65151E-01
         0.70135E-01
         0.67111E-01
         0.59335E-01
         0.57735E-01
         0.62023E-01
         0.60775E-01
         0.59996E-01
         0.48929E-01
         0.46347E-01
         0.51332E-01
         0.55305E-01
         0.57535E-01
         0.63129E-01
         0.60456E-01
         0.62191E-01
         0.55618E-01
         0.52644E-01
         0.56263E-01
         0.54793E-01
         0.56529E-01
         0.56035E-01
         0.73751E-02
         0.31414E-02
         0.28046E-02
         0.97329E-03
         0.76817E-02
         0.43244E-02
         0.26152E-03
         0.72131E-02
         0.33831E-02
         0.67597E-02
         0.15876E-02
         0.17313E-01
         0.12411E-01
         0.44392E-02
         0.18473E-01
         0.45052E-02
         0.80471E-03
         0.00000E+00
         0.19978E-02
         0.00000E+00
         0.12933E-01
         0.11912E-01
         0.11524E-01
         0.66879E-03
         0.33068E-02
         0.00000E+00
         0.41620E-02
         0.00000E+00
         0.00000E+00
         0.37136E-02
         0.33926E-02
         0.31059E-03
         0.10089E-02
         0.52948E-03
         0.10974E-01
         0.52361E-02
         0.77175E-02
         0.14531E-01
         0.10507E-01
         0.94744E-02
         0.14713E-01
         0.13009E-01
         0.13070E-01
         0.93817E-02
         0.80163E-02
         0.12165E-01
         0.68720E-02
         0.53608E-02
         0.37938E-02
         0.50469E-02
         0.10368E-01
         0.60404E-02
         0.56986E-01
         0.58498E-01
         0.61433E-01
         0.60968E-01
         0.65140E-01
         0.70110E-01
         0.67080E-01
         0.59318E-01
         0.57720E-01
         0.62003E-01
         0.60765E-01
         0.60000E-01
         0.48927E-01
         0.46346E-01
         0.51340E-01
         0.55324E-01
         0.57556E-01
         0.63145E-01
         0.60451E-01
         0.62187E-01
         0.55613E-01
         0.52641E-01
         0.56242E-01
         0.54755E-01
         0.56495E-01
         0.56003E-01
         0.73815E-02
         0.31413E-02
         0.28076E-02
         0.97921E-03
         0.76770E-02
         0.43201E-02
         0.27066E-03
         0.72202E-02
         0.33945E-02
         0.67844E-02
         0.15894E-02
         0.17313E-01
         0.12418E-01
         0.44215E-02
         0.18495E-01
         0.45127E-02
         0.81622E-03
         0.00000E+00
         0.20012E-02
         0.00000E+00
         0.12936E-01
         0.11912E-01
         0.11526E-01
         0.66842E-03
         0.33306E-02
         0.00000E+00
         0.41641E-02
         0.00000E+00
         0.00000E+00
         0.37227E-02
         0.33985E-02
         0.30853E-03
         0.10018E-02
         0.53264E-03
         0.10981E-01
         0.52349E-02
         0.77161E-02
         0.14560E-01
         0.10540E-01
         0.94944E-02
         0.14727E-01
         0.13019E-01
         0.13074E-01
         0.93853E-02
         0.80174E-02
         0.12167E-01
         0.68745E-02
         0.53623E-02
         0.37864E-02
         0.50364E-02
         0.10361E-01
         0.60266E-02
         0.56963E-01
         0.58484E-01
         0.61432E-01
         0.60968E-01
         0.65129E-01
         0.70085E-01
         0.67050E-01
         0.59301E-01
         0.57705E-01
         0.61982E-01
         0.60754E-01
         0.60004E-01
         0.48925E-01
         0.46345E-01
         0.51348E-01
         0.55344E-01
         0.57577E-01
         0.63160E-01
         0.60447E-01
         0.62183E-01
         0.55608E-01
         0.52639E-01
         0.56221E-01
         0.54717E-01
         0.56462E-01
         0.55971E-01
         0.73880E-02
         0.31411E-02
         0.28106E-02
         0.98507E-03
         0.76725E-02
         0.43160E-02
         0.27991E-03
         0.72272E-02
         0.34060E-02
         0.68092E-02
         0.15912E-02
         0.17313E-01
         0.12425E-01
         0.44039E-02
         0.18518E-01
         0.45203E-02
         0.82774E-03
         0.00000E+00
         0.20046E-02
         0.00000E+00
         0.12939E-01
         0.11912E-01
         0.11527E-01
         0.66809E-03
         0.33542E-02
         0.00000E+00
         0.41663E-02
         0.00000E+00
         0.00000E+00
         0.37317E-02
         0.34045E-02
         0.30651E-03
         0.99482E-03
         0.53577E-03
         0.10988E-01
         0.52335E-02
         0.77146E-02
         0.14588E-01
         0.10572E-01
         0.95141E-02
         0.14742E-01
         0.13028E-01
         0.13078E-01
         0.93886E-02
         0.80185E-02
         0.12170E-01
         0.68770E-02
         0.53636E-02
         0.37791E-02
         0.50260E-02
         0.10355E-01
         0.60129E-02
         0.56941E-01
         0.58469E-01
         0.61431E-01
         0.60968E-01
         0.65117E-01
         0.70059E-01
         0.67020E-01
         0.59284E-01
         0.57689E-01
         0.61962E-01
         0.60744E-01
         0.60008E-01
         0.48923E-01
         0.46344E-01
         0.51357E-01
         0.55363E-01
         0.57598E-01
         0.63176E-01
         0.60442E-01
         0.62179E-01
         0.55602E-01
         0.52636E-01
         0.56200E-01
         0.54679E-01
         0.56428E-01
         0.55940E-01
         0.73945E-02
         0.31411E-02
         0.28136E-02
         0.99101E-03
         0.76679E-02
         0.43117E-02
         0.28908E-03
         0.72343E-02
         0.34176E-02
         0.68339E-02
         0.15931E-02
         0.17313E-01
         0.12432E-01
         0.43863E-02
         0.18541E-01
         0.45279E-02
         0.83928E-03
         0.00000E+00
         0.20079E-02
         0.00000E+00
         0.12942E-01
         0.11912E-01
         0.11529E-01
         0.66780E-03
         0.33778E-02
         0.00000E+00
         0.41684E-02
         0.00000E+00
         0.00000E+00
         0.37408E-02
         0.34105E-02
         0.30451E-03
         0.98776E-03
         0.53895E-03
         0.10995E-01
         0.52322E-02
         0.77131E-02
         0.14616E-01
         0.10604E-01
         0.95341E-02
         0.14756E-01
         0.13038E-01
         0.13082E-01
         0.93922E-02
         0.80196E-02
         0.12172E-01
         0.68793E-02
         0.53651E-02
         0.37717E-02
         0.50156E-02
         0.10349E-01
         0.59990E-02
         0.56919E-01
         0.58454E-01
         0.61430E-01
         0.60969E-01
         0.65106E-01
         0.70034E-01
         0.66990E-01
         0.59267E-01
         0.57674E-01
         0.61941E-01
         0.60733E-01
         0.60013E-01
         0.48921E-01
         0.46343E-01
         0.51365E-01
         0.55383E-01
         0.57619E-01
         0.63191E-01
         0.60438E-01
         0.62175E-01
         0.55597E-01
         0.52634E-01
         0.56180E-01
         0.54641E-01
         0.56395E-01
         0.55908E-01
         0.74010E-02
         0.31410E-02
         0.28166E-02
         0.99695E-03
         0.76633E-02
         0.43074E-02
         0.29826E-03
         0.72414E-02
         0.34291E-02
         0.68585E-02
         0.15950E-02
         0.17314E-01
         0.12440E-01
         0.43686E-02
         0.18564E-01
         0.45354E-02
         0.85082E-03
         0.00000E+00
         0.20113E-02
         0.00000E+00
         0.12944E-01
         0.11912E-01
         0.11530E-01
         0.66750E-03
         0.34013E-02
         0.00000E+00
         0.41705E-02
         0.00000E+00
         0.00000E+00
         0.37498E-02
         0.34164E-02
         0.30246E-03
         0.98072E-03
         0.54208E-03
         0.11002E-01
         0.52311E-02
         0.77117E-02
         0.14645E-01
         0.10637E-01
         0.95540E-02
         0.14770E-01
         0.13048E-01
         0.13087E-01
         0.93959E-02
         0.80210E-02
         0.12174E-01
         0.68819E-02
         0.53665E-02
         0.37645E-02
         0.50053E-02
         0.10342E-01
         0.59852E-02
         0.56897E-01
         0.58440E-01
         0.61429E-01
         0.60969E-01
         0.65095E-01
         0.70009E-01
         0.66959E-01
         0.59250E-01
         0.57659E-01
         0.61921E-01
         0.60723E-01
         0.60017E-01
         0.48919E-01
         0.46342E-01
         0.51373E-01
         0.55403E-01
         0.57640E-01
         0.63207E-01
         0.60434E-01
         0.62171E-01
         0.55592E-01
         0.52631E-01
         0.56159E-01
         0.54603E-01
         0.56362E-01
         0.55876E-01
         0.74075E-02
         0.31410E-02
         0.28196E-02
         0.10029E-02
         0.76588E-02
         0.43032E-02
         0.30755E-03
         0.72484E-02
         0.34406E-02
         0.68832E-02
         0.15970E-02
         0.17314E-01
         0.12447E-01
         0.43510E-02
         0.18586E-01
         0.45430E-02
         0.86240E-03
         0.00000E+00
         0.20147E-02
         0.00000E+00
         0.12947E-01
         0.11912E-01
         0.11532E-01
         0.66719E-03
         0.34249E-02
         0.00000E+00
         0.41725E-02
         0.00000E+00
         0.00000E+00
         0.37587E-02
         0.34223E-02
         0.30047E-03
         0.97376E-03
         0.54524E-03
         0.11009E-01
         0.52298E-02
         0.77101E-02
         0.14673E-01
         0.10669E-01
         0.95737E-02
         0.14785E-01
         0.13058E-01
         0.13091E-01
         0.93994E-02
         0.80221E-02
         0.12177E-01
         0.68844E-02
         0.53678E-02
         0.37570E-02
         0.49949E-02
         0.10336E-01
         0.59715E-02
         0.56875E-01
         0.58425E-01
         0.61428E-01
         0.60969E-01
         0.65083E-01
         0.69984E-01
         0.66929E-01
         0.59233E-01
         0.57643E-01
         0.61900E-01
         0.60712E-01
         0.60021E-01
         0.48917E-01
         0.46342E-01
         0.51382E-01
         0.55422E-01
         0.57661E-01
         0.63222E-01
         0.60430E-01
         0.62167E-01
         0.55587E-01
         0.52628E-01
         0.56138E-01
         0.54564E-01
         0.56328E-01
         0.55845E-01
         0.74139E-02
         0.31410E-02
         0.28226E-02
         0.10089E-02
         0.76542E-02
         0.42989E-02
         0.31678E-03
         0.72555E-02
         0.34522E-02
         0.69078E-02
         0.15991E-02
         0.17314E-01
         0.12454E-01
         0.43334E-02
         0.18609E-01
         0.45505E-02
         0.87401E-03
         0.00000E+00
         0.20181E-02
         0.00000E+00
         0.12950E-01
         0.11912E-01
         0.11533E-01
         0.66690E-03
         0.34485E-02
         0.00000E+00
         0.41745E-02
         0.00000E+00
         0.00000E+00
         0.37677E-02
         0.34283E-02
         0.29841E-03
         0.96681E-03
         0.54839E-03
         0.11016E-01
         0.52286E-02
         0.77087E-02
         0.14702E-01
         0.10702E-01
         0.95936E-02
         0.14799E-01
         0.13068E-01
         0.13095E-01
         0.94029E-02
         0.80232E-02
         0.12180E-01
         0.68867E-02
         0.53693E-02
         0.37497E-02
         0.49844E-02
         0.10329E-01
         0.59576E-02
         0.56853E-01
         0.58411E-01
         0.61427E-01
         0.60970E-01
         0.65072E-01
         0.69959E-01
         0.66898E-01
         0.59215E-01
         0.57628E-01
         0.61879E-01
         0.60702E-01
         0.60025E-01
         0.48915E-01
         0.46341E-01
         0.51390E-01
         0.55442E-01
         0.57682E-01
         0.63238E-01
         0.60426E-01
         0.62163E-01
         0.55581E-01
         0.52626E-01
         0.56117E-01
         0.54526E-01
         0.56295E-01
         0.55813E-01
         0.74203E-02
         0.31408E-02
         0.28255E-02
         0.10148E-02
         0.76496E-02
         0.42948E-02
         0.32602E-03
         0.72626E-02
         0.34638E-02
         0.69325E-02
         0.16012E-02
         0.17314E-01
         0.12461E-01
         0.43159E-02
         0.18632E-01
         0.45581E-02
         0.88565E-03
         0.00000E+00
         0.20214E-02
         0.00000E+00
         0.12953E-01
         0.11912E-01
         0.11535E-01
         0.66664E-03
         0.34720E-02
         0.00000E+00
         0.41766E-02
         0.00000E+00
         0.00000E+00
         0.37767E-02
         0.34342E-02
         0.29644E-03
         0.95993E-03
         0.55160E-03
         0.11023E-01
         0.52273E-02
         0.77073E-02
         0.14730E-01
         0.10734E-01
         0.96131E-02
         0.14813E-01
         0.13077E-01
         0.13099E-01
         0.94062E-02
         0.80246E-02
         0.12182E-01
         0.68893E-02
         0.53707E-02
         0.37424E-02
         0.49740E-02
         0.10323E-01
         0.59438E-02
         0.56831E-01
         0.58396E-01
         0.61426E-01
         0.60970E-01
         0.65061E-01
         0.69933E-01
         0.66868E-01
         0.59198E-01
         0.57613E-01
         0.61858E-01
         0.60691E-01
         0.60030E-01
         0.48913E-01
         0.46340E-01
         0.51398E-01
         0.55461E-01
         0.57703E-01
         0.63253E-01
         0.60421E-01
         0.62158E-01
         0.55576E-01
         0.52623E-01
         0.56096E-01
         0.54488E-01
         0.56262E-01
         0.55781E-01
         0.74267E-02
         0.31408E-02
         0.28285E-02
         0.10208E-02
         0.76452E-02
         0.42905E-02
         0.33537E-03
         0.72696E-02
         0.34754E-02
         0.69570E-02
         0.16034E-02
         0.17314E-01
         0.12468E-01
         0.42983E-02
         0.18655E-01
         0.45657E-02
         0.89734E-03
         0.00000E+00
         0.20248E-02
         0.00000E+00
         0.12956E-01
         0.11912E-01
         0.11537E-01
         0.66643E-03
         0.34955E-02
         0.00000E+00
         0.41785E-02
         0.00000E+00
         0.00000E+00
         0.37855E-02
         0.34402E-02
         0.29450E-03
         0.95311E-03
         0.55483E-03
         0.11030E-01
         0.52260E-02
         0.77057E-02
         0.14758E-01
         0.10767E-01
         0.96327E-02
         0.14827E-01
         0.13087E-01
         0.13103E-01
         0.94100E-02
         0.80257E-02
         0.12185E-01
         0.68919E-02
         0.53722E-02
         0.37352E-02
         0.49636E-02
         0.10316E-01
         0.59302E-02
         0.56808E-01
         0.58381E-01
         0.61425E-01
         0.60970E-01
         0.65049E-01
         0.69908E-01
         0.66837E-01
         0.59181E-01
         0.57598E-01
         0.61837E-01
         0.60681E-01
         0.60034E-01
         0.48911E-01
         0.46339E-01
         0.51407E-01
         0.55481E-01
         0.57724E-01
         0.63268E-01
         0.60417E-01
         0.62154E-01
         0.55571E-01
         0.52621E-01
         0.56075E-01
         0.54450E-01
         0.56228E-01
         0.55750E-01
         0.74331E-02
         0.31407E-02
         0.28315E-02
         0.10268E-02
         0.76406E-02
         0.42863E-02
         0.34463E-03
         0.72765E-02
         0.34871E-02
         0.69814E-02
         0.16057E-02
         0.17314E-01
         0.12475E-01
         0.42807E-02
         0.18677E-01
         0.45732E-02
         0.90901E-03
         0.00000E+00
         0.20282E-02
         0.00000E+00
         0.12958E-01
         0.11912E-01
         0.11538E-01
         0.66610E-03
         0.35189E-02
         0.00000E+00
         0.41798E-02
         0.00000E+00
         0.00000E+00
         0.37939E-02
         0.34462E-02
         0.29244E-03
         0.94625E-03
         0.55804E-03
         0.11037E-01
         0.52249E-02
         0.77043E-02
         0.14787E-01
         0.10799E-01
         0.96514E-02
         0.14840E-01
         0.13096E-01
         0.13107E-01
         0.94135E-02
         0.80269E-02
         0.12187E-01
         0.68942E-02
         0.53736E-02
         0.37278E-02
         0.49532E-02
         0.10310E-01
         0.59163E-02
         0.56786E-01
         0.58367E-01
         0.61424E-01
         0.60970E-01
         0.65038E-01
         0.69882E-01
         0.66806E-01
         0.59164E-01
         0.57582E-01
         0.61815E-01
         0.60671E-01
         0.60041E-01
         0.48910E-01
         0.46338E-01
         0.51415E-01
         0.55500E-01
         0.57746E-01
         0.63284E-01
         0.60413E-01
         0.62150E-01
         0.55566E-01
         0.52618E-01
         0.56054E-01
         0.54412E-01
         0.56195E-01
         0.55718E-01
         0.74395E-02
         0.31407E-02
         0.28345E-02
         0.10329E-02
         0.76360E-02
         0.42820E-02
         0.35393E-03
         0.72835E-02
         0.34988E-02
         0.70055E-02
         0.16080E-02
         0.17315E-01
         0.12482E-01
         0.42629E-02
         0.18700E-01
         0.45807E-02
         0.92069E-03
         0.00000E+00
         0.20316E-02
         0.00000E+00
         0.12961E-01
         0.11911E-01
         0.11540E-01
         0.66589E-03
         0.35421E-02
         0.00000E+00
         0.41806E-02
         0.00000E+00
         0.00000E+00
         0.38018E-02
         0.34521E-02
         0.29046E-03
         0.93943E-03
         0.56123E-03
         0.11044E-01
         0.52237E-02
         0.77029E-02
         0.14816E-01
         0.10832E-01
         0.96698E-02
         0.14853E-01
         0.13104E-01
         0.13110E-01
         0.94170E-02
         0.80283E-02
         0.12190E-01
         0.68968E-02
         0.53750E-02
         0.37206E-02
         0.49427E-02
         0.10303E-01
         0.59024E-02
         0.56764E-01
         0.58352E-01
         0.61423E-01
         0.60970E-01
         0.65026E-01
         0.69857E-01
         0.66775E-01
         0.59147E-01
         0.57567E-01
         0.61791E-01
         0.60660E-01
         0.60049E-01
         0.48910E-01
         0.46337E-01
         0.51423E-01
         0.55520E-01
         0.57767E-01
         0.63299E-01
         0.60409E-01
         0.62146E-01
         0.55560E-01
         0.52615E-01
         0.56033E-01
         0.54374E-01
         0.56162E-01
         0.55687E-01
         0.74460E-02
         0.31407E-02
         0.28376E-02
         0.10389E-02
         0.76317E-02
         0.42780E-02
         0.36332E-03
         0.72904E-02
         0.35105E-02
         0.70296E-02
         0.16104E-02
         0.17315E-01
         0.12489E-01
         0.42451E-02
         0.18723E-01
         0.45883E-02
         0.93244E-03
         0.00000E+00
         0.20351E-02
         0.00000E+00
         0.12964E-01
         0.11911E-01
         0.11541E-01
         0.66570E-03
         0.35654E-02
         0.00000E+00
         0.41812E-02
         0.00000E+00
         0.00000E+00
         0.38096E-02
         0.34581E-02
         0.28852E-03
         0.93277E-03
         0.56452E-03
         0.11052E-01
         0.52225E-02
         0.77012E-02
         0.14844E-01
         0.10864E-01
         0.96875E-02
         0.14865E-01
         0.13111E-01
         0.13113E-01
         0.94206E-02
         0.80294E-02
         0.12192E-01
         0.68993E-02
         0.53766E-02
         0.37134E-02
         0.49323E-02
         0.10297E-01
         0.58889E-02
         0.56742E-01
         0.58338E-01
         0.61422E-01
         0.60971E-01
         0.65015E-01
         0.69832E-01
         0.66745E-01
         0.59130E-01
         0.57551E-01
         0.61768E-01
         0.60650E-01
         0.60057E-01
         0.48911E-01
         0.46337E-01
         0.51432E-01
         0.55539E-01
         0.57788E-01
         0.63314E-01
         0.60405E-01
         0.62142E-01
         0.55555E-01
         0.52612E-01
         0.56012E-01
         0.54336E-01
         0.56129E-01
         0.55655E-01
         0.79422E-02
         0.39309E-02
         0.36524E-02
         0.19603E-02
         0.82919E-02
         0.50623E-02
         0.17787E-02
         0.79176E-02
         0.42020E-02
         0.76863E-02
         0.29709E-02
         0.17912E-01
         0.13083E-01
         0.52468E-02
         0.19348E-01
         0.51701E-02
         0.20336E-02
         0.49169E-03
         0.30109E-02
         0.12094E-02
         0.13463E-01
         0.12439E-01
         0.12032E-01
         0.17998E-02
         0.44702E-02
         0.46028E-03
         0.51814E-02
         0.76780E-03
         0.16440E-02
         0.47337E-02
         0.41281E-02
         0.14936E-02
         0.18720E-02
         0.16660E-02
         0.11710E-01
         0.60215E-02
         0.83553E-02
         0.15490E-01
         0.11580E-01
         0.10418E-01
         0.15472E-01
         0.13696E-01
         0.13643E-01
         0.99394E-02
         0.86377E-02
         0.12814E-01
         0.76130E-02
         0.60906E-02
         0.45202E-02
         0.56910E-02
         0.10917E-01
         0.65923E-02
         0.57563E-01
         0.59141E-01
         0.62259E-01
         0.61775E-01
         0.65846E-01
         0.70710E-01
         0.67624E-01
         0.60006E-01
         0.58439E-01
         0.62681E-01
         0.61538E-01
         0.60892E-01
         0.49619E-01
         0.46993E-01
         0.52102E-01
         0.56236E-01
         0.58497E-01
         0.64105E-01
         0.61252E-01
         0.62995E-01
         0.56313E-01
         0.53337E-01
         0.56754E-01
         0.55055E-01
         0.56843E-01
         0.56371E-01
         0.34034E-01
         0.33225E-01
         0.32613E-01
         0.29109E-01
         0.38721E-01
         0.34924E-01
         0.35129E-01
         0.38194E-01
         0.31170E-01
         0.38024E-01
         0.39017E-01
         0.51953E-01
         0.44874E-01
         0.40998E-01
         0.54538E-01
         0.31085E-01
         0.31911E-01
         0.27264E-01
         0.33306E-01
         0.34501E-01
         0.42147E-01
         0.42237E-01
         0.39794E-01
         0.31610E-01
         0.36811E-01
         0.30090E-01
         0.40857E-01
         0.38763E-01
         0.39158E-01
         0.38196E-01
         0.30859E-01
         0.31377E-01
         0.29314E-01
         0.30623E-01
         0.43930E-01
         0.37721E-01
         0.39095E-01
         0.50600E-01
         0.46964E-01
         0.45765E-01
         0.49839E-01
         0.46639E-01
         0.44600E-01
         0.37613E-01
         0.38055E-01
         0.44573E-01
         0.38762E-01
         0.35888E-01
         0.34475E-01
         0.36237E-01
         0.41960E-01
         0.36765E-01
         0.99066E-01
         0.99388E-01
         0.10341E+00
         0.10179E+00
         0.10710E+00
         0.11441E+00
         0.11274E+00
         0.10545E+00
         0.10411E+00
         0.10904E+00
         0.10659E+00
         0.10307E+00
         0.87869E-01
         0.83246E-01
         0.87823E-01
         0.91836E-01
         0.94315E-01
         0.10270E+00
         0.10257E+00
         0.10456E+00
         0.95301E-01
         0.91337E-01
         0.95835E-01
         0.94043E-01
         0.95207E-01
         0.94400E-01
  
SCALARS                            dam  double 1
LOOKUP_TABLE default
         0.00000E+00
         0.00000E+00
         0.00000E+00
         0.00000E+00
         0.00000E+00
         0.00000E+00
         0.00000E+00
         0.00000E+00
         0.00000E+00
         0.00000E+00
         0.00000E+00
         0.00000E+00
         0.00000E+00
         0.00000E+00
         0.00000E+00
         0.00000E+00
         0.00000E+00
         0.00000E+00
         0.00000E+00
         0.00000E+00
         0.00000E+00
         0.00000E+00
         0.00000E+00
         0.00000E+00
         0.00000E+00
         0.00000E+00
         0.00000E+00
         0.00000E+00
         0.00000E+00
         0.00000E+00
         0.00000E+00
         0.00000E+00
         0.00000E+00
         0.00000E+00
         0.00000E+00
         0.00000E+00
         0.00000E+00
         0.00000E+00
         0.00000E+00
         0.00000E+00
         0.00000E+00
         0.00000E+00
         0.00000E+00
         0.00000E+00
         0.00000E+00
         0.00000E+00
         0.00000E+00
         0.00000E+00
         0.00000E+00
         0.00000E+00
         0.00000E+00
         0.00000E+00
         0.00000E+00
         0.00000E+00
         0.00000E+00
         0.00000E+00
         0.00000E+00
         0.00000E+00
         0.00000E+00
         0.00000E+00
         0.00000E+00
         0.00000E+00
         0.00000E+00
         0.00000E+00
         0.00000E+00
         0.00000E+00
         0.00000E+00
         0.00000E+00
         0.00000E+00
         0.00000E+00
         0.00000E+00
         0.00000E+00
         0.00000E+00
         0.00000E+00
         0.00000E+00
         0.00000E+00
         0.00000E+00
         0.00000E+00
         0.00000E+00
         0.00000E+00
         0.00000E+00
         0.00000E+00
         0.00000E+00
         0.00000E+00
         0.00000E+00
         0.00000E+00
         0.00000E+00
         0.00000E+00
         0.00000E+00
         0.00000E+00
         0.00000E+00
         0.00000E+00
         0.00000E+00
         0.00000E+00
         0.00000E+00
         0.00000E+00
         0.00000E+00
         0.00000E+00
         0.00000E+00
         0.00000E+00
         0.00000E+00
         0.00000E+00
         0.00000E+00
         0.00000E+00
         0.00000E+00
         0.00000E+00
         0.00000E+00
         0.00000E+00
         0.00000E+00
         0.00000E+00
         0.00000E+00
         0.00000E+00
         0.00000E+00
         0.00000E+00
         0.00000E+00
         0.00000E+00
         0.00000E+00
         0.00000E+00
         0.00000E+00
         0.00000E+00
         0.00000E+00
         0.00000E+00
         0.00000E+00
         0.00000E+00
         0.00000E+00
         0.00000E+00
         0.00000E+00
         0.00000E+00
         0.00000E+00
         0.00000E+00
         0.00000E+00
         0.00000E+00
         0.00000E+00
         0.00000E+00
         0.00000E+00
         0.00000E+00
         0.00000E+00
         0.00000E+00
         0.00000E+00
         0.00000E+00
         0.00000E+00
         0.00000E+00
         0.00000E+00
         0.00000E+00
         0.00000E+00
         0.00000E+00
         0.00000E+00
         0.00000E+00
         0.00000E+00
         0.00000E+00
         0.00000E+00
         0.00000E+00
         0.00000E+00
         0.00000E+00
         0.00000E+00
         0.00000E+00
         0.00000E+00
         0.00000E+00
         0.00000E+00
         0.00000E+00
         0.00000E+00
         0.00000E+00
         0.00000E+00
         0.00000E+00
         0.00000E+00
         0.00000E+00
         0.00000E+00
         0.00000E+00
         0.00000E+00
         0.00000E+00
         0.00000E+00
         0.00000E+00
         0.00000E+00
         0.00000E+00
         0.00000E+00
         0.00000E+00
         0.00000E+00
         0.00000E+00
         0.00000E+00
         0.00000E+00
         0.00000E+00
         0.00000E+00
         0.00000E+00
         0.00000E+00
         0.00000E+00
         0.00000E+00
         0.00000E+00
         0.00000E+00
         0.00000E+00
         0.00000E+00
         0.00000E+00
         0.00000E+00
         0.00000E+00
         0.00000E+00
         0.00000E+00
         0.00000E+00
         0.00000E+00
         0.00000E+00
         0.00000E+00
         0.00000E+00
         0.00000E+00
         0.00000E+00
         0.00000E+00
         0.00000E+00
         0.00000E+00
         0.00000E+00
         0.00000E+00
         0.00000E+00
         0.00000E+00
         0.00000E+00
         0.00000E+00
         0.00000E+00
         0.00000E+00
         0.00000E+00
         0.00000E+00
         0.00000E+00
         0.00000E+00
         0.00000E+00
         0.00000E+00
         0.00000E+00
         0.00000E+00
         0.00000E+00
         0.00000E+00
         0.00000E+00
         0.00000E+00
         0.00000E+00
         0.00000E+00
         0.00000E+00
         0.00000E+00
         0.00000E+00
         0.00000E+00
         0.00000E+00
         0.00000E+00
         0.00000E+00
         0.00000E+00
         0.00000E+00
         0.00000E+00
         0.00000E+00
         0.00000E+00
         0.00000E+00
         0.00000E+00
         0.00000E+00
         0.00000E+00
         0.00000E+00
         0.00000E+00
         0.00000E+00
         0.00000E+00
         0.00000E+00
         0.00000E+00
         0.00000E+00
         0.00000E+00
         0.00000E+00
         0.00000E+00
         0.00000E+00
         0.00000E+00
         0.00000E+00
         0.00000E+00
         0.00000E+00
         0.00000E+00
         0.00000E+00
         0.00000E+00
         0.00000E+00
         0.00000E+00
         0.00000E+00
         0.00000E+00
         0.00000E+00
         0.00000E+00
         0.00000E+00
         0.00000E+00
         0.00000E+00
         0.00000E+00
         0.00000E+00
         0.00000E+00
         0.00000E+00
         0.00000E+00
         0.00000E+00
         0.00000E+00
         0.00000E+00
         0.00000E+00
         0.00000E+00
         0.00000E+00
         0.00000E+00
         0.00000E+00
         0.00000E+00
         0.00000E+00
         0.00000E+00
         0.00000E+00
         0.00000E+00
         0.00000E+00
         0.00000E+00
         0.00000E+00
         0.00000E+00
         0.00000E+00
         0.00000E+00
         0.00000E+00
         0.00000E+00
         0.00000E+00
         0.00000E+00
         0.00000E+00
         0.00000E+00
         0.00000E+00
         0.00000E+00
         0.00000E+00
         0.00000E+00
         0.00000E+00
         0.00000E+00
         0.00000E+00
         0.00000E+00
         0.00000E+00
         0.00000E+00
         0.00000E+00
         0.00000E+00
         0.00000E+00
         0.00000E+00
         0.00000E+00
         0.00000E+00
         0.00000E+00
         0.00000E+00
         0.00000E+00
         0.00000E+00
         0.00000E+00
         0.00000E+00
         0.00000E+00
         0.00000E+00
         0.00000E+00
         0.00000E+00
         0.00000E+00
         0.00000E+00
         0.00000E+00
         0.00000E+00
         0.00000E+00
         0.00000E+00
         0.00000E+00
         0.00000E+00
         0.00000E+00
         0.00000E+00
         0.00000E+00
         0.00000E+00
         0.00000E+00
         0.00000E+00
         0.00000E+00
         0.00000E+00
         0.00000E+00
         0.00000E+00
         0.00000E+00
         0.00000E+00
         0.00000E+00
         0.00000E+00
         0.00000E+00
         0.00000E+00
         0.00000E+00
         0.00000E+00
         0.00000E+00
         0.00000E+00
         0.00000E+00
         0.00000E+00
         0.00000E+00
         0.00000E+00
         0.00000E+00
         0.00000E+00
         0.00000E+00
         0.00000E+00
         0.00000E+00
         0.00000E+00
         0.00000E+00
         0.00000E+00
         0.00000E+00
         0.00000E+00
         0.00000E+00
         0.00000E+00
         0.00000E+00
         0.00000E+00
         0.00000E+00
         0.00000E+00
         0.00000E+00
         0.00000E+00
         0.00000E+00
         0.00000E+00
         0.00000E+00
         0.00000E+00
         0.00000E+00
         0.00000E+00
         0.00000E+00
         0.00000E+00
         0.00000E+00
         0.00000E+00
         0.00000E+00
         0.00000E+00
         0.00000E+00
         0.00000E+00
         0.00000E+00
         0.00000E+00
         0.00000E+00
         0.00000E+00
         0.00000E+00
         0.00000E+00
         0.00000E+00
         0.00000E+00
         0.00000E+00
         0.00000E+00
         0.00000E+00
         0.00000E+00
         0.00000E+00
         0.00000E+00
         0.00000E+00
         0.00000E+00
         0.00000E+00
         0.00000E+00
         0.00000E+00
         0.00000E+00
         0.00000E+00
         0.00000E+00
         0.00000E+00
         0.00000E+00
         0.00000E+00
         0.00000E+00
         0.00000E+00
         0.00000E+00
         0.00000E+00
         0.00000E+00
         0.00000E+00
         0.00000E+00
         0.00000E+00
         0.00000E+00
         0.00000E+00
         0.00000E+00
         0.00000E+00
         0.00000E+00
         0.00000E+00
         0.00000E+00
         0.00000E+00
         0.00000E+00
         0.00000E+00
         0.00000E+00
         0.00000E+00
         0.00000E+00
         0.00000E+00
         0.00000E+00
         0.00000E+00
         0.00000E+00
         0.00000E+00
         0.00000E+00
         0.00000E+00
         0.00000E+00
         0.00000E+00
         0.00000E+00
         0.00000E+00
         0.00000E+00
         0.00000E+00
         0.00000E+00
         0.00000E+00
         0.00000E+00
         0.00000E+00
         0.00000E+00
         0.00000E+00
         0.00000E+00
         0.00000E+00
         0.00000E+00
         0.00000E+00
         0.00000E+00
         0.00000E+00
         0.00000E+00
         0.00000E+00
         0.00000E+00
         0.00000E+00
         0.00000E+00
         0.00000E+00
         0.00000E+00
         0.00000E+00
         0.00000E+00
         0.00000E+00
         0.00000E+00
         0.00000E+00
         0.00000E+00
         0.00000E+00
         0.00000E+00
         0.00000E+00
         0.00000E+00
         0.00000E+00
         0.00000E+00
         0.00000E+00
         0.00000E+00
         0.00000E+00
         0.00000E+00
         0.00000E+00
         0.00000E+00
         0.00000E+00
         0.00000E+00
         0.00000E+00
         0.00000E+00
         0.00000E+00
         0.00000E+00
         0.00000E+00
         0.00000E+00
         0.00000E+00
         0.00000E+00
         0.00000E+00
         0.00000E+00
         0.00000E+00
         0.00000E+00
         0.00000E+00
         0.00000E+00
         0.00000E+00
         0.00000E+00
         0.00000E+00
         0.00000E+00
         0.00000E+00
         0.00000E+00
         0.00000E+00
         0.00000E+00
         0.00000E+00
         0.00000E+00
         0.00000E+00
         0.00000E+00
         0.00000E+00
         0.00000E+00
         0.00000E+00
         0.00000E+00
         0.00000E+00
         0.00000E+00
         0.00000E+00
         0.00000E+00
         0.00000E+00
         0.00000E+00
         0.00000E+00
         0.00000E+00
         0.00000E+00
         0.00000E+00
         0.00000E+00
         0.00000E+00
         0.00000E+00
         0.00000E+00
         0.00000E+00
         0.00000E+00
         0.00000E+00
         0.00000E+00
         0.00000E+00
         0.00000E+00
         0.00000E+00
         0.00000E+00
         0.00000E+00
         0.00000E+00
         0.00000E+00
         0.00000E+00
         0.00000E+00
         0.00000E+00
         0.00000E+00
         0.00000E+00
         0.00000E+00
         0.00000E+00
         0.00000E+00
         0.00000E+00
         0.00000E+00
         0.00000E+00
         0.00000E+00
         0.00000E+00
         0.00000E+00
         0.00000E+00
         0.00000E+00
         0.00000E+00
         0.00000E+00
         0.00000E+00
         0.00000E+00
         0.00000E+00
         0.00000E+00
         0.00000E+00
         0.00000E+00
         0.00000E+00
         0.00000E+00
         0.00000E+00
         0.00000E+00
         0.00000E+00
         0.00000E+00
         0.00000E+00
         0.00000E+00
         0.00000E+00
         0.00000E+00
         0.00000E+00
         0.00000E+00
         0.00000E+00
         0.00000E+00
         0.00000E+00
         0.00000E+00
         0.00000E+00
         0.00000E+00
         0.00000E+00
         0.00000E+00
         0.00000E+00
         0.00000E+00
         0.00000E+00
         0.00000E+00
         0.00000E+00
         0.00000E+00
         0.00000E+00
         0.00000E+00
         0.00000E+00
         0.00000E+00
         0.00000E+00
         0.00000E+00
         0.00000E+00
         0.00000E+00
         0.00000E+00
         0.00000E+00
         0.00000E+00
         0.00000E+00
         0.00000E+00
         0.00000E+00
         0.00000E+00
         0.00000E+00
         0.00000E+00
         0.00000E+00
         0.00000E+00
         0.00000E+00
         0.00000E+00
         0.00000E+00
         0.00000E+00
         0.00000E+00
         0.00000E+00
         0.00000E+00
         0.00000E+00
         0.00000E+00
         0.00000E+00
         0.00000E+00
         0.00000E+00
         0.00000E+00
         0.00000E+00
         0.00000E+00
         0.00000E+00
         0.00000E+00
         0.00000E+00
         0.00000E+00
         0.00000E+00
         0.00000E+00
         0.00000E+00
         0.00000E+00
         0.00000E+00
         0.00000E+00
         0.00000E+00
         0.00000E+00
         0.00000E+00
         0.00000E+00
         0.00000E+00
         0.00000E+00
         0.00000E+00
         0.00000E+00
         0.00000E+00
         0.00000E+00
         0.00000E+00
         0.00000E+00
         0.00000E+00
         0.00000E+00
         0.00000E+00
         0.00000E+00
         0.00000E+00
         0.00000E+00
         0.00000E+00
         0.00000E+00
         0.00000E+00
         0.00000E+00
         0.00000E+00
         0.00000E+00
         0.00000E+00
         0.00000E+00
         0.00000E+00
         0.00000E+00
         0.00000E+00
         0.00000E+00
         0.00000E+00
         0.00000E+00
         0.00000E+00
         0.00000E+00
         0.00000E+00
         0.00000E+00
         0.00000E+00
         0.00000E+00
         0.00000E+00
         0.00000E+00
         0.00000E+00
         0.00000E+00
         0.00000E+00
         0.00000E+00
         0.00000E+00
         0.00000E+00
         0.00000E+00
         0.00000E+00
         0.00000E+00
         0.00000E+00
         0.00000E+00
         0.00000E+00
         0.00000E+00
         0.00000E+00
         0.00000E+00
         0.00000E+00
         0.00000E+00
         0.00000E+00
         0.00000E+00
         0.00000E+00
         0.00000E+00
         0.00000E+00
         0.00000E+00
         0.00000E+00
         0.00000E+00
         0.00000E+00
         0.00000E+00
         0.00000E+00
         0.00000E+00
         0.00000E+00
         0.00000E+00
         0.00000E+00
         0.00000E+00
         0.00000E+00
         0.00000E+00
         0.00000E+00
         0.00000E+00
         0.00000E+00
         0.00000E+00
         0.00000E+00
         0.00000E+00
         0.00000E+00
         0.00000E+00
         0.00000E+00
         0.00000E+00
         0.00000E+00
         0.00000E+00
         0.00000E+00
         0.00000E+00
         0.00000E+00
         0.00000E+00
         0.00000E+00
         0.00000E+00
         0.00000E+00
         0.00000E+00
         0.00000E+00
         0.00000E+00
         0.00000E+00
         0.00000E+00
         0.00000E+00
         0.00000E+00
         0.00000E+00
         0.00000E+00
         0.00000E+00
         0.00000E+00
         0.00000E+00
         0.00000E+00
         0.00000E+00
         0.00000E+00
         0.00000E+00
         0.00000E+00
         0.00000E+00
         0.00000E+00
         0.00000E+00
         0.00000E+00
         0.00000E+00
         0.00000E+00
         0.00000E+00
         0.00000E+00
         0.00000E+00
         0.00000E+00
         0.00000E+00
         0.00000E+00
         0.00000E+00
         0.00000E+00
         0.00000E+00
         0.00000E+00
         0.00000E+00
         0.00000E+00
         0.00000E+00
         0.00000E+00
         0.00000E+00
         0.00000E+00
         0.00000E+00
         0.00000E+00
         0.00000E+00
         0.00000E+00
         0.00000E+00
         0.00000E+00
         0.00000E+00
         0.00000E+00
         0.00000E+00
         0.00000E+00
         0.00000E+00
         0.00000E+00
         0.00000E+00
         0.00000E+00
         0.00000E+00
         0.00000E+00
         0.00000E+00
         0.00000E+00
         0.00000E+00
         0.00000E+00
         0.00000E+00
         0.00000E+00
         0.00000E+00
         0.00000E+00
         0.00000E+00
         0.00000E+00
         0.00000E+00
         0.00000E+00
         0.00000E+00
         0.00000E+00
         0.00000E+00
         0.00000E+00
         0.00000E+00
         0.00000E+00
         0.00000E+00
         0.00000E+00
         0.00000E+00
         0.00000E+00
         0.00000E+00
         0.00000E+00
         0.00000E+00
         0.00000E+00
         0.00000E+00
         0.00000E+00
         0.00000E+00
         0.00000E+00
         0.00000E+00
         0.00000E+00
         0.00000E+00
         0.00000E+00
         0.00000E+00
         0.00000E+00
         0.00000E+00
         0.00000E+00
         0.00000E+00
         0.00000E+00
         0.00000E+00
         0.00000E+00
         0.00000E+00
         0.00000E+00
         0.00000E+00
         0.00000E+00
         0.00000E+00
         0.00000E+00
         0.00000E+00
         0.00000E+00
         0.00000E+00
         0.00000E+00
         0.00000E+00
         0.00000E+00
         0.00000E+00
         0.00000E+00
         0.00000E+00
         0.00000E+00
         0.00000E+00
         0.00000E+00
         0.00000E+00
         0.00000E+00
         0.00000E+00
         0.00000E+00
         0.00000E+00
         0.00000E+00
         0.00000E+00
         0.00000E+00
         0.00000E+00
         0.00000E+00
         0.00000E+00
         0.00000E+00
         0.00000E+00
         0.00000E+00
         0.00000E+00
         0.00000E+00
         0.00000E+00
         0.00000E+00
         0.00000E+00
         0.00000E+00
         0.00000E+00
         0.00000E+00
         0.00000E+00
         0.00000E+00
         0.00000E+00
         0.00000E+00
         0.00000E+00
         0.00000E+00
         0.00000E+00
         0.00000E+00
         0.00000E+00
         0.00000E+00
         0.00000E+00
         0.00000E+00
         0.00000E+00
         0.00000E+00
         0.00000E+00
         0.00000E+00
         0.00000E+00
         0.00000E+00
         0.00000E+00
         0.00000E+00
         0.00000E+00
         0.00000E+00
         0.00000E+00
         0.00000E+00
         0.00000E+00
         0.00000E+00
         0.00000E+00
         0.00000E+00
         0.00000E+00
         0.00000E+00
         0.00000E+00
         0.00000E+00
         0.00000E+00
         0.00000E+00
         0.00000E+00
         0.00000E+00
         0.00000E+00
         0.00000E+00
         0.00000E+00
         0.00000E+00
         0.00000E+00
         0.00000E+00
         0.00000E+00
         0.00000E+00
         0.00000E+00
         0.00000E+00
         0.00000E+00
         0.00000E+00
         0.00000E+00
         0.00000E+00
         0.00000E+00
         0.00000E+00
         0.00000E+00
         0.00000E+00
         0.00000E+00
         0.00000E+00
         0.00000E+00
         0.00000E+00
         0.00000E+00
         0.00000E+00
         0.00000E+00
         0.00000E+00
         0.00000E+00
         0.00000E+00
         0.00000E+00
         0.00000E+00
         0.00000E+00
         0.00000E+00
         0.00000E+00
         0.00000E+00
         0.00000E+00
         0.00000E+00
         0.00000E+00
         0.00000E+00
         0.00000E+00
         0.00000E+00
         0.00000E+00
         0.00000E+00
         0.00000E+00
         0.00000E+00
         0.00000E+00
         0.00000E+00
         0.00000E+00
         0.00000E+00
         0.00000E+00
         0.00000E+00
         0.00000E+00
         0.00000E+00
         0.00000E+00
         0.00000E+00
         0.00000E+00
         0.00000E+00
         0.00000E+00
         0.00000E+00
         0.00000E+00
         0.00000E+00
         0.00000E+00
         0.00000E+00
         0.00000E+00
         0.00000E+00
         0.00000E+00
         0.00000E+00
         0.00000E+00
         0.00000E+00
         0.00000E+00
         0.00000E+00
         0.00000E+00
         0.00000E+00
         0.00000E+00
         0.00000E+00
         0.00000E+00
         0.00000E+00
         0.00000E+00
         0.00000E+00
         0.00000E+00
         0.00000E+00
         0.00000E+00
         0.00000E+00
         0.00000E+00
         0.00000E+00
         0.00000E+00
         0.00000E+00
         0.00000E+00
         0.00000E+00
         0.00000E+00
         0.00000E+00
         0.00000E+00
         0.00000E+00
         0.00000E+00
         0.00000E+00
         0.00000E+00
         0.00000E+00
         0.00000E+00
         0.00000E+00
         0.00000E+00
         0.00000E+00
         0.00000E+00
         0.00000E+00
         0.00000E+00
         0.00000E+00
         0.00000E+00
         0.00000E+00
         0.00000E+00
         0.00000E+00
         0.00000E+00
         0.00000E+00
         0.00000E+00
         0.00000E+00
         0.00000E+00
         0.00000E+00
         0.00000E+00
         0.00000E+00
         0.00000E+00
         0.00000E+00
         0.00000E+00
         0.00000E+00
         0.00000E+00
         0.00000E+00
         0.00000E+00
         0.00000E+00
         0.00000E+00
         0.00000E+00
         0.00000E+00
         0.00000E+00
         0.00000E+00
         0.00000E+00
         0.00000E+00
         0.00000E+00
         0.00000E+00
         0.00000E+00
         0.00000E+00
         0.00000E+00
         0.00000E+00
         0.00000E+00
         0.00000E+00
         0.00000E+00
         0.00000E+00
         0.00000E+00
         0.00000E+00
         0.00000E+00
         0.00000E+00
         0.00000E+00
         0.00000E+00
         0.00000E+00
         0.00000E+00
         0.00000E+00
         0.00000E+00
         0.00000E+00
         0.00000E+00
         0.00000E+00
         0.00000E+00
         0.00000E+00
         0.00000E+00
         0.00000E+00
         0.00000E+00
         0.00000E+00
         0.00000E+00
         0.00000E+00
         0.00000E+00
         0.00000E+00
         0.00000E+00
         0.00000E+00
         0.00000E+00
         0.00000E+00
         0.00000E+00
         0.00000E+00
         0.00000E+00
         0.00000E+00
         0.00000E+00
         0.00000E+00
         0.00000E+00
         0.00000E+00
         0.00000E+00
         0.00000E+00
         0.00000E+00
         0.00000E+00
         0.00000E+00
         0.00000E+00
         0.00000E+00
         0.00000E+00
         0.00000E+00
         0.00000E+00
         0.00000E+00
         0.00000E+00
         0.00000E+00
         0.00000E+00
         0.00000E+00
         0.00000E+00
         0.00000E+00
         0.00000E+00
         0.00000E+00
         0.00000E+00
         0.00000E+00
         0.00000E+00
         0.00000E+00
         0.00000E+00
         0.00000E+00
         0.00000E+00
         0.00000E+00
         0.00000E+00
         0.00000E+00
         0.00000E+00
         0.00000E+00
         0.00000E+00
         0.00000E+00
         0.00000E+00
         0.00000E+00
         0.00000E+00
         0.00000E+00
         0.00000E+00
         0.00000E+00
         0.00000E+00
         0.00000E+00
         0.00000E+00
         0.00000E+00
         0.00000E+00
         0.00000E+00
         0.00000E+00
         0.00000E+00
         0.00000E+00
         0.00000E+00
         0.00000E+00
         0.00000E+00
         0.00000E+00
         0.00000E+00
         0.00000E+00
         0.00000E+00
         0.00000E+00
         0.00000E+00
         0.00000E+00
         0.00000E+00
         0.00000E+00
         0.00000E+00
         0.00000E+00
         0.00000E+00
         0.00000E+00
         0.00000E+00
         0.00000E+00
         0.00000E+00
         0.00000E+00
         0.00000E+00
         0.00000E+00
         0.00000E+00
         0.00000E+00
         0.00000E+00
         0.00000E+00
         0.00000E+00
         0.00000E+00
         0.00000E+00
         0.00000E+00
         0.00000E+00
         0.00000E+00
         0.00000E+00
         0.00000E+00
         0.00000E+00
         0.00000E+00
         0.00000E+00
         0.00000E+00
         0.00000E+00
         0.00000E+00
         0.00000E+00
         0.00000E+00
         0.00000E+00
         0.00000E+00
         0.00000E+00
         0.00000E+00
         0.00000E+00
         0.00000E+00
         0.00000E+00
         0.00000E+00
         0.00000E+00
         0.00000E+00
         0.00000E+00
         0.00000E+00
         0.00000E+00
         0.00000E+00
         0.00000E+00
         0.00000E+00
         0.00000E+00
         0.00000E+00
         0.00000E+00
         0.00000E+00
         0.00000E+00
         0.00000E+00
         0.00000E+00
         0.00000E+00
         0.00000E+00
         0.00000E+00
         0.00000E+00
         0.00000E+00
         0.00000E+00
         0.00000E+00
         0.00000E+00
         0.00000E+00
         0.00000E+00
         0.00000E+00
         0.00000E+00
         0.00000E+00
         0.00000E+00
         0.00000E+00
         0.00000E+00
         0.00000E+00
         0.00000E+00
         0.00000E+00
         0.00000E+00
         0.00000E+00
         0.00000E+00
         0.00000E+00
         0.00000E+00
         0.00000E+00
         0.00000E+00
         0.00000E+00
         0.00000E+00
         0.00000E+00
         0.00000E+00
         0.00000E+00
         0.00000E+00
         0.00000E+00
         0.00000E+00
         0.00000E+00
         0.00000E+00
         0.00000E+00
         0.00000E+00
         0.00000E+00
         0.00000E+00
         0.00000E+00
         0.00000E+00
         0.00000E+00
         0.00000E+00
         0.00000E+00
         0.00000E+00
         0.00000E+00
         0.00000E+00
         0.00000E+00
         0.00000E+00
         0.00000E+00
         0.00000E+00
         0.00000E+00
         0.00000E+00
         0.00000E+00
         0.00000E+00
         0.00000E+00
         0.00000E+00
         0.00000E+00
         0.00000E+00
         0.00000E+00
         0.00000E+00
         0.00000E+00
         0.00000E+00
         0.00000E+00
         0.00000E+00
         0.00000E+00
         0.00000E+00
         0.00000E+00
         0.00000E+00
         0.00000E+00
         0.00000E+00
         0.00000E+00
         0.00000E+00
         0.00000E+00
         0.00000E+00
         0.00000E+00
         0.00000E+00
         0.00000E+00
         0.00000E+00
         0.00000E+00
         0.00000E+00
         0.00000E+00
         0.00000E+00
         0.00000E+00
         0.00000E+00
         0.00000E+00
         0.00000E+00
         0.00000E+00
         0.00000E+00
         0.00000E+00
         0.00000E+00
         0.00000E+00
         0.00000E+00
         0.00000E+00
         0.00000E+00
         0.00000E+00
         0.00000E+00
         0.00000E+00
         0.00000E+00
         0.00000E+00
         0.00000E+00
         0.00000E+00
         0.00000E+00
         0.00000E+00
         0.00000E+00
         0.00000E+00
         0.00000E+00
         0.00000E+00
         0.00000E+00
         0.00000E+00
         0.00000E+00
         0.00000E+00
         0.00000E+00
         0.00000E+00
         0.00000E+00
         0.00000E+00
         0.00000E+00
         0.00000E+00
         0.00000E+00
         0.00000E+00
         0.00000E+00
         0.00000E+00
         0.00000E+00
         0.00000E+00
         0.00000E+00
         0.00000E+00
         0.00000E+00
         0.00000E+00
         0.00000E+00
         0.00000E+00
         0.00000E+00
         0.00000E+00
         0.00000E+00
         0.00000E+00
         0.00000E+00
         0.00000E+00
         0.00000E+00
         0.00000E+00
         0.00000E+00
         0.00000E+00
         0.00000E+00
         0.00000E+00
         0.00000E+00
         0.00000E+00
         0.00000E+00
         0.00000E+00
         0.00000E+00
         0.00000E+00
         0.00000E+00
         0.00000E+00
         0.00000E+00
         0.00000E+00
         0.00000E+00
         0.00000E+00
         0.00000E+00
         0.00000E+00
         0.00000E+00
         0.00000E+00
         0.00000E+00
         0.00000E+00
         0.00000E+00
         0.00000E+00
         0.00000E+00
         0.00000E+00
         0.00000E+00
         0.00000E+00
         0.00000E+00
         0.00000E+00
         0.00000E+00
         0.00000E+00
         0.00000E+00
         0.00000E+00
         0.00000E+00
         0.00000E+00
         0.00000E+00
         0.00000E+00
         0.00000E+00
         0.00000E+00
         0.00000E+00
         0.00000E+00
         0.00000E+00
         0.00000E+00
         0.00000E+00
         0.00000E+00
         0.00000E+00
         0.00000E+00
         0.00000E+00
         0.00000E+00
         0.00000E+00
         0.00000E+00
         0.00000E+00
         0.00000E+00
         0.00000E+00
         0.00000E+00
         0.00000E+00
         0.00000E+00
         0.00000E+00
         0.00000E+00
         0.00000E+00
         0.00000E+00
         0.00000E+00
         0.00000E+00
         0.00000E+00
         0.00000E+00
         0.00000E+00
         0.00000E+00
         0.00000E+00
         0.00000E+00
         0.00000E+00
         0.00000E+00
         0.00000E+00
         0.00000E+00
         0.00000E+00
         0.00000E+00
         0.00000E+00
         0.00000E+00
         0.00000E+00
         0.00000E+00
         0.00000E+00
         0.00000E+00
         0.00000E+00
         0.00000E+00
         0.00000E+00
         0.00000E+00
         0.00000E+00
         0.00000E+00
         0.00000E+00
         0.00000E+00
         0.00000E+00
         0.00000E+00
         0.00000E+00
         0.00000E+00
         0.00000E+00
         0.00000E+00
         0.00000E+00
         0.00000E+00
         0.00000E+00
         0.00000E+00
         0.00000E+00
         0.00000E+00
         0.00000E+00
         0.00000E+00
         0.00000E+00
         0.00000E+00
         0.00000E+00
         0.00000E+00
         0.00000E+00
         0.00000E+00
         0.00000E+00
         0.00000E+00
         0.00000E+00
         0.00000E+00
         0.00000E+00
         0.00000E+00
         0.00000E+00
         0.00000E+00
         0.00000E+00
         0.00000E+00
         0.00000E+00
         0.00000E+00
         0.00000E+00
         0.00000E+00
         0.00000E+00
         0.00000E+00
         0.00000E+00
         0.00000E+00
         0.00000E+00
         0.00000E+00
         0.00000E+00
         0.00000E+00
         0.00000E+00
         0.00000E+00
         0.00000E+00
         0.00000E+00
         0.00000E+00
         0.00000E+00
         0.00000E+00
         0.00000E+00
         0.00000E+00
         0.00000E+00
         0.00000E+00
         0.00000E+00
         0.00000E+00
         0.00000E+00
         0.00000E+00
         0.00000E+00
         0.00000E+00
         0.00000E+00
         0.00000E+00
         0.00000E+00
         0.00000E+00
         0.00000E+00
         0.00000E+00
         0.00000E+00
         0.00000E+00
         0.00000E+00
         0.00000E+00
         0.00000E+00
         0.00000E+00
         0.00000E+00
         0.00000E+00
         0.00000E+00
         0.00000E+00
         0.00000E+00
         0.00000E+00
         0.00000E+00
         0.00000E+00
         0.00000E+00
         0.00000E+00
         0.00000E+00
         0.00000E+00
         0.00000E+00
         0.00000E+00
         0.00000E+00
         0.00000E+00
         0.00000E+00
         0.00000E+00
         0.00000E+00
         0.00000E+00
         0.00000E+00
         0.00000E+00
         0.00000E+00
         0.00000E+00
         0.00000E+00
         0.00000E+00
         0.00000E+00
         0.00000E+00
         0.00000E+00
         0.00000E+00
         0.00000E+00
         0.00000E+00
         0.00000E+00
         0.00000E+00
         0.00000E+00
         0.00000E+00
         0.00000E+00
         0.00000E+00
         0.00000E+00
         0.00000E+00
         0.00000E+00
         0.00000E+00
         0.00000E+00
         0.00000E+00
         0.00000E+00
         0.00000E+00
         0.00000E+00
         0.00000E+00
         0.00000E+00
         0.00000E+00
         0.00000E+00
         0.00000E+00
         0.00000E+00
         0.00000E+00
         0.00000E+00
         0.00000E+00
         0.00000E+00
         0.00000E+00
         0.00000E+00
         0.00000E+00
         0.00000E+00
         0.00000E+00
         0.00000E+00
         0.00000E+00
         0.00000E+00
         0.00000E+00
         0.00000E+00
         0.00000E+00
         0.00000E+00
         0.00000E+00
         0.00000E+00
         0.00000E+00
         0.00000E+00
         0.00000E+00
         0.00000E+00
         0.00000E+00
         0.00000E+00
         0.00000E+00
         0.00000E+00
         0.00000E+00
         0.00000E+00
         0.00000E+00
         0.00000E+00
         0.00000E+00
         0.00000E+00
         0.00000E+00
         0.00000E+00
         0.00000E+00
         0.00000E+00
         0.00000E+00
         0.00000E+00
         0.00000E+00
         0.00000E+00
         0.00000E+00
         0.00000E+00
         0.00000E+00
         0.00000E+00
         0.00000E+00
         0.00000E+00
         0.00000E+00
         0.00000E+00
         0.00000E+00
         0.00000E+00
         0.00000E+00
         0.00000E+00
         0.00000E+00
         0.00000E+00
         0.00000E+00
         0.00000E+00
         0.00000E+00
         0.00000E+00
         0.00000E+00
         0.00000E+00
         0.00000E+00
         0.00000E+00
         0.00000E+00
         0.00000E+00
         0.00000E+00
         0.00000E+00
         0.00000E+00
         0.00000E+00
         0.00000E+00
         0.00000E+00
         0.00000E+00
         0.00000E+00
         0.00000E+00
         0.00000E+00
         0.00000E+00
         0.00000E+00
         0.00000E+00
         0.00000E+00
         0.00000E+00
         0.00000E+00
         0.00000E+00
         0.00000E+00
         0.00000E+00
         0.00000E+00
         0.00000E+00
         0.00000E+00
         0.00000E+00
         0.00000E+00
         0.00000E+00
         0.00000E+00
         0.00000E+00
         0.00000E+00
         0.00000E+00
         0.00000E+00
         0.00000E+00
         0.00000E+00
         0.00000E+00
         0.00000E+00
         0.00000E+00
         0.00000E+00
         0.00000E+00
         0.00000E+00
         0.00000E+00
         0.00000E+00
         0.00000E+00
         0.00000E+00
         0.00000E+00
         0.00000E+00
         0.00000E+00
         0.00000E+00
         0.00000E+00
         0.00000E+00
         0.00000E+00
         0.00000E+00
         0.00000E+00
         0.00000E+00
         0.00000E+00
         0.00000E+00
         0.00000E+00
         0.00000E+00
         0.00000E+00
         0.00000E+00
         0.00000E+00
         0.00000E+00
         0.00000E+00
         0.00000E+00
         0.00000E+00
         0.00000E+00
         0.00000E+00
         0.00000E+00
         0.00000E+00
         0.00000E+00
         0.00000E+00
         0.00000E+00
         0.00000E+00
         0.00000E+00
         0.00000E+00
         0.00000E+00
         0.00000E+00
         0.00000E+00
         0.00000E+00
         0.00000E+00
         0.00000E+00
         0.00000E+00
         0.00000E+00
         0.00000E+00
         0.00000E+00
         0.00000E+00
         0.00000E+00
         0.00000E+00
         0.00000E+00
         0.00000E+00
         0.00000E+00
         0.00000E+00
         0.00000E+00
         0.00000E+00
         0.00000E+00
         0.00000E+00
         0.00000E+00
         0.00000E+00
         0.00000E+00
         0.00000E+00
         0.00000E+00
         0.00000E+00
         0.00000E+00
         0.00000E+00
         0.00000E+00
         0.00000E+00
         0.00000E+00
         0.00000E+00
         0.00000E+00
         0.00000E+00
         0.00000E+00
         0.00000E+00
         0.00000E+00
         0.00000E+00
         0.00000E+00
         0.00000E+00
         0.00000E+00
         0.00000E+00
         0.00000E+00
         0.00000E+00
         0.00000E+00
         0.00000E+00
         0.00000E+00
         0.00000E+00
         0.00000E+00
         0.00000E+00
         0.00000E+00
         0.00000E+00
         0.00000E+00
         0.00000E+00
         0.00000E+00
         0.00000E+00
         0.00000E+00
         0.00000E+00
         0.00000E+00
         0.00000E+00
         0.00000E+00
         0.00000E+00
         0.00000E+00
         0.00000E+00
         0.00000E+00
         0.00000E+00
         0.00000E+00
         0.00000E+00
         0.00000E+00
         0.00000E+00
         0.00000E+00
         0.00000E+00
         0.00000E+00
         0.00000E+00
         0.00000E+00
         0.00000E+00
         0.00000E+00
         0.00000E+00
         0.00000E+00
         0.00000E+00
         0.00000E+00
         0.00000E+00
         0.00000E+00
         0.00000E+00
         0.00000E+00
         0.00000E+00
         0.00000E+00
         0.00000E+00
         0.00000E+00
         0.00000E+00
         0.00000E+00
         0.00000E+00
         0.00000E+00
         0.00000E+00
         0.00000E+00
         0.00000E+00
         0.00000E+00
         0.00000E+00
         0.00000E+00
         0.00000E+00
         0.00000E+00
         0.00000E+00
         0.00000E+00
         0.00000E+00
         0.00000E+00
         0.00000E+00
         0.00000E+00
         0.00000E+00
         0.00000E+00
         0.00000E+00
         0.00000E+00
         0.00000E+00
         0.00000E+00
         0.00000E+00
         0.00000E+00
         0.00000E+00
         0.00000E+00
         0.00000E+00
         0.00000E+00
         0.00000E+00
         0.00000E+00
         0.00000E+00
         0.00000E+00
         0.00000E+00
         0.00000E+00
         0.00000E+00
         0.00000E+00
         0.00000E+00
         0.00000E+00
         0.00000E+00
         0.00000E+00
         0.00000E+00
         0.00000E+00
         0.00000E+00
         0.00000E+00
         0.00000E+00
         0.00000E+00
         0.00000E+00
         0.00000E+00
         0.00000E+00
         0.00000E+00
         0.00000E+00
         0.00000E+00
         0.00000E+00
         0.00000E+00
         0.00000E+00
         0.00000E+00
         0.00000E+00
         0.00000E+00
         0.00000E+00
         0.00000E+00
         0.00000E+00
         0.00000E+00
         0.00000E+00
         0.00000E+00
         0.00000E+00
         0.00000E+00
         0.00000E+00
         0.00000E+00
         0.00000E+00
         0.00000E+00
         0.00000E+00
         0.00000E+00
         0.00000E+00
         0.00000E+00
         0.00000E+00
         0.00000E+00
         0.00000E+00
         0.00000E+00
         0.00000E+00
         0.00000E+00
         0.00000E+00
         0.00000E+00
         0.00000E+00
         0.00000E+00
         0.00000E+00
         0.00000E+00
         0.00000E+00
         0.00000E+00
         0.00000E+00
         0.00000E+00
         0.00000E+00
         0.00000E+00
         0.00000E+00
         0.00000E+00
         0.00000E+00
         0.00000E+00
         0.00000E+00
         0.00000E+00
         0.00000E+00
         0.00000E+00
         0.00000E+00
         0.00000E+00
         0.00000E+00
         0.00000E+00
         0.00000E+00
         0.00000E+00
         0.00000E+00
         0.00000E+00
         0.00000E+00
         0.00000E+00
         0.00000E+00
         0.00000E+00
         0.00000E+00
         0.00000E+00
         0.00000E+00
         0.00000E+00
         0.00000E+00
         0.00000E+00
         0.00000E+00
         0.00000E+00
         0.00000E+00
         0.00000E+00
         0.00000E+00
         0.00000E+00
         0.00000E+00
         0.00000E+00
         0.00000E+00
         0.00000E+00
         0.00000E+00
         0.00000E+00
         0.00000E+00
         0.00000E+00
         0.00000E+00
         0.00000E+00
         0.00000E+00
         0.00000E+00
         0.00000E+00
         0.00000E+00
         0.00000E+00
         0.00000E+00
         0.00000E+00
         0.00000E+00
         0.00000E+00
         0.00000E+00
         0.00000E+00
         0.00000E+00
         0.00000E+00
         0.00000E+00
         0.00000E+00
         0.00000E+00
         0.00000E+00
         0.00000E+00
         0.00000E+00
         0.00000E+00
         0.00000E+00
         0.00000E+00
         0.00000E+00
         0.00000E+00
         0.00000E+00
         0.00000E+00
         0.00000E+00
         0.00000E+00
         0.00000E+00
         0.00000E+00
         0.00000E+00
         0.00000E+00
         0.00000E+00
         0.00000E+00
         0.00000E+00
         0.00000E+00
         0.00000E+00
         0.00000E+00
         0.00000E+00
         0.00000E+00
         0.00000E+00
  
SCALARS           initial_coordinate_x  double 1
LOOKUP_TABLE default
         0.10378E-02
         0.17452E-02
         0.23177E-02
         0.16698E-02
         0.10379E-02
         0.17453E-02
         0.23178E-02
         0.16700E-02
         0.30377E-02
         0.27791E-02
         0.30377E-02
         0.27788E-02
         0.12850E-02
         0.65139E-03
         0.12851E-02
         0.65164E-03
         0.12757E-03
        -0.12822E-03
         0.12783E-03
        -0.12804E-03
         0.94500E-03
         0.11327E-02
         0.17490E-02
         0.94533E-03
         0.11330E-02
         0.17494E-02
         0.40588E-03
         0.39779E-03
         0.40594E-03
         0.39781E-03
        -0.76303E-03
        -0.86604E-03
         0.46119E-03
        -0.76268E-03
        -0.86593E-03
         0.46164E-03
        -0.18300E-02
        -0.18440E-02
        -0.18297E-02
        -0.18441E-02
        -0.27238E-02
        -0.28028E-02
        -0.27238E-02
        -0.28031E-02
        -0.25365E-02
        -0.19287E-02
        -0.25363E-02
        -0.19283E-02
        -0.99363E-03
        -0.99377E-03
        -0.14380E-02
        -0.14377E-02
        -0.31574E-03
        -0.31594E-03
        -0.11068E-02
        -0.11071E-02
        -0.18845E-02
        -0.18713E-02
        -0.18846E-02
        -0.18714E-02
        -0.15871E-03
        -0.94089E-03
        -0.15844E-03
        -0.94029E-03
         0.78856E-03
         0.78922E-03
         0.17211E-02
         0.17211E-02
         0.32050E-02
         0.28046E-02
         0.32047E-02
         0.28047E-02
         0.23059E-02
         0.23060E-02
        -0.40614E-03
        -0.40627E-03
        -0.12092E-02
        -0.12092E-02
        -0.19448E-02
        -0.19448E-02
        -0.25029E-02
        -0.26371E-02
        -0.25029E-02
        -0.26372E-02
        -0.27671E-02
        -0.27674E-02
        -0.21123E-02
        -0.21122E-02
        -0.16087E-02
        -0.16087E-02
        -0.11939E-02
        -0.58641E-03
        -0.11937E-02
        -0.58606E-03
         0.20912E-03
         0.20952E-03
         0.10586E-02
         0.10589E-02
         0.18413E-02
         0.18413E-02
         0.24544E-02
         0.26022E-02
         0.24543E-02
         0.26021E-02
         0.37964E-02
         0.39100E-02
         0.37964E-02
         0.39100E-02
         0.34621E-02
         0.34621E-02
         0.29267E-02
         0.29267E-02
         0.22211E-02
         0.22211E-02
         0.13865E-02
         0.13865E-02
         0.47130E-03
         0.47130E-03
        -0.47130E-03
        -0.47130E-03
        -0.13865E-02
        -0.13865E-02
        -0.22211E-02
        -0.22211E-02
        -0.29267E-02
        -0.29267E-02
        -0.34621E-02
        -0.34621E-02
        -0.37964E-02
        -0.37964E-02
        -0.39100E-02
        -0.39100E-02
        -0.37964E-02
        -0.37964E-02
        -0.34621E-02
        -0.34621E-02
        -0.29267E-02
        -0.29267E-02
        -0.22211E-02
        -0.22211E-02
        -0.13865E-02
        -0.13865E-02
        -0.47130E-03
        -0.47130E-03
         0.47130E-03
         0.47130E-03
         0.13865E-02
         0.13865E-02
         0.22211E-02
         0.22211E-02
         0.29267E-02
         0.29267E-02
         0.34621E-02
         0.34621E-02
         0.37964E-02
         0.37964E-02
         0.10376E-02
         0.17450E-02
         0.23175E-02
         0.16696E-02
         0.30377E-02
         0.27795E-02
         0.12849E-02
         0.65115E-03
         0.12731E-03
        -0.12841E-03
         0.94467E-03
         0.11323E-02
         0.17487E-02
         0.40583E-03
         0.39777E-03
        -0.76338E-03
        -0.86615E-03
         0.46074E-03
        -0.18303E-02
        -0.18439E-02
        -0.27238E-02
        -0.28025E-02
        -0.25366E-02
        -0.19292E-02
        -0.99349E-03
        -0.14384E-02
        -0.31554E-03
        -0.11064E-02
        -0.18845E-02
        -0.18712E-02
        -0.15899E-03
        -0.94149E-03
         0.78790E-03
         0.17210E-02
         0.32053E-02
         0.28046E-02
         0.23058E-02
        -0.40600E-03
        -0.12092E-02
        -0.19447E-02
        -0.25028E-02
        -0.26370E-02
        -0.27668E-02
        -0.21125E-02
        -0.16088E-02
        -0.11940E-02
        -0.58676E-03
         0.20871E-03
         0.10583E-02
         0.18413E-02
         0.24545E-02
         0.26022E-02
         0.37964E-02
         0.39100E-02
         0.34621E-02
         0.29267E-02
         0.22211E-02
         0.13865E-02
         0.47130E-03
        -0.47130E-03
        -0.13865E-02
        -0.22211E-02
        -0.29267E-02
        -0.34621E-02
        -0.37964E-02
        -0.39100E-02
        -0.37964E-02
        -0.34621E-02
        -0.29267E-02
        -0.22211E-02
        -0.13865E-02
        -0.47130E-03
         0.47130E-03
         0.13865E-02
         0.22211E-02
         0.29267E-02
         0.34621E-02
         0.37964E-02
         0.10375E-02
         0.17448E-02
         0.23174E-02
         0.16694E-02
         0.30377E-02
         0.27798E-02
         0.12848E-02
         0.65090E-03
         0.12705E-03
        -0.12859E-03
         0.94434E-03
         0.11320E-02
         0.17483E-02
         0.40577E-03
         0.39776E-03
        -0.76374E-03
        -0.86626E-03
         0.46029E-03
        -0.18306E-02
        -0.18438E-02
        -0.27238E-02
        -0.28022E-02
        -0.25368E-02
        -0.19296E-02
        -0.99334E-03
        -0.14387E-02
        -0.31534E-03
        -0.11061E-02
        -0.18844E-02
        -0.18710E-02
        -0.15926E-03
        -0.94209E-03
         0.78724E-03
         0.17210E-02
         0.32056E-02
         0.28046E-02
         0.23057E-02
        -0.40586E-03
        -0.12092E-02
        -0.19447E-02
        -0.25028E-02
        -0.26369E-02
        -0.27665E-02
        -0.21126E-02
        -0.16088E-02
        -0.11941E-02
        -0.58711E-03
         0.20830E-03
         0.10580E-02
         0.18414E-02
         0.24546E-02
         0.26023E-02
         0.37964E-02
         0.39100E-02
         0.34621E-02
         0.29267E-02
         0.22211E-02
         0.13865E-02
         0.47130E-03
        -0.47130E-03
        -0.13865E-02
        -0.22211E-02
        -0.29267E-02
        -0.34621E-02
        -0.37964E-02
        -0.39100E-02
        -0.37964E-02
        -0.34621E-02
        -0.29267E-02
        -0.22211E-02
        -0.13865E-02
        -0.47130E-03
         0.47130E-03
         0.13865E-02
         0.22211E-02
         0.29267E-02
         0.34621E-02
         0.37964E-02
         0.10374E-02
         0.17446E-02
         0.23173E-02
         0.16692E-02
         0.30376E-02
         0.27801E-02
         0.12847E-02
         0.65065E-03
         0.12678E-03
        -0.12878E-03
         0.94401E-03
         0.11316E-02
         0.17479E-02
         0.40572E-03
         0.39774E-03
        -0.76409E-03
        -0.86637E-03
         0.45985E-03
        -0.18309E-02
        -0.18437E-02
        -0.27237E-02
        -0.28020E-02
        -0.25369E-02
        -0.19300E-02
        -0.99320E-03
        -0.14391E-02
        -0.31514E-03
        -0.11057E-02
        -0.18844E-02
        -0.18709E-02
        -0.15954E-03
        -0.94269E-03
         0.78658E-03
         0.17209E-02
         0.32060E-02
         0.28046E-02
         0.23056E-02
        -0.40572E-03
        -0.12092E-02
        -0.19446E-02
        -0.25028E-02
        -0.26368E-02
        -0.27662E-02
        -0.21128E-02
        -0.16088E-02
        -0.11942E-02
        -0.58746E-03
         0.20790E-03
         0.10577E-02
         0.18414E-02
         0.24548E-02
         0.26024E-02
         0.37964E-02
         0.39100E-02
         0.34621E-02
         0.29267E-02
         0.22211E-02
         0.13865E-02
         0.47130E-03
        -0.47130E-03
        -0.13865E-02
        -0.22211E-02
        -0.29267E-02
        -0.34621E-02
        -0.37964E-02
        -0.39100E-02
        -0.37964E-02
        -0.34621E-02
        -0.29267E-02
        -0.22211E-02
        -0.13865E-02
        -0.47130E-03
         0.47130E-03
         0.13865E-02
         0.22211E-02
         0.29267E-02
         0.34621E-02
         0.37964E-02
         0.10373E-02
         0.17445E-02
         0.23172E-02
         0.16689E-02
         0.30376E-02
         0.27805E-02
         0.12846E-02
         0.65041E-03
         0.12652E-03
        -0.12896E-03
         0.94367E-03
         0.11313E-02
         0.17475E-02
         0.40566E-03
         0.39772E-03
        -0.76444E-03
        -0.86648E-03
         0.45940E-03
        -0.18312E-02
        -0.18436E-02
        -0.27237E-02
        -0.28017E-02
        -0.25371E-02
        -0.19305E-02
        -0.99305E-03
        -0.14394E-02
        -0.31494E-03
        -0.11054E-02
        -0.18843E-02
        -0.18708E-02
        -0.15981E-03
        -0.94328E-03
         0.78592E-03
         0.17209E-02
         0.32063E-02
         0.28045E-02
         0.23055E-02
        -0.40558E-03
        -0.12092E-02
        -0.19446E-02
        -0.25027E-02
        -0.26367E-02
        -0.27658E-02
        -0.21129E-02
        -0.16089E-02
        -0.11943E-02
        -0.58781E-03
         0.20749E-03
         0.10574E-02
         0.18415E-02
         0.24549E-02
         0.26025E-02
         0.37964E-02
         0.39100E-02
         0.34621E-02
         0.29267E-02
         0.22211E-02
         0.13865E-02
         0.47130E-03
        -0.47130E-03
        -0.13865E-02
        -0.22211E-02
        -0.29267E-02
        -0.34621E-02
        -0.37964E-02
        -0.39100E-02
        -0.37964E-02
        -0.34621E-02
        -0.29267E-02
        -0.22211E-02
        -0.13865E-02
        -0.47130E-03
         0.47130E-03
         0.13865E-02
         0.22211E-02
         0.29267E-02
         0.34621E-02
         0.37964E-02
         0.10372E-02
         0.17443E-02
         0.23171E-02
         0.16687E-02
         0.30376E-02
         0.27808E-02
         0.12845E-02
         0.65016E-03
         0.12626E-03
        -0.12915E-03
         0.94334E-03
         0.11310E-02
         0.17471E-02
         0.40561E-03
         0.39770E-03
        -0.76480E-03
        -0.86659E-03
         0.45895E-03
        -0.18315E-02
        -0.18435E-02
        -0.27237E-02
        -0.28014E-02
        -0.25372E-02
        -0.19309E-02
        -0.99291E-03
        -0.14398E-02
        -0.31474E-03
        -0.11051E-02
        -0.18843E-02
        -0.18706E-02
        -0.16009E-03
        -0.94388E-03
         0.78526E-03
         0.17208E-02
         0.32066E-02
         0.28045E-02
         0.23053E-02
        -0.40545E-03
        -0.12092E-02
        -0.19446E-02
        -0.25027E-02
        -0.26366E-02
        -0.27655E-02
        -0.21130E-02
        -0.16089E-02
        -0.11944E-02
        -0.58816E-03
         0.20709E-03
         0.10571E-02
         0.18415E-02
         0.24550E-02
         0.26025E-02
         0.37964E-02
         0.39100E-02
         0.34621E-02
         0.29267E-02
         0.22211E-02
         0.13865E-02
         0.47130E-03
        -0.47130E-03
        -0.13865E-02
        -0.22211E-02
        -0.29267E-02
        -0.34621E-02
        -0.37964E-02
        -0.39100E-02
        -0.37964E-02
        -0.34621E-02
        -0.29267E-02
        -0.22211E-02
        -0.13865E-02
        -0.47130E-03
         0.47130E-03
         0.13865E-02
         0.22211E-02
         0.29267E-02
         0.34621E-02
         0.37964E-02
         0.10371E-02
         0.17441E-02
         0.23169E-02
         0.16685E-02
         0.30376E-02
         0.27812E-02
         0.12844E-02
         0.64992E-03
         0.12600E-03
        -0.12933E-03
         0.94301E-03
         0.11306E-02
         0.17467E-02
         0.40556E-03
         0.39769E-03
        -0.76515E-03
        -0.86670E-03
         0.45850E-03
        -0.18318E-02
        -0.18434E-02
        -0.27236E-02
        -0.28011E-02
        -0.25374E-02
        -0.19313E-02
        -0.99277E-03
        -0.14401E-02
        -0.31454E-03
        -0.11047E-02
        -0.18842E-02
        -0.18705E-02
        -0.16036E-03
        -0.94448E-03
         0.78460E-03
         0.17208E-02
         0.32070E-02
         0.28045E-02
         0.23052E-02
        -0.40531E-03
        -0.12092E-02
        -0.19445E-02
        -0.25027E-02
        -0.26366E-02
        -0.27652E-02
        -0.21132E-02
        -0.16090E-02
        -0.11946E-02
        -0.58851E-03
         0.20668E-03
         0.10567E-02
         0.18416E-02
         0.24551E-02
         0.26026E-02
         0.37964E-02
         0.39100E-02
         0.34621E-02
         0.29267E-02
         0.22211E-02
         0.13865E-02
         0.47130E-03
        -0.47130E-03
        -0.13865E-02
        -0.22211E-02
        -0.29267E-02
        -0.34621E-02
        -0.37964E-02
        -0.39100E-02
        -0.37964E-02
        -0.34621E-02
        -0.29267E-02
        -0.22211E-02
        -0.13865E-02
        -0.47130E-03
         0.47130E-03
         0.13865E-02
         0.22211E-02
         0.29267E-02
         0.34621E-02
         0.37964E-02
         0.10370E-02
         0.17439E-02
         0.23168E-02
         0.16683E-02
         0.30375E-02
         0.27815E-02
         0.12843E-02
         0.64967E-03
         0.12573E-03
        -0.12952E-03
         0.94268E-03
         0.11303E-02
         0.17463E-02
         0.40550E-03
         0.39767E-03
        -0.76551E-03
        -0.86680E-03
         0.45806E-03
        -0.18321E-02
        -0.18433E-02
        -0.27236E-02
        -0.28009E-02
        -0.25375E-02
        -0.19317E-02
        -0.99262E-03
        -0.14405E-02
        -0.31434E-03
        -0.11044E-02
        -0.18842E-02
        -0.18704E-02
        -0.16064E-03
        -0.94508E-03
         0.78394E-03
         0.17208E-02
         0.32073E-02
         0.28045E-02
         0.23051E-02
        -0.40517E-03
        -0.12092E-02
        -0.19445E-02
        -0.25026E-02
        -0.26365E-02
        -0.27649E-02
        -0.21133E-02
        -0.16090E-02
        -0.11947E-02
        -0.58886E-03
         0.20627E-03
         0.10564E-02
         0.18416E-02
         0.24553E-02
         0.26027E-02
         0.37964E-02
         0.39100E-02
         0.34621E-02
         0.29267E-02
         0.22211E-02
         0.13865E-02
         0.47130E-03
        -0.47130E-03
        -0.13865E-02
        -0.22211E-02
        -0.29267E-02
        -0.34621E-02
        -0.37964E-02
        -0.39100E-02
        -0.37964E-02
        -0.34621E-02
        -0.29267E-02
        -0.22211E-02
        -0.13865E-02
        -0.47130E-03
         0.47130E-03
         0.13865E-02
         0.22211E-02
         0.29267E-02
         0.34621E-02
         0.37964E-02
         0.10368E-02
         0.17438E-02
         0.23167E-02
         0.16681E-02
         0.30375E-02
         0.27819E-02
         0.12842E-02
         0.64943E-03
         0.12547E-03
        -0.12970E-03
         0.94235E-03
         0.11300E-02
         0.17459E-02
         0.40545E-03
         0.39766E-03
        -0.76586E-03
        -0.86691E-03
         0.45761E-03
        -0.18324E-02
        -0.18432E-02
        -0.27236E-02
        -0.28006E-02
        -0.25377E-02
        -0.19322E-02
        -0.99248E-03
        -0.14408E-02
        -0.31414E-03
        -0.11040E-02
        -0.18841E-02
        -0.18703E-02
        -0.16091E-03
        -0.94568E-03
         0.78328E-03
         0.17207E-02
         0.32076E-02
         0.28044E-02
         0.23050E-02
        -0.40503E-03
        -0.12092E-02
        -0.19445E-02
        -0.25026E-02
        -0.26364E-02
        -0.27646E-02
        -0.21134E-02
        -0.16091E-02
        -0.11948E-02
        -0.58921E-03
         0.20587E-03
         0.10561E-02
         0.18416E-02
         0.24554E-02
         0.26027E-02
         0.37964E-02
         0.39100E-02
         0.34621E-02
         0.29267E-02
         0.22211E-02
         0.13865E-02
         0.47130E-03
        -0.47130E-03
        -0.13865E-02
        -0.22211E-02
        -0.29267E-02
        -0.34621E-02
        -0.37964E-02
        -0.39100E-02
        -0.37964E-02
        -0.34621E-02
        -0.29267E-02
        -0.22211E-02
        -0.13865E-02
        -0.47130E-03
         0.47130E-03
         0.13865E-02
         0.22211E-02
         0.29267E-02
         0.34621E-02
         0.37964E-02
         0.10367E-02
         0.17436E-02
         0.23166E-02
         0.16679E-02
         0.30375E-02
         0.27822E-02
         0.12841E-02
         0.64918E-03
         0.12521E-03
        -0.12989E-03
         0.94202E-03
         0.11296E-02
         0.17455E-02
         0.40539E-03
         0.39764E-03
        -0.76621E-03
        -0.86702E-03
         0.45716E-03
        -0.18326E-02
        -0.18431E-02
        -0.27235E-02
        -0.28003E-02
        -0.25379E-02
        -0.19326E-02
        -0.99233E-03
        -0.14412E-02
        -0.31394E-03
        -0.11037E-02
        -0.18841E-02
        -0.18701E-02
        -0.16119E-03
        -0.94628E-03
         0.78262E-03
         0.17207E-02
         0.32079E-02
         0.28044E-02
         0.23049E-02
        -0.40490E-03
        -0.12093E-02
        -0.19444E-02
        -0.25026E-02
        -0.26363E-02
        -0.27643E-02
        -0.21136E-02
        -0.16091E-02
        -0.11949E-02
        -0.58956E-03
         0.20546E-03
         0.10558E-02
         0.18417E-02
         0.24555E-02
         0.26028E-02
         0.37964E-02
         0.39100E-02
         0.34621E-02
         0.29267E-02
         0.22211E-02
         0.13865E-02
         0.47130E-03
        -0.47130E-03
        -0.13865E-02
        -0.22211E-02
        -0.29267E-02
        -0.34621E-02
        -0.37964E-02
        -0.39100E-02
        -0.37964E-02
        -0.34621E-02
        -0.29267E-02
        -0.22211E-02
        -0.13865E-02
        -0.47130E-03
         0.47130E-03
         0.13865E-02
         0.22211E-02
         0.29267E-02
         0.34621E-02
         0.37964E-02
         0.10366E-02
         0.17434E-02
         0.23164E-02
         0.16677E-02
         0.30375E-02
         0.27825E-02
         0.12840E-02
         0.64894E-03
         0.12495E-03
        -0.13007E-03
         0.94169E-03
         0.11293E-02
         0.17451E-02
         0.40534E-03
         0.39762E-03
        -0.76657E-03
        -0.86713E-03
         0.45671E-03
        -0.18329E-02
        -0.18430E-02
        -0.27235E-02
        -0.28001E-02
        -0.25380E-02
        -0.19330E-02
        -0.99219E-03
        -0.14415E-02
        -0.31374E-03
        -0.11033E-02
        -0.18840E-02
        -0.18700E-02
        -0.16146E-03
        -0.94687E-03
         0.78195E-03
         0.17207E-02
         0.32083E-02
         0.28044E-02
         0.23048E-02
        -0.40476E-03
        -0.12093E-02
        -0.19444E-02
        -0.25026E-02
        -0.26362E-02
        -0.27640E-02
        -0.21137E-02
        -0.16091E-02
        -0.11950E-02
        -0.58991E-03
         0.20505E-03
         0.10555E-02
         0.18417E-02
         0.24556E-02
         0.26029E-02
         0.37964E-02
         0.39100E-02
         0.34621E-02
         0.29267E-02
         0.22211E-02
         0.13865E-02
         0.47130E-03
        -0.47130E-03
        -0.13865E-02
        -0.22211E-02
        -0.29267E-02
        -0.34621E-02
        -0.37964E-02
        -0.39100E-02
        -0.37964E-02
        -0.34621E-02
        -0.29267E-02
        -0.22211E-02
        -0.13865E-02
        -0.47130E-03
         0.47130E-03
         0.13865E-02
         0.22211E-02
         0.29267E-02
         0.34621E-02
         0.37964E-02
         0.10365E-02
         0.17432E-02
         0.23163E-02
         0.16675E-02
         0.30374E-02
         0.27829E-02
         0.12839E-02
         0.64869E-03
         0.12468E-03
        -0.13026E-03
         0.94135E-03
         0.11289E-02
         0.17447E-02
         0.40528E-03
         0.39760E-03
        -0.76692E-03
        -0.86724E-03
         0.45626E-03
        -0.18332E-02
        -0.18430E-02
        -0.27235E-02
        -0.27998E-02
        -0.25382E-02
        -0.19334E-02
        -0.99205E-03
        -0.14419E-02
        -0.31354E-03
        -0.11030E-02
        -0.18840E-02
        -0.18699E-02
        -0.16174E-03
        -0.94747E-03
         0.78129E-03
         0.17206E-02
         0.32086E-02
         0.28044E-02
         0.23047E-02
        -0.40462E-03
        -0.12093E-02
        -0.19444E-02
        -0.25025E-02
        -0.26361E-02
        -0.27637E-02
        -0.21139E-02
        -0.16092E-02
        -0.11951E-02
        -0.59025E-03
         0.20465E-03
         0.10552E-02
         0.18418E-02
         0.24558E-02
         0.26030E-02
         0.37964E-02
         0.39100E-02
         0.34621E-02
         0.29267E-02
         0.22211E-02
         0.13865E-02
         0.47130E-03
        -0.47130E-03
        -0.13865E-02
        -0.22211E-02
        -0.29267E-02
        -0.34621E-02
        -0.37964E-02
        -0.39100E-02
        -0.37964E-02
        -0.34621E-02
        -0.29267E-02
        -0.22211E-02
        -0.13865E-02
        -0.47130E-03
         0.47130E-03
         0.13865E-02
         0.22211E-02
         0.29267E-02
         0.34621E-02
         0.37964E-02
         0.10364E-02
         0.17430E-02
         0.23162E-02
         0.16672E-02
         0.30374E-02
         0.27832E-02
         0.12838E-02
         0.64845E-03
         0.12442E-03
        -0.13044E-03
         0.94102E-03
         0.11286E-02
         0.17443E-02
         0.40523E-03
         0.39759E-03
        -0.76727E-03
        -0.86735E-03
         0.45582E-03
        -0.18335E-02
        -0.18429E-02
        -0.27235E-02
        -0.27995E-02
        -0.25383E-02
        -0.19339E-02
        -0.99190E-03
        -0.14422E-02
        -0.31334E-03
        -0.11026E-02
        -0.18839E-02
        -0.18697E-02
        -0.16201E-03
        -0.94807E-03
         0.78063E-03
         0.17206E-02
         0.32089E-02
         0.28043E-02
         0.23046E-02
        -0.40448E-03
        -0.12093E-02
        -0.19443E-02
        -0.25025E-02
        -0.26360E-02
        -0.27633E-02
        -0.21140E-02
        -0.16092E-02
        -0.11953E-02
        -0.59060E-03
         0.20424E-03
         0.10549E-02
         0.18418E-02
         0.24559E-02
         0.26030E-02
         0.37964E-02
         0.39100E-02
         0.34621E-02
         0.29267E-02
         0.22211E-02
         0.13865E-02
         0.47130E-03
        -0.47130E-03
        -0.13865E-02
        -0.22211E-02
        -0.29267E-02
        -0.34621E-02
        -0.37964E-02
        -0.39100E-02
        -0.37964E-02
        -0.34621E-02
        -0.29267E-02
        -0.22211E-02
        -0.13865E-02
        -0.47130E-03
         0.47130E-03
         0.13865E-02
         0.22211E-02
         0.29267E-02
         0.34621E-02
         0.37964E-02
         0.10363E-02
         0.17429E-02
         0.23161E-02
         0.16670E-02
         0.30374E-02
         0.27836E-02
         0.12837E-02
         0.64820E-03
         0.12416E-03
        -0.13063E-03
         0.94069E-03
         0.11282E-02
         0.17439E-02
         0.40518E-03
         0.39757E-03
        -0.76763E-03
        -0.86746E-03
         0.45537E-03
        -0.18338E-02
        -0.18428E-02
        -0.27234E-02
        -0.27992E-02
        -0.25385E-02
        -0.19343E-02
        -0.99176E-03
        -0.14425E-02
        -0.31314E-03
        -0.11023E-02
        -0.18839E-02
        -0.18696E-02
        -0.16229E-03
        -0.94867E-03
         0.77997E-03
         0.17205E-02
         0.32092E-02
         0.28043E-02
         0.23044E-02
        -0.40434E-03
        -0.12093E-02
        -0.19443E-02
        -0.25025E-02
        -0.26359E-02
        -0.27630E-02
        -0.21141E-02
        -0.16093E-02
        -0.11954E-02
        -0.59095E-03
         0.20384E-03
         0.10546E-02
         0.18419E-02
         0.24560E-02
         0.26031E-02
         0.37964E-02
         0.39100E-02
         0.34621E-02
         0.29267E-02
         0.22211E-02
         0.13865E-02
         0.47130E-03
        -0.47130E-03
        -0.13865E-02
        -0.22211E-02
        -0.29267E-02
        -0.34621E-02
        -0.37964E-02
        -0.39100E-02
        -0.37964E-02
        -0.34621E-02
        -0.29267E-02
        -0.22211E-02
        -0.13865E-02
        -0.47130E-03
         0.47130E-03
         0.13865E-02
         0.22211E-02
         0.29267E-02
         0.34621E-02
         0.37964E-02
         0.10362E-02
         0.17427E-02
         0.23160E-02
         0.16668E-02
         0.30373E-02
         0.27839E-02
         0.12836E-02
         0.64796E-03
         0.12390E-03
        -0.13082E-03
         0.94036E-03
         0.11279E-02
         0.17435E-02
         0.40512E-03
         0.39755E-03
        -0.76798E-03
        -0.86756E-03
         0.45492E-03
        -0.18341E-02
        -0.18427E-02
        -0.27234E-02
        -0.27990E-02
        -0.25386E-02
        -0.19347E-02
        -0.99161E-03
        -0.14429E-02
        -0.31294E-03
        -0.11019E-02
        -0.18838E-02
        -0.18695E-02
        -0.16256E-03
        -0.94927E-03
         0.77931E-03
         0.17205E-02
         0.32096E-02
         0.28043E-02
         0.23043E-02
        -0.40420E-03
        -0.12093E-02
        -0.19443E-02
        -0.25024E-02
        -0.26358E-02
        -0.27627E-02
        -0.21143E-02
        -0.16093E-02
        -0.11955E-02
        -0.59130E-03
         0.20343E-03
         0.10543E-02
         0.18419E-02
         0.24561E-02
         0.26032E-02
         0.37964E-02
         0.39100E-02
         0.34621E-02
         0.29267E-02
         0.22211E-02
         0.13865E-02
         0.47130E-03
        -0.47130E-03
        -0.13865E-02
        -0.22211E-02
        -0.29267E-02
        -0.34621E-02
        -0.37964E-02
        -0.39100E-02
        -0.37964E-02
        -0.34621E-02
        -0.29267E-02
        -0.22211E-02
        -0.13865E-02
        -0.47130E-03
         0.47130E-03
         0.13865E-02
         0.22211E-02
         0.29267E-02
         0.34621E-02
         0.37964E-02
         0.10360E-02
         0.17425E-02
         0.23158E-02
         0.16666E-02
         0.30373E-02
         0.27842E-02
         0.12835E-02
         0.64771E-03
         0.12363E-03
        -0.13100E-03
         0.94003E-03
         0.11276E-02
         0.17432E-02
         0.40507E-03
         0.39754E-03
        -0.76834E-03
        -0.86767E-03
         0.45447E-03
        -0.18344E-02
        -0.18426E-02
        -0.27234E-02
        -0.27987E-02
        -0.25388E-02
        -0.19352E-02
        -0.99147E-03
        -0.14433E-02
        -0.31274E-03
        -0.11016E-02
        -0.18838E-02
        -0.18694E-02
        -0.16284E-03
        -0.94986E-03
         0.77865E-03
         0.17205E-02
         0.32099E-02
         0.28042E-02
         0.23042E-02
        -0.40407E-03
        -0.12093E-02
        -0.19442E-02
        -0.25024E-02
        -0.26358E-02
        -0.27624E-02
        -0.21144E-02
        -0.16094E-02
        -0.11956E-02
        -0.59165E-03
         0.20302E-03
         0.10540E-02
         0.18419E-02
         0.24563E-02
         0.26033E-02
         0.37964E-02
         0.39100E-02
         0.34621E-02
         0.29267E-02
         0.22211E-02
         0.13865E-02
         0.47130E-03
        -0.47130E-03
        -0.13865E-02
        -0.22211E-02
        -0.29267E-02
        -0.34621E-02
        -0.37964E-02
        -0.39100E-02
        -0.37964E-02
        -0.34621E-02
        -0.29267E-02
        -0.22211E-02
        -0.13865E-02
        -0.47130E-03
         0.47130E-03
         0.13865E-02
         0.22211E-02
         0.29267E-02
         0.34621E-02
         0.37964E-02
         0.10359E-02
         0.17423E-02
         0.23157E-02
         0.16664E-02
         0.30373E-02
         0.27846E-02
         0.12834E-02
         0.64747E-03
         0.12337E-03
        -0.13118E-03
         0.93970E-03
         0.11272E-02
         0.17428E-02
         0.40501E-03
         0.39752E-03
        -0.76869E-03
        -0.86778E-03
         0.45402E-03
        -0.18347E-02
        -0.18425E-02
        -0.27234E-02
        -0.27984E-02
        -0.25389E-02
        -0.19356E-02
        -0.99133E-03
        -0.14436E-02
        -0.31254E-03
        -0.11013E-02
        -0.18837E-02
        -0.18692E-02
        -0.16311E-03
        -0.95046E-03
         0.77799E-03
         0.17204E-02
         0.32102E-02
         0.28042E-02
         0.23041E-02
        -0.40393E-03
        -0.12093E-02
        -0.19442E-02
        -0.25024E-02
        -0.26357E-02
        -0.27621E-02
        -0.21146E-02
        -0.16094E-02
        -0.11957E-02
        -0.59200E-03
         0.20262E-03
         0.10536E-02
         0.18420E-02
         0.24564E-02
         0.26033E-02
         0.37964E-02
         0.39100E-02
         0.34621E-02
         0.29267E-02
         0.22211E-02
         0.13865E-02
         0.47130E-03
        -0.47130E-03
        -0.13865E-02
        -0.22211E-02
        -0.29267E-02
        -0.34621E-02
        -0.37964E-02
        -0.39100E-02
        -0.37964E-02
        -0.34621E-02
        -0.29267E-02
        -0.22211E-02
        -0.13865E-02
        -0.47130E-03
         0.47130E-03
         0.13865E-02
         0.22211E-02
         0.29267E-02
         0.34621E-02
         0.37964E-02
         0.10358E-02
         0.17422E-02
         0.23156E-02
         0.16662E-02
         0.30373E-02
         0.27849E-02
         0.12833E-02
         0.64722E-03
         0.12311E-03
        -0.13137E-03
         0.93937E-03
         0.11269E-02
         0.17424E-02
         0.40496E-03
         0.39750E-03
        -0.76904E-03
        -0.86789E-03
         0.45358E-03
        -0.18350E-02
        -0.18424E-02
        -0.27233E-02
        -0.27981E-02
        -0.25391E-02
        -0.19360E-02
        -0.99118E-03
        -0.14440E-02
        -0.31234E-03
        -0.11009E-02
        -0.18836E-02
        -0.18691E-02
        -0.16339E-03
        -0.95106E-03
         0.77733E-03
         0.17204E-02
         0.32105E-02
         0.28042E-02
         0.23040E-02
        -0.40379E-03
        -0.12093E-02
        -0.19441E-02
        -0.25023E-02
        -0.26356E-02
        -0.27618E-02
        -0.21147E-02
        -0.16094E-02
        -0.11958E-02
        -0.59235E-03
         0.20221E-03
         0.10533E-02
         0.18420E-02
         0.24565E-02
         0.26034E-02
         0.37964E-02
         0.39100E-02
         0.34621E-02
         0.29267E-02
         0.22211E-02
         0.13865E-02
         0.47130E-03
        -0.47130E-03
        -0.13865E-02
        -0.22211E-02
        -0.29267E-02
        -0.34621E-02
        -0.37964E-02
        -0.39100E-02
        -0.37964E-02
        -0.34621E-02
        -0.29267E-02
        -0.22211E-02
        -0.13865E-02
        -0.47130E-03
         0.47130E-03
         0.13865E-02
         0.22211E-02
         0.29267E-02
         0.34621E-02
         0.37964E-02
         0.10357E-02
         0.17420E-02
         0.23155E-02
         0.16660E-02
         0.30372E-02
         0.27853E-02
         0.12832E-02
         0.64698E-03
         0.12285E-03
        -0.13155E-03
         0.93903E-03
         0.11266E-02
         0.17420E-02
         0.40490E-03
         0.39749E-03
        -0.76940E-03
        -0.86800E-03
         0.45313E-03
        -0.18353E-02
        -0.18423E-02
        -0.27233E-02
        -0.27979E-02
        -0.25393E-02
        -0.19365E-02
        -0.99104E-03
        -0.14443E-02
        -0.31214E-03
        -0.11006E-02
        -0.18836E-02
        -0.18690E-02
        -0.16366E-03
        -0.95166E-03
         0.77667E-03
         0.17203E-02
         0.32109E-02
         0.28042E-02
         0.23039E-02
        -0.40365E-03
        -0.12093E-02
        -0.19441E-02
        -0.25023E-02
        -0.26355E-02
        -0.27615E-02
        -0.21148E-02
        -0.16095E-02
        -0.11960E-02
        -0.59270E-03
         0.20180E-03
         0.10530E-02
         0.18421E-02
         0.24566E-02
         0.26035E-02
         0.37964E-02
         0.39100E-02
         0.34621E-02
         0.29267E-02
         0.22211E-02
         0.13865E-02
         0.47130E-03
        -0.47130E-03
        -0.13865E-02
        -0.22211E-02
        -0.29267E-02
        -0.34621E-02
        -0.37964E-02
        -0.39100E-02
        -0.37964E-02
        -0.34621E-02
        -0.29267E-02
        -0.22211E-02
        -0.13865E-02
        -0.47130E-03
         0.47130E-03
         0.13865E-02
         0.22211E-02
         0.29267E-02
         0.34621E-02
         0.37964E-02
         0.10356E-02
         0.17418E-02
         0.23153E-02
         0.16657E-02
         0.30372E-02
         0.27856E-02
         0.12830E-02
         0.64673E-03
         0.12259E-03
        -0.13174E-03
         0.93870E-03
         0.11262E-02
         0.17416E-02
         0.40485E-03
         0.39747E-03
        -0.76975E-03
        -0.86811E-03
         0.45268E-03
        -0.18356E-02
        -0.18422E-02
        -0.27233E-02
        -0.27976E-02
        -0.25394E-02
        -0.19369E-02
        -0.99090E-03
        -0.14446E-02
        -0.31194E-03
        -0.11002E-02
        -0.18835E-02
        -0.18689E-02
        -0.16394E-03
        -0.95226E-03
         0.77601E-03
         0.17203E-02
         0.32112E-02
         0.28042E-02
         0.23038E-02
        -0.40352E-03
        -0.12093E-02
        -0.19441E-02
        -0.25023E-02
        -0.26354E-02
        -0.27612E-02
        -0.21150E-02
        -0.16095E-02
        -0.11961E-02
        -0.59305E-03
         0.20140E-03
         0.10527E-02
         0.18421E-02
         0.24568E-02
         0.26036E-02
         0.37964E-02
         0.39100E-02
         0.34621E-02
         0.29267E-02
         0.22211E-02
         0.13865E-02
         0.47130E-03
        -0.47130E-03
        -0.13865E-02
        -0.22211E-02
        -0.29267E-02
        -0.34621E-02
        -0.37964E-02
        -0.39100E-02
        -0.37964E-02
        -0.34621E-02
        -0.29267E-02
        -0.22211E-02
        -0.13865E-02
        -0.47130E-03
         0.47130E-03
         0.13865E-02
         0.22211E-02
         0.29267E-02
         0.34621E-02
         0.37964E-02
         0.10355E-02
         0.17416E-02
         0.23152E-02
         0.16655E-02
         0.30372E-02
         0.27860E-02
         0.12829E-02
         0.64649E-03
         0.12232E-03
        -0.13193E-03
         0.93837E-03
         0.11259E-02
         0.17412E-02
         0.40480E-03
         0.39745E-03
        -0.77011E-03
        -0.86822E-03
         0.45223E-03
        -0.18359E-02
        -0.18421E-02
        -0.27232E-02
        -0.27973E-02
        -0.25396E-02
        -0.19373E-02
        -0.99075E-03
        -0.14450E-02
        -0.31173E-03
        -0.10999E-02
        -0.18835E-02
        -0.18687E-02
        -0.16421E-03
        -0.95285E-03
         0.77535E-03
         0.17202E-02
         0.32115E-02
         0.28041E-02
         0.23037E-02
        -0.40338E-03
        -0.12093E-02
        -0.19440E-02
        -0.25023E-02
        -0.26353E-02
        -0.27609E-02
        -0.21151E-02
        -0.16096E-02
        -0.11962E-02
        -0.59340E-03
         0.20099E-03
         0.10524E-02
         0.18422E-02
         0.24569E-02
         0.26036E-02
         0.37964E-02
         0.39100E-02
         0.34621E-02
         0.29267E-02
         0.22211E-02
         0.13865E-02
         0.47130E-03
        -0.47130E-03
        -0.13865E-02
        -0.22211E-02
        -0.29267E-02
        -0.34621E-02
        -0.37964E-02
        -0.39100E-02
        -0.37964E-02
        -0.34621E-02
        -0.29267E-02
        -0.22211E-02
        -0.13865E-02
        -0.47130E-03
         0.47130E-03
         0.13865E-02
         0.22211E-02
         0.29267E-02
         0.34621E-02
         0.37964E-02
         0.10354E-02
         0.17414E-02
         0.23151E-02
         0.16653E-02
         0.30372E-02
         0.27863E-02
         0.12829E-02
         0.64624E-03
         0.12206E-03
        -0.13211E-03
         0.93804E-03
         0.11255E-02
         0.17408E-02
         0.40474E-03
         0.39744E-03
        -0.77046E-03
        -0.86832E-03
         0.45179E-03
        -0.18362E-02
        -0.18420E-02
        -0.27232E-02
        -0.27970E-02
        -0.25397E-02
        -0.19377E-02
        -0.99061E-03
        -0.14453E-02
        -0.31153E-03
        -0.10995E-02
        -0.18834E-02
        -0.18686E-02
        -0.16449E-03
        -0.95345E-03
         0.77469E-03
         0.17202E-02
         0.32119E-02
         0.28041E-02
         0.23036E-02
        -0.40324E-03
        -0.12093E-02
        -0.19440E-02
        -0.25022E-02
        -0.26352E-02
        -0.27606E-02
        -0.21152E-02
        -0.16096E-02
        -0.11963E-02
        -0.59375E-03
         0.20059E-03
         0.10521E-02
         0.18422E-02
         0.24570E-02
         0.26037E-02
         0.37964E-02
         0.39100E-02
         0.34621E-02
         0.29267E-02
         0.22211E-02
         0.13865E-02
         0.47130E-03
        -0.47130E-03
        -0.13865E-02
        -0.22211E-02
        -0.29267E-02
        -0.34621E-02
        -0.37964E-02
        -0.39100E-02
        -0.37964E-02
        -0.34621E-02
        -0.29267E-02
        -0.22211E-02
        -0.13865E-02
        -0.47130E-03
         0.47130E-03
         0.13865E-02
         0.22211E-02
         0.29267E-02
         0.34621E-02
         0.37964E-02
         0.10352E-02
         0.17413E-02
         0.23150E-02
         0.16651E-02
         0.30371E-02
         0.27866E-02
         0.12827E-02
         0.64600E-03
         0.12180E-03
        -0.13230E-03
         0.93771E-03
         0.11252E-02
         0.17404E-02
         0.40469E-03
         0.39742E-03
        -0.77081E-03
        -0.86843E-03
         0.45134E-03
        -0.18365E-02
        -0.18419E-02
        -0.27232E-02
        -0.27968E-02
        -0.25399E-02
        -0.19382E-02
        -0.99046E-03
        -0.14457E-02
        -0.31133E-03
        -0.10992E-02
        -0.18834E-02
        -0.18685E-02
        -0.16476E-03
        -0.95405E-03
         0.77402E-03
         0.17202E-02
         0.32122E-02
         0.28041E-02
         0.23034E-02
        -0.40310E-03
        -0.12093E-02
        -0.19440E-02
        -0.25022E-02
        -0.26351E-02
        -0.27602E-02
        -0.21154E-02
        -0.16097E-02
        -0.11964E-02
        -0.59409E-03
         0.20018E-03
         0.10518E-02
         0.18422E-02
         0.24571E-02
         0.26038E-02
         0.37964E-02
         0.39100E-02
         0.34621E-02
         0.29267E-02
         0.22211E-02
         0.13865E-02
         0.47130E-03
        -0.47130E-03
        -0.13865E-02
        -0.22211E-02
        -0.29267E-02
        -0.34621E-02
        -0.37964E-02
        -0.39100E-02
        -0.37964E-02
        -0.34621E-02
        -0.29267E-02
        -0.22211E-02
        -0.13865E-02
        -0.47130E-03
         0.47130E-03
         0.13865E-02
         0.22211E-02
         0.29267E-02
         0.34621E-02
         0.37964E-02
         0.10351E-02
         0.17411E-02
         0.23149E-02
         0.16649E-02
         0.30371E-02
         0.27870E-02
         0.12826E-02
         0.64575E-03
         0.12154E-03
        -0.13248E-03
         0.93738E-03
         0.11249E-02
         0.17400E-02
         0.40463E-03
         0.39740E-03
        -0.77117E-03
        -0.86854E-03
         0.45089E-03
        -0.18368E-02
        -0.18418E-02
        -0.27232E-02
        -0.27965E-02
        -0.25400E-02
        -0.19386E-02
        -0.99032E-03
        -0.14460E-02
        -0.31113E-03
        -0.10988E-02
        -0.18833E-02
        -0.18683E-02
        -0.16504E-03
        -0.95465E-03
         0.77336E-03
         0.17201E-02
         0.32125E-02
         0.28041E-02
         0.23033E-02
        -0.40296E-03
        -0.12093E-02
        -0.19439E-02
        -0.25022E-02
        -0.26350E-02
        -0.27599E-02
        -0.21155E-02
        -0.16097E-02
        -0.11965E-02
        -0.59444E-03
         0.19977E-03
         0.10515E-02
         0.18423E-02
         0.24573E-02
         0.26039E-02
         0.37964E-02
         0.39100E-02
         0.34621E-02
         0.29267E-02
         0.22211E-02
         0.13865E-02
         0.47130E-03
        -0.47130E-03
        -0.13865E-02
        -0.22211E-02
        -0.29267E-02
        -0.34621E-02
        -0.37964E-02
        -0.39100E-02
        -0.37964E-02
        -0.34621E-02
        -0.29267E-02
        -0.22211E-02
        -0.13865E-02
        -0.47130E-03
         0.47130E-03
         0.13865E-02
         0.22211E-02
         0.29267E-02
         0.34621E-02
         0.37964E-02
  
SCALARS           initial_coordinate_y  double 1
LOOKUP_TABLE default
         0.67292E-03
         0.12308E-02
         0.59151E-03
        -0.33775E-03
         0.67237E-03
         0.12301E-02
         0.59098E-03
        -0.33851E-03
         0.14882E-03
        -0.67643E-03
         0.14846E-03
        -0.67692E-03
         0.18412E-02
         0.14576E-02
         0.18410E-02
         0.14566E-02
         0.29933E-03
         0.11672E-02
         0.29819E-03
         0.11655E-02
         0.22748E-02
         0.28286E-02
         0.24238E-02
         0.22746E-02
         0.28291E-02
         0.24236E-02
         0.21685E-02
         0.29366E-02
         0.21684E-02
         0.29369E-02
        -0.10033E-02
         0.78969E-04
        -0.70318E-03
        -0.10032E-02
         0.78160E-04
        -0.70391E-03
        -0.71196E-03
         0.82749E-04
        -0.71210E-03
         0.82626E-04
        -0.77865E-03
         0.40713E-04
        -0.77882E-03
         0.40439E-04
        -0.15195E-02
        -0.13230E-02
        -0.15195E-02
        -0.13231E-02
         0.98847E-03
         0.98712E-03
        -0.17325E-02
        -0.17325E-02
         0.20220E-02
         0.20217E-02
         0.18615E-02
         0.18616E-02
         0.17175E-02
         0.90940E-03
         0.17175E-02
         0.90916E-03
        -0.19800E-02
        -0.23489E-02
        -0.19800E-02
        -0.23489E-02
        -0.17074E-02
        -0.17074E-02
        -0.14894E-02
        -0.14892E-02
         0.76036E-03
         0.12477E-02
         0.75936E-03
         0.12473E-02
         0.18665E-02
         0.18664E-02
         0.29038E-02
         0.29049E-02
         0.27207E-02
         0.27212E-02
         0.24642E-02
         0.24645E-02
         0.22359E-02
         0.16503E-02
         0.22359E-02
         0.16503E-02
         0.87493E-03
         0.87466E-03
        -0.21373E-02
        -0.21373E-02
        -0.26931E-02
        -0.26931E-02
        -0.31291E-02
        -0.30382E-02
        -0.31291E-02
        -0.30382E-02
        -0.28748E-02
        -0.28748E-02
        -0.26423E-02
        -0.26420E-02
        -0.23707E-02
        -0.23705E-02
        -0.21445E-02
        -0.15105E-02
        -0.21439E-02
        -0.15106E-02
         0.93572E-03
         0.00000E+00
         0.93572E-03
         0.00000E+00
         0.18171E-02
         0.18171E-02
         0.25928E-02
         0.25928E-02
         0.32179E-02
         0.32179E-02
         0.36559E-02
         0.36559E-02
         0.38815E-02
         0.38815E-02
         0.38815E-02
         0.38815E-02
         0.36559E-02
         0.36559E-02
         0.32179E-02
         0.32179E-02
         0.25928E-02
         0.25928E-02
         0.18171E-02
         0.18171E-02
         0.93572E-03
         0.93572E-03
         0.22152E-17
        -0.47884E-18
        -0.93572E-03
        -0.93572E-03
        -0.18171E-02
        -0.18171E-02
        -0.25928E-02
        -0.25928E-02
        -0.32179E-02
        -0.32179E-02
        -0.36559E-02
        -0.36559E-02
        -0.38815E-02
        -0.38815E-02
        -0.38815E-02
        -0.38815E-02
        -0.36559E-02
        -0.36559E-02
        -0.32179E-02
        -0.32179E-02
        -0.25928E-02
        -0.25928E-02
        -0.18171E-02
        -0.18171E-02
        -0.93572E-03
        -0.93572E-03
         0.67348E-03
         0.12314E-02
         0.59203E-03
        -0.33700E-03
         0.14918E-03
        -0.67594E-03
         0.18414E-02
         0.14586E-02
         0.30048E-03
         0.11690E-02
         0.22749E-02
         0.28282E-02
         0.24239E-02
         0.21685E-02
         0.29364E-02
        -0.10035E-02
         0.79778E-04
        -0.70245E-03
        -0.71182E-03
         0.82873E-04
        -0.77848E-03
         0.40986E-04
        -0.15194E-02
        -0.13228E-02
         0.98983E-03
        -0.17324E-02
         0.20223E-02
         0.18614E-02
         0.17175E-02
         0.90964E-03
        -0.19800E-02
        -0.23489E-02
        -0.17074E-02
        -0.14896E-02
         0.76137E-03
         0.12481E-02
         0.18665E-02
         0.29027E-02
         0.27202E-02
         0.24640E-02
         0.22359E-02
         0.16503E-02
         0.87519E-03
        -0.21373E-02
        -0.26932E-02
        -0.31291E-02
        -0.30382E-02
        -0.28748E-02
        -0.26426E-02
        -0.23709E-02
        -0.21450E-02
        -0.15104E-02
         0.93572E-03
         0.00000E+00
         0.18171E-02
         0.25928E-02
         0.32179E-02
         0.36559E-02
         0.38815E-02
         0.38815E-02
         0.36559E-02
         0.32179E-02
         0.25928E-02
         0.18171E-02
         0.93572E-03
        -0.47884E-18
        -0.93572E-03
        -0.18171E-02
        -0.25928E-02
        -0.32179E-02
        -0.36559E-02
        -0.38815E-02
        -0.38815E-02
        -0.36559E-02
        -0.32179E-02
        -0.25928E-02
        -0.18171E-02
        -0.93572E-03
         0.67403E-03
         0.12321E-02
         0.59255E-03
        -0.33624E-03
         0.14955E-03
        -0.67544E-03
         0.18415E-02
         0.14596E-02
         0.30163E-03
         0.11707E-02
         0.22750E-02
         0.28277E-02
         0.24241E-02
         0.21685E-02
         0.29361E-02
        -0.10036E-02
         0.80588E-04
        -0.70173E-03
        -0.71168E-03
         0.82996E-04
        -0.77831E-03
         0.41259E-04
        -0.15194E-02
        -0.13227E-02
         0.99119E-03
        -0.17324E-02
         0.20226E-02
         0.18613E-02
         0.17175E-02
         0.90988E-03
        -0.19801E-02
        -0.23490E-02
        -0.17074E-02
        -0.14899E-02
         0.76237E-03
         0.12485E-02
         0.18666E-02
         0.29017E-02
         0.27198E-02
         0.24638E-02
         0.22359E-02
         0.16503E-02
         0.87545E-03
        -0.21374E-02
        -0.26932E-02
        -0.31291E-02
        -0.30382E-02
        -0.28748E-02
        -0.26428E-02
        -0.23711E-02
        -0.21456E-02
        -0.15103E-02
         0.93572E-03
         0.00000E+00
         0.18171E-02
         0.25928E-02
         0.32179E-02
         0.36559E-02
         0.38815E-02
         0.38815E-02
         0.36559E-02
         0.32179E-02
         0.25928E-02
         0.18171E-02
         0.93572E-03
         0.39516E-17
        -0.93572E-03
        -0.18171E-02
        -0.25928E-02
        -0.32179E-02
        -0.36559E-02
        -0.38815E-02
        -0.38815E-02
        -0.36559E-02
        -0.32179E-02
        -0.25928E-02
        -0.18171E-02
        -0.93572E-03
         0.67459E-03
         0.12328E-02
         0.59308E-03
        -0.33549E-03
         0.14991E-03
        -0.67495E-03
         0.18417E-02
         0.14606E-02
         0.30278E-03
         0.11725E-02
         0.22752E-02
         0.28273E-02
         0.24242E-02
         0.21686E-02
         0.29359E-02
        -0.10038E-02
         0.81397E-04
        -0.70100E-03
        -0.71154E-03
         0.83120E-04
        -0.77814E-03
         0.41533E-04
        -0.15193E-02
        -0.13227E-02
         0.99254E-03
        -0.17324E-02
         0.20228E-02
         0.18611E-02
         0.17175E-02
         0.91012E-03
        -0.19801E-02
        -0.23490E-02
        -0.17074E-02
        -0.14901E-02
         0.76338E-03
         0.12490E-02
         0.18666E-02
         0.29006E-02
         0.27193E-02
         0.24636E-02
         0.22359E-02
         0.16503E-02
         0.87571E-03
        -0.21374E-02
        -0.26932E-02
        -0.31291E-02
        -0.30382E-02
        -0.28748E-02
        -0.26431E-02
        -0.23713E-02
        -0.21461E-02
        -0.15102E-02
         0.93572E-03
         0.00000E+00
         0.18171E-02
         0.25928E-02
         0.32179E-02
         0.36559E-02
         0.38815E-02
         0.38815E-02
         0.36559E-02
         0.32179E-02
         0.25928E-02
         0.18171E-02
         0.93572E-03
        -0.47884E-18
        -0.93572E-03
        -0.18171E-02
        -0.25928E-02
        -0.32179E-02
        -0.36559E-02
        -0.38815E-02
        -0.38815E-02
        -0.36559E-02
        -0.32179E-02
        -0.25928E-02
        -0.18171E-02
        -0.93572E-03
         0.67514E-03
         0.12334E-02
         0.59360E-03
        -0.33474E-03
         0.15027E-03
        -0.67446E-03
         0.18419E-02
         0.14616E-02
         0.30393E-03
         0.11742E-02
         0.22753E-02
         0.28269E-02
         0.24244E-02
         0.21686E-02
         0.29356E-02
        -0.10039E-02
         0.82206E-04
        -0.70028E-03
        -0.71140E-03
         0.83243E-04
        -0.77797E-03
         0.41806E-04
        -0.15193E-02
        -0.13226E-02
         0.99390E-03
        -0.17323E-02
         0.20231E-02
         0.18610E-02
         0.17175E-02
         0.91036E-03
        -0.19801E-02
        -0.23490E-02
        -0.17074E-02
        -0.14904E-02
         0.76439E-03
         0.12494E-02
         0.18666E-02
         0.28995E-02
         0.27188E-02
         0.24633E-02
         0.22359E-02
         0.16503E-02
         0.87597E-03
        -0.21374E-02
        -0.26932E-02
        -0.31291E-02
        -0.30382E-02
        -0.28748E-02
        -0.26434E-02
        -0.23715E-02
        -0.21467E-02
        -0.15101E-02
         0.93572E-03
         0.00000E+00
         0.18171E-02
         0.25928E-02
         0.32179E-02
         0.36559E-02
         0.38815E-02
         0.38815E-02
         0.36559E-02
         0.32179E-02
         0.25928E-02
         0.18171E-02
         0.93572E-03
        -0.47884E-18
        -0.93572E-03
        -0.18171E-02
        -0.25928E-02
        -0.32179E-02
        -0.36559E-02
        -0.38815E-02
        -0.38815E-02
        -0.36559E-02
        -0.32179E-02
        -0.25928E-02
        -0.18171E-02
        -0.93572E-03
         0.67570E-03
         0.12341E-02
         0.59412E-03
        -0.33398E-03
         0.15064E-03
        -0.67396E-03
         0.18421E-02
         0.14626E-02
         0.30507E-03
         0.11760E-02
         0.22754E-02
         0.28264E-02
         0.24245E-02
         0.21686E-02
         0.29353E-02
        -0.10040E-02
         0.83015E-04
        -0.69955E-03
        -0.71126E-03
         0.83367E-04
        -0.77780E-03
         0.42080E-04
        -0.15192E-02
        -0.13224E-02
         0.99526E-03
        -0.17323E-02
         0.20234E-02
         0.18609E-02
         0.17175E-02
         0.91060E-03
        -0.19801E-02
        -0.23490E-02
        -0.17074E-02
        -0.14906E-02
         0.76539E-03
         0.12498E-02
         0.18667E-02
         0.28984E-02
         0.27184E-02
         0.24631E-02
         0.22359E-02
         0.16503E-02
         0.87623E-03
        -0.21374E-02
        -0.26932E-02
        -0.31291E-02
        -0.30382E-02
        -0.28748E-02
        -0.26436E-02
        -0.23717E-02
        -0.21472E-02
        -0.15100E-02
         0.93572E-03
         0.00000E+00
         0.18171E-02
         0.25928E-02
         0.32179E-02
         0.36559E-02
         0.38815E-02
         0.38815E-02
         0.36559E-02
         0.32179E-02
         0.25928E-02
         0.18171E-02
         0.93572E-03
        -0.47884E-18
        -0.93572E-03
        -0.18171E-02
        -0.25928E-02
        -0.32179E-02
        -0.36559E-02
        -0.38815E-02
        -0.38815E-02
        -0.36559E-02
        -0.32179E-02
        -0.25928E-02
        -0.18171E-02
        -0.93572E-03
         0.67625E-03
         0.12348E-02
         0.59465E-03
        -0.33323E-03
         0.15100E-03
        -0.67347E-03
         0.18423E-02
         0.14636E-02
         0.30622E-03
         0.11777E-02
         0.22755E-02
         0.28260E-02
         0.24247E-02
         0.21687E-02
         0.29351E-02
        -0.10042E-02
         0.83825E-04
        -0.69882E-03
        -0.71112E-03
         0.83490E-04
        -0.77763E-03
         0.42353E-04
        -0.15192E-02
        -0.13223E-02
         0.99661E-03
        -0.17322E-02
         0.20237E-02
         0.18607E-02
         0.17175E-02
         0.91084E-03
        -0.19801E-02
        -0.23491E-02
        -0.17074E-02
        -0.14909E-02
         0.76640E-03
         0.12503E-02
         0.18667E-02
         0.28974E-02
         0.27179E-02
         0.24629E-02
         0.22359E-02
         0.16503E-02
         0.87650E-03
        -0.21374E-02
        -0.26933E-02
        -0.31291E-02
        -0.30382E-02
        -0.28749E-02
        -0.26439E-02
        -0.23719E-02
        -0.21478E-02
        -0.15099E-02
         0.93572E-03
         0.00000E+00
         0.18171E-02
         0.25928E-02
         0.32179E-02
         0.36559E-02
         0.38815E-02
         0.38815E-02
         0.36559E-02
         0.32179E-02
         0.25928E-02
         0.18171E-02
         0.93572E-03
        -0.47884E-18
        -0.93572E-03
        -0.18171E-02
        -0.25928E-02
        -0.32179E-02
        -0.36559E-02
        -0.38815E-02
        -0.38815E-02
        -0.36559E-02
        -0.32179E-02
        -0.25928E-02
        -0.18171E-02
        -0.93572E-03
         0.67680E-03
         0.12354E-02
         0.59517E-03
        -0.33247E-03
         0.15136E-03
        -0.67298E-03
         0.18425E-02
         0.14646E-02
         0.30737E-03
         0.11795E-02
         0.22757E-02
         0.28255E-02
         0.24248E-02
         0.21687E-02
         0.29348E-02
        -0.10043E-02
         0.84634E-04
        -0.69810E-03
        -0.71098E-03
         0.83614E-04
        -0.77746E-03
         0.42626E-04
        -0.15191E-02
        -0.13223E-02
         0.99797E-03
        -0.17322E-02
         0.20240E-02
         0.18606E-02
         0.17175E-02
         0.91108E-03
        -0.19802E-02
        -0.23491E-02
        -0.17074E-02
        -0.14911E-02
         0.76740E-03
         0.12507E-02
         0.18668E-02
         0.28963E-02
         0.27174E-02
         0.24627E-02
         0.22358E-02
         0.16503E-02
         0.87676E-03
        -0.21374E-02
        -0.26933E-02
        -0.31291E-02
        -0.30382E-02
        -0.28749E-02
        -0.26442E-02
        -0.23721E-02
        -0.21483E-02
        -0.15097E-02
         0.93572E-03
         0.00000E+00
         0.18171E-02
         0.25928E-02
         0.32179E-02
         0.36559E-02
         0.38815E-02
         0.38815E-02
         0.36559E-02
         0.32179E-02
         0.25928E-02
         0.18171E-02
         0.93572E-03
        -0.47884E-18
        -0.93572E-03
        -0.18171E-02
        -0.25928E-02
        -0.32179E-02
        -0.36559E-02
        -0.38815E-02
        -0.38815E-02
        -0.36559E-02
        -0.32179E-02
        -0.25928E-02
        -0.18171E-02
        -0.93572E-03
         0.67736E-03
         0.12361E-02
         0.59570E-03
        -0.33172E-03
         0.15173E-03
        -0.67248E-03
         0.18427E-02
         0.14656E-02
         0.30852E-03
         0.11812E-02
         0.22758E-02
         0.28251E-02
         0.24249E-02
         0.21688E-02
         0.29345E-02
        -0.10044E-02
         0.85443E-04
        -0.69737E-03
        -0.71084E-03
         0.83737E-04
        -0.77729E-03
         0.42899E-04
        -0.15191E-02
        -0.13222E-02
         0.99932E-03
        -0.17322E-02
         0.20243E-02
         0.18605E-02
         0.17175E-02
         0.91132E-03
        -0.19802E-02
        -0.23491E-02
        -0.17074E-02
        -0.14914E-02
         0.76841E-03
         0.12511E-02
         0.18668E-02
         0.28952E-02
         0.27170E-02
         0.24624E-02
         0.22358E-02
         0.16503E-02
         0.87702E-03
        -0.21374E-02
        -0.26933E-02
        -0.31291E-02
        -0.30382E-02
        -0.28749E-02
        -0.26444E-02
        -0.23723E-02
        -0.21489E-02
        -0.15096E-02
         0.93572E-03
         0.00000E+00
         0.18171E-02
         0.25928E-02
         0.32179E-02
         0.36559E-02
         0.38815E-02
         0.38815E-02
         0.36559E-02
         0.32179E-02
         0.25928E-02
         0.18171E-02
         0.93572E-03
        -0.47884E-18
        -0.93572E-03
        -0.18171E-02
        -0.25928E-02
        -0.32179E-02
        -0.36559E-02
        -0.38815E-02
        -0.38815E-02
        -0.36559E-02
        -0.32179E-02
        -0.25928E-02
        -0.18171E-02
        -0.93572E-03
         0.67791E-03
         0.12368E-02
         0.59622E-03
        -0.33096E-03
         0.15209E-03
        -0.67199E-03
         0.18429E-02
         0.14666E-02
         0.30967E-03
         0.11830E-02
         0.22759E-02
         0.28247E-02
         0.24251E-02
         0.21688E-02
         0.29343E-02
        -0.10046E-02
         0.86253E-04
        -0.69665E-03
        -0.71070E-03
         0.83861E-04
        -0.77712E-03
         0.43173E-04
        -0.15190E-02
        -0.13220E-02
         0.10007E-02
        -0.17321E-02
         0.20245E-02
         0.18603E-02
         0.17175E-02
         0.91156E-03
        -0.19802E-02
        -0.23491E-02
        -0.17074E-02
        -0.14916E-02
         0.76941E-03
         0.12515E-02
         0.18668E-02
         0.28942E-02
         0.27165E-02
         0.24622E-02
         0.22358E-02
         0.16503E-02
         0.87728E-03
        -0.21374E-02
        -0.26933E-02
        -0.31291E-02
        -0.30382E-02
        -0.28749E-02
        -0.26447E-02
        -0.23725E-02
        -0.21494E-02
        -0.15095E-02
         0.93572E-03
         0.00000E+00
         0.18171E-02
         0.25928E-02
         0.32179E-02
         0.36559E-02
         0.38815E-02
         0.38815E-02
         0.36559E-02
         0.32179E-02
         0.25928E-02
         0.18171E-02
         0.93572E-03
        -0.47884E-18
        -0.93572E-03
        -0.18171E-02
        -0.25928E-02
        -0.32179E-02
        -0.36559E-02
        -0.38815E-02
        -0.38815E-02
        -0.36559E-02
        -0.32179E-02
        -0.25928E-02
        -0.18171E-02
        -0.93572E-03
         0.67847E-03
         0.12374E-02
         0.59674E-03
        -0.33021E-03
         0.15245E-03
        -0.67150E-03
         0.18430E-02
         0.14676E-02
         0.31081E-03
         0.11847E-02
         0.22761E-02
         0.28242E-02
         0.24252E-02
         0.21688E-02
         0.29340E-02
        -0.10047E-02
         0.87062E-04
        -0.69592E-03
        -0.71056E-03
         0.83985E-04
        -0.77695E-03
         0.43446E-04
        -0.15190E-02
        -0.13219E-02
         0.10020E-02
        -0.17321E-02
         0.20248E-02
         0.18602E-02
         0.17175E-02
         0.91180E-03
        -0.19803E-02
        -0.23491E-02
        -0.17073E-02
        -0.14919E-02
         0.77042E-03
         0.12520E-02
         0.18669E-02
         0.28931E-02
         0.27160E-02
         0.24620E-02
         0.22358E-02
         0.16503E-02
         0.87754E-03
        -0.21374E-02
        -0.26933E-02
        -0.31291E-02
        -0.30382E-02
        -0.28749E-02
        -0.26450E-02
        -0.23727E-02
        -0.21500E-02
        -0.15094E-02
         0.93572E-03
         0.00000E+00
         0.18171E-02
         0.25928E-02
         0.32179E-02
         0.36559E-02
         0.38815E-02
         0.38815E-02
         0.36559E-02
         0.32179E-02
         0.25928E-02
         0.18171E-02
         0.93572E-03
         0.39516E-17
        -0.93572E-03
        -0.18171E-02
        -0.25928E-02
        -0.32179E-02
        -0.36559E-02
        -0.38815E-02
        -0.38815E-02
        -0.36559E-02
        -0.32179E-02
        -0.25928E-02
        -0.18171E-02
        -0.93572E-03
         0.67902E-03
         0.12381E-02
         0.59727E-03
        -0.32945E-03
         0.15282E-03
        -0.67100E-03
         0.18432E-02
         0.14686E-02
         0.31196E-03
         0.11865E-02
         0.22762E-02
         0.28238E-02
         0.24254E-02
         0.21688E-02
         0.29337E-02
        -0.10049E-02
         0.87871E-04
        -0.69519E-03
        -0.71042E-03
         0.84108E-04
        -0.77678E-03
         0.43720E-04
        -0.15189E-02
        -0.13219E-02
         0.10034E-02
        -0.17320E-02
         0.20251E-02
         0.18601E-02
         0.17175E-02
         0.91204E-03
        -0.19803E-02
        -0.23492E-02
        -0.17073E-02
        -0.14921E-02
         0.77142E-03
         0.12524E-02
         0.18669E-02
         0.28920E-02
         0.27155E-02
         0.24618E-02
         0.22358E-02
         0.16503E-02
         0.87781E-03
        -0.21374E-02
        -0.26934E-02
        -0.31291E-02
        -0.30382E-02
        -0.28749E-02
        -0.26452E-02
        -0.23729E-02
        -0.21505E-02
        -0.15093E-02
         0.93572E-03
         0.00000E+00
         0.18171E-02
         0.25928E-02
         0.32179E-02
         0.36559E-02
         0.38815E-02
         0.38815E-02
         0.36559E-02
         0.32179E-02
         0.25928E-02
         0.18171E-02
         0.93572E-03
        -0.47884E-18
        -0.93572E-03
        -0.18171E-02
        -0.25928E-02
        -0.32179E-02
        -0.36559E-02
        -0.38815E-02
        -0.38815E-02
        -0.36559E-02
        -0.32179E-02
        -0.25928E-02
        -0.18171E-02
        -0.93572E-03
         0.67958E-03
         0.12387E-02
         0.59779E-03
        -0.32870E-03
         0.15318E-03
        -0.67051E-03
         0.18434E-02
         0.14696E-02
         0.31311E-03
         0.11882E-02
         0.22763E-02
         0.28233E-02
         0.24255E-02
         0.21689E-02
         0.29335E-02
        -0.10050E-02
         0.88681E-04
        -0.69447E-03
        -0.71028E-03
         0.84232E-04
        -0.77661E-03
         0.43993E-04
        -0.15189E-02
        -0.13218E-02
         0.10048E-02
        -0.17320E-02
         0.20254E-02
         0.18599E-02
         0.17175E-02
         0.91228E-03
        -0.19803E-02
        -0.23492E-02
        -0.17073E-02
        -0.14923E-02
         0.77243E-03
         0.12528E-02
         0.18670E-02
         0.28910E-02
         0.27151E-02
         0.24615E-02
         0.22358E-02
         0.16503E-02
         0.87807E-03
        -0.21374E-02
        -0.26934E-02
        -0.31291E-02
        -0.30382E-02
        -0.28749E-02
        -0.26455E-02
        -0.23732E-02
        -0.21511E-02
        -0.15092E-02
         0.93572E-03
         0.00000E+00
         0.18171E-02
         0.25928E-02
         0.32179E-02
         0.36559E-02
         0.38815E-02
         0.38815E-02
         0.36559E-02
         0.32179E-02
         0.25928E-02
         0.18171E-02
         0.93572E-03
         0.22152E-17
        -0.93572E-03
        -0.18171E-02
        -0.25928E-02
        -0.32179E-02
        -0.36559E-02
        -0.38815E-02
        -0.38815E-02
        -0.36559E-02
        -0.32179E-02
        -0.25928E-02
        -0.18171E-02
        -0.93572E-03
         0.68013E-03
         0.12394E-02
         0.59831E-03
        -0.32794E-03
         0.15354E-03
        -0.67002E-03
         0.18436E-02
         0.14706E-02
         0.31426E-03
         0.11900E-02
         0.22765E-02
         0.28229E-02
         0.24257E-02
         0.21689E-02
         0.29332E-02
        -0.10051E-02
         0.89490E-04
        -0.69374E-03
        -0.71013E-03
         0.84355E-04
        -0.77644E-03
         0.44266E-04
        -0.15188E-02
        -0.13216E-02
         0.10061E-02
        -0.17320E-02
         0.20257E-02
         0.18598E-02
         0.17175E-02
         0.91252E-03
        -0.19803E-02
        -0.23492E-02
        -0.17073E-02
        -0.14926E-02
         0.77343E-03
         0.12533E-02
         0.18670E-02
         0.28899E-02
         0.27146E-02
         0.24613E-02
         0.22358E-02
         0.16503E-02
         0.87833E-03
        -0.21374E-02
        -0.26934E-02
        -0.31291E-02
        -0.30382E-02
        -0.28750E-02
        -0.26458E-02
        -0.23734E-02
        -0.21516E-02
        -0.15091E-02
         0.93572E-03
         0.00000E+00
         0.18171E-02
         0.25928E-02
         0.32179E-02
         0.36559E-02
         0.38815E-02
         0.38815E-02
         0.36559E-02
         0.32179E-02
         0.25928E-02
         0.18171E-02
         0.93572E-03
        -0.47884E-18
        -0.93572E-03
        -0.18171E-02
        -0.25928E-02
        -0.32179E-02
        -0.36559E-02
        -0.38815E-02
        -0.38815E-02
        -0.36559E-02
        -0.32179E-02
        -0.25928E-02
        -0.18171E-02
        -0.93572E-03
         0.68068E-03
         0.12401E-02
         0.59884E-03
        -0.32719E-03
         0.15391E-03
        -0.66953E-03
         0.18438E-02
         0.14716E-02
         0.31541E-03
         0.11917E-02
         0.22766E-02
         0.28225E-02
         0.24258E-02
         0.21690E-02
         0.29330E-02
        -0.10053E-02
         0.90299E-04
        -0.69302E-03
        -0.70999E-03
         0.84479E-04
        -0.77627E-03
         0.44540E-04
        -0.15188E-02
        -0.13215E-02
         0.10075E-02
        -0.17319E-02
         0.20260E-02
         0.18597E-02
         0.17175E-02
         0.91276E-03
        -0.19804E-02
        -0.23493E-02
        -0.17073E-02
        -0.14928E-02
         0.77444E-03
         0.12537E-02
         0.18670E-02
         0.28888E-02
         0.27141E-02
         0.24611E-02
         0.22358E-02
         0.16503E-02
         0.87859E-03
        -0.21374E-02
        -0.26934E-02
        -0.31291E-02
        -0.30382E-02
        -0.28750E-02
        -0.26460E-02
        -0.23736E-02
        -0.21521E-02
        -0.15090E-02
         0.93572E-03
         0.00000E+00
         0.18171E-02
         0.25928E-02
         0.32179E-02
         0.36559E-02
         0.38815E-02
         0.38815E-02
         0.36559E-02
         0.32179E-02
         0.25928E-02
         0.18171E-02
         0.93572E-03
         0.22152E-17
        -0.93572E-03
        -0.18171E-02
        -0.25928E-02
        -0.32179E-02
        -0.36559E-02
        -0.38815E-02
        -0.38815E-02
        -0.36559E-02
        -0.32179E-02
        -0.25928E-02
        -0.18171E-02
        -0.93572E-03
         0.68124E-03
         0.12407E-02
         0.59936E-03
        -0.32643E-03
         0.15427E-03
        -0.66903E-03
         0.18440E-02
         0.14727E-02
         0.31656E-03
         0.11935E-02
         0.22767E-02
         0.28220E-02
         0.24260E-02
         0.21690E-02
         0.29327E-02
        -0.10054E-02
         0.91108E-04
        -0.69229E-03
        -0.70985E-03
         0.84602E-04
        -0.77610E-03
         0.44813E-04
        -0.15187E-02
        -0.13215E-02
         0.10088E-02
        -0.17319E-02
         0.20262E-02
         0.18595E-02
         0.17175E-02
         0.91300E-03
        -0.19804E-02
        -0.23493E-02
        -0.17073E-02
        -0.14931E-02
         0.77544E-03
         0.12541E-02
         0.18671E-02
         0.28877E-02
         0.27137E-02
         0.24609E-02
         0.22358E-02
         0.16503E-02
         0.87885E-03
        -0.21374E-02
        -0.26934E-02
        -0.31291E-02
        -0.30382E-02
        -0.28750E-02
        -0.26463E-02
        -0.23738E-02
        -0.21527E-02
        -0.15088E-02
         0.93572E-03
         0.00000E+00
         0.18171E-02
         0.25928E-02
         0.32179E-02
         0.36559E-02
         0.38815E-02
         0.38815E-02
         0.36559E-02
         0.32179E-02
         0.25928E-02
         0.18171E-02
         0.93572E-03
        -0.47884E-18
        -0.93572E-03
        -0.18171E-02
        -0.25928E-02
        -0.32179E-02
        -0.36559E-02
        -0.38815E-02
        -0.38815E-02
        -0.36559E-02
        -0.32179E-02
        -0.25928E-02
        -0.18171E-02
        -0.93572E-03
         0.68179E-03
         0.12414E-02
         0.59988E-03
        -0.32568E-03
         0.15463E-03
        -0.66854E-03
         0.18442E-02
         0.14736E-02
         0.31770E-03
         0.11952E-02
         0.22768E-02
         0.28216E-02
         0.24261E-02
         0.21690E-02
         0.29324E-02
        -0.10056E-02
         0.91918E-04
        -0.69156E-03
        -0.70971E-03
         0.84726E-04
        -0.77593E-03
         0.45086E-04
        -0.15187E-02
        -0.13213E-02
         0.10102E-02
        -0.17318E-02
         0.20265E-02
         0.18594E-02
         0.17175E-02
         0.91324E-03
        -0.19804E-02
        -0.23493E-02
        -0.17073E-02
        -0.14933E-02
         0.77645E-03
         0.12545E-02
         0.18671E-02
         0.28867E-02
         0.27132E-02
         0.24606E-02
         0.22358E-02
         0.16503E-02
         0.87912E-03
        -0.21374E-02
        -0.26935E-02
        -0.31291E-02
        -0.30381E-02
        -0.28750E-02
        -0.26466E-02
        -0.23740E-02
        -0.21533E-02
        -0.15087E-02
         0.93572E-03
         0.00000E+00
         0.18171E-02
         0.25928E-02
         0.32179E-02
         0.36559E-02
         0.38815E-02
         0.38815E-02
         0.36559E-02
         0.32179E-02
         0.25928E-02
         0.18171E-02
         0.93572E-03
        -0.47884E-18
        -0.93572E-03
        -0.18171E-02
        -0.25928E-02
        -0.32179E-02
        -0.36559E-02
        -0.38815E-02
        -0.38815E-02
        -0.36559E-02
        -0.32179E-02
        -0.25928E-02
        -0.18171E-02
        -0.93572E-03
         0.68235E-03
         0.12421E-02
         0.60041E-03
        -0.32493E-03
         0.15500E-03
        -0.66805E-03
         0.18444E-02
         0.14747E-02
         0.31885E-03
         0.11970E-02
         0.22770E-02
         0.28211E-02
         0.24262E-02
         0.21691E-02
         0.29322E-02
        -0.10057E-02
         0.92727E-04
        -0.69084E-03
        -0.70957E-03
         0.84849E-04
        -0.77576E-03
         0.45359E-04
        -0.15186E-02
        -0.13212E-02
         0.10115E-02
        -0.17318E-02
         0.20268E-02
         0.18593E-02
         0.17175E-02
         0.91347E-03
        -0.19804E-02
        -0.23493E-02
        -0.17073E-02
        -0.14936E-02
         0.77745E-03
         0.12550E-02
         0.18671E-02
         0.28856E-02
         0.27127E-02
         0.24604E-02
         0.22358E-02
         0.16503E-02
         0.87938E-03
        -0.21374E-02
        -0.26935E-02
        -0.31291E-02
        -0.30381E-02
        -0.28750E-02
        -0.26468E-02
        -0.23742E-02
        -0.21538E-02
        -0.15086E-02
         0.93572E-03
         0.00000E+00
         0.18171E-02
         0.25928E-02
         0.32179E-02
         0.36559E-02
         0.38815E-02
         0.38815E-02
         0.36559E-02
         0.32179E-02
         0.25928E-02
         0.18171E-02
         0.93572E-03
        -0.47884E-18
        -0.93572E-03
        -0.18171E-02
        -0.25928E-02
        -0.32179E-02
        -0.36559E-02
        -0.38815E-02
        -0.38815E-02
        -0.36559E-02
        -0.32179E-02
        -0.25928E-02
        -0.18171E-02
        -0.93572E-03
         0.68290E-03
         0.12427E-02
         0.60093E-03
        -0.32417E-03
         0.15536E-03
        -0.66755E-03
         0.18445E-02
         0.14757E-02
         0.32000E-03
         0.11987E-02
         0.22771E-02
         0.28207E-02
         0.24264E-02
         0.21691E-02
         0.29319E-02
        -0.10058E-02
         0.93536E-04
        -0.69011E-03
        -0.70943E-03
         0.84973E-04
        -0.77559E-03
         0.45633E-04
        -0.15186E-02
        -0.13212E-02
         0.10129E-02
        -0.17318E-02
         0.20271E-02
         0.18592E-02
         0.17175E-02
         0.91371E-03
        -0.19805E-02
        -0.23493E-02
        -0.17073E-02
        -0.14938E-02
         0.77846E-03
         0.12554E-02
         0.18672E-02
         0.28845E-02
         0.27122E-02
         0.24602E-02
         0.22358E-02
         0.16502E-02
         0.87964E-03
        -0.21374E-02
        -0.26935E-02
        -0.31291E-02
        -0.30381E-02
        -0.28750E-02
        -0.26471E-02
        -0.23744E-02
        -0.21543E-02
        -0.15085E-02
         0.93572E-03
         0.00000E+00
         0.18171E-02
         0.25928E-02
         0.32179E-02
         0.36559E-02
         0.38815E-02
         0.38815E-02
         0.36559E-02
         0.32179E-02
         0.25928E-02
         0.18171E-02
         0.93572E-03
        -0.47884E-18
        -0.93572E-03
        -0.18171E-02
        -0.25928E-02
        -0.32179E-02
        -0.36559E-02
        -0.38815E-02
        -0.38815E-02
        -0.36559E-02
        -0.32179E-02
        -0.25928E-02
        -0.18171E-02
        -0.93572E-03
         0.68346E-03
         0.12434E-02
         0.60145E-03
        -0.32342E-03
         0.15572E-03
        -0.66706E-03
         0.18447E-02
         0.14767E-02
         0.32115E-03
         0.12005E-02
         0.22772E-02
         0.28203E-02
         0.24265E-02
         0.21691E-02
         0.29316E-02
        -0.10060E-02
         0.94345E-04
        -0.68939E-03
        -0.70929E-03
         0.85096E-04
        -0.77542E-03
         0.45906E-04
        -0.15185E-02
        -0.13211E-02
         0.10142E-02
        -0.17317E-02
         0.20274E-02
         0.18590E-02
         0.17175E-02
         0.91395E-03
        -0.19805E-02
        -0.23494E-02
        -0.17073E-02
        -0.14941E-02
         0.77946E-03
         0.12558E-02
         0.18672E-02
         0.28835E-02
         0.27118E-02
         0.24600E-02
         0.22358E-02
         0.16502E-02
         0.87990E-03
        -0.21374E-02
        -0.26935E-02
        -0.31291E-02
        -0.30381E-02
        -0.28750E-02
        -0.26474E-02
        -0.23746E-02
        -0.21549E-02
        -0.15084E-02
         0.93572E-03
         0.00000E+00
         0.18171E-02
         0.25928E-02
         0.32179E-02
         0.36559E-02
         0.38815E-02
         0.38815E-02
         0.36559E-02
         0.32179E-02
         0.25928E-02
         0.18171E-02
         0.93572E-03
         0.22152E-17
        -0.93572E-03
        -0.18171E-02
        -0.25928E-02
        -0.32179E-02
        -0.36559E-02
        -0.38815E-02
        -0.38815E-02
        -0.36559E-02
        -0.32179E-02
        -0.25928E-02
        -0.18171E-02
        -0.93572E-03
         0.68401E-03
         0.12440E-02
         0.60198E-03
        -0.32266E-03
         0.15609E-03
        -0.66657E-03
         0.18449E-02
         0.14777E-02
         0.32230E-03
         0.12022E-02
         0.22774E-02
         0.28198E-02
         0.24267E-02
         0.21692E-02
         0.29314E-02
        -0.10061E-02
         0.95155E-04
        -0.68866E-03
        -0.70915E-03
         0.85220E-04
        -0.77525E-03
         0.46180E-04
        -0.15185E-02
        -0.13210E-02
         0.10156E-02
        -0.17317E-02
         0.20277E-02
         0.18589E-02
         0.17175E-02
         0.91419E-03
        -0.19805E-02
        -0.23494E-02
        -0.17073E-02
        -0.14943E-02
         0.78047E-03
         0.12563E-02
         0.18672E-02
         0.28824E-02
         0.27113E-02
         0.24597E-02
         0.22358E-02
         0.16502E-02
         0.88016E-03
        -0.21374E-02
        -0.26935E-02
        -0.31291E-02
        -0.30381E-02
        -0.28751E-02
        -0.26476E-02
        -0.23748E-02
        -0.21554E-02
        -0.15083E-02
         0.93572E-03
         0.00000E+00
         0.18171E-02
         0.25928E-02
         0.32179E-02
         0.36559E-02
         0.38815E-02
         0.38815E-02
         0.36559E-02
         0.32179E-02
         0.25928E-02
         0.18171E-02
         0.93572E-03
        -0.47884E-18
        -0.93572E-03
        -0.18171E-02
        -0.25928E-02
        -0.32179E-02
        -0.36559E-02
        -0.38815E-02
        -0.38815E-02
        -0.36559E-02
        -0.32179E-02
        -0.25928E-02
        -0.18171E-02
        -0.93572E-03
         0.68457E-03
         0.12447E-02
         0.60250E-03
        -0.32191E-03
         0.15645E-03
        -0.66607E-03
         0.18451E-02
         0.14787E-02
         0.32345E-03
         0.12040E-02
         0.22775E-02
         0.28194E-02
         0.24268E-02
         0.21692E-02
         0.29311E-02
        -0.10062E-02
         0.95964E-04
        -0.68793E-03
        -0.70901E-03
         0.85343E-04
        -0.77507E-03
         0.46453E-04
        -0.15184E-02
        -0.13209E-02
         0.10169E-02
        -0.17316E-02
         0.20280E-02
         0.18588E-02
         0.17175E-02
         0.91443E-03
        -0.19806E-02
        -0.23494E-02
        -0.17073E-02
        -0.14945E-02
         0.78148E-03
         0.12567E-02
         0.18673E-02
         0.28813E-02
         0.27108E-02
         0.24595E-02
         0.22358E-02
         0.16502E-02
         0.88043E-03
        -0.21374E-02
        -0.26936E-02
        -0.31291E-02
        -0.30381E-02
        -0.28751E-02
        -0.26479E-02
        -0.23750E-02
        -0.21560E-02
        -0.15082E-02
         0.93572E-03
         0.00000E+00
         0.18171E-02
         0.25928E-02
         0.32179E-02
         0.36559E-02
         0.38815E-02
         0.38815E-02
         0.36559E-02
         0.32179E-02
         0.25928E-02
         0.18171E-02
         0.93572E-03
        -0.47884E-18
        -0.93572E-03
        -0.18171E-02
        -0.25928E-02
        -0.32179E-02
        -0.36559E-02
        -0.38815E-02
        -0.38815E-02
        -0.36559E-02
        -0.32179E-02
        -0.25928E-02
        -0.18171E-02
        -0.93572E-03
         0.68512E-03
         0.12454E-02
         0.60302E-03
        -0.32115E-03
         0.15681E-03
        -0.66558E-03
         0.18453E-02
         0.14797E-02
         0.32459E-03
         0.12058E-02
         0.22776E-02
         0.28189E-02
         0.24270E-02
         0.21693E-02
         0.29308E-02
        -0.10064E-02
         0.96773E-04
        -0.68721E-03
        -0.70887E-03
         0.85467E-04
        -0.77490E-03
         0.46726E-04
        -0.15184E-02
        -0.13208E-02
         0.10183E-02
        -0.17316E-02
         0.20283E-02
         0.18586E-02
         0.17175E-02
         0.91467E-03
        -0.19806E-02
        -0.23494E-02
        -0.17073E-02
        -0.14948E-02
         0.78248E-03
         0.12571E-02
         0.18673E-02
         0.28802E-02
         0.27103E-02
         0.24593E-02
         0.22358E-02
         0.16502E-02
         0.88069E-03
        -0.21374E-02
        -0.26936E-02
        -0.31291E-02
        -0.30381E-02
        -0.28751E-02
        -0.26482E-02
        -0.23752E-02
        -0.21565E-02
        -0.15081E-02
         0.93572E-03
         0.00000E+00
         0.18171E-02
         0.25928E-02
         0.32179E-02
         0.36559E-02
         0.38815E-02
         0.38815E-02
         0.36559E-02
         0.32179E-02
         0.25928E-02
         0.18171E-02
         0.93572E-03
        -0.47884E-18
        -0.93572E-03
        -0.18171E-02
        -0.25928E-02
        -0.32179E-02
        -0.36559E-02
        -0.38815E-02
        -0.38815E-02
        -0.36559E-02
        -0.32179E-02
        -0.25928E-02
        -0.18171E-02
        -0.93572E-03
         0.68567E-03
         0.12460E-02
         0.60355E-03
        -0.32040E-03
         0.15718E-03
        -0.66509E-03
         0.18455E-02
         0.14807E-02
         0.32574E-03
         0.12075E-02
         0.22777E-02
         0.28185E-02
         0.24271E-02
         0.21693E-02
         0.29306E-02
        -0.10065E-02
         0.97583E-04
        -0.68648E-03
        -0.70873E-03
         0.85591E-04
        -0.77474E-03
         0.47000E-04
        -0.15183E-02
        -0.13207E-02
         0.10197E-02
        -0.17316E-02
         0.20285E-02
         0.18585E-02
         0.17175E-02
         0.91491E-03
        -0.19806E-02
        -0.23495E-02
        -0.17073E-02
        -0.14950E-02
         0.78348E-03
         0.12576E-02
         0.18674E-02
         0.28792E-02
         0.27099E-02
         0.24591E-02
         0.22358E-02
         0.16502E-02
         0.88095E-03
        -0.21374E-02
        -0.26936E-02
        -0.31290E-02
        -0.30381E-02
        -0.28751E-02
        -0.26484E-02
        -0.23754E-02
        -0.21571E-02
        -0.15080E-02
         0.93572E-03
         0.00000E+00
         0.18171E-02
         0.25928E-02
         0.32179E-02
         0.36559E-02
         0.38815E-02
         0.38815E-02
         0.36559E-02
         0.32179E-02
         0.25928E-02
         0.18171E-02
         0.93572E-03
         0.47884E-18
        -0.93572E-03
        -0.18171E-02
        -0.25928E-02
        -0.32179E-02
        -0.36559E-02
        -0.38815E-02
        -0.38815E-02
        -0.36559E-02
        -0.32179E-02
        -0.25928E-02
        -0.18171E-02
        -0.93572E-03
  
SCALARS           initial_coordinate_z  double 1
LOOKUP_TABLE default
        -0.10771E-01
        -0.10771E-01
        -0.10771E-01
        -0.10771E-01
        -0.11750E-01
        -0.11750E-01
        -0.11750E-01
        -0.11750E-01
        -0.10771E-01
        -0.10771E-01
        -0.11750E-01
        -0.11750E-01
        -0.10771E-01
        -0.10771E-01
        -0.11750E-01
        -0.11750E-01
        -0.10771E-01
        -0.10771E-01
        -0.11750E-01
        -0.11750E-01
        -0.10771E-01
        -0.10771E-01
        -0.10771E-01
        -0.11750E-01
        -0.11750E-01
        -0.11750E-01
        -0.10771E-01
        -0.10771E-01
        -0.11750E-01
        -0.11750E-01
        -0.10771E-01
        -0.10771E-01
        -0.10771E-01
        -0.11750E-01
        -0.11750E-01
        -0.11750E-01
        -0.10771E-01
        -0.10771E-01
        -0.11750E-01
        -0.11750E-01
        -0.10771E-01
        -0.10771E-01
        -0.11750E-01
        -0.11750E-01
        -0.10771E-01
        -0.10771E-01
        -0.11750E-01
        -0.11750E-01
        -0.10771E-01
        -0.11750E-01
        -0.10771E-01
        -0.11750E-01
        -0.10771E-01
        -0.11750E-01
        -0.10771E-01
        -0.11750E-01
        -0.10771E-01
        -0.10771E-01
        -0.11750E-01
        -0.11750E-01
        -0.10771E-01
        -0.10771E-01
        -0.11750E-01
        -0.11750E-01
        -0.10771E-01
        -0.11750E-01
        -0.10771E-01
        -0.11750E-01
        -0.10771E-01
        -0.10771E-01
        -0.11750E-01
        -0.11750E-01
        -0.10771E-01
        -0.11750E-01
        -0.10771E-01
        -0.11750E-01
        -0.10771E-01
        -0.11750E-01
        -0.10771E-01
        -0.11750E-01
        -0.10771E-01
        -0.10771E-01
        -0.11750E-01
        -0.11750E-01
        -0.10771E-01
        -0.11750E-01
        -0.10771E-01
        -0.11750E-01
        -0.10771E-01
        -0.11750E-01
        -0.10771E-01
        -0.10771E-01
        -0.11750E-01
        -0.11750E-01
        -0.10771E-01
        -0.11750E-01
        -0.10771E-01
        -0.11750E-01
        -0.10771E-01
        -0.11750E-01
        -0.10771E-01
        -0.10771E-01
        -0.11750E-01
        -0.11750E-01
        -0.10771E-01
        -0.10771E-01
        -0.11750E-01
        -0.11750E-01
        -0.10771E-01
        -0.11750E-01
        -0.10771E-01
        -0.11750E-01
        -0.10771E-01
        -0.11750E-01
        -0.10771E-01
        -0.11750E-01
        -0.10771E-01
        -0.11750E-01
        -0.10771E-01
        -0.11750E-01
        -0.10771E-01
        -0.11750E-01
        -0.10771E-01
        -0.11750E-01
        -0.10771E-01
        -0.11750E-01
        -0.10771E-01
        -0.11750E-01
        -0.10771E-01
        -0.11750E-01
        -0.10771E-01
        -0.11750E-01
        -0.10771E-01
        -0.11750E-01
        -0.10771E-01
        -0.11750E-01
        -0.10771E-01
        -0.11750E-01
        -0.10771E-01
        -0.11750E-01
        -0.10771E-01
        -0.11750E-01
        -0.10771E-01
        -0.11750E-01
        -0.10771E-01
        -0.11750E-01
        -0.10771E-01
        -0.11750E-01
        -0.10771E-01
        -0.11750E-01
        -0.10771E-01
        -0.11750E-01
        -0.10771E-01
        -0.11750E-01
        -0.10771E-01
        -0.11750E-01
        -0.97917E-02
        -0.97917E-02
        -0.97917E-02
        -0.97917E-02
        -0.97917E-02
        -0.97917E-02
        -0.97917E-02
        -0.97917E-02
        -0.97917E-02
        -0.97917E-02
        -0.97917E-02
        -0.97917E-02
        -0.97917E-02
        -0.97917E-02
        -0.97917E-02
        -0.97917E-02
        -0.97917E-02
        -0.97917E-02
        -0.97917E-02
        -0.97917E-02
        -0.97917E-02
        -0.97917E-02
        -0.97917E-02
        -0.97917E-02
        -0.97917E-02
        -0.97917E-02
        -0.97917E-02
        -0.97917E-02
        -0.97917E-02
        -0.97917E-02
        -0.97917E-02
        -0.97917E-02
        -0.97917E-02
        -0.97917E-02
        -0.97917E-02
        -0.97917E-02
        -0.97917E-02
        -0.97917E-02
        -0.97917E-02
        -0.97917E-02
        -0.97917E-02
        -0.97917E-02
        -0.97917E-02
        -0.97917E-02
        -0.97917E-02
        -0.97917E-02
        -0.97917E-02
        -0.97917E-02
        -0.97917E-02
        -0.97917E-02
        -0.97917E-02
        -0.97917E-02
        -0.97917E-02
        -0.97917E-02
        -0.97917E-02
        -0.97917E-02
        -0.97917E-02
        -0.97917E-02
        -0.97917E-02
        -0.97917E-02
        -0.97917E-02
        -0.97917E-02
        -0.97917E-02
        -0.97917E-02
        -0.97917E-02
        -0.97917E-02
        -0.97917E-02
        -0.97917E-02
        -0.97917E-02
        -0.97917E-02
        -0.97917E-02
        -0.97917E-02
        -0.97917E-02
        -0.97917E-02
        -0.97917E-02
        -0.97917E-02
        -0.97917E-02
        -0.97917E-02
        -0.88125E-02
        -0.88125E-02
        -0.88125E-02
        -0.88125E-02
        -0.88125E-02
        -0.88125E-02
        -0.88125E-02
        -0.88125E-02
        -0.88125E-02
        -0.88125E-02
        -0.88125E-02
        -0.88125E-02
        -0.88125E-02
        -0.88125E-02
        -0.88125E-02
        -0.88125E-02
        -0.88125E-02
        -0.88125E-02
        -0.88125E-02
        -0.88125E-02
        -0.88125E-02
        -0.88125E-02
        -0.88125E-02
        -0.88125E-02
        -0.88125E-02
        -0.88125E-02
        -0.88125E-02
        -0.88125E-02
        -0.88125E-02
        -0.88125E-02
        -0.88125E-02
        -0.88125E-02
        -0.88125E-02
        -0.88125E-02
        -0.88125E-02
        -0.88125E-02
        -0.88125E-02
        -0.88125E-02
        -0.88125E-02
        -0.88125E-02
        -0.88125E-02
        -0.88125E-02
        -0.88125E-02
        -0.88125E-02
        -0.88125E-02
        -0.88125E-02
        -0.88125E-02
        -0.88125E-02
        -0.88125E-02
        -0.88125E-02
        -0.88125E-02
        -0.88125E-02
        -0.88125E-02
        -0.88125E-02
        -0.88125E-02
        -0.88125E-02
        -0.88125E-02
        -0.88125E-02
        -0.88125E-02
        -0.88125E-02
        -0.88125E-02
        -0.88125E-02
        -0.88125E-02
        -0.88125E-02
        -0.88125E-02
        -0.88125E-02
        -0.88125E-02
        -0.88125E-02
        -0.88125E-02
        -0.88125E-02
        -0.88125E-02
        -0.88125E-02
        -0.88125E-02
        -0.88125E-02
        -0.88125E-02
        -0.88125E-02
        -0.88125E-02
        -0.88125E-02
        -0.78333E-02
        -0.78333E-02
        -0.78333E-02
        -0.78333E-02
        -0.78333E-02
        -0.78333E-02
        -0.78333E-02
        -0.78333E-02
        -0.78333E-02
        -0.78333E-02
        -0.78333E-02
        -0.78333E-02
        -0.78333E-02
        -0.78333E-02
        -0.78333E-02
        -0.78333E-02
        -0.78333E-02
        -0.78333E-02
        -0.78333E-02
        -0.78333E-02
        -0.78333E-02
        -0.78333E-02
        -0.78333E-02
        -0.78333E-02
        -0.78333E-02
        -0.78333E-02
        -0.78333E-02
        -0.78333E-02
        -0.78333E-02
        -0.78333E-02
        -0.78333E-02
        -0.78333E-02
        -0.78333E-02
        -0.78333E-02
        -0.78333E-02
        -0.78333E-02
        -0.78333E-02
        -0.78333E-02
        -0.78333E-02
        -0.78333E-02
        -0.78333E-02
        -0.78333E-02
        -0.78333E-02
        -0.78333E-02
        -0.78333E-02
        -0.78333E-02
        -0.78333E-02
        -0.78333E-02
        -0.78333E-02
        -0.78333E-02
        -0.78333E-02
        -0.78333E-02
        -0.78333E-02
        -0.78333E-02
        -0.78333E-02
        -0.78333E-02
        -0.78333E-02
        -0.78333E-02
        -0.78333E-02
        -0.78333E-02
        -0.78333E-02
        -0.78333E-02
        -0.78333E-02
        -0.78333E-02
        -0.78333E-02
        -0.78333E-02
        -0.78333E-02
        -0.78333E-02
        -0.78333E-02
        -0.78333E-02
        -0.78333E-02
        -0.78333E-02
        -0.78333E-02
        -0.78333E-02
        -0.78333E-02
        -0.78333E-02
        -0.78333E-02
        -0.78333E-02
        -0.68542E-02
        -0.68542E-02
        -0.68542E-02
        -0.68542E-02
        -0.68542E-02
        -0.68542E-02
        -0.68542E-02
        -0.68542E-02
        -0.68542E-02
        -0.68542E-02
        -0.68542E-02
        -0.68542E-02
        -0.68542E-02
        -0.68542E-02
        -0.68542E-02
        -0.68542E-02
        -0.68542E-02
        -0.68542E-02
        -0.68542E-02
        -0.68542E-02
        -0.68542E-02
        -0.68542E-02
        -0.68542E-02
        -0.68542E-02
        -0.68542E-02
        -0.68542E-02
        -0.68542E-02
        -0.68542E-02
        -0.68542E-02
        -0.68542E-02
        -0.68542E-02
        -0.68542E-02
        -0.68542E-02
        -0.68542E-02
        -0.68542E-02
        -0.68542E-02
        -0.68542E-02
        -0.68542E-02
        -0.68542E-02
        -0.68542E-02
        -0.68542E-02
        -0.68542E-02
        -0.68542E-02
        -0.68542E-02
        -0.68542E-02
        -0.68542E-02
        -0.68542E-02
        -0.68542E-02
        -0.68542E-02
        -0.68542E-02
        -0.68542E-02
        -0.68542E-02
        -0.68542E-02
        -0.68542E-02
        -0.68542E-02
        -0.68542E-02
        -0.68542E-02
        -0.68542E-02
        -0.68542E-02
        -0.68542E-02
        -0.68542E-02
        -0.68542E-02
        -0.68542E-02
        -0.68542E-02
        -0.68542E-02
        -0.68542E-02
        -0.68542E-02
        -0.68542E-02
        -0.68542E-02
        -0.68542E-02
        -0.68542E-02
        -0.68542E-02
        -0.68542E-02
        -0.68542E-02
        -0.68542E-02
        -0.68542E-02
        -0.68542E-02
        -0.68542E-02
        -0.58750E-02
        -0.58750E-02
        -0.58750E-02
        -0.58750E-02
        -0.58750E-02
        -0.58750E-02
        -0.58750E-02
        -0.58750E-02
        -0.58750E-02
        -0.58750E-02
        -0.58750E-02
        -0.58750E-02
        -0.58750E-02
        -0.58750E-02
        -0.58750E-02
        -0.58750E-02
        -0.58750E-02
        -0.58750E-02
        -0.58750E-02
        -0.58750E-02
        -0.58750E-02
        -0.58750E-02
        -0.58750E-02
        -0.58750E-02
        -0.58750E-02
        -0.58750E-02
        -0.58750E-02
        -0.58750E-02
        -0.58750E-02
        -0.58750E-02
        -0.58750E-02
        -0.58750E-02
        -0.58750E-02
        -0.58750E-02
        -0.58750E-02
        -0.58750E-02
        -0.58750E-02
        -0.58750E-02
        -0.58750E-02
        -0.58750E-02
        -0.58750E-02
        -0.58750E-02
        -0.58750E-02
        -0.58750E-02
        -0.58750E-02
        -0.58750E-02
        -0.58750E-02
        -0.58750E-02
        -0.58750E-02
        -0.58750E-02
        -0.58750E-02
        -0.58750E-02
        -0.58750E-02
        -0.58750E-02
        -0.58750E-02
        -0.58750E-02
        -0.58750E-02
        -0.58750E-02
        -0.58750E-02
        -0.58750E-02
        -0.58750E-02
        -0.58750E-02
        -0.58750E-02
        -0.58750E-02
        -0.58750E-02
        -0.58750E-02
        -0.58750E-02
        -0.58750E-02
        -0.58750E-02
        -0.58750E-02
        -0.58750E-02
        -0.58750E-02
        -0.58750E-02
        -0.58750E-02
        -0.58750E-02
        -0.58750E-02
        -0.58750E-02
        -0.58750E-02
        -0.48958E-02
        -0.48958E-02
        -0.48958E-02
        -0.48958E-02
        -0.48958E-02
        -0.48958E-02
        -0.48958E-02
        -0.48958E-02
        -0.48958E-02
        -0.48958E-02
        -0.48958E-02
        -0.48958E-02
        -0.48958E-02
        -0.48958E-02
        -0.48958E-02
        -0.48958E-02
        -0.48958E-02
        -0.48958E-02
        -0.48958E-02
        -0.48958E-02
        -0.48958E-02
        -0.48958E-02
        -0.48958E-02
        -0.48958E-02
        -0.48958E-02
        -0.48958E-02
        -0.48958E-02
        -0.48958E-02
        -0.48958E-02
        -0.48958E-02
        -0.48958E-02
        -0.48958E-02
        -0.48958E-02
        -0.48958E-02
        -0.48958E-02
        -0.48958E-02
        -0.48958E-02
        -0.48958E-02
        -0.48958E-02
        -0.48958E-02
        -0.48958E-02
        -0.48958E-02
        -0.48958E-02
        -0.48958E-02
        -0.48958E-02
        -0.48958E-02
        -0.48958E-02
        -0.48958E-02
        -0.48958E-02
        -0.48958E-02
        -0.48958E-02
        -0.48958E-02
        -0.48958E-02
        -0.48958E-02
        -0.48958E-02
        -0.48958E-02
        -0.48958E-02
        -0.48958E-02
        -0.48958E-02
        -0.48958E-02
        -0.48958E-02
        -0.48958E-02
        -0.48958E-02
        -0.48958E-02
        -0.48958E-02
        -0.48958E-02
        -0.48958E-02
        -0.48958E-02
        -0.48958E-02
        -0.48958E-02
        -0.48958E-02
        -0.48958E-02
        -0.48958E-02
        -0.48958E-02
        -0.48958E-02
        -0.48958E-02
        -0.48958E-02
        -0.48958E-02
        -0.39167E-02
        -0.39167E-02
        -0.39167E-02
        -0.39167E-02
        -0.39167E-02
        -0.39167E-02
        -0.39167E-02
        -0.39167E-02
        -0.39167E-02
        -0.39167E-02
        -0.39167E-02
        -0.39167E-02
        -0.39167E-02
        -0.39167E-02
        -0.39167E-02
        -0.39167E-02
        -0.39167E-02
        -0.39167E-02
        -0.39167E-02
        -0.39167E-02
        -0.39167E-02
        -0.39167E-02
        -0.39167E-02
        -0.39167E-02
        -0.39167E-02
        -0.39167E-02
        -0.39167E-02
        -0.39167E-02
        -0.39167E-02
        -0.39167E-02
        -0.39167E-02
        -0.39167E-02
        -0.39167E-02
        -0.39167E-02
        -0.39167E-02
        -0.39167E-02
        -0.39167E-02
        -0.39167E-02
        -0.39167E-02
        -0.39167E-02
        -0.39167E-02
        -0.39167E-02
        -0.39167E-02
        -0.39167E-02
        -0.39167E-02
        -0.39167E-02
        -0.39167E-02
        -0.39167E-02
        -0.39167E-02
        -0.39167E-02
        -0.39167E-02
        -0.39167E-02
        -0.39167E-02
        -0.39167E-02
        -0.39167E-02
        -0.39167E-02
        -0.39167E-02
        -0.39167E-02
        -0.39167E-02
        -0.39167E-02
        -0.39167E-02
        -0.39167E-02
        -0.39167E-02
        -0.39167E-02
        -0.39167E-02
        -0.39167E-02
        -0.39167E-02
        -0.39167E-02
        -0.39167E-02
        -0.39167E-02
        -0.39167E-02
        -0.39167E-02
        -0.39167E-02
        -0.39167E-02
        -0.39167E-02
        -0.39167E-02
        -0.39167E-02
        -0.39167E-02
        -0.29375E-02
        -0.29375E-02
        -0.29375E-02
        -0.29375E-02
        -0.29375E-02
        -0.29375E-02
        -0.29375E-02
        -0.29375E-02
        -0.29375E-02
        -0.29375E-02
        -0.29375E-02
        -0.29375E-02
        -0.29375E-02
        -0.29375E-02
        -0.29375E-02
        -0.29375E-02
        -0.29375E-02
        -0.29375E-02
        -0.29375E-02
        -0.29375E-02
        -0.29375E-02
        -0.29375E-02
        -0.29375E-02
        -0.29375E-02
        -0.29375E-02
        -0.29375E-02
        -0.29375E-02
        -0.29375E-02
        -0.29375E-02
        -0.29375E-02
        -0.29375E-02
        -0.29375E-02
        -0.29375E-02
        -0.29375E-02
        -0.29375E-02
        -0.29375E-02
        -0.29375E-02
        -0.29375E-02
        -0.29375E-02
        -0.29375E-02
        -0.29375E-02
        -0.29375E-02
        -0.29375E-02
        -0.29375E-02
        -0.29375E-02
        -0.29375E-02
        -0.29375E-02
        -0.29375E-02
        -0.29375E-02
        -0.29375E-02
        -0.29375E-02
        -0.29375E-02
        -0.29375E-02
        -0.29375E-02
        -0.29375E-02
        -0.29375E-02
        -0.29375E-02
        -0.29375E-02
        -0.29375E-02
        -0.29375E-02
        -0.29375E-02
        -0.29375E-02
        -0.29375E-02
        -0.29375E-02
        -0.29375E-02
        -0.29375E-02
        -0.29375E-02
        -0.29375E-02
        -0.29375E-02
        -0.29375E-02
        -0.29375E-02
        -0.29375E-02
        -0.29375E-02
        -0.29375E-02
        -0.29375E-02
        -0.29375E-02
        -0.29375E-02
        -0.29375E-02
        -0.19583E-02
        -0.19583E-02
        -0.19583E-02
        -0.19583E-02
        -0.19583E-02
        -0.19583E-02
        -0.19583E-02
        -0.19583E-02
        -0.19583E-02
        -0.19583E-02
        -0.19583E-02
        -0.19583E-02
        -0.19583E-02
        -0.19583E-02
        -0.19583E-02
        -0.19583E-02
        -0.19583E-02
        -0.19583E-02
        -0.19583E-02
        -0.19583E-02
        -0.19583E-02
        -0.19583E-02
        -0.19583E-02
        -0.19583E-02
        -0.19583E-02
        -0.19583E-02
        -0.19583E-02
        -0.19583E-02
        -0.19583E-02
        -0.19583E-02
        -0.19583E-02
        -0.19583E-02
        -0.19583E-02
        -0.19583E-02
        -0.19583E-02
        -0.19583E-02
        -0.19583E-02
        -0.19583E-02
        -0.19583E-02
        -0.19583E-02
        -0.19583E-02
        -0.19583E-02
        -0.19583E-02
        -0.19583E-02
        -0.19583E-02
        -0.19583E-02
        -0.19583E-02
        -0.19583E-02
        -0.19583E-02
        -0.19583E-02
        -0.19583E-02
        -0.19583E-02
        -0.19583E-02
        -0.19583E-02
        -0.19583E-02
        -0.19583E-02
        -0.19583E-02
        -0.19583E-02
        -0.19583E-02
        -0.19583E-02
        -0.19583E-02
        -0.19583E-02
        -0.19583E-02
        -0.19583E-02
        -0.19583E-02
        -0.19583E-02
        -0.19583E-02
        -0.19583E-02
        -0.19583E-02
        -0.19583E-02
        -0.19583E-02
        -0.19583E-02
        -0.19583E-02
        -0.19583E-02
        -0.19583E-02
        -0.19583E-02
        -0.19583E-02
        -0.19583E-02
        -0.97917E-03
        -0.97917E-03
        -0.97917E-03
        -0.97917E-03
        -0.97917E-03
        -0.97917E-03
        -0.97917E-03
        -0.97917E-03
        -0.97917E-03
        -0.97917E-03
        -0.97917E-03
        -0.97917E-03
        -0.97917E-03
        -0.97917E-03
        -0.97917E-03
        -0.97917E-03
        -0.97917E-03
        -0.97917E-03
        -0.97917E-03
        -0.97917E-03
        -0.97917E-03
        -0.97917E-03
        -0.97917E-03
        -0.97917E-03
        -0.97917E-03
        -0.97917E-03
        -0.97917E-03
        -0.97917E-03
        -0.97917E-03
        -0.97917E-03
        -0.97917E-03
        -0.97917E-03
        -0.97917E-03
        -0.97917E-03
        -0.97917E-03
        -0.97917E-03
        -0.97917E-03
        -0.97917E-03
        -0.97917E-03
        -0.97917E-03
        -0.97917E-03
        -0.97917E-03
        -0.97917E-03
        -0.97917E-03
        -0.97917E-03
        -0.97917E-03
        -0.97917E-03
        -0.97917E-03
        -0.97917E-03
        -0.97917E-03
        -0.97917E-03
        -0.97917E-03
        -0.97917E-03
        -0.97917E-03
        -0.97917E-03
        -0.97917E-03
        -0.97917E-03
        -0.97917E-03
        -0.97917E-03
        -0.97917E-03
        -0.97917E-03
        -0.97917E-03
        -0.97917E-03
        -0.97917E-03
        -0.97917E-03
        -0.97917E-03
        -0.97917E-03
        -0.97917E-03
        -0.97917E-03
        -0.97917E-03
        -0.97917E-03
        -0.97917E-03
        -0.97917E-03
        -0.97917E-03
        -0.97917E-03
        -0.97917E-03
        -0.97917E-03
        -0.97917E-03
         0.38917E-18
         0.44621E-18
         0.34485E-18
         0.23671E-18
         0.26613E-18
         0.16162E-18
         0.53980E-18
         0.50579E-18
         0.36337E-18
         0.48798E-18
         0.60712E-18
         0.67611E-18
         0.60634E-18
         0.60658E-18
         0.70997E-18
         0.20892E-18
         0.35894E-18
         0.21887E-18
         0.27638E-18
         0.38382E-18
         0.29058E-18
         0.40326E-18
         0.18564E-18
         0.19650E-18
         0.48570E-18
         0.12837E-18
         0.60589E-18
         0.60416E-18
         0.60524E-18
         0.49621E-18
         0.61582E-19
         0.32255E-19
         0.73874E-19
         0.78478E-19
         0.34514E-18
         0.42054E-18
         0.51644E-18
         0.72521E-18
         0.72233E-18
         0.70722E-18
         0.69126E-18
         0.61573E-18
         0.51484E-18
         0.91170E-19
         0.30347E-20
        -0.66516E-19
        -0.69988E-19
        -0.68643E-19
        -0.59779E-19
        -0.43507E-19
        -0.29471E-19
         0.53205E-19
         0.86819E-18
         0.00000E+00
         0.86819E-18
         0.86819E-18
         0.00000E+00
         0.00000E+00
         0.00000E+00
         0.17364E-17
         0.17364E-17
         0.17364E-17
         0.43410E-18
         0.43410E-18
         0.43410E-18
         0.00000E+00
         0.00000E+00
         0.00000E+00
         0.00000E+00
         0.00000E+00
         0.21705E-18
        -0.21705E-18
         0.00000E+00
         0.00000E+00
         0.00000E+00
        -0.32557E-18
         0.54262E-19
        -0.40697E-18
         0.97917E-03
         0.97917E-03
         0.97917E-03
         0.97917E-03
         0.97917E-03
         0.97917E-03
         0.97917E-03
         0.97917E-03
         0.97917E-03
         0.97917E-03
         0.97917E-03
         0.97917E-03
         0.97917E-03
         0.97917E-03
         0.97917E-03
         0.97917E-03
         0.97917E-03
         0.97917E-03
         0.97917E-03
         0.97917E-03
         0.97917E-03
         0.97917E-03
         0.97917E-03
         0.97917E-03
         0.97917E-03
         0.97917E-03
         0.97917E-03
         0.97917E-03
         0.97917E-03
         0.97917E-03
         0.97917E-03
         0.97917E-03
         0.97917E-03
         0.97917E-03
         0.97917E-03
         0.97917E-03
         0.97917E-03
         0.97917E-03
         0.97917E-03
         0.97917E-03
         0.97917E-03
         0.97917E-03
         0.97917E-03
         0.97917E-03
         0.97917E-03
         0.97917E-03
         0.97917E-03
         0.97917E-03
         0.97917E-03
         0.97917E-03
         0.97917E-03
         0.97917E-03
         0.97917E-03
         0.97917E-03
         0.97917E-03
         0.97917E-03
         0.97917E-03
         0.97917E-03
         0.97917E-03
         0.97917E-03
         0.97917E-03
         0.97917E-03
         0.97917E-03
         0.97917E-03
         0.97917E-03
         0.97917E-03
         0.97917E-03
         0.97917E-03
         0.97917E-03
         0.97917E-03
         0.97917E-03
         0.97917E-03
         0.97917E-03
         0.97917E-03
         0.97917E-03
         0.97917E-03
         0.97917E-03
         0.97917E-03
         0.19583E-02
         0.19583E-02
         0.19583E-02
         0.19583E-02
         0.19583E-02
         0.19583E-02
         0.19583E-02
         0.19583E-02
         0.19583E-02
         0.19583E-02
         0.19583E-02
         0.19583E-02
         0.19583E-02
         0.19583E-02
         0.19583E-02
         0.19583E-02
         0.19583E-02
         0.19583E-02
         0.19583E-02
         0.19583E-02
         0.19583E-02
         0.19583E-02
         0.19583E-02
         0.19583E-02
         0.19583E-02
         0.19583E-02
         0.19583E-02
         0.19583E-02
         0.19583E-02
         0.19583E-02
         0.19583E-02
         0.19583E-02
         0.19583E-02
         0.19583E-02
         0.19583E-02
         0.19583E-02
         0.19583E-02
         0.19583E-02
         0.19583E-02
         0.19583E-02
         0.19583E-02
         0.19583E-02
         0.19583E-02
         0.19583E-02
         0.19583E-02
         0.19583E-02
         0.19583E-02
         0.19583E-02
         0.19583E-02
         0.19583E-02
         0.19583E-02
         0.19583E-02
         0.19583E-02
         0.19583E-02
         0.19583E-02
         0.19583E-02
         0.19583E-02
         0.19583E-02
         0.19583E-02
         0.19583E-02
         0.19583E-02
         0.19583E-02
         0.19583E-02
         0.19583E-02
         0.19583E-02
         0.19583E-02
         0.19583E-02
         0.19583E-02
         0.19583E-02
         0.19583E-02
         0.19583E-02
         0.19583E-02
         0.19583E-02
         0.19583E-02
         0.19583E-02
         0.19583E-02
         0.19583E-02
         0.19583E-02
         0.29375E-02
         0.29375E-02
         0.29375E-02
         0.29375E-02
         0.29375E-02
         0.29375E-02
         0.29375E-02
         0.29375E-02
         0.29375E-02
         0.29375E-02
         0.29375E-02
         0.29375E-02
         0.29375E-02
         0.29375E-02
         0.29375E-02
         0.29375E-02
         0.29375E-02
         0.29375E-02
         0.29375E-02
         0.29375E-02
         0.29375E-02
         0.29375E-02
         0.29375E-02
         0.29375E-02
         0.29375E-02
         0.29375E-02
         0.29375E-02
         0.29375E-02
         0.29375E-02
         0.29375E-02
         0.29375E-02
         0.29375E-02
         0.29375E-02
         0.29375E-02
         0.29375E-02
         0.29375E-02
         0.29375E-02
         0.29375E-02
         0.29375E-02
         0.29375E-02
         0.29375E-02
         0.29375E-02
         0.29375E-02
         0.29375E-02
         0.29375E-02
         0.29375E-02
         0.29375E-02
         0.29375E-02
         0.29375E-02
         0.29375E-02
         0.29375E-02
         0.29375E-02
         0.29375E-02
         0.29375E-02
         0.29375E-02
         0.29375E-02
         0.29375E-02
         0.29375E-02
         0.29375E-02
         0.29375E-02
         0.29375E-02
         0.29375E-02
         0.29375E-02
         0.29375E-02
         0.29375E-02
         0.29375E-02
         0.29375E-02
         0.29375E-02
         0.29375E-02
         0.29375E-02
         0.29375E-02
         0.29375E-02
         0.29375E-02
         0.29375E-02
         0.29375E-02
         0.29375E-02
         0.29375E-02
         0.29375E-02
         0.39167E-02
         0.39167E-02
         0.39167E-02
         0.39167E-02
         0.39167E-02
         0.39167E-02
         0.39167E-02
         0.39167E-02
         0.39167E-02
         0.39167E-02
         0.39167E-02
         0.39167E-02
         0.39167E-02
         0.39167E-02
         0.39167E-02
         0.39167E-02
         0.39167E-02
         0.39167E-02
         0.39167E-02
         0.39167E-02
         0.39167E-02
         0.39167E-02
         0.39167E-02
         0.39167E-02
         0.39167E-02
         0.39167E-02
         0.39167E-02
         0.39167E-02
         0.39167E-02
         0.39167E-02
         0.39167E-02
         0.39167E-02
         0.39167E-02
         0.39167E-02
         0.39167E-02
         0.39167E-02
         0.39167E-02
         0.39167E-02
         0.39167E-02
         0.39167E-02
         0.39167E-02
         0.39167E-02
         0.39167E-02
         0.39167E-02
         0.39167E-02
         0.39167E-02
         0.39167E-02
         0.39167E-02
         0.39167E-02
         0.39167E-02
         0.39167E-02
         0.39167E-02
         0.39167E-02
         0.39167E-02
         0.39167E-02
         0.39167E-02
         0.39167E-02
         0.39167E-02
         0.39167E-02
         0.39167E-02
         0.39167E-02
         0.39167E-02
         0.39167E-02
         0.39167E-02
         0.39167E-02
         0.39167E-02
         0.39167E-02
         0.39167E-02
         0.39167E-02
         0.39167E-02
         0.39167E-02
         0.39167E-02
         0.39167E-02
         0.39167E-02
         0.39167E-02
         0.39167E-02
         0.39167E-02
         0.39167E-02
         0.48958E-02
         0.48958E-02
         0.48958E-02
         0.48958E-02
         0.48958E-02
         0.48958E-02
         0.48958E-02
         0.48958E-02
         0.48958E-02
         0.48958E-02
         0.48958E-02
         0.48958E-02
         0.48958E-02
         0.48958E-02
         0.48958E-02
         0.48958E-02
         0.48958E-02
         0.48958E-02
         0.48958E-02
         0.48958E-02
         0.48958E-02
         0.48958E-02
         0.48958E-02
         0.48958E-02
         0.48958E-02
         0.48958E-02
         0.48958E-02
         0.48958E-02
         0.48958E-02
         0.48958E-02
         0.48958E-02
         0.48958E-02
         0.48958E-02
         0.48958E-02
         0.48958E-02
         0.48958E-02
         0.48958E-02
         0.48958E-02
         0.48958E-02
         0.48958E-02
         0.48958E-02
         0.48958E-02
         0.48958E-02
         0.48958E-02
         0.48958E-02
         0.48958E-02
         0.48958E-02
         0.48958E-02
         0.48958E-02
         0.48958E-02
         0.48958E-02
         0.48958E-02
         0.48958E-02
         0.48958E-02
         0.48958E-02
         0.48958E-02
         0.48958E-02
         0.48958E-02
         0.48958E-02
         0.48958E-02
         0.48958E-02
         0.48958E-02
         0.48958E-02
         0.48958E-02
         0.48958E-02
         0.48958E-02
         0.48958E-02
         0.48958E-02
         0.48958E-02
         0.48958E-02
         0.48958E-02
         0.48958E-02
         0.48958E-02
         0.48958E-02
         0.48958E-02
         0.48958E-02
         0.48958E-02
         0.48958E-02
         0.58750E-02
         0.58750E-02
         0.58750E-02
         0.58750E-02
         0.58750E-02
         0.58750E-02
         0.58750E-02
         0.58750E-02
         0.58750E-02
         0.58750E-02
         0.58750E-02
         0.58750E-02
         0.58750E-02
         0.58750E-02
         0.58750E-02
         0.58750E-02
         0.58750E-02
         0.58750E-02
         0.58750E-02
         0.58750E-02
         0.58750E-02
         0.58750E-02
         0.58750E-02
         0.58750E-02
         0.58750E-02
         0.58750E-02
         0.58750E-02
         0.58750E-02
         0.58750E-02
         0.58750E-02
         0.58750E-02
         0.58750E-02
         0.58750E-02
         0.58750E-02
         0.58750E-02
         0.58750E-02
         0.58750E-02
         0.58750E-02
         0.58750E-02
         0.58750E-02
         0.58750E-02
         0.58750E-02
         0.58750E-02
         0.58750E-02
         0.58750E-02
         0.58750E-02
         0.58750E-02
         0.58750E-02
         0.58750E-02
         0.58750E-02
         0.58750E-02
         0.58750E-02
         0.58750E-02
         0.58750E-02
         0.58750E-02
         0.58750E-02
         0.58750E-02
         0.58750E-02
         0.58750E-02
         0.58750E-02
         0.58750E-02
         0.58750E-02
         0.58750E-02
         0.58750E-02
         0.58750E-02
         0.58750E-02
         0.58750E-02
         0.58750E-02
         0.58750E-02
         0.58750E-02
         0.58750E-02
         0.58750E-02
         0.58750E-02
         0.58750E-02
         0.58750E-02
         0.58750E-02
         0.58750E-02
         0.58750E-02
         0.68542E-02
         0.68542E-02
         0.68542E-02
         0.68542E-02
         0.68542E-02
         0.68542E-02
         0.68542E-02
         0.68542E-02
         0.68542E-02
         0.68542E-02
         0.68542E-02
         0.68542E-02
         0.68542E-02
         0.68542E-02
         0.68542E-02
         0.68542E-02
         0.68542E-02
         0.68542E-02
         0.68542E-02
         0.68542E-02
         0.68542E-02
         0.68542E-02
         0.68542E-02
         0.68542E-02
         0.68542E-02
         0.68542E-02
         0.68542E-02
         0.68542E-02
         0.68542E-02
         0.68542E-02
         0.68542E-02
         0.68542E-02
         0.68542E-02
         0.68542E-02
         0.68542E-02
         0.68542E-02
         0.68542E-02
         0.68542E-02
         0.68542E-02
         0.68542E-02
         0.68542E-02
         0.68542E-02
         0.68542E-02
         0.68542E-02
         0.68542E-02
         0.68542E-02
         0.68542E-02
         0.68542E-02
         0.68542E-02
         0.68542E-02
         0.68542E-02
         0.68542E-02
         0.68542E-02
         0.68542E-02
         0.68542E-02
         0.68542E-02
         0.68542E-02
         0.68542E-02
         0.68542E-02
         0.68542E-02
         0.68542E-02
         0.68542E-02
         0.68542E-02
         0.68542E-02
         0.68542E-02
         0.68542E-02
         0.68542E-02
         0.68542E-02
         0.68542E-02
         0.68542E-02
         0.68542E-02
         0.68542E-02
         0.68542E-02
         0.68542E-02
         0.68542E-02
         0.68542E-02
         0.68542E-02
         0.68542E-02
         0.78333E-02
         0.78333E-02
         0.78333E-02
         0.78333E-02
         0.78333E-02
         0.78333E-02
         0.78333E-02
         0.78333E-02
         0.78333E-02
         0.78333E-02
         0.78333E-02
         0.78333E-02
         0.78333E-02
         0.78333E-02
         0.78333E-02
         0.78333E-02
         0.78333E-02
         0.78333E-02
         0.78333E-02
         0.78333E-02
         0.78333E-02
         0.78333E-02
         0.78333E-02
         0.78333E-02
         0.78333E-02
         0.78333E-02
         0.78333E-02
         0.78333E-02
         0.78333E-02
         0.78333E-02
         0.78333E-02
         0.78333E-02
         0.78333E-02
         0.78333E-02
         0.78333E-02
         0.78333E-02
         0.78333E-02
         0.78333E-02
         0.78333E-02
         0.78333E-02
         0.78333E-02
         0.78333E-02
         0.78333E-02
         0.78333E-02
         0.78333E-02
         0.78333E-02
         0.78333E-02
         0.78333E-02
         0.78333E-02
         0.78333E-02
         0.78333E-02
         0.78333E-02
         0.78333E-02
         0.78333E-02
         0.78333E-02
         0.78333E-02
         0.78333E-02
         0.78333E-02
         0.78333E-02
         0.78333E-02
         0.78333E-02
         0.78333E-02
         0.78333E-02
         0.78333E-02
         0.78333E-02
         0.78333E-02
         0.78333E-02
         0.78333E-02
         0.78333E-02
         0.78333E-02
         0.78333E-02
         0.78333E-02
         0.78333E-02
         0.78333E-02
         0.78333E-02
         0.78333E-02
         0.78333E-02
         0.78333E-02
         0.88125E-02
         0.88125E-02
         0.88125E-02
         0.88125E-02
         0.88125E-02
         0.88125E-02
         0.88125E-02
         0.88125E-02
         0.88125E-02
         0.88125E-02
         0.88125E-02
         0.88125E-02
         0.88125E-02
         0.88125E-02
         0.88125E-02
         0.88125E-02
         0.88125E-02
         0.88125E-02
         0.88125E-02
         0.88125E-02
         0.88125E-02
         0.88125E-02
         0.88125E-02
         0.88125E-02
         0.88125E-02
         0.88125E-02
         0.88125E-02
         0.88125E-02
         0.88125E-02
         0.88125E-02
         0.88125E-02
         0.88125E-02
         0.88125E-02
         0.88125E-02
         0.88125E-02
         0.88125E-02
         0.88125E-02
         0.88125E-02
         0.88125E-02
         0.88125E-02
         0.88125E-02
         0.88125E-02
         0.88125E-02
         0.88125E-02
         0.88125E-02
         0.88125E-02
         0.88125E-02
         0.88125E-02
         0.88125E-02
         0.88125E-02
         0.88125E-02
         0.88125E-02
         0.88125E-02
         0.88125E-02
         0.88125E-02
         0.88125E-02
         0.88125E-02
         0.88125E-02
         0.88125E-02
         0.88125E-02
         0.88125E-02
         0.88125E-02
         0.88125E-02
         0.88125E-02
         0.88125E-02
         0.88125E-02
         0.88125E-02
         0.88125E-02
         0.88125E-02
         0.88125E-02
         0.88125E-02
         0.88125E-02
         0.88125E-02
         0.88125E-02
         0.88125E-02
         0.88125E-02
         0.88125E-02
         0.88125E-02
         0.97917E-02
         0.97917E-02
         0.97917E-02
         0.97917E-02
         0.97917E-02
         0.97917E-02
         0.97917E-02
         0.97917E-02
         0.97917E-02
         0.97917E-02
         0.97917E-02
         0.97917E-02
         0.97917E-02
         0.97917E-02
         0.97917E-02
         0.97917E-02
         0.97917E-02
         0.97917E-02
         0.97917E-02
         0.97917E-02
         0.97917E-02
         0.97917E-02
         0.97917E-02
         0.97917E-02
         0.97917E-02
         0.97917E-02
         0.97917E-02
         0.97917E-02
         0.97917E-02
         0.97917E-02
         0.97917E-02
         0.97917E-02
         0.97917E-02
         0.97917E-02
         0.97917E-02
         0.97917E-02
         0.97917E-02
         0.97917E-02
         0.97917E-02
         0.97917E-02
         0.97917E-02
         0.97917E-02
         0.97917E-02
         0.97917E-02
         0.97917E-02
         0.97917E-02
         0.97917E-02
         0.97917E-02
         0.97917E-02
         0.97917E-02
         0.97917E-02
         0.97917E-02
         0.97917E-02
         0.97917E-02
         0.97917E-02
         0.97917E-02
         0.97917E-02
         0.97917E-02
         0.97917E-02
         0.97917E-02
         0.97917E-02
         0.97917E-02
         0.97917E-02
         0.97917E-02
         0.97917E-02
         0.97917E-02
         0.97917E-02
         0.97917E-02
         0.97917E-02
         0.97917E-02
         0.97917E-02
         0.97917E-02
         0.97917E-02
         0.97917E-02
         0.97917E-02
         0.97917E-02
         0.97917E-02
         0.97917E-02
         0.10771E-01
         0.10771E-01
         0.10771E-01
         0.10771E-01
         0.10771E-01
         0.10771E-01
         0.10771E-01
         0.10771E-01
         0.10771E-01
         0.10771E-01
         0.10771E-01
         0.10771E-01
         0.10771E-01
         0.10771E-01
         0.10771E-01
         0.10771E-01
         0.10771E-01
         0.10771E-01
         0.10771E-01
         0.10771E-01
         0.10771E-01
         0.10771E-01
         0.10771E-01
         0.10771E-01
         0.10771E-01
         0.10771E-01
         0.10771E-01
         0.10771E-01
         0.10771E-01
         0.10771E-01
         0.10771E-01
         0.10771E-01
         0.10771E-01
         0.10771E-01
         0.10771E-01
         0.10771E-01
         0.10771E-01
         0.10771E-01
         0.10771E-01
         0.10771E-01
         0.10771E-01
         0.10771E-01
         0.10771E-01
         0.10771E-01
         0.10771E-01
         0.10771E-01
         0.10771E-01
         0.10771E-01
         0.10771E-01
         0.10771E-01
         0.10771E-01
         0.10771E-01
         0.10771E-01
         0.10771E-01
         0.10771E-01
         0.10771E-01
         0.10771E-01
         0.10771E-01
         0.10771E-01
         0.10771E-01
         0.10771E-01
         0.10771E-01
         0.10771E-01
         0.10771E-01
         0.10771E-01
         0.10771E-01
         0.10771E-01
         0.10771E-01
         0.10771E-01
         0.10771E-01
         0.10771E-01
         0.10771E-01
         0.10771E-01
         0.10771E-01
         0.10771E-01
         0.10771E-01
         0.10771E-01
         0.10771E-01
         0.11750E-01
         0.11750E-01
         0.11750E-01
         0.11750E-01
         0.11750E-01
         0.11750E-01
         0.11750E-01
         0.11750E-01
         0.11750E-01
         0.11750E-01
         0.11750E-01
         0.11750E-01
         0.11750E-01
         0.11750E-01
         0.11750E-01
         0.11750E-01
         0.11750E-01
         0.11750E-01
         0.11750E-01
         0.11750E-01
         0.11750E-01
         0.11750E-01
         0.11750E-01
         0.11750E-01
         0.11750E-01
         0.11750E-01
         0.11750E-01
         0.11750E-01
         0.11750E-01
         0.11750E-01
         0.11750E-01
         0.11750E-01
         0.11750E-01
         0.11750E-01
         0.11750E-01
         0.11750E-01
         0.11750E-01
         0.11750E-01
         0.11750E-01
         0.11750E-01
         0.11750E-01
         0.11750E-01
         0.11750E-01
         0.11750E-01
         0.11750E-01
         0.11750E-01
         0.11750E-01
         0.11750E-01
         0.11750E-01
         0.11750E-01
         0.11750E-01
         0.11750E-01
         0.11750E-01
         0.11750E-01
         0.11750E-01
         0.11750E-01
         0.11750E-01
         0.11750E-01
         0.11750E-01
         0.11750E-01
         0.11750E-01
         0.11750E-01
         0.11750E-01
         0.11750E-01
         0.11750E-01
         0.11750E-01
         0.11750E-01
         0.11750E-01
         0.11750E-01
         0.11750E-01
         0.11750E-01
         0.11750E-01
         0.11750E-01
         0.11750E-01
         0.11750E-01
         0.11750E-01
         0.11750E-01
         0.11750E-01
  
SCALARS                init_velocity_x  double 1
LOOKUP_TABLE default
         0.00000E+00
         0.00000E+00
         0.00000E+00
         0.00000E+00
         0.00000E+00
         0.00000E+00
         0.00000E+00
         0.00000E+00
         0.00000E+00
         0.00000E+00
         0.00000E+00
         0.00000E+00
         0.00000E+00
         0.00000E+00
         0.00000E+00
         0.00000E+00
         0.00000E+00
         0.00000E+00
         0.00000E+00
         0.00000E+00
         0.00000E+00
         0.00000E+00
         0.00000E+00
         0.00000E+00
         0.00000E+00
         0.00000E+00
         0.00000E+00
         0.00000E+00
         0.00000E+00
         0.00000E+00
         0.00000E+00
         0.00000E+00
         0.00000E+00
         0.00000E+00
         0.00000E+00
         0.00000E+00
         0.00000E+00
         0.00000E+00
         0.00000E+00
         0.00000E+00
         0.00000E+00
         0.00000E+00
         0.00000E+00
         0.00000E+00
         0.00000E+00
         0.00000E+00
         0.00000E+00
         0.00000E+00
         0.00000E+00
         0.00000E+00
         0.00000E+00
         0.00000E+00
         0.00000E+00
         0.00000E+00
         0.00000E+00
         0.00000E+00
         0.00000E+00
         0.00000E+00
         0.00000E+00
         0.00000E+00
         0.00000E+00
         0.00000E+00
         0.00000E+00
         0.00000E+00
         0.00000E+00
         0.00000E+00
         0.00000E+00
         0.00000E+00
         0.00000E+00
         0.00000E+00
         0.00000E+00
         0.00000E+00
         0.00000E+00
         0.00000E+00
         0.00000E+00
         0.00000E+00
         0.00000E+00
         0.00000E+00
         0.00000E+00
         0.00000E+00
         0.00000E+00
         0.00000E+00
         0.00000E+00
         0.00000E+00
         0.00000E+00
         0.00000E+00
         0.00000E+00
         0.00000E+00
         0.00000E+00
         0.00000E+00
         0.00000E+00
         0.00000E+00
         0.00000E+00
         0.00000E+00
         0.00000E+00
         0.00000E+00
         0.00000E+00
         0.00000E+00
         0.00000E+00
         0.00000E+00
         0.00000E+00
         0.00000E+00
         0.00000E+00
         0.00000E+00
         0.00000E+00
         0.00000E+00
         0.00000E+00
         0.00000E+00
         0.00000E+00
         0.00000E+00
         0.00000E+00
         0.00000E+00
         0.00000E+00
         0.00000E+00
         0.00000E+00
         0.00000E+00
         0.00000E+00
         0.00000E+00
         0.00000E+00
         0.00000E+00
         0.00000E+00
         0.00000E+00
         0.00000E+00
         0.00000E+00
         0.00000E+00
         0.00000E+00
         0.00000E+00
         0.00000E+00
         0.00000E+00
         0.00000E+00
         0.00000E+00
         0.00000E+00
         0.00000E+00
         0.00000E+00
         0.00000E+00
         0.00000E+00
         0.00000E+00
         0.00000E+00
         0.00000E+00
         0.00000E+00
         0.00000E+00
         0.00000E+00
         0.00000E+00
         0.00000E+00
         0.00000E+00
         0.00000E+00
         0.00000E+00
         0.00000E+00
         0.00000E+00
         0.00000E+00
         0.00000E+00
         0.00000E+00
         0.00000E+00
         0.00000E+00
         0.00000E+00
         0.00000E+00
         0.00000E+00
         0.00000E+00
         0.00000E+00
         0.00000E+00
         0.00000E+00
         0.00000E+00
         0.00000E+00
         0.00000E+00
         0.00000E+00
         0.00000E+00
         0.00000E+00
         0.00000E+00
         0.00000E+00
         0.00000E+00
         0.00000E+00
         0.00000E+00
         0.00000E+00
         0.00000E+00
         0.00000E+00
         0.00000E+00
         0.00000E+00
         0.00000E+00
         0.00000E+00
         0.00000E+00
         0.00000E+00
         0.00000E+00
         0.00000E+00
         0.00000E+00
         0.00000E+00
         0.00000E+00
         0.00000E+00
         0.00000E+00
         0.00000E+00
         0.00000E+00
         0.00000E+00
         0.00000E+00
         0.00000E+00
         0.00000E+00
         0.00000E+00
         0.00000E+00
         0.00000E+00
         0.00000E+00
         0.00000E+00
         0.00000E+00
         0.00000E+00
         0.00000E+00
         0.00000E+00
         0.00000E+00
         0.00000E+00
         0.00000E+00
         0.00000E+00
         0.00000E+00
         0.00000E+00
         0.00000E+00
         0.00000E+00
         0.00000E+00
         0.00000E+00
         0.00000E+00
         0.00000E+00
         0.00000E+00
         0.00000E+00
         0.00000E+00
         0.00000E+00
         0.00000E+00
         0.00000E+00
         0.00000E+00
         0.00000E+00
         0.00000E+00
         0.00000E+00
         0.00000E+00
         0.00000E+00
         0.00000E+00
         0.00000E+00
         0.00000E+00
         0.00000E+00
         0.00000E+00
         0.00000E+00
         0.00000E+00
         0.00000E+00
         0.00000E+00
         0.00000E+00
         0.00000E+00
         0.00000E+00
         0.00000E+00
         0.00000E+00
         0.00000E+00
         0.00000E+00
         0.00000E+00
         0.00000E+00
         0.00000E+00
         0.00000E+00
         0.00000E+00
         0.00000E+00
         0.00000E+00
         0.00000E+00
         0.00000E+00
         0.00000E+00
         0.00000E+00
         0.00000E+00
         0.00000E+00
         0.00000E+00
         0.00000E+00
         0.00000E+00
         0.00000E+00
         0.00000E+00
         0.00000E+00
         0.00000E+00
         0.00000E+00
         0.00000E+00
         0.00000E+00
         0.00000E+00
         0.00000E+00
         0.00000E+00
         0.00000E+00
         0.00000E+00
         0.00000E+00
         0.00000E+00
         0.00000E+00
         0.00000E+00
         0.00000E+00
         0.00000E+00
         0.00000E+00
         0.00000E+00
         0.00000E+00
         0.00000E+00
         0.00000E+00
         0.00000E+00
         0.00000E+00
         0.00000E+00
         0.00000E+00
         0.00000E+00
         0.00000E+00
         0.00000E+00
         0.00000E+00
         0.00000E+00
         0.00000E+00
         0.00000E+00
         0.00000E+00
         0.00000E+00
         0.00000E+00
         0.00000E+00
         0.00000E+00
         0.00000E+00
         0.00000E+00
         0.00000E+00
         0.00000E+00
         0.00000E+00
         0.00000E+00
         0.00000E+00
         0.00000E+00
         0.00000E+00
         0.00000E+00
         0.00000E+00
         0.00000E+00
         0.00000E+00
         0.00000E+00
         0.00000E+00
         0.00000E+00
         0.00000E+00
         0.00000E+00
         0.00000E+00
         0.00000E+00
         0.00000E+00
         0.00000E+00
         0.00000E+00
         0.00000E+00
         0.00000E+00
         0.00000E+00
         0.00000E+00
         0.00000E+00
         0.00000E+00
         0.00000E+00
         0.00000E+00
         0.00000E+00
         0.00000E+00
         0.00000E+00
         0.00000E+00
         0.00000E+00
         0.00000E+00
         0.00000E+00
         0.00000E+00
         0.00000E+00
         0.00000E+00
         0.00000E+00
         0.00000E+00
         0.00000E+00
         0.00000E+00
         0.00000E+00
         0.00000E+00
         0.00000E+00
         0.00000E+00
         0.00000E+00
         0.00000E+00
         0.00000E+00
         0.00000E+00
         0.00000E+00
         0.00000E+00
         0.00000E+00
         0.00000E+00
         0.00000E+00
         0.00000E+00
         0.00000E+00
         0.00000E+00
         0.00000E+00
         0.00000E+00
         0.00000E+00
         0.00000E+00
         0.00000E+00
         0.00000E+00
         0.00000E+00
         0.00000E+00
         0.00000E+00
         0.00000E+00
         0.00000E+00
         0.00000E+00
         0.00000E+00
         0.00000E+00
         0.00000E+00
         0.00000E+00
         0.00000E+00
         0.00000E+00
         0.00000E+00
         0.00000E+00
         0.00000E+00
         0.00000E+00
         0.00000E+00
         0.00000E+00
         0.00000E+00
         0.00000E+00
         0.00000E+00
         0.00000E+00
         0.00000E+00
         0.00000E+00
         0.00000E+00
         0.00000E+00
         0.00000E+00
         0.00000E+00
         0.00000E+00
         0.00000E+00
         0.00000E+00
         0.00000E+00
         0.00000E+00
         0.00000E+00
         0.00000E+00
         0.00000E+00
         0.00000E+00
         0.00000E+00
         0.00000E+00
         0.00000E+00
         0.00000E+00
         0.00000E+00
         0.00000E+00
         0.00000E+00
         0.00000E+00
         0.00000E+00
         0.00000E+00
         0.00000E+00
         0.00000E+00
         0.00000E+00
         0.00000E+00
         0.00000E+00
         0.00000E+00
         0.00000E+00
         0.00000E+00
         0.00000E+00
         0.00000E+00
         0.00000E+00
         0.00000E+00
         0.00000E+00
         0.00000E+00
         0.00000E+00
         0.00000E+00
         0.00000E+00
         0.00000E+00
         0.00000E+00
         0.00000E+00
         0.00000E+00
         0.00000E+00
         0.00000E+00
         0.00000E+00
         0.00000E+00
         0.00000E+00
         0.00000E+00
         0.00000E+00
         0.00000E+00
         0.00000E+00
         0.00000E+00
         0.00000E+00
         0.00000E+00
         0.00000E+00
         0.00000E+00
         0.00000E+00
         0.00000E+00
         0.00000E+00
         0.00000E+00
         0.00000E+00
         0.00000E+00
         0.00000E+00
         0.00000E+00
         0.00000E+00
         0.00000E+00
         0.00000E+00
         0.00000E+00
         0.00000E+00
         0.00000E+00
         0.00000E+00
         0.00000E+00
         0.00000E+00
         0.00000E+00
         0.00000E+00
         0.00000E+00
         0.00000E+00
         0.00000E+00
         0.00000E+00
         0.00000E+00
         0.00000E+00
         0.00000E+00
         0.00000E+00
         0.00000E+00
         0.00000E+00
         0.00000E+00
         0.00000E+00
         0.00000E+00
         0.00000E+00
         0.00000E+00
         0.00000E+00
         0.00000E+00
         0.00000E+00
         0.00000E+00
         0.00000E+00
         0.00000E+00
         0.00000E+00
         0.00000E+00
         0.00000E+00
         0.00000E+00
         0.00000E+00
         0.00000E+00
         0.00000E+00
         0.00000E+00
         0.00000E+00
         0.00000E+00
         0.00000E+00
         0.00000E+00
         0.00000E+00
         0.00000E+00
         0.00000E+00
         0.00000E+00
         0.00000E+00
         0.00000E+00
         0.00000E+00
         0.00000E+00
         0.00000E+00
         0.00000E+00
         0.00000E+00
         0.00000E+00
         0.00000E+00
         0.00000E+00
         0.00000E+00
         0.00000E+00
         0.00000E+00
         0.00000E+00
         0.00000E+00
         0.00000E+00
         0.00000E+00
         0.00000E+00
         0.00000E+00
         0.00000E+00
         0.00000E+00
         0.00000E+00
         0.00000E+00
         0.00000E+00
         0.00000E+00
         0.00000E+00
         0.00000E+00
         0.00000E+00
         0.00000E+00
         0.00000E+00
         0.00000E+00
         0.00000E+00
         0.00000E+00
         0.00000E+00
         0.00000E+00
         0.00000E+00
         0.00000E+00
         0.00000E+00
         0.00000E+00
         0.00000E+00
         0.00000E+00
         0.00000E+00
         0.00000E+00
         0.00000E+00
         0.00000E+00
         0.00000E+00
         0.00000E+00
         0.00000E+00
         0.00000E+00
         0.00000E+00
         0.00000E+00
         0.00000E+00
         0.00000E+00
         0.00000E+00
         0.00000E+00
         0.00000E+00
         0.00000E+00
         0.00000E+00
         0.00000E+00
         0.00000E+00
         0.00000E+00
         0.00000E+00
         0.00000E+00
         0.00000E+00
         0.00000E+00
         0.00000E+00
         0.00000E+00
         0.00000E+00
         0.00000E+00
         0.00000E+00
         0.00000E+00
         0.00000E+00
         0.00000E+00
         0.00000E+00
         0.00000E+00
         0.00000E+00
         0.00000E+00
         0.00000E+00
         0.00000E+00
         0.00000E+00
         0.00000E+00
         0.00000E+00
         0.00000E+00
         0.00000E+00
         0.00000E+00
         0.00000E+00
         0.00000E+00
         0.00000E+00
         0.00000E+00
         0.00000E+00
         0.00000E+00
         0.00000E+00
         0.00000E+00
         0.00000E+00
         0.00000E+00
         0.00000E+00
         0.00000E+00
         0.00000E+00
         0.00000E+00
         0.00000E+00
         0.00000E+00
         0.00000E+00
         0.00000E+00
         0.00000E+00
         0.00000E+00
         0.00000E+00
         0.00000E+00
         0.00000E+00
         0.00000E+00
         0.00000E+00
         0.00000E+00
         0.00000E+00
         0.00000E+00
         0.00000E+00
         0.00000E+00
         0.00000E+00
         0.00000E+00
         0.00000E+00
         0.00000E+00
         0.00000E+00
         0.00000E+00
         0.00000E+00
         0.00000E+00
         0.00000E+00
         0.00000E+00
         0.00000E+00
         0.00000E+00
         0.00000E+00
         0.00000E+00
         0.00000E+00
         0.00000E+00
         0.00000E+00
         0.00000E+00
         0.00000E+00
         0.00000E+00
         0.00000E+00
         0.00000E+00
         0.00000E+00
         0.00000E+00
         0.00000E+00
         0.00000E+00
         0.00000E+00
         0.00000E+00
         0.00000E+00
         0.00000E+00
         0.00000E+00
         0.00000E+00
         0.00000E+00
         0.00000E+00
         0.00000E+00
         0.00000E+00
         0.00000E+00
         0.00000E+00
         0.00000E+00
         0.00000E+00
         0.00000E+00
         0.00000E+00
         0.00000E+00
         0.00000E+00
         0.00000E+00
         0.00000E+00
         0.00000E+00
         0.00000E+00
         0.00000E+00
         0.00000E+00
         0.00000E+00
         0.00000E+00
         0.00000E+00
         0.00000E+00
         0.00000E+00
         0.00000E+00
         0.00000E+00
         0.00000E+00
         0.00000E+00
         0.00000E+00
         0.00000E+00
         0.00000E+00
         0.00000E+00
         0.00000E+00
         0.00000E+00
         0.00000E+00
         0.00000E+00
         0.00000E+00
         0.00000E+00
         0.00000E+00
         0.00000E+00
         0.00000E+00
         0.00000E+00
         0.00000E+00
         0.00000E+00
         0.00000E+00
         0.00000E+00
         0.00000E+00
         0.00000E+00
         0.00000E+00
         0.00000E+00
         0.00000E+00
         0.00000E+00
         0.00000E+00
         0.00000E+00
         0.00000E+00
         0.00000E+00
         0.00000E+00
         0.00000E+00
         0.00000E+00
         0.00000E+00
         0.00000E+00
         0.00000E+00
         0.00000E+00
         0.00000E+00
         0.00000E+00
         0.00000E+00
         0.00000E+00
         0.00000E+00
         0.00000E+00
         0.00000E+00
         0.00000E+00
         0.00000E+00
         0.00000E+00
         0.00000E+00
         0.00000E+00
         0.00000E+00
         0.00000E+00
         0.00000E+00
         0.00000E+00
         0.00000E+00
         0.00000E+00
         0.00000E+00
         0.00000E+00
         0.00000E+00
         0.00000E+00
         0.00000E+00
         0.00000E+00
         0.00000E+00
         0.00000E+00
         0.00000E+00
         0.00000E+00
         0.00000E+00
         0.00000E+00
         0.00000E+00
         0.00000E+00
         0.00000E+00
         0.00000E+00
         0.00000E+00
         0.00000E+00
         0.00000E+00
         0.00000E+00
         0.00000E+00
         0.00000E+00
         0.00000E+00
         0.00000E+00
         0.00000E+00
         0.00000E+00
         0.00000E+00
         0.00000E+00
         0.00000E+00
         0.00000E+00
         0.00000E+00
         0.00000E+00
         0.00000E+00
         0.00000E+00
         0.00000E+00
         0.00000E+00
         0.00000E+00
         0.00000E+00
         0.00000E+00
         0.00000E+00
         0.00000E+00
         0.00000E+00
         0.00000E+00
         0.00000E+00
         0.00000E+00
         0.00000E+00
         0.00000E+00
         0.00000E+00
         0.00000E+00
         0.00000E+00
         0.00000E+00
         0.00000E+00
         0.00000E+00
         0.00000E+00
         0.00000E+00
         0.00000E+00
         0.00000E+00
         0.00000E+00
         0.00000E+00
         0.00000E+00
         0.00000E+00
         0.00000E+00
         0.00000E+00
         0.00000E+00
         0.00000E+00
         0.00000E+00
         0.00000E+00
         0.00000E+00
         0.00000E+00
         0.00000E+00
         0.00000E+00
         0.00000E+00
         0.00000E+00
         0.00000E+00
         0.00000E+00
         0.00000E+00
         0.00000E+00
         0.00000E+00
         0.00000E+00
         0.00000E+00
         0.00000E+00
         0.00000E+00
         0.00000E+00
         0.00000E+00
         0.00000E+00
         0.00000E+00
         0.00000E+00
         0.00000E+00
         0.00000E+00
         0.00000E+00
         0.00000E+00
         0.00000E+00
         0.00000E+00
         0.00000E+00
         0.00000E+00
         0.00000E+00
         0.00000E+00
         0.00000E+00
         0.00000E+00
         0.00000E+00
         0.00000E+00
         0.00000E+00
         0.00000E+00
         0.00000E+00
         0.00000E+00
         0.00000E+00
         0.00000E+00
         0.00000E+00
         0.00000E+00
         0.00000E+00
         0.00000E+00
         0.00000E+00
         0.00000E+00
         0.00000E+00
         0.00000E+00
         0.00000E+00
         0.00000E+00
         0.00000E+00
         0.00000E+00
         0.00000E+00
         0.00000E+00
         0.00000E+00
         0.00000E+00
         0.00000E+00
         0.00000E+00
         0.00000E+00
         0.00000E+00
         0.00000E+00
         0.00000E+00
         0.00000E+00
         0.00000E+00
         0.00000E+00
         0.00000E+00
         0.00000E+00
         0.00000E+00
         0.00000E+00
         0.00000E+00
         0.00000E+00
         0.00000E+00
         0.00000E+00
         0.00000E+00
         0.00000E+00
         0.00000E+00
         0.00000E+00
         0.00000E+00
         0.00000E+00
         0.00000E+00
         0.00000E+00
         0.00000E+00
         0.00000E+00
         0.00000E+00
         0.00000E+00
         0.00000E+00
         0.00000E+00
         0.00000E+00
         0.00000E+00
         0.00000E+00
         0.00000E+00
         0.00000E+00
         0.00000E+00
         0.00000E+00
         0.00000E+00
         0.00000E+00
         0.00000E+00
         0.00000E+00
         0.00000E+00
         0.00000E+00
         0.00000E+00
         0.00000E+00
         0.00000E+00
         0.00000E+00
         0.00000E+00
         0.00000E+00
         0.00000E+00
         0.00000E+00
         0.00000E+00
         0.00000E+00
         0.00000E+00
         0.00000E+00
         0.00000E+00
         0.00000E+00
         0.00000E+00
         0.00000E+00
         0.00000E+00
         0.00000E+00
         0.00000E+00
         0.00000E+00
         0.00000E+00
         0.00000E+00
         0.00000E+00
         0.00000E+00
         0.00000E+00
         0.00000E+00
         0.00000E+00
         0.00000E+00
         0.00000E+00
         0.00000E+00
         0.00000E+00
         0.00000E+00
         0.00000E+00
         0.00000E+00
         0.00000E+00
         0.00000E+00
         0.00000E+00
         0.00000E+00
         0.00000E+00
         0.00000E+00
         0.00000E+00
         0.00000E+00
         0.00000E+00
         0.00000E+00
         0.00000E+00
         0.00000E+00
         0.00000E+00
         0.00000E+00
         0.00000E+00
         0.00000E+00
         0.00000E+00
         0.00000E+00
         0.00000E+00
         0.00000E+00
         0.00000E+00
         0.00000E+00
         0.00000E+00
         0.00000E+00
         0.00000E+00
         0.00000E+00
         0.00000E+00
         0.00000E+00
         0.00000E+00
         0.00000E+00
         0.00000E+00
         0.00000E+00
         0.00000E+00
         0.00000E+00
         0.00000E+00
         0.00000E+00
         0.00000E+00
         0.00000E+00
         0.00000E+00
         0.00000E+00
         0.00000E+00
         0.00000E+00
         0.00000E+00
         0.00000E+00
         0.00000E+00
         0.00000E+00
         0.00000E+00
         0.00000E+00
         0.00000E+00
         0.00000E+00
         0.00000E+00
         0.00000E+00
         0.00000E+00
         0.00000E+00
         0.00000E+00
         0.00000E+00
         0.00000E+00
         0.00000E+00
         0.00000E+00
         0.00000E+00
         0.00000E+00
         0.00000E+00
         0.00000E+00
         0.00000E+00
         0.00000E+00
         0.00000E+00
         0.00000E+00
         0.00000E+00
         0.00000E+00
         0.00000E+00
         0.00000E+00
         0.00000E+00
         0.00000E+00
         0.00000E+00
         0.00000E+00
         0.00000E+00
         0.00000E+00
         0.00000E+00
         0.00000E+00
         0.00000E+00
         0.00000E+00
         0.00000E+00
         0.00000E+00
         0.00000E+00
         0.00000E+00
         0.00000E+00
         0.00000E+00
         0.00000E+00
         0.00000E+00
         0.00000E+00
         0.00000E+00
         0.00000E+00
         0.00000E+00
         0.00000E+00
         0.00000E+00
         0.00000E+00
         0.00000E+00
         0.00000E+00
         0.00000E+00
         0.00000E+00
         0.00000E+00
         0.00000E+00
         0.00000E+00
         0.00000E+00
         0.00000E+00
         0.00000E+00
         0.00000E+00
         0.00000E+00
         0.00000E+00
         0.00000E+00
         0.00000E+00
         0.00000E+00
         0.00000E+00
         0.00000E+00
         0.00000E+00
         0.00000E+00
         0.00000E+00
         0.00000E+00
         0.00000E+00
         0.00000E+00
         0.00000E+00
         0.00000E+00
         0.00000E+00
         0.00000E+00
         0.00000E+00
         0.00000E+00
         0.00000E+00
         0.00000E+00
         0.00000E+00
         0.00000E+00
         0.00000E+00
         0.00000E+00
         0.00000E+00
         0.00000E+00
         0.00000E+00
         0.00000E+00
         0.00000E+00
         0.00000E+00
         0.00000E+00
         0.00000E+00
         0.00000E+00
         0.00000E+00
         0.00000E+00
         0.00000E+00
         0.00000E+00
         0.00000E+00
         0.00000E+00
         0.00000E+00
         0.00000E+00
         0.00000E+00
         0.00000E+00
         0.00000E+00
         0.00000E+00
         0.00000E+00
         0.00000E+00
         0.00000E+00
         0.00000E+00
         0.00000E+00
         0.00000E+00
         0.00000E+00
         0.00000E+00
         0.00000E+00
         0.00000E+00
         0.00000E+00
         0.00000E+00
         0.00000E+00
         0.00000E+00
         0.00000E+00
         0.00000E+00
         0.00000E+00
         0.00000E+00
         0.00000E+00
         0.00000E+00
         0.00000E+00
         0.00000E+00
         0.00000E+00
         0.00000E+00
         0.00000E+00
         0.00000E+00
         0.00000E+00
         0.00000E+00
         0.00000E+00
         0.00000E+00
         0.00000E+00
         0.00000E+00
         0.00000E+00
         0.00000E+00
         0.00000E+00
         0.00000E+00
         0.00000E+00
         0.00000E+00
         0.00000E+00
         0.00000E+00
         0.00000E+00
         0.00000E+00
         0.00000E+00
         0.00000E+00
         0.00000E+00
         0.00000E+00
         0.00000E+00
         0.00000E+00
         0.00000E+00
         0.00000E+00
         0.00000E+00
         0.00000E+00
         0.00000E+00
         0.00000E+00
         0.00000E+00
         0.00000E+00
         0.00000E+00
         0.00000E+00
         0.00000E+00
         0.00000E+00
         0.00000E+00
         0.00000E+00
         0.00000E+00
         0.00000E+00
         0.00000E+00
         0.00000E+00
         0.00000E+00
         0.00000E+00
         0.00000E+00
         0.00000E+00
         0.00000E+00
         0.00000E+00
         0.00000E+00
         0.00000E+00
         0.00000E+00
         0.00000E+00
         0.00000E+00
         0.00000E+00
         0.00000E+00
         0.00000E+00
         0.00000E+00
         0.00000E+00
         0.00000E+00
         0.00000E+00
         0.00000E+00
         0.00000E+00
         0.00000E+00
         0.00000E+00
         0.00000E+00
         0.00000E+00
         0.00000E+00
         0.00000E+00
         0.00000E+00
         0.00000E+00
         0.00000E+00
         0.00000E+00
         0.00000E+00
         0.00000E+00
         0.00000E+00
         0.00000E+00
         0.00000E+00
         0.00000E+00
         0.00000E+00
         0.00000E+00
         0.00000E+00
         0.00000E+00
         0.00000E+00
         0.00000E+00
         0.00000E+00
         0.00000E+00
         0.00000E+00
         0.00000E+00
         0.00000E+00
         0.00000E+00
         0.00000E+00
         0.00000E+00
         0.00000E+00
         0.00000E+00
         0.00000E+00
         0.00000E+00
         0.00000E+00
         0.00000E+00
         0.00000E+00
         0.00000E+00
         0.00000E+00
         0.00000E+00
         0.00000E+00
         0.00000E+00
         0.00000E+00
         0.00000E+00
         0.00000E+00
         0.00000E+00
         0.00000E+00
         0.00000E+00
         0.00000E+00
         0.00000E+00
         0.00000E+00
         0.00000E+00
         0.00000E+00
         0.00000E+00
         0.00000E+00
         0.00000E+00
         0.00000E+00
         0.00000E+00
         0.00000E+00
         0.00000E+00
         0.00000E+00
         0.00000E+00
         0.00000E+00
         0.00000E+00
         0.00000E+00
         0.00000E+00
         0.00000E+00
         0.00000E+00
         0.00000E+00
         0.00000E+00
         0.00000E+00
         0.00000E+00
         0.00000E+00
         0.00000E+00
         0.00000E+00
         0.00000E+00
         0.00000E+00
         0.00000E+00
         0.00000E+00
         0.00000E+00
         0.00000E+00
         0.00000E+00
         0.00000E+00
         0.00000E+00
         0.00000E+00
         0.00000E+00
         0.00000E+00
         0.00000E+00
         0.00000E+00
         0.00000E+00
         0.00000E+00
         0.00000E+00
         0.00000E+00
         0.00000E+00
         0.00000E+00
         0.00000E+00
         0.00000E+00
         0.00000E+00
         0.00000E+00
         0.00000E+00
         0.00000E+00
         0.00000E+00
         0.00000E+00
         0.00000E+00
         0.00000E+00
         0.00000E+00
         0.00000E+00
         0.00000E+00
         0.00000E+00
         0.00000E+00
         0.00000E+00
         0.00000E+00
         0.00000E+00
         0.00000E+00
         0.00000E+00
         0.00000E+00
         0.00000E+00
         0.00000E+00
         0.00000E+00
         0.00000E+00
         0.00000E+00
         0.00000E+00
         0.00000E+00
         0.00000E+00
         0.00000E+00
         0.00000E+00
         0.00000E+00
         0.00000E+00
         0.00000E+00
         0.00000E+00
         0.00000E+00
         0.00000E+00
         0.00000E+00
         0.00000E+00
         0.00000E+00
         0.00000E+00
         0.00000E+00
         0.00000E+00
         0.00000E+00
         0.00000E+00
         0.00000E+00
         0.00000E+00
         0.00000E+00
         0.00000E+00
         0.00000E+00
         0.00000E+00
         0.00000E+00
         0.00000E+00
         0.00000E+00
         0.00000E+00
         0.00000E+00
         0.00000E+00
         0.00000E+00
         0.00000E+00
         0.00000E+00
         0.00000E+00
         0.00000E+00
         0.00000E+00
         0.00000E+00
         0.00000E+00
         0.00000E+00
         0.00000E+00
         0.00000E+00
         0.00000E+00
         0.00000E+00
         0.00000E+00
         0.00000E+00
         0.00000E+00
         0.00000E+00
         0.00000E+00
         0.00000E+00
         0.00000E+00
         0.00000E+00
         0.00000E+00
         0.00000E+00
         0.00000E+00
         0.00000E+00
         0.00000E+00
         0.00000E+00
         0.00000E+00
         0.00000E+00
         0.00000E+00
         0.00000E+00
         0.00000E+00
         0.00000E+00
         0.00000E+00
         0.00000E+00
         0.00000E+00
         0.00000E+00
         0.00000E+00
         0.00000E+00
         0.00000E+00
         0.00000E+00
         0.00000E+00
         0.00000E+00
         0.00000E+00
         0.00000E+00
         0.00000E+00
         0.00000E+00
         0.00000E+00
         0.00000E+00
         0.00000E+00
         0.00000E+00
         0.00000E+00
         0.00000E+00
         0.00000E+00
         0.00000E+00
         0.00000E+00
         0.00000E+00
         0.00000E+00
         0.00000E+00
         0.00000E+00
         0.00000E+00
         0.00000E+00
         0.00000E+00
         0.00000E+00
         0.00000E+00
         0.00000E+00
         0.00000E+00
         0.00000E+00
         0.00000E+00
         0.00000E+00
         0.00000E+00
         0.00000E+00
         0.00000E+00
         0.00000E+00
         0.00000E+00
         0.00000E+00
         0.00000E+00
         0.00000E+00
         0.00000E+00
         0.00000E+00
         0.00000E+00
         0.00000E+00
         0.00000E+00
         0.00000E+00
         0.00000E+00
         0.00000E+00
         0.00000E+00
         0.00000E+00
         0.00000E+00
         0.00000E+00
         0.00000E+00
         0.00000E+00
         0.00000E+00
         0.00000E+00
         0.00000E+00
         0.00000E+00
         0.00000E+00
         0.00000E+00
         0.00000E+00
         0.00000E+00
         0.00000E+00
         0.00000E+00
         0.00000E+00
         0.00000E+00
         0.00000E+00
         0.00000E+00
         0.00000E+00
         0.00000E+00
         0.00000E+00
         0.00000E+00
         0.00000E+00
         0.00000E+00
         0.00000E+00
         0.00000E+00
         0.00000E+00
         0.00000E+00
         0.00000E+00
         0.00000E+00
         0.00000E+00
         0.00000E+00
         0.00000E+00
         0.00000E+00
         0.00000E+00
         0.00000E+00
         0.00000E+00
         0.00000E+00
         0.00000E+00
         0.00000E+00
         0.00000E+00
         0.00000E+00
         0.00000E+00
         0.00000E+00
         0.00000E+00
         0.00000E+00
         0.00000E+00
         0.00000E+00
         0.00000E+00
         0.00000E+00
         0.00000E+00
         0.00000E+00
         0.00000E+00
         0.00000E+00
         0.00000E+00
         0.00000E+00
         0.00000E+00
         0.00000E+00
         0.00000E+00
         0.00000E+00
         0.00000E+00
         0.00000E+00
         0.00000E+00
         0.00000E+00
         0.00000E+00
         0.00000E+00
         0.00000E+00
         0.00000E+00
         0.00000E+00
         0.00000E+00
         0.00000E+00
         0.00000E+00
         0.00000E+00
         0.00000E+00
         0.00000E+00
         0.00000E+00
         0.00000E+00
         0.00000E+00
         0.00000E+00
         0.00000E+00
         0.00000E+00
         0.00000E+00
         0.00000E+00
         0.00000E+00
         0.00000E+00
         0.00000E+00
         0.00000E+00
         0.00000E+00
         0.00000E+00
         0.00000E+00
         0.00000E+00
         0.00000E+00
         0.00000E+00
         0.00000E+00
         0.00000E+00
         0.00000E+00
         0.00000E+00
         0.00000E+00
         0.00000E+00
         0.00000E+00
         0.00000E+00
         0.00000E+00
         0.00000E+00
         0.00000E+00
         0.00000E+00
         0.00000E+00
         0.00000E+00
         0.00000E+00
         0.00000E+00
         0.00000E+00
         0.00000E+00
         0.00000E+00
         0.00000E+00
         0.00000E+00
         0.00000E+00
         0.00000E+00
         0.00000E+00
         0.00000E+00
         0.00000E+00
         0.00000E+00
         0.00000E+00
         0.00000E+00
         0.00000E+00
         0.00000E+00
         0.00000E+00
         0.00000E+00
         0.00000E+00
         0.00000E+00
         0.00000E+00
         0.00000E+00
         0.00000E+00
         0.00000E+00
         0.00000E+00
         0.00000E+00
         0.00000E+00
         0.00000E+00
         0.00000E+00
         0.00000E+00
         0.00000E+00
         0.00000E+00
         0.00000E+00
         0.00000E+00
         0.00000E+00
         0.00000E+00
         0.00000E+00
         0.00000E+00
         0.00000E+00
         0.00000E+00
         0.00000E+00
         0.00000E+00
         0.00000E+00
         0.00000E+00
         0.00000E+00
         0.00000E+00
         0.00000E+00
         0.00000E+00
         0.00000E+00
         0.00000E+00
         0.00000E+00
         0.00000E+00
         0.00000E+00
         0.00000E+00
         0.00000E+00
         0.00000E+00
         0.00000E+00
         0.00000E+00
         0.00000E+00
         0.00000E+00
         0.00000E+00
         0.00000E+00
         0.00000E+00
         0.00000E+00
         0.00000E+00
         0.00000E+00
         0.00000E+00
         0.00000E+00
         0.00000E+00
         0.00000E+00
         0.00000E+00
         0.00000E+00
         0.00000E+00
         0.00000E+00
         0.00000E+00
         0.00000E+00
         0.00000E+00
         0.00000E+00
         0.00000E+00
         0.00000E+00
         0.00000E+00
         0.00000E+00
         0.00000E+00
         0.00000E+00
         0.00000E+00
         0.00000E+00
         0.00000E+00
         0.00000E+00
         0.00000E+00
         0.00000E+00
         0.00000E+00
         0.00000E+00
         0.00000E+00
         0.00000E+00
         0.00000E+00
         0.00000E+00
         0.00000E+00
         0.00000E+00
         0.00000E+00
         0.00000E+00
         0.00000E+00
         0.00000E+00
         0.00000E+00
         0.00000E+00
         0.00000E+00
         0.00000E+00
         0.00000E+00
         0.00000E+00
         0.00000E+00
         0.00000E+00
         0.00000E+00
         0.00000E+00
         0.00000E+00
         0.00000E+00
         0.00000E+00
         0.00000E+00
         0.00000E+00
         0.00000E+00
         0.00000E+00
         0.00000E+00
         0.00000E+00
         0.00000E+00
         0.00000E+00
         0.00000E+00
         0.00000E+00
         0.00000E+00
         0.00000E+00
         0.00000E+00
         0.00000E+00
         0.00000E+00
         0.00000E+00
         0.00000E+00
         0.00000E+00
         0.00000E+00
         0.00000E+00
         0.00000E+00
         0.00000E+00
         0.00000E+00
         0.00000E+00
         0.00000E+00
         0.00000E+00
         0.00000E+00
         0.00000E+00
         0.00000E+00
         0.00000E+00
         0.00000E+00
         0.00000E+00
         0.00000E+00
         0.00000E+00
         0.00000E+00
         0.00000E+00
         0.00000E+00
         0.00000E+00
         0.00000E+00
         0.00000E+00
         0.00000E+00
         0.00000E+00
         0.00000E+00
         0.00000E+00
         0.00000E+00
         0.00000E+00
         0.00000E+00
         0.00000E+00
         0.00000E+00
         0.00000E+00
         0.00000E+00
         0.00000E+00
         0.00000E+00
         0.00000E+00
         0.00000E+00
         0.00000E+00
         0.00000E+00
         0.00000E+00
         0.00000E+00
         0.00000E+00
         0.00000E+00
         0.00000E+00
         0.00000E+00
         0.00000E+00
         0.00000E+00
         0.00000E+00
         0.00000E+00
         0.00000E+00
         0.00000E+00
         0.00000E+00
         0.00000E+00
         0.00000E+00
         0.00000E+00
         0.00000E+00
         0.00000E+00
         0.00000E+00
         0.00000E+00
         0.00000E+00
         0.00000E+00
         0.00000E+00
         0.00000E+00
         0.00000E+00
         0.00000E+00
         0.00000E+00
         0.00000E+00
         0.00000E+00
         0.00000E+00
         0.00000E+00
         0.00000E+00
         0.00000E+00
         0.00000E+00
         0.00000E+00
         0.00000E+00
         0.00000E+00
         0.00000E+00
         0.00000E+00
         0.00000E+00
         0.00000E+00
         0.00000E+00
         0.00000E+00
         0.00000E+00
         0.00000E+00
         0.00000E+00
         0.00000E+00
         0.00000E+00
         0.00000E+00
         0.00000E+00
         0.00000E+00
         0.00000E+00
         0.00000E+00
         0.00000E+00
         0.00000E+00
         0.00000E+00
         0.00000E+00
         0.00000E+00
         0.00000E+00
         0.00000E+00
         0.00000E+00
         0.00000E+00
         0.00000E+00
         0.00000E+00
         0.00000E+00
         0.00000E+00
         0.00000E+00
         0.00000E+00
         0.00000E+00
         0.00000E+00
         0.00000E+00
         0.00000E+00
         0.00000E+00
         0.00000E+00
         0.00000E+00
         0.00000E+00
         0.00000E+00
         0.00000E+00
         0.00000E+00
         0.00000E+00
         0.00000E+00
         0.00000E+00
         0.00000E+00
         0.00000E+00
         0.00000E+00
         0.00000E+00
         0.00000E+00
         0.00000E+00
         0.00000E+00
         0.00000E+00
         0.00000E+00
         0.00000E+00
         0.00000E+00
         0.00000E+00
         0.00000E+00
         0.00000E+00
         0.00000E+00
         0.00000E+00
         0.00000E+00
         0.00000E+00
         0.00000E+00
         0.00000E+00
         0.00000E+00
         0.00000E+00
         0.00000E+00
         0.00000E+00
         0.00000E+00
         0.00000E+00
         0.00000E+00
         0.00000E+00
         0.00000E+00
         0.00000E+00
         0.00000E+00
         0.00000E+00
         0.00000E+00
         0.00000E+00
         0.00000E+00
         0.00000E+00
         0.00000E+00
         0.00000E+00
         0.00000E+00
         0.00000E+00
         0.00000E+00
         0.00000E+00
         0.00000E+00
         0.00000E+00
         0.00000E+00
         0.00000E+00
         0.00000E+00
         0.00000E+00
         0.00000E+00
         0.00000E+00
         0.00000E+00
         0.00000E+00
         0.00000E+00
         0.00000E+00
         0.00000E+00
         0.00000E+00
         0.00000E+00
         0.00000E+00
         0.00000E+00
         0.00000E+00
         0.00000E+00
         0.00000E+00
         0.00000E+00
         0.00000E+00
         0.00000E+00
         0.00000E+00
         0.00000E+00
         0.00000E+00
         0.00000E+00
         0.00000E+00
         0.00000E+00
         0.00000E+00
         0.00000E+00
         0.00000E+00
         0.00000E+00
         0.00000E+00
         0.00000E+00
         0.00000E+00
         0.00000E+00
         0.00000E+00
         0.00000E+00
         0.00000E+00
         0.00000E+00
         0.00000E+00
         0.00000E+00
         0.00000E+00
         0.00000E+00
         0.00000E+00
         0.00000E+00
         0.00000E+00
         0.00000E+00
         0.00000E+00
         0.00000E+00
         0.00000E+00
         0.00000E+00
         0.00000E+00
         0.00000E+00
         0.00000E+00
         0.00000E+00
         0.00000E+00
         0.00000E+00
         0.00000E+00
         0.00000E+00
         0.00000E+00
         0.00000E+00
         0.00000E+00
         0.00000E+00
         0.00000E+00
         0.00000E+00
         0.00000E+00
         0.00000E+00
         0.00000E+00
         0.00000E+00
         0.00000E+00
         0.00000E+00
         0.00000E+00
         0.00000E+00
         0.00000E+00
         0.00000E+00
         0.00000E+00
         0.00000E+00
         0.00000E+00
         0.00000E+00
         0.00000E+00
         0.00000E+00
         0.00000E+00
         0.00000E+00
         0.00000E+00
         0.00000E+00
         0.00000E+00
         0.00000E+00
         0.00000E+00
         0.00000E+00
         0.00000E+00
         0.00000E+00
         0.00000E+00
         0.00000E+00
         0.00000E+00
         0.00000E+00
         0.00000E+00
         0.00000E+00
         0.00000E+00
         0.00000E+00
         0.00000E+00
         0.00000E+00
         0.00000E+00
         0.00000E+00
         0.00000E+00
         0.00000E+00
         0.00000E+00
         0.00000E+00
         0.00000E+00
         0.00000E+00
         0.00000E+00
         0.00000E+00
         0.00000E+00
         0.00000E+00
         0.00000E+00
         0.00000E+00
         0.00000E+00
         0.00000E+00
         0.00000E+00
         0.00000E+00
         0.00000E+00
         0.00000E+00
         0.00000E+00
         0.00000E+00
         0.00000E+00
         0.00000E+00
         0.00000E+00
         0.00000E+00
         0.00000E+00
         0.00000E+00
         0.00000E+00
         0.00000E+00
         0.00000E+00
         0.00000E+00
         0.00000E+00
  
SCALARS                init_velocity_y  double 1
LOOKUP_TABLE default
         0.00000E+00
         0.00000E+00
         0.00000E+00
         0.00000E+00
         0.00000E+00
         0.00000E+00
         0.00000E+00
         0.00000E+00
         0.00000E+00
         0.00000E+00
         0.00000E+00
         0.00000E+00
         0.00000E+00
         0.00000E+00
         0.00000E+00
         0.00000E+00
         0.00000E+00
         0.00000E+00
         0.00000E+00
         0.00000E+00
         0.00000E+00
         0.00000E+00
         0.00000E+00
         0.00000E+00
         0.00000E+00
         0.00000E+00
         0.00000E+00
         0.00000E+00
         0.00000E+00
         0.00000E+00
         0.00000E+00
         0.00000E+00
         0.00000E+00
         0.00000E+00
         0.00000E+00
         0.00000E+00
         0.00000E+00
         0.00000E+00
         0.00000E+00
         0.00000E+00
         0.00000E+00
         0.00000E+00
         0.00000E+00
         0.00000E+00
         0.00000E+00
         0.00000E+00
         0.00000E+00
         0.00000E+00
         0.00000E+00
         0.00000E+00
         0.00000E+00
         0.00000E+00
         0.00000E+00
         0.00000E+00
         0.00000E+00
         0.00000E+00
         0.00000E+00
         0.00000E+00
         0.00000E+00
         0.00000E+00
         0.00000E+00
         0.00000E+00
         0.00000E+00
         0.00000E+00
         0.00000E+00
         0.00000E+00
         0.00000E+00
         0.00000E+00
         0.00000E+00
         0.00000E+00
         0.00000E+00
         0.00000E+00
         0.00000E+00
         0.00000E+00
         0.00000E+00
         0.00000E+00
         0.00000E+00
         0.00000E+00
         0.00000E+00
         0.00000E+00
         0.00000E+00
         0.00000E+00
         0.00000E+00
         0.00000E+00
         0.00000E+00
         0.00000E+00
         0.00000E+00
         0.00000E+00
         0.00000E+00
         0.00000E+00
         0.00000E+00
         0.00000E+00
         0.00000E+00
         0.00000E+00
         0.00000E+00
         0.00000E+00
         0.00000E+00
         0.00000E+00
         0.00000E+00
         0.00000E+00
         0.00000E+00
         0.00000E+00
         0.00000E+00
         0.00000E+00
         0.00000E+00
         0.00000E+00
         0.00000E+00
         0.00000E+00
         0.00000E+00
         0.00000E+00
         0.00000E+00
         0.00000E+00
         0.00000E+00
         0.00000E+00
         0.00000E+00
         0.00000E+00
         0.00000E+00
         0.00000E+00
         0.00000E+00
         0.00000E+00
         0.00000E+00
         0.00000E+00
         0.00000E+00
         0.00000E+00
         0.00000E+00
         0.00000E+00
         0.00000E+00
         0.00000E+00
         0.00000E+00
         0.00000E+00
         0.00000E+00
         0.00000E+00
         0.00000E+00
         0.00000E+00
         0.00000E+00
         0.00000E+00
         0.00000E+00
         0.00000E+00
         0.00000E+00
         0.00000E+00
         0.00000E+00
         0.00000E+00
         0.00000E+00
         0.00000E+00
         0.00000E+00
         0.00000E+00
         0.00000E+00
         0.00000E+00
         0.00000E+00
         0.00000E+00
         0.00000E+00
         0.00000E+00
         0.00000E+00
         0.00000E+00
         0.00000E+00
         0.00000E+00
         0.00000E+00
         0.00000E+00
         0.00000E+00
         0.00000E+00
         0.00000E+00
         0.00000E+00
         0.00000E+00
         0.00000E+00
         0.00000E+00
         0.00000E+00
         0.00000E+00
         0.00000E+00
         0.00000E+00
         0.00000E+00
         0.00000E+00
         0.00000E+00
         0.00000E+00
         0.00000E+00
         0.00000E+00
         0.00000E+00
         0.00000E+00
         0.00000E+00
         0.00000E+00
         0.00000E+00
         0.00000E+00
         0.00000E+00
         0.00000E+00
         0.00000E+00
         0.00000E+00
         0.00000E+00
         0.00000E+00
         0.00000E+00
         0.00000E+00
         0.00000E+00
         0.00000E+00
         0.00000E+00
         0.00000E+00
         0.00000E+00
         0.00000E+00
         0.00000E+00
         0.00000E+00
         0.00000E+00
         0.00000E+00
         0.00000E+00
         0.00000E+00
         0.00000E+00
         0.00000E+00
         0.00000E+00
         0.00000E+00
         0.00000E+00
         0.00000E+00
         0.00000E+00
         0.00000E+00
         0.00000E+00
         0.00000E+00
         0.00000E+00
         0.00000E+00
         0.00000E+00
         0.00000E+00
         0.00000E+00
         0.00000E+00
         0.00000E+00
         0.00000E+00
         0.00000E+00
         0.00000E+00
         0.00000E+00
         0.00000E+00
         0.00000E+00
         0.00000E+00
         0.00000E+00
         0.00000E+00
         0.00000E+00
         0.00000E+00
         0.00000E+00
         0.00000E+00
         0.00000E+00
         0.00000E+00
         0.00000E+00
         0.00000E+00
         0.00000E+00
         0.00000E+00
         0.00000E+00
         0.00000E+00
         0.00000E+00
         0.00000E+00
         0.00000E+00
         0.00000E+00
         0.00000E+00
         0.00000E+00
         0.00000E+00
         0.00000E+00
         0.00000E+00
         0.00000E+00
         0.00000E+00
         0.00000E+00
         0.00000E+00
         0.00000E+00
         0.00000E+00
         0.00000E+00
         0.00000E+00
         0.00000E+00
         0.00000E+00
         0.00000E+00
         0.00000E+00
         0.00000E+00
         0.00000E+00
         0.00000E+00
         0.00000E+00
         0.00000E+00
         0.00000E+00
         0.00000E+00
         0.00000E+00
         0.00000E+00
         0.00000E+00
         0.00000E+00
         0.00000E+00
         0.00000E+00
         0.00000E+00
         0.00000E+00
         0.00000E+00
         0.00000E+00
         0.00000E+00
         0.00000E+00
         0.00000E+00
         0.00000E+00
         0.00000E+00
         0.00000E+00
         0.00000E+00
         0.00000E+00
         0.00000E+00
         0.00000E+00
         0.00000E+00
         0.00000E+00
         0.00000E+00
         0.00000E+00
         0.00000E+00
         0.00000E+00
         0.00000E+00
         0.00000E+00
         0.00000E+00
         0.00000E+00
         0.00000E+00
         0.00000E+00
         0.00000E+00
         0.00000E+00
         0.00000E+00
         0.00000E+00
         0.00000E+00
         0.00000E+00
         0.00000E+00
         0.00000E+00
         0.00000E+00
         0.00000E+00
         0.00000E+00
         0.00000E+00
         0.00000E+00
         0.00000E+00
         0.00000E+00
         0.00000E+00
         0.00000E+00
         0.00000E+00
         0.00000E+00
         0.00000E+00
         0.00000E+00
         0.00000E+00
         0.00000E+00
         0.00000E+00
         0.00000E+00
         0.00000E+00
         0.00000E+00
         0.00000E+00
         0.00000E+00
         0.00000E+00
         0.00000E+00
         0.00000E+00
         0.00000E+00
         0.00000E+00
         0.00000E+00
         0.00000E+00
         0.00000E+00
         0.00000E+00
         0.00000E+00
         0.00000E+00
         0.00000E+00
         0.00000E+00
         0.00000E+00
         0.00000E+00
         0.00000E+00
         0.00000E+00
         0.00000E+00
         0.00000E+00
         0.00000E+00
         0.00000E+00
         0.00000E+00
         0.00000E+00
         0.00000E+00
         0.00000E+00
         0.00000E+00
         0.00000E+00
         0.00000E+00
         0.00000E+00
         0.00000E+00
         0.00000E+00
         0.00000E+00
         0.00000E+00
         0.00000E+00
         0.00000E+00
         0.00000E+00
         0.00000E+00
         0.00000E+00
         0.00000E+00
         0.00000E+00
         0.00000E+00
         0.00000E+00
         0.00000E+00
         0.00000E+00
         0.00000E+00
         0.00000E+00
         0.00000E+00
         0.00000E+00
         0.00000E+00
         0.00000E+00
         0.00000E+00
         0.00000E+00
         0.00000E+00
         0.00000E+00
         0.00000E+00
         0.00000E+00
         0.00000E+00
         0.00000E+00
         0.00000E+00
         0.00000E+00
         0.00000E+00
         0.00000E+00
         0.00000E+00
         0.00000E+00
         0.00000E+00
         0.00000E+00
         0.00000E+00
         0.00000E+00
         0.00000E+00
         0.00000E+00
         0.00000E+00
         0.00000E+00
         0.00000E+00
         0.00000E+00
         0.00000E+00
         0.00000E+00
         0.00000E+00
         0.00000E+00
         0.00000E+00
         0.00000E+00
         0.00000E+00
         0.00000E+00
         0.00000E+00
         0.00000E+00
         0.00000E+00
         0.00000E+00
         0.00000E+00
         0.00000E+00
         0.00000E+00
         0.00000E+00
         0.00000E+00
         0.00000E+00
         0.00000E+00
         0.00000E+00
         0.00000E+00
         0.00000E+00
         0.00000E+00
         0.00000E+00
         0.00000E+00
         0.00000E+00
         0.00000E+00
         0.00000E+00
         0.00000E+00
         0.00000E+00
         0.00000E+00
         0.00000E+00
         0.00000E+00
         0.00000E+00
         0.00000E+00
         0.00000E+00
         0.00000E+00
         0.00000E+00
         0.00000E+00
         0.00000E+00
         0.00000E+00
         0.00000E+00
         0.00000E+00
         0.00000E+00
         0.00000E+00
         0.00000E+00
         0.00000E+00
         0.00000E+00
         0.00000E+00
         0.00000E+00
         0.00000E+00
         0.00000E+00
         0.00000E+00
         0.00000E+00
         0.00000E+00
         0.00000E+00
         0.00000E+00
         0.00000E+00
         0.00000E+00
         0.00000E+00
         0.00000E+00
         0.00000E+00
         0.00000E+00
         0.00000E+00
         0.00000E+00
         0.00000E+00
         0.00000E+00
         0.00000E+00
         0.00000E+00
         0.00000E+00
         0.00000E+00
         0.00000E+00
         0.00000E+00
         0.00000E+00
         0.00000E+00
         0.00000E+00
         0.00000E+00
         0.00000E+00
         0.00000E+00
         0.00000E+00
         0.00000E+00
         0.00000E+00
         0.00000E+00
         0.00000E+00
         0.00000E+00
         0.00000E+00
         0.00000E+00
         0.00000E+00
         0.00000E+00
         0.00000E+00
         0.00000E+00
         0.00000E+00
         0.00000E+00
         0.00000E+00
         0.00000E+00
         0.00000E+00
         0.00000E+00
         0.00000E+00
         0.00000E+00
         0.00000E+00
         0.00000E+00
         0.00000E+00
         0.00000E+00
         0.00000E+00
         0.00000E+00
         0.00000E+00
         0.00000E+00
         0.00000E+00
         0.00000E+00
         0.00000E+00
         0.00000E+00
         0.00000E+00
         0.00000E+00
         0.00000E+00
         0.00000E+00
         0.00000E+00
         0.00000E+00
         0.00000E+00
         0.00000E+00
         0.00000E+00
         0.00000E+00
         0.00000E+00
         0.00000E+00
         0.00000E+00
         0.00000E+00
         0.00000E+00
         0.00000E+00
         0.00000E+00
         0.00000E+00
         0.00000E+00
         0.00000E+00
         0.00000E+00
         0.00000E+00
         0.00000E+00
         0.00000E+00
         0.00000E+00
         0.00000E+00
         0.00000E+00
         0.00000E+00
         0.00000E+00
         0.00000E+00
         0.00000E+00
         0.00000E+00
         0.00000E+00
         0.00000E+00
         0.00000E+00
         0.00000E+00
         0.00000E+00
         0.00000E+00
         0.00000E+00
         0.00000E+00
         0.00000E+00
         0.00000E+00
         0.00000E+00
         0.00000E+00
         0.00000E+00
         0.00000E+00
         0.00000E+00
         0.00000E+00
         0.00000E+00
         0.00000E+00
         0.00000E+00
         0.00000E+00
         0.00000E+00
         0.00000E+00
         0.00000E+00
         0.00000E+00
         0.00000E+00
         0.00000E+00
         0.00000E+00
         0.00000E+00
         0.00000E+00
         0.00000E+00
         0.00000E+00
         0.00000E+00
         0.00000E+00
         0.00000E+00
         0.00000E+00
         0.00000E+00
         0.00000E+00
         0.00000E+00
         0.00000E+00
         0.00000E+00
         0.00000E+00
         0.00000E+00
         0.00000E+00
         0.00000E+00
         0.00000E+00
         0.00000E+00
         0.00000E+00
         0.00000E+00
         0.00000E+00
         0.00000E+00
         0.00000E+00
         0.00000E+00
         0.00000E+00
         0.00000E+00
         0.00000E+00
         0.00000E+00
         0.00000E+00
         0.00000E+00
         0.00000E+00
         0.00000E+00
         0.00000E+00
         0.00000E+00
         0.00000E+00
         0.00000E+00
         0.00000E+00
         0.00000E+00
         0.00000E+00
         0.00000E+00
         0.00000E+00
         0.00000E+00
         0.00000E+00
         0.00000E+00
         0.00000E+00
         0.00000E+00
         0.00000E+00
         0.00000E+00
         0.00000E+00
         0.00000E+00
         0.00000E+00
         0.00000E+00
         0.00000E+00
         0.00000E+00
         0.00000E+00
         0.00000E+00
         0.00000E+00
         0.00000E+00
         0.00000E+00
         0.00000E+00
         0.00000E+00
         0.00000E+00
         0.00000E+00
         0.00000E+00
         0.00000E+00
         0.00000E+00
         0.00000E+00
         0.00000E+00
         0.00000E+00
         0.00000E+00
         0.00000E+00
         0.00000E+00
         0.00000E+00
         0.00000E+00
         0.00000E+00
         0.00000E+00
         0.00000E+00
         0.00000E+00
         0.00000E+00
         0.00000E+00
         0.00000E+00
         0.00000E+00
         0.00000E+00
         0.00000E+00
         0.00000E+00
         0.00000E+00
         0.00000E+00
         0.00000E+00
         0.00000E+00
         0.00000E+00
         0.00000E+00
         0.00000E+00
         0.00000E+00
         0.00000E+00
         0.00000E+00
         0.00000E+00
         0.00000E+00
         0.00000E+00
         0.00000E+00
         0.00000E+00
         0.00000E+00
         0.00000E+00
         0.00000E+00
         0.00000E+00
         0.00000E+00
         0.00000E+00
         0.00000E+00
         0.00000E+00
         0.00000E+00
         0.00000E+00
         0.00000E+00
         0.00000E+00
         0.00000E+00
         0.00000E+00
         0.00000E+00
         0.00000E+00
         0.00000E+00
         0.00000E+00
         0.00000E+00
         0.00000E+00
         0.00000E+00
         0.00000E+00
         0.00000E+00
         0.00000E+00
         0.00000E+00
         0.00000E+00
         0.00000E+00
         0.00000E+00
         0.00000E+00
         0.00000E+00
         0.00000E+00
         0.00000E+00
         0.00000E+00
         0.00000E+00
         0.00000E+00
         0.00000E+00
         0.00000E+00
         0.00000E+00
         0.00000E+00
         0.00000E+00
         0.00000E+00
         0.00000E+00
         0.00000E+00
         0.00000E+00
         0.00000E+00
         0.00000E+00
         0.00000E+00
         0.00000E+00
         0.00000E+00
         0.00000E+00
         0.00000E+00
         0.00000E+00
         0.00000E+00
         0.00000E+00
         0.00000E+00
         0.00000E+00
         0.00000E+00
         0.00000E+00
         0.00000E+00
         0.00000E+00
         0.00000E+00
         0.00000E+00
         0.00000E+00
         0.00000E+00
         0.00000E+00
         0.00000E+00
         0.00000E+00
         0.00000E+00
         0.00000E+00
         0.00000E+00
         0.00000E+00
         0.00000E+00
         0.00000E+00
         0.00000E+00
         0.00000E+00
         0.00000E+00
         0.00000E+00
         0.00000E+00
         0.00000E+00
         0.00000E+00
         0.00000E+00
         0.00000E+00
         0.00000E+00
         0.00000E+00
         0.00000E+00
         0.00000E+00
         0.00000E+00
         0.00000E+00
         0.00000E+00
         0.00000E+00
         0.00000E+00
         0.00000E+00
         0.00000E+00
         0.00000E+00
         0.00000E+00
         0.00000E+00
         0.00000E+00
         0.00000E+00
         0.00000E+00
         0.00000E+00
         0.00000E+00
         0.00000E+00
         0.00000E+00
         0.00000E+00
         0.00000E+00
         0.00000E+00
         0.00000E+00
         0.00000E+00
         0.00000E+00
         0.00000E+00
         0.00000E+00
         0.00000E+00
         0.00000E+00
         0.00000E+00
         0.00000E+00
         0.00000E+00
         0.00000E+00
         0.00000E+00
         0.00000E+00
         0.00000E+00
         0.00000E+00
         0.00000E+00
         0.00000E+00
         0.00000E+00
         0.00000E+00
         0.00000E+00
         0.00000E+00
         0.00000E+00
         0.00000E+00
         0.00000E+00
         0.00000E+00
         0.00000E+00
         0.00000E+00
         0.00000E+00
         0.00000E+00
         0.00000E+00
         0.00000E+00
         0.00000E+00
         0.00000E+00
         0.00000E+00
         0.00000E+00
         0.00000E+00
         0.00000E+00
         0.00000E+00
         0.00000E+00
         0.00000E+00
         0.00000E+00
         0.00000E+00
         0.00000E+00
         0.00000E+00
         0.00000E+00
         0.00000E+00
         0.00000E+00
         0.00000E+00
         0.00000E+00
         0.00000E+00
         0.00000E+00
         0.00000E+00
         0.00000E+00
         0.00000E+00
         0.00000E+00
         0.00000E+00
         0.00000E+00
         0.00000E+00
         0.00000E+00
         0.00000E+00
         0.00000E+00
         0.00000E+00
         0.00000E+00
         0.00000E+00
         0.00000E+00
         0.00000E+00
         0.00000E+00
         0.00000E+00
         0.00000E+00
         0.00000E+00
         0.00000E+00
         0.00000E+00
         0.00000E+00
         0.00000E+00
         0.00000E+00
         0.00000E+00
         0.00000E+00
         0.00000E+00
         0.00000E+00
         0.00000E+00
         0.00000E+00
         0.00000E+00
         0.00000E+00
         0.00000E+00
         0.00000E+00
         0.00000E+00
         0.00000E+00
         0.00000E+00
         0.00000E+00
         0.00000E+00
         0.00000E+00
         0.00000E+00
         0.00000E+00
         0.00000E+00
         0.00000E+00
         0.00000E+00
         0.00000E+00
         0.00000E+00
         0.00000E+00
         0.00000E+00
         0.00000E+00
         0.00000E+00
         0.00000E+00
         0.00000E+00
         0.00000E+00
         0.00000E+00
         0.00000E+00
         0.00000E+00
         0.00000E+00
         0.00000E+00
         0.00000E+00
         0.00000E+00
         0.00000E+00
         0.00000E+00
         0.00000E+00
         0.00000E+00
         0.00000E+00
         0.00000E+00
         0.00000E+00
         0.00000E+00
         0.00000E+00
         0.00000E+00
         0.00000E+00
         0.00000E+00
         0.00000E+00
         0.00000E+00
         0.00000E+00
         0.00000E+00
         0.00000E+00
         0.00000E+00
         0.00000E+00
         0.00000E+00
         0.00000E+00
         0.00000E+00
         0.00000E+00
         0.00000E+00
         0.00000E+00
         0.00000E+00
         0.00000E+00
         0.00000E+00
         0.00000E+00
         0.00000E+00
         0.00000E+00
         0.00000E+00
         0.00000E+00
         0.00000E+00
         0.00000E+00
         0.00000E+00
         0.00000E+00
         0.00000E+00
         0.00000E+00
         0.00000E+00
         0.00000E+00
         0.00000E+00
         0.00000E+00
         0.00000E+00
         0.00000E+00
         0.00000E+00
         0.00000E+00
         0.00000E+00
         0.00000E+00
         0.00000E+00
         0.00000E+00
         0.00000E+00
         0.00000E+00
         0.00000E+00
         0.00000E+00
         0.00000E+00
         0.00000E+00
         0.00000E+00
         0.00000E+00
         0.00000E+00
         0.00000E+00
         0.00000E+00
         0.00000E+00
         0.00000E+00
         0.00000E+00
         0.00000E+00
         0.00000E+00
         0.00000E+00
         0.00000E+00
         0.00000E+00
         0.00000E+00
         0.00000E+00
         0.00000E+00
         0.00000E+00
         0.00000E+00
         0.00000E+00
         0.00000E+00
         0.00000E+00
         0.00000E+00
         0.00000E+00
         0.00000E+00
         0.00000E+00
         0.00000E+00
         0.00000E+00
         0.00000E+00
         0.00000E+00
         0.00000E+00
         0.00000E+00
         0.00000E+00
         0.00000E+00
         0.00000E+00
         0.00000E+00
         0.00000E+00
         0.00000E+00
         0.00000E+00
         0.00000E+00
         0.00000E+00
         0.00000E+00
         0.00000E+00
         0.00000E+00
         0.00000E+00
         0.00000E+00
         0.00000E+00
         0.00000E+00
         0.00000E+00
         0.00000E+00
         0.00000E+00
         0.00000E+00
         0.00000E+00
         0.00000E+00
         0.00000E+00
         0.00000E+00
         0.00000E+00
         0.00000E+00
         0.00000E+00
         0.00000E+00
         0.00000E+00
         0.00000E+00
         0.00000E+00
         0.00000E+00
         0.00000E+00
         0.00000E+00
         0.00000E+00
         0.00000E+00
         0.00000E+00
         0.00000E+00
         0.00000E+00
         0.00000E+00
         0.00000E+00
         0.00000E+00
         0.00000E+00
         0.00000E+00
         0.00000E+00
         0.00000E+00
         0.00000E+00
         0.00000E+00
         0.00000E+00
         0.00000E+00
         0.00000E+00
         0.00000E+00
         0.00000E+00
         0.00000E+00
         0.00000E+00
         0.00000E+00
         0.00000E+00
         0.00000E+00
         0.00000E+00
         0.00000E+00
         0.00000E+00
         0.00000E+00
         0.00000E+00
         0.00000E+00
         0.00000E+00
         0.00000E+00
         0.00000E+00
         0.00000E+00
         0.00000E+00
         0.00000E+00
         0.00000E+00
         0.00000E+00
         0.00000E+00
         0.00000E+00
         0.00000E+00
         0.00000E+00
         0.00000E+00
         0.00000E+00
         0.00000E+00
         0.00000E+00
         0.00000E+00
         0.00000E+00
         0.00000E+00
         0.00000E+00
         0.00000E+00
         0.00000E+00
         0.00000E+00
         0.00000E+00
         0.00000E+00
         0.00000E+00
         0.00000E+00
         0.00000E+00
         0.00000E+00
         0.00000E+00
         0.00000E+00
         0.00000E+00
         0.00000E+00
         0.00000E+00
         0.00000E+00
         0.00000E+00
         0.00000E+00
         0.00000E+00
         0.00000E+00
         0.00000E+00
         0.00000E+00
         0.00000E+00
         0.00000E+00
         0.00000E+00
         0.00000E+00
         0.00000E+00
         0.00000E+00
         0.00000E+00
         0.00000E+00
         0.00000E+00
         0.00000E+00
         0.00000E+00
         0.00000E+00
         0.00000E+00
         0.00000E+00
         0.00000E+00
         0.00000E+00
         0.00000E+00
         0.00000E+00
         0.00000E+00
         0.00000E+00
         0.00000E+00
         0.00000E+00
         0.00000E+00
         0.00000E+00
         0.00000E+00
         0.00000E+00
         0.00000E+00
         0.00000E+00
         0.00000E+00
         0.00000E+00
         0.00000E+00
         0.00000E+00
         0.00000E+00
         0.00000E+00
         0.00000E+00
         0.00000E+00
         0.00000E+00
         0.00000E+00
         0.00000E+00
         0.00000E+00
         0.00000E+00
         0.00000E+00
         0.00000E+00
         0.00000E+00
         0.00000E+00
         0.00000E+00
         0.00000E+00
         0.00000E+00
         0.00000E+00
         0.00000E+00
         0.00000E+00
         0.00000E+00
         0.00000E+00
         0.00000E+00
         0.00000E+00
         0.00000E+00
         0.00000E+00
         0.00000E+00
         0.00000E+00
         0.00000E+00
         0.00000E+00
         0.00000E+00
         0.00000E+00
         0.00000E+00
         0.00000E+00
         0.00000E+00
         0.00000E+00
         0.00000E+00
         0.00000E+00
         0.00000E+00
         0.00000E+00
         0.00000E+00
         0.00000E+00
         0.00000E+00
         0.00000E+00
         0.00000E+00
         0.00000E+00
         0.00000E+00
         0.00000E+00
         0.00000E+00
         0.00000E+00
         0.00000E+00
         0.00000E+00
         0.00000E+00
         0.00000E+00
         0.00000E+00
         0.00000E+00
         0.00000E+00
         0.00000E+00
         0.00000E+00
         0.00000E+00
         0.00000E+00
         0.00000E+00
         0.00000E+00
         0.00000E+00
         0.00000E+00
         0.00000E+00
         0.00000E+00
         0.00000E+00
         0.00000E+00
         0.00000E+00
         0.00000E+00
         0.00000E+00
         0.00000E+00
         0.00000E+00
         0.00000E+00
         0.00000E+00
         0.00000E+00
         0.00000E+00
         0.00000E+00
         0.00000E+00
         0.00000E+00
         0.00000E+00
         0.00000E+00
         0.00000E+00
         0.00000E+00
         0.00000E+00
         0.00000E+00
         0.00000E+00
         0.00000E+00
         0.00000E+00
         0.00000E+00
         0.00000E+00
         0.00000E+00
         0.00000E+00
         0.00000E+00
         0.00000E+00
         0.00000E+00
         0.00000E+00
         0.00000E+00
         0.00000E+00
         0.00000E+00
         0.00000E+00
         0.00000E+00
         0.00000E+00
         0.00000E+00
         0.00000E+00
         0.00000E+00
         0.00000E+00
         0.00000E+00
         0.00000E+00
         0.00000E+00
         0.00000E+00
         0.00000E+00
         0.00000E+00
         0.00000E+00
         0.00000E+00
         0.00000E+00
         0.00000E+00
         0.00000E+00
         0.00000E+00
         0.00000E+00
         0.00000E+00
         0.00000E+00
         0.00000E+00
         0.00000E+00
         0.00000E+00
         0.00000E+00
         0.00000E+00
         0.00000E+00
         0.00000E+00
         0.00000E+00
         0.00000E+00
         0.00000E+00
         0.00000E+00
         0.00000E+00
         0.00000E+00
         0.00000E+00
         0.00000E+00
         0.00000E+00
         0.00000E+00
         0.00000E+00
         0.00000E+00
         0.00000E+00
         0.00000E+00
         0.00000E+00
         0.00000E+00
         0.00000E+00
         0.00000E+00
         0.00000E+00
         0.00000E+00
         0.00000E+00
         0.00000E+00
         0.00000E+00
         0.00000E+00
         0.00000E+00
         0.00000E+00
         0.00000E+00
         0.00000E+00
         0.00000E+00
         0.00000E+00
         0.00000E+00
         0.00000E+00
         0.00000E+00
         0.00000E+00
         0.00000E+00
         0.00000E+00
         0.00000E+00
         0.00000E+00
         0.00000E+00
         0.00000E+00
         0.00000E+00
         0.00000E+00
         0.00000E+00
         0.00000E+00
         0.00000E+00
         0.00000E+00
         0.00000E+00
         0.00000E+00
         0.00000E+00
         0.00000E+00
         0.00000E+00
         0.00000E+00
         0.00000E+00
         0.00000E+00
         0.00000E+00
         0.00000E+00
         0.00000E+00
         0.00000E+00
         0.00000E+00
         0.00000E+00
         0.00000E+00
         0.00000E+00
         0.00000E+00
         0.00000E+00
         0.00000E+00
         0.00000E+00
         0.00000E+00
         0.00000E+00
         0.00000E+00
         0.00000E+00
         0.00000E+00
         0.00000E+00
         0.00000E+00
         0.00000E+00
         0.00000E+00
         0.00000E+00
         0.00000E+00
         0.00000E+00
         0.00000E+00
         0.00000E+00
         0.00000E+00
         0.00000E+00
         0.00000E+00
         0.00000E+00
         0.00000E+00
         0.00000E+00
         0.00000E+00
         0.00000E+00
         0.00000E+00
         0.00000E+00
         0.00000E+00
         0.00000E+00
         0.00000E+00
         0.00000E+00
         0.00000E+00
         0.00000E+00
         0.00000E+00
         0.00000E+00
         0.00000E+00
         0.00000E+00
         0.00000E+00
         0.00000E+00
         0.00000E+00
         0.00000E+00
         0.00000E+00
         0.00000E+00
         0.00000E+00
         0.00000E+00
         0.00000E+00
         0.00000E+00
         0.00000E+00
         0.00000E+00
         0.00000E+00
         0.00000E+00
         0.00000E+00
         0.00000E+00
         0.00000E+00
         0.00000E+00
         0.00000E+00
         0.00000E+00
         0.00000E+00
         0.00000E+00
         0.00000E+00
         0.00000E+00
         0.00000E+00
         0.00000E+00
         0.00000E+00
         0.00000E+00
         0.00000E+00
         0.00000E+00
         0.00000E+00
         0.00000E+00
         0.00000E+00
         0.00000E+00
         0.00000E+00
         0.00000E+00
         0.00000E+00
         0.00000E+00
         0.00000E+00
         0.00000E+00
         0.00000E+00
         0.00000E+00
         0.00000E+00
         0.00000E+00
         0.00000E+00
         0.00000E+00
         0.00000E+00
         0.00000E+00
         0.00000E+00
         0.00000E+00
         0.00000E+00
         0.00000E+00
         0.00000E+00
         0.00000E+00
         0.00000E+00
         0.00000E+00
         0.00000E+00
         0.00000E+00
         0.00000E+00
         0.00000E+00
         0.00000E+00
         0.00000E+00
         0.00000E+00
         0.00000E+00
         0.00000E+00
         0.00000E+00
         0.00000E+00
         0.00000E+00
         0.00000E+00
         0.00000E+00
         0.00000E+00
         0.00000E+00
         0.00000E+00
         0.00000E+00
         0.00000E+00
         0.00000E+00
         0.00000E+00
         0.00000E+00
         0.00000E+00
         0.00000E+00
         0.00000E+00
         0.00000E+00
         0.00000E+00
         0.00000E+00
         0.00000E+00
         0.00000E+00
         0.00000E+00
         0.00000E+00
         0.00000E+00
         0.00000E+00
         0.00000E+00
         0.00000E+00
         0.00000E+00
         0.00000E+00
         0.00000E+00
         0.00000E+00
         0.00000E+00
         0.00000E+00
         0.00000E+00
         0.00000E+00
         0.00000E+00
         0.00000E+00
         0.00000E+00
         0.00000E+00
         0.00000E+00
         0.00000E+00
         0.00000E+00
         0.00000E+00
         0.00000E+00
         0.00000E+00
         0.00000E+00
         0.00000E+00
         0.00000E+00
         0.00000E+00
         0.00000E+00
         0.00000E+00
         0.00000E+00
         0.00000E+00
         0.00000E+00
         0.00000E+00
         0.00000E+00
         0.00000E+00
         0.00000E+00
         0.00000E+00
         0.00000E+00
         0.00000E+00
         0.00000E+00
         0.00000E+00
         0.00000E+00
         0.00000E+00
         0.00000E+00
         0.00000E+00
         0.00000E+00
         0.00000E+00
         0.00000E+00
         0.00000E+00
         0.00000E+00
         0.00000E+00
         0.00000E+00
         0.00000E+00
         0.00000E+00
         0.00000E+00
         0.00000E+00
         0.00000E+00
         0.00000E+00
         0.00000E+00
         0.00000E+00
         0.00000E+00
         0.00000E+00
         0.00000E+00
         0.00000E+00
         0.00000E+00
         0.00000E+00
         0.00000E+00
         0.00000E+00
         0.00000E+00
         0.00000E+00
         0.00000E+00
         0.00000E+00
         0.00000E+00
         0.00000E+00
         0.00000E+00
         0.00000E+00
         0.00000E+00
         0.00000E+00
         0.00000E+00
         0.00000E+00
         0.00000E+00
         0.00000E+00
         0.00000E+00
         0.00000E+00
         0.00000E+00
         0.00000E+00
         0.00000E+00
         0.00000E+00
         0.00000E+00
         0.00000E+00
         0.00000E+00
         0.00000E+00
         0.00000E+00
         0.00000E+00
         0.00000E+00
         0.00000E+00
         0.00000E+00
         0.00000E+00
         0.00000E+00
         0.00000E+00
         0.00000E+00
         0.00000E+00
         0.00000E+00
         0.00000E+00
         0.00000E+00
         0.00000E+00
         0.00000E+00
         0.00000E+00
         0.00000E+00
         0.00000E+00
         0.00000E+00
         0.00000E+00
         0.00000E+00
         0.00000E+00
         0.00000E+00
         0.00000E+00
         0.00000E+00
         0.00000E+00
         0.00000E+00
         0.00000E+00
         0.00000E+00
         0.00000E+00
         0.00000E+00
         0.00000E+00
         0.00000E+00
         0.00000E+00
         0.00000E+00
         0.00000E+00
         0.00000E+00
         0.00000E+00
         0.00000E+00
         0.00000E+00
         0.00000E+00
         0.00000E+00
         0.00000E+00
         0.00000E+00
         0.00000E+00
         0.00000E+00
         0.00000E+00
         0.00000E+00
         0.00000E+00
         0.00000E+00
         0.00000E+00
         0.00000E+00
         0.00000E+00
         0.00000E+00
         0.00000E+00
         0.00000E+00
         0.00000E+00
         0.00000E+00
         0.00000E+00
         0.00000E+00
         0.00000E+00
         0.00000E+00
         0.00000E+00
         0.00000E+00
         0.00000E+00
         0.00000E+00
         0.00000E+00
         0.00000E+00
         0.00000E+00
         0.00000E+00
         0.00000E+00
         0.00000E+00
         0.00000E+00
         0.00000E+00
         0.00000E+00
         0.00000E+00
         0.00000E+00
         0.00000E+00
         0.00000E+00
         0.00000E+00
         0.00000E+00
         0.00000E+00
         0.00000E+00
         0.00000E+00
         0.00000E+00
         0.00000E+00
         0.00000E+00
         0.00000E+00
         0.00000E+00
         0.00000E+00
         0.00000E+00
         0.00000E+00
         0.00000E+00
         0.00000E+00
         0.00000E+00
         0.00000E+00
         0.00000E+00
         0.00000E+00
         0.00000E+00
         0.00000E+00
         0.00000E+00
         0.00000E+00
         0.00000E+00
         0.00000E+00
         0.00000E+00
         0.00000E+00
         0.00000E+00
         0.00000E+00
         0.00000E+00
         0.00000E+00
         0.00000E+00
         0.00000E+00
         0.00000E+00
         0.00000E+00
         0.00000E+00
         0.00000E+00
         0.00000E+00
         0.00000E+00
         0.00000E+00
         0.00000E+00
         0.00000E+00
         0.00000E+00
         0.00000E+00
         0.00000E+00
         0.00000E+00
         0.00000E+00
         0.00000E+00
         0.00000E+00
         0.00000E+00
         0.00000E+00
         0.00000E+00
         0.00000E+00
         0.00000E+00
         0.00000E+00
         0.00000E+00
         0.00000E+00
         0.00000E+00
         0.00000E+00
         0.00000E+00
         0.00000E+00
         0.00000E+00
         0.00000E+00
         0.00000E+00
         0.00000E+00
         0.00000E+00
         0.00000E+00
         0.00000E+00
         0.00000E+00
         0.00000E+00
         0.00000E+00
         0.00000E+00
         0.00000E+00
         0.00000E+00
         0.00000E+00
         0.00000E+00
         0.00000E+00
         0.00000E+00
         0.00000E+00
         0.00000E+00
         0.00000E+00
         0.00000E+00
         0.00000E+00
         0.00000E+00
         0.00000E+00
         0.00000E+00
         0.00000E+00
         0.00000E+00
         0.00000E+00
         0.00000E+00
         0.00000E+00
         0.00000E+00
         0.00000E+00
         0.00000E+00
         0.00000E+00
         0.00000E+00
         0.00000E+00
         0.00000E+00
         0.00000E+00
         0.00000E+00
         0.00000E+00
         0.00000E+00
         0.00000E+00
         0.00000E+00
         0.00000E+00
         0.00000E+00
         0.00000E+00
         0.00000E+00
         0.00000E+00
         0.00000E+00
         0.00000E+00
         0.00000E+00
         0.00000E+00
         0.00000E+00
         0.00000E+00
         0.00000E+00
         0.00000E+00
         0.00000E+00
         0.00000E+00
         0.00000E+00
         0.00000E+00
         0.00000E+00
         0.00000E+00
         0.00000E+00
         0.00000E+00
         0.00000E+00
         0.00000E+00
         0.00000E+00
         0.00000E+00
         0.00000E+00
         0.00000E+00
         0.00000E+00
         0.00000E+00
         0.00000E+00
         0.00000E+00
         0.00000E+00
         0.00000E+00
         0.00000E+00
         0.00000E+00
         0.00000E+00
         0.00000E+00
         0.00000E+00
         0.00000E+00
         0.00000E+00
         0.00000E+00
         0.00000E+00
         0.00000E+00
         0.00000E+00
         0.00000E+00
         0.00000E+00
         0.00000E+00
         0.00000E+00
         0.00000E+00
         0.00000E+00
         0.00000E+00
         0.00000E+00
         0.00000E+00
         0.00000E+00
         0.00000E+00
         0.00000E+00
         0.00000E+00
         0.00000E+00
         0.00000E+00
         0.00000E+00
         0.00000E+00
         0.00000E+00
         0.00000E+00
         0.00000E+00
         0.00000E+00
         0.00000E+00
         0.00000E+00
         0.00000E+00
         0.00000E+00
         0.00000E+00
         0.00000E+00
         0.00000E+00
         0.00000E+00
         0.00000E+00
         0.00000E+00
         0.00000E+00
         0.00000E+00
         0.00000E+00
         0.00000E+00
         0.00000E+00
         0.00000E+00
         0.00000E+00
         0.00000E+00
         0.00000E+00
         0.00000E+00
         0.00000E+00
         0.00000E+00
         0.00000E+00
         0.00000E+00
         0.00000E+00
         0.00000E+00
         0.00000E+00
         0.00000E+00
         0.00000E+00
         0.00000E+00
         0.00000E+00
         0.00000E+00
         0.00000E+00
         0.00000E+00
         0.00000E+00
         0.00000E+00
         0.00000E+00
         0.00000E+00
         0.00000E+00
         0.00000E+00
         0.00000E+00
         0.00000E+00
         0.00000E+00
         0.00000E+00
         0.00000E+00
         0.00000E+00
         0.00000E+00
         0.00000E+00
         0.00000E+00
         0.00000E+00
         0.00000E+00
         0.00000E+00
         0.00000E+00
         0.00000E+00
         0.00000E+00
         0.00000E+00
         0.00000E+00
         0.00000E+00
         0.00000E+00
         0.00000E+00
         0.00000E+00
         0.00000E+00
         0.00000E+00
         0.00000E+00
         0.00000E+00
         0.00000E+00
         0.00000E+00
         0.00000E+00
         0.00000E+00
         0.00000E+00
         0.00000E+00
         0.00000E+00
         0.00000E+00
         0.00000E+00
         0.00000E+00
         0.00000E+00
         0.00000E+00
         0.00000E+00
         0.00000E+00
         0.00000E+00
         0.00000E+00
         0.00000E+00
         0.00000E+00
         0.00000E+00
         0.00000E+00
         0.00000E+00
         0.00000E+00
         0.00000E+00
         0.00000E+00
         0.00000E+00
         0.00000E+00
         0.00000E+00
         0.00000E+00
         0.00000E+00
         0.00000E+00
         0.00000E+00
         0.00000E+00
         0.00000E+00
         0.00000E+00
         0.00000E+00
         0.00000E+00
         0.00000E+00
         0.00000E+00
         0.00000E+00
         0.00000E+00
         0.00000E+00
         0.00000E+00
         0.00000E+00
         0.00000E+00
         0.00000E+00
         0.00000E+00
         0.00000E+00
         0.00000E+00
         0.00000E+00
         0.00000E+00
         0.00000E+00
         0.00000E+00
         0.00000E+00
         0.00000E+00
         0.00000E+00
         0.00000E+00
         0.00000E+00
         0.00000E+00
         0.00000E+00
         0.00000E+00
         0.00000E+00
         0.00000E+00
         0.00000E+00
         0.00000E+00
         0.00000E+00
         0.00000E+00
         0.00000E+00
         0.00000E+00
         0.00000E+00
         0.00000E+00
         0.00000E+00
         0.00000E+00
         0.00000E+00
         0.00000E+00
         0.00000E+00
         0.00000E+00
         0.00000E+00
         0.00000E+00
         0.00000E+00
         0.00000E+00
         0.00000E+00
         0.00000E+00
         0.00000E+00
         0.00000E+00
         0.00000E+00
         0.00000E+00
         0.00000E+00
         0.00000E+00
         0.00000E+00
         0.00000E+00
         0.00000E+00
         0.00000E+00
         0.00000E+00
         0.00000E+00
         0.00000E+00
         0.00000E+00
         0.00000E+00
         0.00000E+00
         0.00000E+00
         0.00000E+00
         0.00000E+00
         0.00000E+00
         0.00000E+00
         0.00000E+00
         0.00000E+00
         0.00000E+00
         0.00000E+00
         0.00000E+00
         0.00000E+00
         0.00000E+00
         0.00000E+00
         0.00000E+00
         0.00000E+00
  
SCALARS                init_velocity_z  double 1
LOOKUP_TABLE default
        -0.37300E+03
        -0.37300E+03
        -0.37300E+03
        -0.37300E+03
        -0.37300E+03
        -0.37300E+03
        -0.37300E+03
        -0.37300E+03
        -0.37300E+03
        -0.37300E+03
        -0.37300E+03
        -0.37300E+03
        -0.37300E+03
        -0.37300E+03
        -0.37300E+03
        -0.37300E+03
        -0.37300E+03
        -0.37300E+03
        -0.37300E+03
        -0.37300E+03
        -0.37300E+03
        -0.37300E+03
        -0.37300E+03
        -0.37300E+03
        -0.37300E+03
        -0.37300E+03
        -0.37300E+03
        -0.37300E+03
        -0.37300E+03
        -0.37300E+03
        -0.37300E+03
        -0.37300E+03
        -0.37300E+03
        -0.37300E+03
        -0.37300E+03
        -0.37300E+03
        -0.37300E+03
        -0.37300E+03
        -0.37300E+03
        -0.37300E+03
        -0.37300E+03
        -0.37300E+03
        -0.37300E+03
        -0.37300E+03
        -0.37300E+03
        -0.37300E+03
        -0.37300E+03
        -0.37300E+03
        -0.37300E+03
        -0.37300E+03
        -0.37300E+03
        -0.37300E+03
        -0.37300E+03
        -0.37300E+03
        -0.37300E+03
        -0.37300E+03
        -0.37300E+03
        -0.37300E+03
        -0.37300E+03
        -0.37300E+03
        -0.37300E+03
        -0.37300E+03
        -0.37300E+03
        -0.37300E+03
        -0.37300E+03
        -0.37300E+03
        -0.37300E+03
        -0.37300E+03
        -0.37300E+03
        -0.37300E+03
        -0.37300E+03
        -0.37300E+03
        -0.37300E+03
        -0.37300E+03
        -0.37300E+03
        -0.37300E+03
        -0.37300E+03
        -0.37300E+03
        -0.37300E+03
        -0.37300E+03
        -0.37300E+03
        -0.37300E+03
        -0.37300E+03
        -0.37300E+03
        -0.37300E+03
        -0.37300E+03
        -0.37300E+03
        -0.37300E+03
        -0.37300E+03
        -0.37300E+03
        -0.37300E+03
        -0.37300E+03
        -0.37300E+03
        -0.37300E+03
        -0.37300E+03
        -0.37300E+03
        -0.37300E+03
        -0.37300E+03
        -0.37300E+03
        -0.37300E+03
        -0.37300E+03
        -0.37300E+03
        -0.37300E+03
        -0.37300E+03
        -0.37300E+03
        -0.37300E+03
        -0.37300E+03
        -0.37300E+03
        -0.37300E+03
        -0.37300E+03
        -0.37300E+03
        -0.37300E+03
        -0.37300E+03
        -0.37300E+03
        -0.37300E+03
        -0.37300E+03
        -0.37300E+03
        -0.37300E+03
        -0.37300E+03
        -0.37300E+03
        -0.37300E+03
        -0.37300E+03
        -0.37300E+03
        -0.37300E+03
        -0.37300E+03
        -0.37300E+03
        -0.37300E+03
        -0.37300E+03
        -0.37300E+03
        -0.37300E+03
        -0.37300E+03
        -0.37300E+03
        -0.37300E+03
        -0.37300E+03
        -0.37300E+03
        -0.37300E+03
        -0.37300E+03
        -0.37300E+03
        -0.37300E+03
        -0.37300E+03
        -0.37300E+03
        -0.37300E+03
        -0.37300E+03
        -0.37300E+03
        -0.37300E+03
        -0.37300E+03
        -0.37300E+03
        -0.37300E+03
        -0.37300E+03
        -0.37300E+03
        -0.37300E+03
        -0.37300E+03
        -0.37300E+03
        -0.37300E+03
        -0.37300E+03
        -0.37300E+03
        -0.37300E+03
        -0.37300E+03
        -0.37300E+03
        -0.37300E+03
        -0.37300E+03
        -0.37300E+03
        -0.37300E+03
        -0.37300E+03
        -0.37300E+03
        -0.37300E+03
        -0.37300E+03
        -0.37300E+03
        -0.37300E+03
        -0.37300E+03
        -0.37300E+03
        -0.37300E+03
        -0.37300E+03
        -0.37300E+03
        -0.37300E+03
        -0.37300E+03
        -0.37300E+03
        -0.37300E+03
        -0.37300E+03
        -0.37300E+03
        -0.37300E+03
        -0.37300E+03
        -0.37300E+03
        -0.37300E+03
        -0.37300E+03
        -0.37300E+03
        -0.37300E+03
        -0.37300E+03
        -0.37300E+03
        -0.37300E+03
        -0.37300E+03
        -0.37300E+03
        -0.37300E+03
        -0.37300E+03
        -0.37300E+03
        -0.37300E+03
        -0.37300E+03
        -0.37300E+03
        -0.37300E+03
        -0.37300E+03
        -0.37300E+03
        -0.37300E+03
        -0.37300E+03
        -0.37300E+03
        -0.37300E+03
        -0.37300E+03
        -0.37300E+03
        -0.37300E+03
        -0.37300E+03
        -0.37300E+03
        -0.37300E+03
        -0.37300E+03
        -0.37300E+03
        -0.37300E+03
        -0.37300E+03
        -0.37300E+03
        -0.37300E+03
        -0.37300E+03
        -0.37300E+03
        -0.37300E+03
        -0.37300E+03
        -0.37300E+03
        -0.37300E+03
        -0.37300E+03
        -0.37300E+03
        -0.37300E+03
        -0.37300E+03
        -0.37300E+03
        -0.37300E+03
        -0.37300E+03
        -0.37300E+03
        -0.37300E+03
        -0.37300E+03
        -0.37300E+03
        -0.37300E+03
        -0.37300E+03
        -0.37300E+03
        -0.37300E+03
        -0.37300E+03
        -0.37300E+03
        -0.37300E+03
        -0.37300E+03
        -0.37300E+03
        -0.37300E+03
        -0.37300E+03
        -0.37300E+03
        -0.37300E+03
        -0.37300E+03
        -0.37300E+03
        -0.37300E+03
        -0.37300E+03
        -0.37300E+03
        -0.37300E+03
        -0.37300E+03
        -0.37300E+03
        -0.37300E+03
        -0.37300E+03
        -0.37300E+03
        -0.37300E+03
        -0.37300E+03
        -0.37300E+03
        -0.37300E+03
        -0.37300E+03
        -0.37300E+03
        -0.37300E+03
        -0.37300E+03
        -0.37300E+03
        -0.37300E+03
        -0.37300E+03
        -0.37300E+03
        -0.37300E+03
        -0.37300E+03
        -0.37300E+03
        -0.37300E+03
        -0.37300E+03
        -0.37300E+03
        -0.37300E+03
        -0.37300E+03
        -0.37300E+03
        -0.37300E+03
        -0.37300E+03
        -0.37300E+03
        -0.37300E+03
        -0.37300E+03
        -0.37300E+03
        -0.37300E+03
        -0.37300E+03
        -0.37300E+03
        -0.37300E+03
        -0.37300E+03
        -0.37300E+03
        -0.37300E+03
        -0.37300E+03
        -0.37300E+03
        -0.37300E+03
        -0.37300E+03
        -0.37300E+03
        -0.37300E+03
        -0.37300E+03
        -0.37300E+03
        -0.37300E+03
        -0.37300E+03
        -0.37300E+03
        -0.37300E+03
        -0.37300E+03
        -0.37300E+03
        -0.37300E+03
        -0.37300E+03
        -0.37300E+03
        -0.37300E+03
        -0.37300E+03
        -0.37300E+03
        -0.37300E+03
        -0.37300E+03
        -0.37300E+03
        -0.37300E+03
        -0.37300E+03
        -0.37300E+03
        -0.37300E+03
        -0.37300E+03
        -0.37300E+03
        -0.37300E+03
        -0.37300E+03
        -0.37300E+03
        -0.37300E+03
        -0.37300E+03
        -0.37300E+03
        -0.37300E+03
        -0.37300E+03
        -0.37300E+03
        -0.37300E+03
        -0.37300E+03
        -0.37300E+03
        -0.37300E+03
        -0.37300E+03
        -0.37300E+03
        -0.37300E+03
        -0.37300E+03
        -0.37300E+03
        -0.37300E+03
        -0.37300E+03
        -0.37300E+03
        -0.37300E+03
        -0.37300E+03
        -0.37300E+03
        -0.37300E+03
        -0.37300E+03
        -0.37300E+03
        -0.37300E+03
        -0.37300E+03
        -0.37300E+03
        -0.37300E+03
        -0.37300E+03
        -0.37300E+03
        -0.37300E+03
        -0.37300E+03
        -0.37300E+03
        -0.37300E+03
        -0.37300E+03
        -0.37300E+03
        -0.37300E+03
        -0.37300E+03
        -0.37300E+03
        -0.37300E+03
        -0.37300E+03
        -0.37300E+03
        -0.37300E+03
        -0.37300E+03
        -0.37300E+03
        -0.37300E+03
        -0.37300E+03
        -0.37300E+03
        -0.37300E+03
        -0.37300E+03
        -0.37300E+03
        -0.37300E+03
        -0.37300E+03
        -0.37300E+03
        -0.37300E+03
        -0.37300E+03
        -0.37300E+03
        -0.37300E+03
        -0.37300E+03
        -0.37300E+03
        -0.37300E+03
        -0.37300E+03
        -0.37300E+03
        -0.37300E+03
        -0.37300E+03
        -0.37300E+03
        -0.37300E+03
        -0.37300E+03
        -0.37300E+03
        -0.37300E+03
        -0.37300E+03
        -0.37300E+03
        -0.37300E+03
        -0.37300E+03
        -0.37300E+03
        -0.37300E+03
        -0.37300E+03
        -0.37300E+03
        -0.37300E+03
        -0.37300E+03
        -0.37300E+03
        -0.37300E+03
        -0.37300E+03
        -0.37300E+03
        -0.37300E+03
        -0.37300E+03
        -0.37300E+03
        -0.37300E+03
        -0.37300E+03
        -0.37300E+03
        -0.37300E+03
        -0.37300E+03
        -0.37300E+03
        -0.37300E+03
        -0.37300E+03
        -0.37300E+03
        -0.37300E+03
        -0.37300E+03
        -0.37300E+03
        -0.37300E+03
        -0.37300E+03
        -0.37300E+03
        -0.37300E+03
        -0.37300E+03
        -0.37300E+03
        -0.37300E+03
        -0.37300E+03
        -0.37300E+03
        -0.37300E+03
        -0.37300E+03
        -0.37300E+03
        -0.37300E+03
        -0.37300E+03
        -0.37300E+03
        -0.37300E+03
        -0.37300E+03
        -0.37300E+03
        -0.37300E+03
        -0.37300E+03
        -0.37300E+03
        -0.37300E+03
        -0.37300E+03
        -0.37300E+03
        -0.37300E+03
        -0.37300E+03
        -0.37300E+03
        -0.37300E+03
        -0.37300E+03
        -0.37300E+03
        -0.37300E+03
        -0.37300E+03
        -0.37300E+03
        -0.37300E+03
        -0.37300E+03
        -0.37300E+03
        -0.37300E+03
        -0.37300E+03
        -0.37300E+03
        -0.37300E+03
        -0.37300E+03
        -0.37300E+03
        -0.37300E+03
        -0.37300E+03
        -0.37300E+03
        -0.37300E+03
        -0.37300E+03
        -0.37300E+03
        -0.37300E+03
        -0.37300E+03
        -0.37300E+03
        -0.37300E+03
        -0.37300E+03
        -0.37300E+03
        -0.37300E+03
        -0.37300E+03
        -0.37300E+03
        -0.37300E+03
        -0.37300E+03
        -0.37300E+03
        -0.37300E+03
        -0.37300E+03
        -0.37300E+03
        -0.37300E+03
        -0.37300E+03
        -0.37300E+03
        -0.37300E+03
        -0.37300E+03
        -0.37300E+03
        -0.37300E+03
        -0.37300E+03
        -0.37300E+03
        -0.37300E+03
        -0.37300E+03
        -0.37300E+03
        -0.37300E+03
        -0.37300E+03
        -0.37300E+03
        -0.37300E+03
        -0.37300E+03
        -0.37300E+03
        -0.37300E+03
        -0.37300E+03
        -0.37300E+03
        -0.37300E+03
        -0.37300E+03
        -0.37300E+03
        -0.37300E+03
        -0.37300E+03
        -0.37300E+03
        -0.37300E+03
        -0.37300E+03
        -0.37300E+03
        -0.37300E+03
        -0.37300E+03
        -0.37300E+03
        -0.37300E+03
        -0.37300E+03
        -0.37300E+03
        -0.37300E+03
        -0.37300E+03
        -0.37300E+03
        -0.37300E+03
        -0.37300E+03
        -0.37300E+03
        -0.37300E+03
        -0.37300E+03
        -0.37300E+03
        -0.37300E+03
        -0.37300E+03
        -0.37300E+03
        -0.37300E+03
        -0.37300E+03
        -0.37300E+03
        -0.37300E+03
        -0.37300E+03
        -0.37300E+03
        -0.37300E+03
        -0.37300E+03
        -0.37300E+03
        -0.37300E+03
        -0.37300E+03
        -0.37300E+03
        -0.37300E+03
        -0.37300E+03
        -0.37300E+03
        -0.37300E+03
        -0.37300E+03
        -0.37300E+03
        -0.37300E+03
        -0.37300E+03
        -0.37300E+03
        -0.37300E+03
        -0.37300E+03
        -0.37300E+03
        -0.37300E+03
        -0.37300E+03
        -0.37300E+03
        -0.37300E+03
        -0.37300E+03
        -0.37300E+03
        -0.37300E+03
        -0.37300E+03
        -0.37300E+03
        -0.37300E+03
        -0.37300E+03
        -0.37300E+03
        -0.37300E+03
        -0.37300E+03
        -0.37300E+03
        -0.37300E+03
        -0.37300E+03
        -0.37300E+03
        -0.37300E+03
        -0.37300E+03
        -0.37300E+03
        -0.37300E+03
        -0.37300E+03
        -0.37300E+03
        -0.37300E+03
        -0.37300E+03
        -0.37300E+03
        -0.37300E+03
        -0.37300E+03
        -0.37300E+03
        -0.37300E+03
        -0.37300E+03
        -0.37300E+03
        -0.37300E+03
        -0.37300E+03
        -0.37300E+03
        -0.37300E+03
        -0.37300E+03
        -0.37300E+03
        -0.37300E+03
        -0.37300E+03
        -0.37300E+03
        -0.37300E+03
        -0.37300E+03
        -0.37300E+03
        -0.37300E+03
        -0.37300E+03
        -0.37300E+03
        -0.37300E+03
        -0.37300E+03
        -0.37300E+03
        -0.37300E+03
        -0.37300E+03
        -0.37300E+03
        -0.37300E+03
        -0.37300E+03
        -0.37300E+03
        -0.37300E+03
        -0.37300E+03
        -0.37300E+03
        -0.37300E+03
        -0.37300E+03
        -0.37300E+03
        -0.37300E+03
        -0.37300E+03
        -0.37300E+03
        -0.37300E+03
        -0.37300E+03
        -0.37300E+03
        -0.37300E+03
        -0.37300E+03
        -0.37300E+03
        -0.37300E+03
        -0.37300E+03
        -0.37300E+03
        -0.37300E+03
        -0.37300E+03
        -0.37300E+03
        -0.37300E+03
        -0.37300E+03
        -0.37300E+03
        -0.37300E+03
        -0.37300E+03
        -0.37300E+03
        -0.37300E+03
        -0.37300E+03
        -0.37300E+03
        -0.37300E+03
        -0.37300E+03
        -0.37300E+03
        -0.37300E+03
        -0.37300E+03
        -0.37300E+03
        -0.37300E+03
        -0.37300E+03
        -0.37300E+03
        -0.37300E+03
        -0.37300E+03
        -0.37300E+03
        -0.37300E+03
        -0.37300E+03
        -0.37300E+03
        -0.37300E+03
        -0.37300E+03
        -0.37300E+03
        -0.37300E+03
        -0.37300E+03
        -0.37300E+03
        -0.37300E+03
        -0.37300E+03
        -0.37300E+03
        -0.37300E+03
        -0.37300E+03
        -0.37300E+03
        -0.37300E+03
        -0.37300E+03
        -0.37300E+03
        -0.37300E+03
        -0.37300E+03
        -0.37300E+03
        -0.37300E+03
        -0.37300E+03
        -0.37300E+03
        -0.37300E+03
        -0.37300E+03
        -0.37300E+03
        -0.37300E+03
        -0.37300E+03
        -0.37300E+03
        -0.37300E+03
        -0.37300E+03
        -0.37300E+03
        -0.37300E+03
        -0.37300E+03
        -0.37300E+03
        -0.37300E+03
        -0.37300E+03
        -0.37300E+03
        -0.37300E+03
        -0.37300E+03
        -0.37300E+03
        -0.37300E+03
        -0.37300E+03
        -0.37300E+03
        -0.37300E+03
        -0.37300E+03
        -0.37300E+03
        -0.37300E+03
        -0.37300E+03
        -0.37300E+03
        -0.37300E+03
        -0.37300E+03
        -0.37300E+03
        -0.37300E+03
        -0.37300E+03
        -0.37300E+03
        -0.37300E+03
        -0.37300E+03
        -0.37300E+03
        -0.37300E+03
        -0.37300E+03
        -0.37300E+03
        -0.37300E+03
        -0.37300E+03
        -0.37300E+03
        -0.37300E+03
        -0.37300E+03
        -0.37300E+03
        -0.37300E+03
        -0.37300E+03
        -0.37300E+03
        -0.37300E+03
        -0.37300E+03
        -0.37300E+03
        -0.37300E+03
        -0.37300E+03
        -0.37300E+03
        -0.37300E+03
        -0.37300E+03
        -0.37300E+03
        -0.37300E+03
        -0.37300E+03
        -0.37300E+03
        -0.37300E+03
        -0.37300E+03
        -0.37300E+03
        -0.37300E+03
        -0.37300E+03
        -0.37300E+03
        -0.37300E+03
        -0.37300E+03
        -0.37300E+03
        -0.37300E+03
        -0.37300E+03
        -0.37300E+03
        -0.37300E+03
        -0.37300E+03
        -0.37300E+03
        -0.37300E+03
        -0.37300E+03
        -0.37300E+03
        -0.37300E+03
        -0.37300E+03
        -0.37300E+03
        -0.37300E+03
        -0.37300E+03
        -0.37300E+03
        -0.37300E+03
        -0.37300E+03
        -0.37300E+03
        -0.37300E+03
        -0.37300E+03
        -0.37300E+03
        -0.37300E+03
        -0.37300E+03
        -0.37300E+03
        -0.37300E+03
        -0.37300E+03
        -0.37300E+03
        -0.37300E+03
        -0.37300E+03
        -0.37300E+03
        -0.37300E+03
        -0.37300E+03
        -0.37300E+03
        -0.37300E+03
        -0.37300E+03
        -0.37300E+03
        -0.37300E+03
        -0.37300E+03
        -0.37300E+03
        -0.37300E+03
        -0.37300E+03
        -0.37300E+03
        -0.37300E+03
        -0.37300E+03
        -0.37300E+03
        -0.37300E+03
        -0.37300E+03
        -0.37300E+03
        -0.37300E+03
        -0.37300E+03
        -0.37300E+03
        -0.37300E+03
        -0.37300E+03
        -0.37300E+03
        -0.37300E+03
        -0.37300E+03
        -0.37300E+03
        -0.37300E+03
        -0.37300E+03
        -0.37300E+03
        -0.37300E+03
        -0.37300E+03
        -0.37300E+03
        -0.37300E+03
        -0.37300E+03
        -0.37300E+03
        -0.37300E+03
        -0.37300E+03
        -0.37300E+03
        -0.37300E+03
        -0.37300E+03
        -0.37300E+03
        -0.37300E+03
        -0.37300E+03
        -0.37300E+03
        -0.37300E+03
        -0.37300E+03
        -0.37300E+03
        -0.37300E+03
        -0.37300E+03
        -0.37300E+03
        -0.37300E+03
        -0.37300E+03
        -0.37300E+03
        -0.37300E+03
        -0.37300E+03
        -0.37300E+03
        -0.37300E+03
        -0.37300E+03
        -0.37300E+03
        -0.37300E+03
        -0.37300E+03
        -0.37300E+03
        -0.37300E+03
        -0.37300E+03
        -0.37300E+03
        -0.37300E+03
        -0.37300E+03
        -0.37300E+03
        -0.37300E+03
        -0.37300E+03
        -0.37300E+03
        -0.37300E+03
        -0.37300E+03
        -0.37300E+03
        -0.37300E+03
        -0.37300E+03
        -0.37300E+03
        -0.37300E+03
        -0.37300E+03
        -0.37300E+03
        -0.37300E+03
        -0.37300E+03
        -0.37300E+03
        -0.37300E+03
        -0.37300E+03
        -0.37300E+03
        -0.37300E+03
        -0.37300E+03
        -0.37300E+03
        -0.37300E+03
        -0.37300E+03
        -0.37300E+03
        -0.37300E+03
        -0.37300E+03
        -0.37300E+03
        -0.37300E+03
        -0.37300E+03
        -0.37300E+03
        -0.37300E+03
        -0.37300E+03
        -0.37300E+03
        -0.37300E+03
        -0.37300E+03
        -0.37300E+03
        -0.37300E+03
        -0.37300E+03
        -0.37300E+03
        -0.37300E+03
        -0.37300E+03
        -0.37300E+03
        -0.37300E+03
        -0.37300E+03
        -0.37300E+03
        -0.37300E+03
        -0.37300E+03
        -0.37300E+03
        -0.37300E+03
        -0.37300E+03
        -0.37300E+03
        -0.37300E+03
        -0.37300E+03
        -0.37300E+03
        -0.37300E+03
        -0.37300E+03
        -0.37300E+03
        -0.37300E+03
        -0.37300E+03
        -0.37300E+03
        -0.37300E+03
        -0.37300E+03
        -0.37300E+03
        -0.37300E+03
        -0.37300E+03
        -0.37300E+03
        -0.37300E+03
        -0.37300E+03
        -0.37300E+03
        -0.37300E+03
        -0.37300E+03
        -0.37300E+03
        -0.37300E+03
        -0.37300E+03
        -0.37300E+03
        -0.37300E+03
        -0.37300E+03
        -0.37300E+03
        -0.37300E+03
        -0.37300E+03
        -0.37300E+03
        -0.37300E+03
        -0.37300E+03
        -0.37300E+03
        -0.37300E+03
        -0.37300E+03
        -0.37300E+03
        -0.37300E+03
        -0.37300E+03
        -0.37300E+03
        -0.37300E+03
        -0.37300E+03
        -0.37300E+03
        -0.37300E+03
        -0.37300E+03
        -0.37300E+03
        -0.37300E+03
        -0.37300E+03
        -0.37300E+03
        -0.37300E+03
        -0.37300E+03
        -0.37300E+03
        -0.37300E+03
        -0.37300E+03
        -0.37300E+03
        -0.37300E+03
        -0.37300E+03
        -0.37300E+03
        -0.37300E+03
        -0.37300E+03
        -0.37300E+03
        -0.37300E+03
        -0.37300E+03
        -0.37300E+03
        -0.37300E+03
        -0.37300E+03
        -0.37300E+03
        -0.37300E+03
        -0.37300E+03
        -0.37300E+03
        -0.37300E+03
        -0.37300E+03
        -0.37300E+03
        -0.37300E+03
        -0.37300E+03
        -0.37300E+03
        -0.37300E+03
        -0.37300E+03
        -0.37300E+03
        -0.37300E+03
        -0.37300E+03
        -0.37300E+03
        -0.37300E+03
        -0.37300E+03
        -0.37300E+03
        -0.37300E+03
        -0.37300E+03
        -0.37300E+03
        -0.37300E+03
        -0.37300E+03
        -0.37300E+03
        -0.37300E+03
        -0.37300E+03
        -0.37300E+03
        -0.37300E+03
        -0.37300E+03
        -0.37300E+03
        -0.37300E+03
        -0.37300E+03
        -0.37300E+03
        -0.37300E+03
        -0.37300E+03
        -0.37300E+03
        -0.37300E+03
        -0.37300E+03
        -0.37300E+03
        -0.37300E+03
        -0.37300E+03
        -0.37300E+03
        -0.37300E+03
        -0.37300E+03
        -0.37300E+03
        -0.37300E+03
        -0.37300E+03
        -0.37300E+03
        -0.37300E+03
        -0.37300E+03
        -0.37300E+03
        -0.37300E+03
        -0.37300E+03
        -0.37300E+03
        -0.37300E+03
        -0.37300E+03
        -0.37300E+03
        -0.37300E+03
        -0.37300E+03
        -0.37300E+03
        -0.37300E+03
        -0.37300E+03
        -0.37300E+03
        -0.37300E+03
        -0.37300E+03
        -0.37300E+03
        -0.37300E+03
        -0.37300E+03
        -0.37300E+03
        -0.37300E+03
        -0.37300E+03
        -0.37300E+03
        -0.37300E+03
        -0.37300E+03
        -0.37300E+03
        -0.37300E+03
        -0.37300E+03
        -0.37300E+03
        -0.37300E+03
        -0.37300E+03
        -0.37300E+03
        -0.37300E+03
        -0.37300E+03
        -0.37300E+03
        -0.37300E+03
        -0.37300E+03
        -0.37300E+03
        -0.37300E+03
        -0.37300E+03
        -0.37300E+03
        -0.37300E+03
        -0.37300E+03
        -0.37300E+03
        -0.37300E+03
        -0.37300E+03
        -0.37300E+03
        -0.37300E+03
        -0.37300E+03
        -0.37300E+03
        -0.37300E+03
        -0.37300E+03
        -0.37300E+03
        -0.37300E+03
        -0.37300E+03
        -0.37300E+03
        -0.37300E+03
        -0.37300E+03
        -0.37300E+03
        -0.37300E+03
        -0.37300E+03
        -0.37300E+03
        -0.37300E+03
        -0.37300E+03
        -0.37300E+03
        -0.37300E+03
        -0.37300E+03
        -0.37300E+03
        -0.37300E+03
        -0.37300E+03
        -0.37300E+03
        -0.37300E+03
        -0.37300E+03
        -0.37300E+03
        -0.37300E+03
        -0.37300E+03
        -0.37300E+03
        -0.37300E+03
        -0.37300E+03
        -0.37300E+03
        -0.37300E+03
        -0.37300E+03
        -0.37300E+03
        -0.37300E+03
        -0.37300E+03
        -0.37300E+03
        -0.37300E+03
        -0.37300E+03
        -0.37300E+03
        -0.37300E+03
        -0.37300E+03
        -0.37300E+03
        -0.37300E+03
        -0.37300E+03
        -0.37300E+03
        -0.37300E+03
        -0.37300E+03
        -0.37300E+03
        -0.37300E+03
        -0.37300E+03
        -0.37300E+03
        -0.37300E+03
        -0.37300E+03
        -0.37300E+03
        -0.37300E+03
        -0.37300E+03
        -0.37300E+03
        -0.37300E+03
        -0.37300E+03
        -0.37300E+03
        -0.37300E+03
        -0.37300E+03
        -0.37300E+03
        -0.37300E+03
        -0.37300E+03
        -0.37300E+03
        -0.37300E+03
        -0.37300E+03
        -0.37300E+03
        -0.37300E+03
        -0.37300E+03
        -0.37300E+03
        -0.37300E+03
        -0.37300E+03
        -0.37300E+03
        -0.37300E+03
        -0.37300E+03
        -0.37300E+03
        -0.37300E+03
        -0.37300E+03
        -0.37300E+03
        -0.37300E+03
        -0.37300E+03
        -0.37300E+03
        -0.37300E+03
        -0.37300E+03
        -0.37300E+03
        -0.37300E+03
        -0.37300E+03
        -0.37300E+03
        -0.37300E+03
        -0.37300E+03
        -0.37300E+03
        -0.37300E+03
        -0.37300E+03
        -0.37300E+03
        -0.37300E+03
        -0.37300E+03
        -0.37300E+03
        -0.37300E+03
        -0.37300E+03
        -0.37300E+03
        -0.37300E+03
        -0.37300E+03
        -0.37300E+03
        -0.37300E+03
        -0.37300E+03
        -0.37300E+03
        -0.37300E+03
        -0.37300E+03
        -0.37300E+03
        -0.37300E+03
        -0.37300E+03
        -0.37300E+03
        -0.37300E+03
        -0.37300E+03
        -0.37300E+03
        -0.37300E+03
        -0.37300E+03
        -0.37300E+03
        -0.37300E+03
        -0.37300E+03
        -0.37300E+03
        -0.37300E+03
        -0.37300E+03
        -0.37300E+03
        -0.37300E+03
        -0.37300E+03
        -0.37300E+03
        -0.37300E+03
        -0.37300E+03
        -0.37300E+03
        -0.37300E+03
        -0.37300E+03
        -0.37300E+03
        -0.37300E+03
        -0.37300E+03
        -0.37300E+03
        -0.37300E+03
        -0.37300E+03
        -0.37300E+03
        -0.37300E+03
        -0.37300E+03
        -0.37300E+03
        -0.37300E+03
        -0.37300E+03
        -0.37300E+03
        -0.37300E+03
        -0.37300E+03
        -0.37300E+03
        -0.37300E+03
        -0.37300E+03
        -0.37300E+03
        -0.37300E+03
        -0.37300E+03
        -0.37300E+03
        -0.37300E+03
        -0.37300E+03
        -0.37300E+03
        -0.37300E+03
        -0.37300E+03
        -0.37300E+03
        -0.37300E+03
        -0.37300E+03
        -0.37300E+03
        -0.37300E+03
        -0.37300E+03
        -0.37300E+03
        -0.37300E+03
        -0.37300E+03
        -0.37300E+03
        -0.37300E+03
        -0.37300E+03
        -0.37300E+03
        -0.37300E+03
        -0.37300E+03
        -0.37300E+03
        -0.37300E+03
        -0.37300E+03
        -0.37300E+03
        -0.37300E+03
        -0.37300E+03
        -0.37300E+03
        -0.37300E+03
        -0.37300E+03
        -0.37300E+03
        -0.37300E+03
        -0.37300E+03
        -0.37300E+03
        -0.37300E+03
        -0.37300E+03
        -0.37300E+03
        -0.37300E+03
        -0.37300E+03
        -0.37300E+03
        -0.37300E+03
        -0.37300E+03
        -0.37300E+03
        -0.37300E+03
        -0.37300E+03
        -0.37300E+03
        -0.37300E+03
        -0.37300E+03
        -0.37300E+03
        -0.37300E+03
        -0.37300E+03
        -0.37300E+03
        -0.37300E+03
        -0.37300E+03
        -0.37300E+03
        -0.37300E+03
        -0.37300E+03
        -0.37300E+03
        -0.37300E+03
        -0.37300E+03
        -0.37300E+03
        -0.37300E+03
        -0.37300E+03
        -0.37300E+03
        -0.37300E+03
        -0.37300E+03
        -0.37300E+03
        -0.37300E+03
        -0.37300E+03
        -0.37300E+03
        -0.37300E+03
        -0.37300E+03
        -0.37300E+03
        -0.37300E+03
        -0.37300E+03
        -0.37300E+03
        -0.37300E+03
        -0.37300E+03
        -0.37300E+03
        -0.37300E+03
        -0.37300E+03
        -0.37300E+03
        -0.37300E+03
        -0.37300E+03
        -0.37300E+03
        -0.37300E+03
        -0.37300E+03
        -0.37300E+03
        -0.37300E+03
        -0.37300E+03
        -0.37300E+03
        -0.37300E+03
        -0.37300E+03
        -0.37300E+03
        -0.37300E+03
        -0.37300E+03
        -0.37300E+03
        -0.37300E+03
        -0.37300E+03
        -0.37300E+03
        -0.37300E+03
        -0.37300E+03
        -0.37300E+03
        -0.37300E+03
        -0.37300E+03
        -0.37300E+03
        -0.37300E+03
        -0.37300E+03
        -0.37300E+03
        -0.37300E+03
        -0.37300E+03
        -0.37300E+03
        -0.37300E+03
        -0.37300E+03
        -0.37300E+03
        -0.37300E+03
        -0.37300E+03
        -0.37300E+03
        -0.37300E+03
        -0.37300E+03
        -0.37300E+03
        -0.37300E+03
        -0.37300E+03
        -0.37300E+03
        -0.37300E+03
        -0.37300E+03
        -0.37300E+03
        -0.37300E+03
        -0.37300E+03
        -0.37300E+03
        -0.37300E+03
        -0.37300E+03
        -0.37300E+03
        -0.37300E+03
        -0.37300E+03
        -0.37300E+03
        -0.37300E+03
        -0.37300E+03
        -0.37300E+03
        -0.37300E+03
        -0.37300E+03
        -0.37300E+03
        -0.37300E+03
        -0.37300E+03
        -0.37300E+03
        -0.37300E+03
        -0.37300E+03
        -0.37300E+03
        -0.37300E+03
        -0.37300E+03
        -0.37300E+03
        -0.37300E+03
        -0.37300E+03
        -0.37300E+03
        -0.37300E+03
        -0.37300E+03
        -0.37300E+03
        -0.37300E+03
        -0.37300E+03
        -0.37300E+03
        -0.37300E+03
        -0.37300E+03
        -0.37300E+03
        -0.37300E+03
        -0.37300E+03
        -0.37300E+03
        -0.37300E+03
        -0.37300E+03
        -0.37300E+03
        -0.37300E+03
        -0.37300E+03
        -0.37300E+03
        -0.37300E+03
        -0.37300E+03
        -0.37300E+03
        -0.37300E+03
        -0.37300E+03
        -0.37300E+03
        -0.37300E+03
        -0.37300E+03
        -0.37300E+03
        -0.37300E+03
        -0.37300E+03
        -0.37300E+03
        -0.37300E+03
        -0.37300E+03
        -0.37300E+03
        -0.37300E+03
        -0.37300E+03
        -0.37300E+03
        -0.37300E+03
        -0.37300E+03
        -0.37300E+03
        -0.37300E+03
        -0.37300E+03
        -0.37300E+03
        -0.37300E+03
        -0.37300E+03
        -0.37300E+03
        -0.37300E+03
        -0.37300E+03
        -0.37300E+03
        -0.37300E+03
        -0.37300E+03
        -0.37300E+03
        -0.37300E+03
        -0.37300E+03
        -0.37300E+03
        -0.37300E+03
        -0.37300E+03
        -0.37300E+03
        -0.37300E+03
        -0.37300E+03
        -0.37300E+03
        -0.37300E+03
        -0.37300E+03
        -0.37300E+03
        -0.37300E+03
        -0.37300E+03
        -0.37300E+03
        -0.37300E+03
        -0.37300E+03
        -0.37300E+03
        -0.37300E+03
        -0.37300E+03
        -0.37300E+03
        -0.37300E+03
        -0.37300E+03
        -0.37300E+03
        -0.37300E+03
        -0.37300E+03
        -0.37300E+03
        -0.37300E+03
        -0.37300E+03
        -0.37300E+03
        -0.37300E+03
        -0.37300E+03
        -0.37300E+03
        -0.37300E+03
        -0.37300E+03
        -0.37300E+03
        -0.37300E+03
        -0.37300E+03
        -0.37300E+03
        -0.37300E+03
        -0.37300E+03
        -0.37300E+03
        -0.37300E+03
        -0.37300E+03
        -0.37300E+03
        -0.37300E+03
        -0.37300E+03
        -0.37300E+03
        -0.37300E+03
        -0.37300E+03
        -0.37300E+03
        -0.37300E+03
        -0.37300E+03
        -0.37300E+03
        -0.37300E+03
        -0.37300E+03
        -0.37300E+03
        -0.37300E+03
        -0.37300E+03
        -0.37300E+03
        -0.37300E+03
        -0.37300E+03
        -0.37300E+03
        -0.37300E+03
        -0.37300E+03
        -0.37300E+03
        -0.37300E+03
        -0.37300E+03
        -0.37300E+03
        -0.37300E+03
        -0.37300E+03
        -0.37300E+03
        -0.37300E+03
        -0.37300E+03
        -0.37300E+03
        -0.37300E+03
        -0.37300E+03
        -0.37300E+03
        -0.37300E+03
        -0.37300E+03
        -0.37300E+03
        -0.37300E+03
        -0.37300E+03
        -0.37300E+03
        -0.37300E+03
        -0.37300E+03
        -0.37300E+03
        -0.37300E+03
        -0.37300E+03
        -0.37300E+03
        -0.37300E+03
        -0.37300E+03
        -0.37300E+03
        -0.37300E+03
        -0.37300E+03
        -0.37300E+03
        -0.37300E+03
        -0.37300E+03
        -0.37300E+03
        -0.37300E+03
        -0.37300E+03
        -0.37300E+03
        -0.37300E+03
        -0.37300E+03
        -0.37300E+03
        -0.37300E+03
        -0.37300E+03
        -0.37300E+03
        -0.37300E+03
        -0.37300E+03
        -0.37300E+03
        -0.37300E+03
        -0.37300E+03
        -0.37300E+03
        -0.37300E+03
        -0.37300E+03
        -0.37300E+03
        -0.37300E+03
        -0.37300E+03
        -0.37300E+03
        -0.37300E+03
        -0.37300E+03
        -0.37300E+03
        -0.37300E+03
        -0.37300E+03
        -0.37300E+03
        -0.37300E+03
        -0.37300E+03
        -0.37300E+03
        -0.37300E+03
        -0.37300E+03
        -0.37300E+03
        -0.37300E+03
        -0.37300E+03
        -0.37300E+03
        -0.37300E+03
        -0.37300E+03
        -0.37300E+03
        -0.37300E+03
        -0.37300E+03
        -0.37300E+03
        -0.37300E+03
        -0.37300E+03
        -0.37300E+03
        -0.37300E+03
        -0.37300E+03
        -0.37300E+03
        -0.37300E+03
        -0.37300E+03
        -0.37300E+03
        -0.37300E+03
        -0.37300E+03
        -0.37300E+03
        -0.37300E+03
        -0.37300E+03
        -0.37300E+03
        -0.37300E+03
        -0.37300E+03
        -0.37300E+03
        -0.37300E+03
        -0.37300E+03
        -0.37300E+03
        -0.37300E+03
        -0.37300E+03
        -0.37300E+03
        -0.37300E+03
        -0.37300E+03
        -0.37300E+03
        -0.37300E+03
        -0.37300E+03
        -0.37300E+03
        -0.37300E+03
        -0.37300E+03
        -0.37300E+03
        -0.37300E+03
        -0.37300E+03
        -0.37300E+03
        -0.37300E+03
        -0.37300E+03
        -0.37300E+03
        -0.37300E+03
        -0.37300E+03
        -0.37300E+03
        -0.37300E+03
        -0.37300E+03
        -0.37300E+03
        -0.37300E+03
        -0.37300E+03
        -0.37300E+03
        -0.37300E+03
        -0.37300E+03
        -0.37300E+03
        -0.37300E+03
        -0.37300E+03
        -0.37300E+03
        -0.37300E+03
        -0.37300E+03
        -0.37300E+03
        -0.37300E+03
        -0.37300E+03
        -0.37300E+03
        -0.37300E+03
        -0.37300E+03
        -0.37300E+03
        -0.37300E+03
        -0.37300E+03
        -0.37300E+03
        -0.37300E+03
        -0.37300E+03
        -0.37300E+03
        -0.37300E+03
        -0.37300E+03
        -0.37300E+03
        -0.37300E+03
        -0.37300E+03
        -0.37300E+03
        -0.37300E+03
        -0.37300E+03
        -0.37300E+03
        -0.37300E+03
        -0.37300E+03
        -0.37300E+03
        -0.37300E+03
        -0.37300E+03
        -0.37300E+03
        -0.37300E+03
        -0.37300E+03
        -0.37300E+03
        -0.37300E+03
        -0.37300E+03
        -0.37300E+03
        -0.37300E+03
        -0.37300E+03
        -0.37300E+03
        -0.37300E+03
        -0.37300E+03
        -0.37300E+03
        -0.37300E+03
        -0.37300E+03
        -0.37300E+03
        -0.37300E+03
        -0.37300E+03
        -0.37300E+03
        -0.37300E+03
        -0.37300E+03
        -0.37300E+03
        -0.37300E+03
        -0.37300E+03
        -0.37300E+03
        -0.37300E+03
        -0.37300E+03
        -0.37300E+03
        -0.37300E+03
        -0.37300E+03
        -0.37300E+03
        -0.37300E+03
        -0.37300E+03
        -0.37300E+03
        -0.37300E+03
        -0.37300E+03
        -0.37300E+03
        -0.37300E+03
        -0.37300E+03
        -0.37300E+03
        -0.37300E+03
        -0.37300E+03
        -0.37300E+03
        -0.37300E+03
        -0.37300E+03
        -0.37300E+03
        -0.37300E+03
        -0.37300E+03
        -0.37300E+03
        -0.37300E+03
        -0.37300E+03
        -0.37300E+03
        -0.37300E+03
        -0.37300E+03
        -0.37300E+03
        -0.37300E+03
        -0.37300E+03
        -0.37300E+03
        -0.37300E+03
        -0.37300E+03
        -0.37300E+03
        -0.37300E+03
        -0.37300E+03
        -0.37300E+03
        -0.37300E+03
        -0.37300E+03
        -0.37300E+03
        -0.37300E+03
        -0.37300E+03
        -0.37300E+03
        -0.37300E+03
        -0.37300E+03
        -0.37300E+03
        -0.37300E+03
        -0.37300E+03
        -0.37300E+03
        -0.37300E+03
        -0.37300E+03
        -0.37300E+03
        -0.37300E+03
        -0.37300E+03
        -0.37300E+03
        -0.37300E+03
        -0.37300E+03
        -0.37300E+03
        -0.37300E+03
        -0.37300E+03
        -0.37300E+03
        -0.37300E+03
        -0.37300E+03
        -0.37300E+03
        -0.37300E+03
        -0.37300E+03
        -0.37300E+03
        -0.37300E+03
        -0.37300E+03
        -0.37300E+03
        -0.37300E+03
        -0.37300E+03
        -0.37300E+03
        -0.37300E+03
        -0.37300E+03
        -0.37300E+03
        -0.37300E+03
        -0.37300E+03
        -0.37300E+03
        -0.37300E+03
        -0.37300E+03
        -0.37300E+03
        -0.37300E+03
        -0.37300E+03
        -0.37300E+03
        -0.37300E+03
        -0.37300E+03
        -0.37300E+03
        -0.37300E+03
        -0.37300E+03
        -0.37300E+03
        -0.37300E+03
        -0.37300E+03
        -0.37300E+03
        -0.37300E+03
        -0.37300E+03
        -0.37300E+03
        -0.37300E+03
        -0.37300E+03
        -0.37300E+03
        -0.37300E+03
        -0.37300E+03
        -0.37300E+03
        -0.37300E+03
        -0.37300E+03
        -0.37300E+03
        -0.37300E+03
        -0.37300E+03
        -0.37300E+03
        -0.37300E+03
        -0.37300E+03
        -0.37300E+03
        -0.37300E+03
        -0.37300E+03
        -0.37300E+03
        -0.37300E+03
        -0.37300E+03
        -0.37300E+03
        -0.37300E+03
        -0.37300E+03
        -0.37300E+03
        -0.37300E+03
        -0.37300E+03
        -0.37300E+03
        -0.37300E+03
        -0.37300E+03
        -0.37300E+03
        -0.37300E+03
        -0.37300E+03
        -0.37300E+03
        -0.37300E+03
        -0.37300E+03
        -0.37300E+03
        -0.37300E+03
        -0.37300E+03
        -0.37300E+03
        -0.37300E+03
        -0.37300E+03
        -0.37300E+03
        -0.37300E+03
        -0.37300E+03
        -0.37300E+03
        -0.37300E+03
        -0.37300E+03
        -0.37300E+03
        -0.37300E+03
        -0.37300E+03
        -0.37300E+03
        -0.37300E+03
        -0.37300E+03
        -0.37300E+03
        -0.37300E+03
        -0.37300E+03
        -0.37300E+03
        -0.37300E+03
        -0.37300E+03
        -0.37300E+03
        -0.37300E+03
        -0.37300E+03
        -0.37300E+03
        -0.37300E+03
        -0.37300E+03
        -0.37300E+03
        -0.37300E+03
        -0.37300E+03
        -0.37300E+03
        -0.37300E+03
        -0.37300E+03
        -0.37300E+03
        -0.37300E+03
        -0.37300E+03
        -0.37300E+03
        -0.37300E+03
        -0.37300E+03
        -0.37300E+03
        -0.37300E+03
        -0.37300E+03
        -0.37300E+03
        -0.37300E+03
        -0.37300E+03
        -0.37300E+03
        -0.37300E+03
        -0.37300E+03
        -0.37300E+03
        -0.37300E+03
        -0.37300E+03
        -0.37300E+03
        -0.37300E+03
        -0.37300E+03
        -0.37300E+03
        -0.37300E+03
        -0.37300E+03
        -0.37300E+03
        -0.37300E+03
        -0.37300E+03
        -0.37300E+03
        -0.37300E+03
        -0.37300E+03
        -0.37300E+03
        -0.37300E+03
        -0.37300E+03
        -0.37300E+03
        -0.37300E+03
        -0.37300E+03
        -0.37300E+03
        -0.37300E+03
        -0.37300E+03
        -0.37300E+03
        -0.37300E+03
        -0.37300E+03
        -0.37300E+03
        -0.37300E+03
        -0.37300E+03
        -0.37300E+03
        -0.37300E+03
        -0.37300E+03
        -0.37300E+03
        -0.37300E+03
        -0.37300E+03
        -0.37300E+03
        -0.37300E+03
        -0.37300E+03
        -0.37300E+03
        -0.37300E+03
        -0.37300E+03
        -0.37300E+03
        -0.37300E+03
        -0.37300E+03
        -0.37300E+03
        -0.37300E+03
        -0.37300E+03
        -0.37300E+03
        -0.37300E+03
        -0.37300E+03
        -0.37300E+03
        -0.37300E+03
        -0.37300E+03
        -0.37300E+03
        -0.37300E+03
        -0.37300E+03
        -0.37300E+03
        -0.37300E+03
        -0.37300E+03
        -0.37300E+03
        -0.37300E+03
        -0.37300E+03
        -0.37300E+03
        -0.37300E+03
        -0.37300E+03
        -0.37300E+03
        -0.37300E+03
        -0.37300E+03
        -0.37300E+03
        -0.37300E+03
        -0.37300E+03
        -0.37300E+03
        -0.37300E+03
        -0.37300E+03
        -0.37300E+03
        -0.37300E+03
        -0.37300E+03
        -0.37300E+03
        -0.37300E+03
        -0.37300E+03
        -0.37300E+03
        -0.37300E+03
        -0.37300E+03
        -0.37300E+03
        -0.37300E+03
        -0.37300E+03
        -0.37300E+03
        -0.37300E+03
        -0.37300E+03
        -0.37300E+03
  
SCALARS              normalized_window  double 1
LOOKUP_TABLE default
         0.27500E+01
         0.27500E+01
         0.27500E+01
         0.27500E+01
         0.27500E+01
         0.27500E+01
         0.27500E+01
         0.27500E+01
         0.27500E+01
         0.27500E+01
         0.27500E+01
         0.27500E+01
         0.27500E+01
         0.27500E+01
         0.27500E+01
         0.27500E+01
         0.27500E+01
         0.27500E+01
         0.27500E+01
         0.27500E+01
         0.27500E+01
         0.27500E+01
         0.27500E+01
         0.27500E+01
         0.27500E+01
         0.27500E+01
         0.27500E+01
         0.27500E+01
         0.27500E+01
         0.27500E+01
         0.27500E+01
         0.27500E+01
         0.27500E+01
         0.27500E+01
         0.27500E+01
         0.27500E+01
         0.27500E+01
         0.27500E+01
         0.27500E+01
         0.27500E+01
         0.27500E+01
         0.27500E+01
         0.27500E+01
         0.27500E+01
         0.27500E+01
         0.27500E+01
         0.27500E+01
         0.27500E+01
         0.27500E+01
         0.27500E+01
         0.27500E+01
         0.27500E+01
         0.27500E+01
         0.27500E+01
         0.27500E+01
         0.27500E+01
         0.27500E+01
         0.27500E+01
         0.27500E+01
         0.27500E+01
         0.27500E+01
         0.27500E+01
         0.27500E+01
         0.27500E+01
         0.27500E+01
         0.27500E+01
         0.27500E+01
         0.27500E+01
         0.27500E+01
         0.27500E+01
         0.27500E+01
         0.27500E+01
         0.27500E+01
         0.27500E+01
         0.27500E+01
         0.27500E+01
         0.27500E+01
         0.27500E+01
         0.27500E+01
         0.27500E+01
         0.27500E+01
         0.27500E+01
         0.27500E+01
         0.27500E+01
         0.27500E+01
         0.27500E+01
         0.27500E+01
         0.27500E+01
         0.27500E+01
         0.27500E+01
         0.27500E+01
         0.27500E+01
         0.27500E+01
         0.27500E+01
         0.27500E+01
         0.27500E+01
         0.27500E+01
         0.27500E+01
         0.27500E+01
         0.27500E+01
         0.27500E+01
         0.27500E+01
         0.27500E+01
         0.27500E+01
         0.27500E+01
         0.27500E+01
         0.27500E+01
         0.27500E+01
         0.27500E+01
         0.27500E+01
         0.27500E+01
         0.27500E+01
         0.27500E+01
         0.27500E+01
         0.27500E+01
         0.27500E+01
         0.27500E+01
         0.27500E+01
         0.27500E+01
         0.27500E+01
         0.27500E+01
         0.27500E+01
         0.27500E+01
         0.27500E+01
         0.27500E+01
         0.27500E+01
         0.27500E+01
         0.27500E+01
         0.27500E+01
         0.27500E+01
         0.27500E+01
         0.27500E+01
         0.27500E+01
         0.27500E+01
         0.27500E+01
         0.27500E+01
         0.27500E+01
         0.27500E+01
         0.27500E+01
         0.27500E+01
         0.27500E+01
         0.27500E+01
         0.27500E+01
         0.27500E+01
         0.27500E+01
         0.27500E+01
         0.27500E+01
         0.27500E+01
         0.27500E+01
         0.27500E+01
         0.27500E+01
         0.27500E+01
         0.27500E+01
         0.27500E+01
         0.27500E+01
         0.27500E+01
         0.27500E+01
         0.27500E+01
         0.27500E+01
         0.27500E+01
         0.27500E+01
         0.27500E+01
         0.27500E+01
         0.27500E+01
         0.27500E+01
         0.27500E+01
         0.27500E+01
         0.27500E+01
         0.27500E+01
         0.27500E+01
         0.27500E+01
         0.27500E+01
         0.27500E+01
         0.27500E+01
         0.27500E+01
         0.27500E+01
         0.27500E+01
         0.27500E+01
         0.27500E+01
         0.27500E+01
         0.27500E+01
         0.27500E+01
         0.27500E+01
         0.27500E+01
         0.27500E+01
         0.27500E+01
         0.27500E+01
         0.27500E+01
         0.27500E+01
         0.27500E+01
         0.27500E+01
         0.27500E+01
         0.27500E+01
         0.27500E+01
         0.27500E+01
         0.27500E+01
         0.27500E+01
         0.27500E+01
         0.27500E+01
         0.27500E+01
         0.27500E+01
         0.27500E+01
         0.27500E+01
         0.27500E+01
         0.27500E+01
         0.27500E+01
         0.27500E+01
         0.27500E+01
         0.27500E+01
         0.27500E+01
         0.27500E+01
         0.27500E+01
         0.27500E+01
         0.27500E+01
         0.27500E+01
         0.27500E+01
         0.27500E+01
         0.27500E+01
         0.27500E+01
         0.27500E+01
         0.27500E+01
         0.27500E+01
         0.27500E+01
         0.27500E+01
         0.27500E+01
         0.27500E+01
         0.27500E+01
         0.27500E+01
         0.27500E+01
         0.27500E+01
         0.27500E+01
         0.27500E+01
         0.27500E+01
         0.27500E+01
         0.27500E+01
         0.27500E+01
         0.27500E+01
         0.27500E+01
         0.27500E+01
         0.27500E+01
         0.27500E+01
         0.27500E+01
         0.27500E+01
         0.27500E+01
         0.27500E+01
         0.27500E+01
         0.27500E+01
         0.27500E+01
         0.27500E+01
         0.27500E+01
         0.27500E+01
         0.27500E+01
         0.27500E+01
         0.27500E+01
         0.27500E+01
         0.27500E+01
         0.27500E+01
         0.27500E+01
         0.27500E+01
         0.27500E+01
         0.27500E+01
         0.27500E+01
         0.27500E+01
         0.27500E+01
         0.27500E+01
         0.27500E+01
         0.27500E+01
         0.27500E+01
         0.27500E+01
         0.27500E+01
         0.27500E+01
         0.27500E+01
         0.27500E+01
         0.27500E+01
         0.27500E+01
         0.27500E+01
         0.27500E+01
         0.27500E+01
         0.27500E+01
         0.27500E+01
         0.27500E+01
         0.27500E+01
         0.27500E+01
         0.27500E+01
         0.27500E+01
         0.27500E+01
         0.27500E+01
         0.27500E+01
         0.27500E+01
         0.27500E+01
         0.27500E+01
         0.27500E+01
         0.27500E+01
         0.27500E+01
         0.27500E+01
         0.27500E+01
         0.27500E+01
         0.27500E+01
         0.27500E+01
         0.27500E+01
         0.27500E+01
         0.27500E+01
         0.27500E+01
         0.27500E+01
         0.27500E+01
         0.27500E+01
         0.27500E+01
         0.27500E+01
         0.27500E+01
         0.27500E+01
         0.27500E+01
         0.27500E+01
         0.27500E+01
         0.27500E+01
         0.27500E+01
         0.27500E+01
         0.27500E+01
         0.27500E+01
         0.27500E+01
         0.27500E+01
         0.27500E+01
         0.27500E+01
         0.27500E+01
         0.27500E+01
         0.27500E+01
         0.27500E+01
         0.27500E+01
         0.27500E+01
         0.27500E+01
         0.27500E+01
         0.27500E+01
         0.27500E+01
         0.27500E+01
         0.27500E+01
         0.27500E+01
         0.27500E+01
         0.27500E+01
         0.27500E+01
         0.27500E+01
         0.27500E+01
         0.27500E+01
         0.27500E+01
         0.27500E+01
         0.27500E+01
         0.27500E+01
         0.27500E+01
         0.27500E+01
         0.27500E+01
         0.27500E+01
         0.27500E+01
         0.27500E+01
         0.27500E+01
         0.27500E+01
         0.27500E+01
         0.27500E+01
         0.27500E+01
         0.27500E+01
         0.27500E+01
         0.27500E+01
         0.27500E+01
         0.27500E+01
         0.27500E+01
         0.27500E+01
         0.27500E+01
         0.27500E+01
         0.27500E+01
         0.27500E+01
         0.27500E+01
         0.27500E+01
         0.27500E+01
         0.27500E+01
         0.27500E+01
         0.27500E+01
         0.27500E+01
         0.27500E+01
         0.27500E+01
         0.27500E+01
         0.27500E+01
         0.27500E+01
         0.27500E+01
         0.27500E+01
         0.27500E+01
         0.27500E+01
         0.27500E+01
         0.27500E+01
         0.27500E+01
         0.27500E+01
         0.27500E+01
         0.27500E+01
         0.27500E+01
         0.27500E+01
         0.27500E+01
         0.27500E+01
         0.27500E+01
         0.27500E+01
         0.27500E+01
         0.27500E+01
         0.27500E+01
         0.27500E+01
         0.27500E+01
         0.27500E+01
         0.27500E+01
         0.27500E+01
         0.27500E+01
         0.27500E+01
         0.27500E+01
         0.27500E+01
         0.27500E+01
         0.27500E+01
         0.27500E+01
         0.27500E+01
         0.27500E+01
         0.27500E+01
         0.27500E+01
         0.27500E+01
         0.27500E+01
         0.27500E+01
         0.27500E+01
         0.27500E+01
         0.27500E+01
         0.27500E+01
         0.27500E+01
         0.27500E+01
         0.27500E+01
         0.27500E+01
         0.27500E+01
         0.27500E+01
         0.27500E+01
         0.27500E+01
         0.27500E+01
         0.27500E+01
         0.27500E+01
         0.27500E+01
         0.27500E+01
         0.27500E+01
         0.27500E+01
         0.27500E+01
         0.27500E+01
         0.27500E+01
         0.27500E+01
         0.27500E+01
         0.27500E+01
         0.27500E+01
         0.27500E+01
         0.27500E+01
         0.27500E+01
         0.27500E+01
         0.27500E+01
         0.27500E+01
         0.27500E+01
         0.27500E+01
         0.27500E+01
         0.27500E+01
         0.27500E+01
         0.27500E+01
         0.27500E+01
         0.27500E+01
         0.27500E+01
         0.27500E+01
         0.27500E+01
         0.27500E+01
         0.27500E+01
         0.27500E+01
         0.27500E+01
         0.27500E+01
         0.27500E+01
         0.27500E+01
         0.27500E+01
         0.27500E+01
         0.27500E+01
         0.27500E+01
         0.27500E+01
         0.27500E+01
         0.27500E+01
         0.27500E+01
         0.27500E+01
         0.27500E+01
         0.27500E+01
         0.27500E+01
         0.27500E+01
         0.27500E+01
         0.27500E+01
         0.27500E+01
         0.27500E+01
         0.27500E+01
         0.27500E+01
         0.27500E+01
         0.27500E+01
         0.27500E+01
         0.27500E+01
         0.27500E+01
         0.27500E+01
         0.27500E+01
         0.27500E+01
         0.27500E+01
         0.27500E+01
         0.27500E+01
         0.27500E+01
         0.27500E+01
         0.27500E+01
         0.27500E+01
         0.27500E+01
         0.27500E+01
         0.27500E+01
         0.27500E+01
         0.27500E+01
         0.27500E+01
         0.27500E+01
         0.27500E+01
         0.27500E+01
         0.27500E+01
         0.27500E+01
         0.27500E+01
         0.27500E+01
         0.27500E+01
         0.27500E+01
         0.27500E+01
         0.27500E+01
         0.27500E+01
         0.27500E+01
         0.27500E+01
         0.27500E+01
         0.27500E+01
         0.27500E+01
         0.27500E+01
         0.27500E+01
         0.27500E+01
         0.27500E+01
         0.27500E+01
         0.27500E+01
         0.27500E+01
         0.27500E+01
         0.27500E+01
         0.27500E+01
         0.27500E+01
         0.27500E+01
         0.27500E+01
         0.27500E+01
         0.27500E+01
         0.27500E+01
         0.27500E+01
         0.27500E+01
         0.27500E+01
         0.27500E+01
         0.27500E+01
         0.27500E+01
         0.27500E+01
         0.27500E+01
         0.27500E+01
         0.27500E+01
         0.27500E+01
         0.27500E+01
         0.27500E+01
         0.27500E+01
         0.27500E+01
         0.27500E+01
         0.27500E+01
         0.27500E+01
         0.27500E+01
         0.27500E+01
         0.27500E+01
         0.27500E+01
         0.27500E+01
         0.27500E+01
         0.27500E+01
         0.27500E+01
         0.27500E+01
         0.27500E+01
         0.27500E+01
         0.27500E+01
         0.27500E+01
         0.27500E+01
         0.27500E+01
         0.27500E+01
         0.27500E+01
         0.27500E+01
         0.27500E+01
         0.27500E+01
         0.27500E+01
         0.27500E+01
         0.27500E+01
         0.27500E+01
         0.27500E+01
         0.27500E+01
         0.27500E+01
         0.27500E+01
         0.27500E+01
         0.27500E+01
         0.27500E+01
         0.27500E+01
         0.27500E+01
         0.27500E+01
         0.27500E+01
         0.27500E+01
         0.27500E+01
         0.27500E+01
         0.27500E+01
         0.27500E+01
         0.27500E+01
         0.27500E+01
         0.27500E+01
         0.27500E+01
         0.27500E+01
         0.27500E+01
         0.27500E+01
         0.27500E+01
         0.27500E+01
         0.27500E+01
         0.27500E+01
         0.27500E+01
         0.27500E+01
         0.27500E+01
         0.27500E+01
         0.27500E+01
         0.27500E+01
         0.27500E+01
         0.27500E+01
         0.27500E+01
         0.27500E+01
         0.27500E+01
         0.27500E+01
         0.27500E+01
         0.27500E+01
         0.27500E+01
         0.27500E+01
         0.27500E+01
         0.27500E+01
         0.27500E+01
         0.27500E+01
         0.27500E+01
         0.27500E+01
         0.27500E+01
         0.27500E+01
         0.27500E+01
         0.27500E+01
         0.27500E+01
         0.27500E+01
         0.27500E+01
         0.27500E+01
         0.27500E+01
         0.27500E+01
         0.27500E+01
         0.27500E+01
         0.27500E+01
         0.27500E+01
         0.27500E+01
         0.27500E+01
         0.27500E+01
         0.27500E+01
         0.27500E+01
         0.27500E+01
         0.27500E+01
         0.27500E+01
         0.27500E+01
         0.27500E+01
         0.27500E+01
         0.27500E+01
         0.27500E+01
         0.27500E+01
         0.27500E+01
         0.27500E+01
         0.27500E+01
         0.27500E+01
         0.27500E+01
         0.27500E+01
         0.27500E+01
         0.27500E+01
         0.27500E+01
         0.27500E+01
         0.27500E+01
         0.27500E+01
         0.27500E+01
         0.27500E+01
         0.27500E+01
         0.27500E+01
         0.27500E+01
         0.27500E+01
         0.27500E+01
         0.27500E+01
         0.27500E+01
         0.27500E+01
         0.27500E+01
         0.27500E+01
         0.27500E+01
         0.27500E+01
         0.27500E+01
         0.27500E+01
         0.27500E+01
         0.27500E+01
         0.27500E+01
         0.27500E+01
         0.27500E+01
         0.27500E+01
         0.27500E+01
         0.27500E+01
         0.27500E+01
         0.27500E+01
         0.27500E+01
         0.27500E+01
         0.27500E+01
         0.27500E+01
         0.27500E+01
         0.27500E+01
         0.27500E+01
         0.27500E+01
         0.27500E+01
         0.27500E+01
         0.27500E+01
         0.27500E+01
         0.27500E+01
         0.27500E+01
         0.27500E+01
         0.27500E+01
         0.27500E+01
         0.27500E+01
         0.27500E+01
         0.27500E+01
         0.27500E+01
         0.27500E+01
         0.27500E+01
         0.27500E+01
         0.27500E+01
         0.27500E+01
         0.27500E+01
         0.27500E+01
         0.27500E+01
         0.27500E+01
         0.27500E+01
         0.27500E+01
         0.27500E+01
         0.27500E+01
         0.27500E+01
         0.27500E+01
         0.27500E+01
         0.27500E+01
         0.27500E+01
         0.27500E+01
         0.27500E+01
         0.27500E+01
         0.27500E+01
         0.27500E+01
         0.27500E+01
         0.27500E+01
         0.27500E+01
         0.27500E+01
         0.27500E+01
         0.27500E+01
         0.27500E+01
         0.27500E+01
         0.27500E+01
         0.27500E+01
         0.27500E+01
         0.27500E+01
         0.27500E+01
         0.27500E+01
         0.27500E+01
         0.27500E+01
         0.27500E+01
         0.27500E+01
         0.27500E+01
         0.27500E+01
         0.27500E+01
         0.27500E+01
         0.27500E+01
         0.27500E+01
         0.27500E+01
         0.27500E+01
         0.27500E+01
         0.27500E+01
         0.27500E+01
         0.27500E+01
         0.27500E+01
         0.27500E+01
         0.27500E+01
         0.27500E+01
         0.27500E+01
         0.27500E+01
         0.27500E+01
         0.27500E+01
         0.27500E+01
         0.27500E+01
         0.27500E+01
         0.27500E+01
         0.27500E+01
         0.27500E+01
         0.27500E+01
         0.27500E+01
         0.27500E+01
         0.27500E+01
         0.27500E+01
         0.27500E+01
         0.27500E+01
         0.27500E+01
         0.27500E+01
         0.27500E+01
         0.27500E+01
         0.27500E+01
         0.27500E+01
         0.27500E+01
         0.27500E+01
         0.27500E+01
         0.27500E+01
         0.27500E+01
         0.27500E+01
         0.27500E+01
         0.27500E+01
         0.27500E+01
         0.27500E+01
         0.27500E+01
         0.27500E+01
         0.27500E+01
         0.27500E+01
         0.27500E+01
         0.27500E+01
         0.27500E+01
         0.27500E+01
         0.27500E+01
         0.27500E+01
         0.27500E+01
         0.27500E+01
         0.27500E+01
         0.27500E+01
         0.27500E+01
         0.27500E+01
         0.27500E+01
         0.27500E+01
         0.27500E+01
         0.27500E+01
         0.27500E+01
         0.27500E+01
         0.27500E+01
         0.27500E+01
         0.27500E+01
         0.27500E+01
         0.27500E+01
         0.27500E+01
         0.27500E+01
         0.27500E+01
         0.27500E+01
         0.27500E+01
         0.27500E+01
         0.27500E+01
         0.27500E+01
         0.27500E+01
         0.27500E+01
         0.27500E+01
         0.27500E+01
         0.27500E+01
         0.27500E+01
         0.27500E+01
         0.27500E+01
         0.27500E+01
         0.27500E+01
         0.27500E+01
         0.27500E+01
         0.27500E+01
         0.27500E+01
         0.27500E+01
         0.27500E+01
         0.27500E+01
         0.27500E+01
         0.27500E+01
         0.27500E+01
         0.27500E+01
         0.27500E+01
         0.27500E+01
         0.27500E+01
         0.27500E+01
         0.27500E+01
         0.27500E+01
         0.27500E+01
         0.27500E+01
         0.27500E+01
         0.27500E+01
         0.27500E+01
         0.27500E+01
         0.27500E+01
         0.27500E+01
         0.27500E+01
         0.27500E+01
         0.27500E+01
         0.27500E+01
         0.27500E+01
         0.27500E+01
         0.27500E+01
         0.27500E+01
         0.27500E+01
         0.27500E+01
         0.27500E+01
         0.27500E+01
         0.27500E+01
         0.27500E+01
         0.27500E+01
         0.27500E+01
         0.27500E+01
         0.27500E+01
         0.27500E+01
         0.27500E+01
         0.27500E+01
         0.27500E+01
         0.27500E+01
         0.27500E+01
         0.27500E+01
         0.27500E+01
         0.27500E+01
         0.27500E+01
         0.27500E+01
         0.27500E+01
         0.27500E+01
         0.27500E+01
         0.27500E+01
         0.27500E+01
         0.27500E+01
         0.27500E+01
         0.27500E+01
         0.27500E+01
         0.27500E+01
         0.27500E+01
         0.27500E+01
         0.27500E+01
         0.27500E+01
         0.27500E+01
         0.27500E+01
         0.27500E+01
         0.27500E+01
         0.27500E+01
         0.27500E+01
         0.27500E+01
         0.27500E+01
         0.27500E+01
         0.27500E+01
         0.27500E+01
         0.27500E+01
         0.27500E+01
         0.27500E+01
         0.27500E+01
         0.27500E+01
         0.27500E+01
         0.27500E+01
         0.27500E+01
         0.27500E+01
         0.27500E+01
         0.27500E+01
         0.27500E+01
         0.27500E+01
         0.27500E+01
         0.27500E+01
         0.27500E+01
         0.27500E+01
         0.27500E+01
         0.27500E+01
         0.27500E+01
         0.27500E+01
         0.27500E+01
         0.27500E+01
         0.27500E+01
         0.27500E+01
         0.27500E+01
         0.27500E+01
         0.27500E+01
         0.27500E+01
         0.27500E+01
         0.27500E+01
         0.27500E+01
         0.27500E+01
         0.27500E+01
         0.27500E+01
         0.27500E+01
         0.27500E+01
         0.27500E+01
         0.27500E+01
         0.27500E+01
         0.27500E+01
         0.27500E+01
         0.27500E+01
         0.27500E+01
         0.27500E+01
         0.27500E+01
         0.27500E+01
         0.27500E+01
         0.27500E+01
         0.27500E+01
         0.27500E+01
         0.27500E+01
         0.27500E+01
         0.27500E+01
         0.27500E+01
         0.27500E+01
         0.27500E+01
         0.27500E+01
         0.27500E+01
         0.27500E+01
         0.27500E+01
         0.27500E+01
         0.27500E+01
         0.27500E+01
         0.27500E+01
         0.27500E+01
         0.27500E+01
         0.27500E+01
         0.27500E+01
         0.27500E+01
         0.27500E+01
         0.27500E+01
         0.27500E+01
         0.27500E+01
         0.27500E+01
         0.27500E+01
         0.27500E+01
         0.27500E+01
         0.27500E+01
         0.27500E+01
         0.27500E+01
         0.27500E+01
         0.27500E+01
         0.27500E+01
         0.27500E+01
         0.27500E+01
         0.27500E+01
         0.27500E+01
         0.27500E+01
         0.27500E+01
         0.27500E+01
         0.27500E+01
         0.27500E+01
         0.27500E+01
         0.27500E+01
         0.27500E+01
         0.27500E+01
         0.27500E+01
         0.27500E+01
         0.27500E+01
         0.27500E+01
         0.27500E+01
         0.27500E+01
         0.27500E+01
         0.27500E+01
         0.27500E+01
         0.27500E+01
         0.27500E+01
         0.27500E+01
         0.27500E+01
         0.27500E+01
         0.27500E+01
         0.27500E+01
         0.27500E+01
         0.27500E+01
         0.27500E+01
         0.27500E+01
         0.27500E+01
         0.27500E+01
         0.27500E+01
         0.27500E+01
         0.27500E+01
         0.27500E+01
         0.27500E+01
         0.27500E+01
         0.27500E+01
         0.27500E+01
         0.27500E+01
         0.27500E+01
         0.27500E+01
         0.27500E+01
         0.27500E+01
         0.27500E+01
         0.27500E+01
         0.27500E+01
         0.27500E+01
         0.27500E+01
         0.27500E+01
         0.27500E+01
         0.27500E+01
         0.27500E+01
         0.27500E+01
         0.27500E+01
         0.27500E+01
         0.27500E+01
         0.27500E+01
         0.27500E+01
         0.27500E+01
         0.27500E+01
         0.27500E+01
         0.27500E+01
         0.27500E+01
         0.27500E+01
         0.27500E+01
         0.27500E+01
         0.27500E+01
         0.27500E+01
         0.27500E+01
         0.27500E+01
         0.27500E+01
         0.27500E+01
         0.27500E+01
         0.27500E+01
         0.27500E+01
         0.27500E+01
         0.27500E+01
         0.27500E+01
         0.27500E+01
         0.27500E+01
         0.27500E+01
         0.27500E+01
         0.27500E+01
         0.27500E+01
         0.27500E+01
         0.27500E+01
         0.27500E+01
         0.27500E+01
         0.27500E+01
         0.27500E+01
         0.27500E+01
         0.27500E+01
         0.27500E+01
         0.27500E+01
         0.27500E+01
         0.27500E+01
         0.27500E+01
         0.27500E+01
         0.27500E+01
         0.27500E+01
         0.27500E+01
         0.27500E+01
         0.27500E+01
         0.27500E+01
         0.27500E+01
         0.27500E+01
         0.27500E+01
         0.27500E+01
         0.27500E+01
         0.27500E+01
         0.27500E+01
         0.27500E+01
         0.27500E+01
         0.27500E+01
         0.27500E+01
         0.27500E+01
         0.27500E+01
         0.27500E+01
         0.27500E+01
         0.27500E+01
         0.27500E+01
         0.27500E+01
         0.27500E+01
         0.27500E+01
         0.27500E+01
         0.27500E+01
         0.27500E+01
         0.27500E+01
         0.27500E+01
         0.27500E+01
         0.27500E+01
         0.27500E+01
         0.27500E+01
         0.27500E+01
         0.27500E+01
         0.27500E+01
         0.27500E+01
         0.27500E+01
         0.27500E+01
         0.27500E+01
         0.27500E+01
         0.27500E+01
         0.27500E+01
         0.27500E+01
         0.27500E+01
         0.27500E+01
         0.27500E+01
         0.27500E+01
         0.27500E+01
         0.27500E+01
         0.27500E+01
         0.27500E+01
         0.27500E+01
         0.27500E+01
         0.27500E+01
         0.27500E+01
         0.27500E+01
         0.27500E+01
         0.27500E+01
         0.27500E+01
         0.27500E+01
         0.27500E+01
         0.27500E+01
         0.27500E+01
         0.27500E+01
         0.27500E+01
         0.27500E+01
         0.27500E+01
         0.27500E+01
         0.27500E+01
         0.27500E+01
         0.27500E+01
         0.27500E+01
         0.27500E+01
         0.27500E+01
         0.27500E+01
         0.27500E+01
         0.27500E+01
         0.27500E+01
         0.27500E+01
         0.27500E+01
         0.27500E+01
         0.27500E+01
         0.27500E+01
         0.27500E+01
         0.27500E+01
         0.27500E+01
         0.27500E+01
         0.27500E+01
         0.27500E+01
         0.27500E+01
         0.27500E+01
         0.27500E+01
         0.27500E+01
         0.27500E+01
         0.27500E+01
         0.27500E+01
         0.27500E+01
         0.27500E+01
         0.27500E+01
         0.27500E+01
         0.27500E+01
         0.27500E+01
         0.27500E+01
         0.27500E+01
         0.27500E+01
         0.27500E+01
         0.27500E+01
         0.27500E+01
         0.27500E+01
         0.27500E+01
         0.27500E+01
         0.27500E+01
         0.27500E+01
         0.27500E+01
         0.27500E+01
         0.27500E+01
         0.27500E+01
         0.27500E+01
         0.27500E+01
         0.27500E+01
         0.27500E+01
         0.27500E+01
         0.27500E+01
         0.27500E+01
         0.27500E+01
         0.27500E+01
         0.27500E+01
         0.27500E+01
         0.27500E+01
         0.27500E+01
         0.27500E+01
         0.27500E+01
         0.27500E+01
         0.27500E+01
         0.27500E+01
         0.27500E+01
         0.27500E+01
         0.27500E+01
         0.27500E+01
         0.27500E+01
         0.27500E+01
         0.27500E+01
         0.27500E+01
         0.27500E+01
         0.27500E+01
         0.27500E+01
         0.27500E+01
         0.27500E+01
         0.27500E+01
         0.27500E+01
         0.27500E+01
         0.27500E+01
         0.27500E+01
         0.27500E+01
         0.27500E+01
         0.27500E+01
         0.27500E+01
         0.27500E+01
         0.27500E+01
         0.27500E+01
         0.27500E+01
         0.27500E+01
         0.27500E+01
         0.27500E+01
         0.27500E+01
         0.27500E+01
         0.27500E+01
         0.27500E+01
         0.27500E+01
         0.27500E+01
         0.27500E+01
         0.27500E+01
         0.27500E+01
         0.27500E+01
         0.27500E+01
         0.27500E+01
         0.27500E+01
         0.27500E+01
         0.27500E+01
         0.27500E+01
         0.27500E+01
         0.27500E+01
         0.27500E+01
         0.27500E+01
         0.27500E+01
         0.27500E+01
         0.27500E+01
         0.27500E+01
         0.27500E+01
         0.27500E+01
         0.27500E+01
         0.27500E+01
         0.27500E+01
         0.27500E+01
         0.27500E+01
         0.27500E+01
         0.27500E+01
         0.27500E+01
         0.27500E+01
         0.27500E+01
         0.27500E+01
         0.27500E+01
         0.27500E+01
         0.27500E+01
         0.27500E+01
         0.27500E+01
         0.27500E+01
         0.27500E+01
         0.27500E+01
         0.27500E+01
         0.27500E+01
         0.27500E+01
         0.27500E+01
         0.27500E+01
         0.27500E+01
         0.27500E+01
         0.27500E+01
         0.27500E+01
         0.27500E+01
         0.27500E+01
         0.27500E+01
         0.27500E+01
         0.27500E+01
         0.27500E+01
         0.27500E+01
         0.27500E+01
         0.27500E+01
         0.27500E+01
         0.27500E+01
         0.27500E+01
         0.27500E+01
         0.27500E+01
         0.27500E+01
         0.27500E+01
         0.27500E+01
         0.27500E+01
         0.27500E+01
         0.27500E+01
         0.27500E+01
         0.27500E+01
         0.27500E+01
         0.27500E+01
         0.27500E+01
         0.27500E+01
         0.27500E+01
         0.27500E+01
         0.27500E+01
         0.27500E+01
         0.27500E+01
         0.27500E+01
         0.27500E+01
         0.27500E+01
         0.27500E+01
         0.27500E+01
         0.27500E+01
         0.27500E+01
         0.27500E+01
         0.27500E+01
         0.27500E+01
         0.27500E+01
         0.27500E+01
         0.27500E+01
         0.27500E+01
         0.27500E+01
         0.27500E+01
         0.27500E+01
         0.27500E+01
         0.27500E+01
         0.27500E+01
         0.27500E+01
         0.27500E+01
         0.27500E+01
         0.27500E+01
         0.27500E+01
         0.27500E+01
         0.27500E+01
         0.27500E+01
         0.27500E+01
         0.27500E+01
         0.27500E+01
         0.27500E+01
         0.27500E+01
         0.27500E+01
         0.27500E+01
         0.27500E+01
         0.27500E+01
         0.27500E+01
         0.27500E+01
         0.27500E+01
         0.27500E+01
         0.27500E+01
         0.27500E+01
         0.27500E+01
         0.27500E+01
         0.27500E+01
         0.27500E+01
         0.27500E+01
         0.27500E+01
         0.27500E+01
         0.27500E+01
         0.27500E+01
         0.27500E+01
         0.27500E+01
         0.27500E+01
         0.27500E+01
         0.27500E+01
         0.27500E+01
         0.27500E+01
         0.27500E+01
         0.27500E+01
         0.27500E+01
         0.27500E+01
         0.27500E+01
         0.27500E+01
         0.27500E+01
         0.27500E+01
         0.27500E+01
         0.27500E+01
         0.27500E+01
         0.27500E+01
         0.27500E+01
         0.27500E+01
         0.27500E+01
         0.27500E+01
         0.27500E+01
         0.27500E+01
         0.27500E+01
         0.27500E+01
         0.27500E+01
         0.27500E+01
         0.27500E+01
         0.27500E+01
         0.27500E+01
         0.27500E+01
         0.27500E+01
         0.27500E+01
         0.27500E+01
         0.27500E+01
         0.27500E+01
         0.27500E+01
         0.27500E+01
         0.27500E+01
         0.27500E+01
         0.27500E+01
         0.27500E+01
         0.27500E+01
         0.27500E+01
         0.27500E+01
         0.27500E+01
         0.27500E+01
         0.27500E+01
         0.27500E+01
         0.27500E+01
         0.27500E+01
         0.27500E+01
         0.27500E+01
         0.27500E+01
         0.27500E+01
         0.27500E+01
         0.27500E+01
         0.27500E+01
         0.27500E+01
         0.27500E+01
         0.27500E+01
         0.27500E+01
         0.27500E+01
         0.27500E+01
         0.27500E+01
         0.27500E+01
         0.27500E+01
         0.27500E+01
         0.27500E+01
         0.27500E+01
         0.27500E+01
         0.27500E+01
         0.27500E+01
         0.27500E+01
         0.27500E+01
         0.27500E+01
         0.27500E+01
         0.27500E+01
         0.27500E+01
         0.27500E+01
         0.27500E+01
         0.27500E+01
         0.27500E+01
         0.27500E+01
         0.27500E+01
         0.27500E+01
         0.27500E+01
         0.27500E+01
         0.27500E+01
         0.27500E+01
         0.27500E+01
         0.27500E+01
         0.27500E+01
         0.27500E+01
         0.27500E+01
         0.27500E+01
         0.27500E+01
         0.27500E+01
         0.27500E+01
         0.27500E+01
         0.27500E+01
         0.27500E+01
         0.27500E+01
         0.27500E+01
         0.27500E+01
         0.27500E+01
         0.27500E+01
         0.27500E+01
         0.27500E+01
         0.27500E+01
         0.27500E+01
         0.27500E+01
         0.27500E+01
         0.27500E+01
         0.27500E+01
         0.27500E+01
         0.27500E+01
         0.27500E+01
         0.27500E+01
         0.27500E+01
         0.27500E+01
         0.27500E+01
         0.27500E+01
         0.27500E+01
         0.27500E+01
         0.27500E+01
         0.27500E+01
         0.27500E+01
         0.27500E+01
         0.27500E+01
         0.27500E+01
         0.27500E+01
         0.27500E+01
         0.27500E+01
         0.27500E+01
         0.27500E+01
         0.27500E+01
         0.27500E+01
         0.27500E+01
         0.27500E+01
         0.27500E+01
         0.27500E+01
         0.27500E+01
         0.27500E+01
         0.27500E+01
         0.27500E+01
         0.27500E+01
         0.27500E+01
         0.27500E+01
         0.27500E+01
         0.27500E+01
         0.27500E+01
         0.27500E+01
         0.27500E+01
         0.27500E+01
         0.27500E+01
         0.27500E+01
         0.27500E+01
         0.27500E+01
         0.27500E+01
         0.27500E+01
         0.27500E+01
         0.27500E+01
         0.27500E+01
         0.27500E+01
         0.27500E+01
         0.27500E+01
         0.27500E+01
         0.27500E+01
         0.27500E+01
         0.27500E+01
         0.27500E+01
         0.27500E+01
         0.27500E+01
         0.27500E+01
         0.27500E+01
         0.27500E+01
         0.27500E+01
         0.27500E+01
         0.27500E+01
         0.27500E+01
         0.27500E+01
         0.27500E+01
         0.27500E+01
         0.27500E+01
         0.27500E+01
         0.27500E+01
         0.27500E+01
         0.27500E+01
         0.27500E+01
         0.27500E+01
         0.27500E+01
         0.27500E+01
         0.27500E+01
         0.27500E+01
         0.27500E+01
         0.27500E+01
         0.27500E+01
         0.27500E+01
         0.27500E+01
         0.27500E+01
         0.27500E+01
         0.27500E+01
         0.27500E+01
         0.27500E+01
         0.27500E+01
         0.27500E+01
         0.27500E+01
         0.27500E+01
         0.27500E+01
         0.27500E+01
         0.27500E+01
         0.27500E+01
         0.27500E+01
         0.27500E+01
         0.27500E+01
         0.27500E+01
         0.27500E+01
         0.27500E+01
         0.27500E+01
         0.27500E+01
         0.27500E+01
         0.27500E+01
         0.27500E+01
         0.27500E+01
         0.27500E+01
         0.27500E+01
         0.27500E+01
         0.27500E+01
         0.27500E+01
         0.27500E+01
         0.27500E+01
         0.27500E+01
         0.27500E+01
         0.27500E+01
         0.27500E+01
         0.27500E+01
         0.27500E+01
         0.27500E+01
         0.27500E+01
         0.27500E+01
         0.27500E+01
         0.27500E+01
         0.27500E+01
         0.27500E+01
         0.27500E+01
         0.27500E+01
         0.27500E+01
         0.27500E+01
         0.27500E+01
         0.27500E+01
         0.27500E+01
         0.27500E+01
         0.27500E+01
         0.27500E+01
         0.27500E+01
         0.27500E+01
         0.27500E+01
         0.27500E+01
         0.27500E+01
         0.27500E+01
         0.27500E+01
         0.27500E+01
         0.27500E+01
         0.27500E+01
         0.27500E+01
         0.27500E+01
         0.27500E+01
         0.27500E+01
         0.27500E+01
         0.27500E+01
         0.27500E+01
         0.27500E+01
         0.27500E+01
         0.27500E+01
         0.27500E+01
         0.27500E+01
         0.27500E+01
         0.27500E+01
         0.27500E+01
         0.27500E+01
         0.27500E+01
         0.27500E+01
         0.27500E+01
         0.27500E+01
         0.27500E+01
         0.27500E+01
         0.27500E+01
         0.27500E+01
         0.27500E+01
         0.27500E+01
         0.27500E+01
         0.27500E+01
         0.27500E+01
         0.27500E+01
         0.27500E+01
         0.27500E+01
         0.27500E+01
         0.27500E+01
         0.27500E+01
         0.27500E+01
         0.27500E+01
         0.27500E+01
         0.27500E+01
         0.27500E+01
         0.27500E+01
         0.27500E+01
         0.27500E+01
         0.27500E+01
         0.27500E+01
         0.27500E+01
         0.27500E+01
         0.27500E+01
         0.27500E+01
         0.27500E+01
         0.27500E+01
         0.27500E+01
         0.27500E+01
         0.27500E+01
         0.27500E+01
         0.27500E+01
         0.27500E+01
         0.27500E+01
         0.27500E+01
         0.27500E+01
         0.27500E+01
         0.27500E+01
         0.27500E+01
         0.27500E+01
         0.27500E+01
         0.27500E+01
         0.27500E+01
         0.27500E+01
         0.27500E+01
         0.27500E+01
         0.27500E+01
         0.27500E+01
         0.27500E+01
         0.27500E+01
         0.27500E+01
         0.27500E+01
         0.27500E+01
         0.27500E+01
         0.27500E+01
         0.27500E+01
         0.27500E+01
         0.27500E+01
         0.27500E+01
         0.27500E+01
         0.27500E+01
         0.27500E+01
         0.27500E+01
         0.27500E+01
         0.27500E+01
         0.27500E+01
         0.27500E+01
         0.27500E+01
         0.27500E+01
         0.27500E+01
         0.27500E+01
         0.27500E+01
         0.27500E+01
         0.27500E+01
         0.27500E+01
         0.27500E+01
         0.27500E+01
         0.27500E+01
         0.27500E+01
         0.27500E+01
         0.27500E+01
         0.27500E+01
         0.27500E+01
         0.27500E+01
         0.27500E+01
         0.27500E+01
         0.27500E+01
         0.27500E+01
         0.27500E+01
         0.27500E+01
         0.27500E+01
         0.27500E+01
         0.27500E+01
         0.27500E+01
         0.27500E+01
         0.27500E+01
         0.27500E+01
         0.27500E+01
         0.27500E+01
         0.27500E+01
         0.27500E+01
         0.27500E+01
         0.27500E+01
         0.27500E+01
         0.27500E+01
         0.27500E+01
         0.27500E+01
         0.27500E+01
         0.27500E+01
         0.27500E+01
         0.27500E+01
         0.27500E+01
         0.27500E+01
         0.27500E+01
         0.27500E+01
         0.27500E+01
         0.27500E+01
         0.27500E+01
         0.27500E+01
         0.27500E+01
         0.27500E+01
         0.27500E+01
         0.27500E+01
         0.27500E+01
         0.27500E+01
         0.27500E+01
         0.27500E+01
         0.27500E+01
         0.27500E+01
         0.27500E+01
         0.27500E+01
         0.27500E+01
         0.27500E+01
         0.27500E+01
         0.27500E+01
         0.27500E+01
         0.27500E+01
         0.27500E+01
         0.27500E+01
         0.27500E+01
         0.27500E+01
         0.27500E+01
         0.27500E+01
         0.27500E+01
         0.27500E+01
         0.27500E+01
         0.27500E+01
         0.27500E+01
         0.27500E+01
         0.27500E+01
         0.27500E+01
         0.27500E+01
         0.27500E+01
         0.27500E+01
         0.27500E+01
         0.27500E+01
         0.27500E+01
         0.27500E+01
         0.27500E+01
         0.27500E+01
         0.27500E+01
         0.27500E+01
         0.27500E+01
         0.27500E+01
         0.27500E+01
         0.27500E+01
         0.27500E+01
         0.27500E+01
         0.27500E+01
         0.27500E+01
         0.27500E+01
         0.27500E+01
         0.27500E+01
         0.27500E+01
         0.27500E+01
         0.27500E+01
         0.27500E+01
         0.27500E+01
         0.27500E+01
         0.27500E+01
         0.27500E+01
         0.27500E+01
         0.27500E+01
         0.27500E+01
         0.27500E+01
         0.27500E+01
         0.27500E+01
         0.27500E+01
         0.27500E+01
         0.27500E+01
         0.27500E+01
         0.27500E+01
         0.27500E+01
         0.27500E+01
         0.27500E+01
         0.27500E+01
         0.27500E+01
         0.27500E+01
         0.27500E+01
         0.27500E+01
         0.27500E+01
         0.27500E+01
         0.27500E+01
         0.27500E+01
         0.27500E+01
         0.27500E+01
         0.27500E+01
         0.27500E+01
         0.27500E+01
         0.27500E+01
         0.27500E+01
         0.27500E+01
         0.27500E+01
         0.27500E+01
         0.27500E+01
         0.27500E+01
         0.27500E+01
         0.27500E+01
         0.27500E+01
         0.27500E+01
         0.27500E+01
         0.27500E+01
         0.27500E+01
         0.27500E+01
         0.27500E+01
         0.27500E+01
         0.27500E+01
         0.27500E+01
         0.27500E+01
         0.27500E+01
         0.27500E+01
         0.27500E+01
         0.27500E+01
         0.27500E+01
         0.27500E+01
         0.27500E+01
  
SCALARS              physical_window_x  double 1
LOOKUP_TABLE default
         0.42419E-02
         0.35201E-02
         0.37624E-02
         0.42419E-02
         0.42417E-02
         0.35201E-02
         0.37618E-02
         0.42417E-02
         0.37624E-02
         0.37624E-02
         0.37618E-02
         0.37618E-02
         0.30086E-02
         0.32069E-02
         0.30084E-02
         0.32067E-02
         0.42419E-02
         0.32069E-02
         0.42417E-02
         0.32067E-02
         0.24180E-02
         0.29942E-02
         0.32396E-02
         0.24180E-02
         0.29933E-02
         0.32385E-02
         0.26608E-02
         0.27190E-02
         0.26608E-02
         0.27190E-02
         0.42687E-02
         0.36511E-02
         0.42687E-02
         0.42687E-02
         0.36511E-02
         0.42687E-02
         0.32069E-02
         0.29739E-02
         0.32066E-02
         0.29739E-02
         0.34652E-02
         0.32621E-02
         0.34652E-02
         0.32621E-02
         0.37123E-02
         0.32069E-02
         0.37123E-02
         0.32066E-02
         0.30844E-02
         0.30844E-02
         0.35191E-02
         0.35189E-02
         0.26925E-02
         0.26925E-02
         0.26925E-02
         0.26925E-02
         0.24643E-02
         0.27651E-02
         0.24643E-02
         0.27651E-02
         0.42687E-02
         0.35191E-02
         0.42687E-02
         0.35189E-02
         0.42687E-02
         0.42687E-02
         0.34658E-02
         0.34648E-02
         0.27274E-02
         0.31799E-02
         0.27273E-02
         0.31796E-02
         0.32396E-02
         0.32385E-02
         0.26964E-02
         0.26960E-02
         0.27828E-02
         0.27828E-02
         0.27828E-02
         0.27828E-02
         0.27004E-02
         0.31883E-02
         0.27003E-02
         0.31880E-02
         0.31883E-02
         0.31880E-02
         0.37123E-02
         0.37123E-02
         0.36245E-02
         0.36245E-02
         0.28253E-02
         0.31642E-02
         0.28253E-02
         0.31636E-02
         0.33485E-02
         0.33485E-02
         0.33485E-02
         0.33485E-02
         0.31978E-02
         0.31969E-02
         0.29849E-02
         0.32843E-02
         0.29849E-02
         0.32843E-02
         0.27274E-02
         0.31109E-02
         0.27273E-02
         0.31109E-02
         0.31799E-02
         0.31796E-02
         0.32396E-02
         0.32385E-02
         0.32396E-02
         0.32385E-02
         0.29942E-02
         0.29933E-02
         0.27190E-02
         0.27190E-02
         0.26964E-02
         0.26960E-02
         0.27828E-02
         0.27828E-02
         0.27828E-02
         0.27828E-02
         0.27004E-02
         0.27003E-02
         0.31883E-02
         0.31880E-02
         0.31883E-02
         0.31880E-02
         0.32621E-02
         0.32621E-02
         0.34652E-02
         0.34652E-02
         0.37123E-02
         0.37123E-02
         0.37123E-02
         0.37123E-02
         0.36245E-02
         0.36245E-02
         0.28253E-02
         0.28253E-02
         0.29097E-02
         0.29087E-02
         0.32389E-02
         0.32378E-02
         0.32389E-02
         0.32378E-02
         0.31978E-02
         0.31969E-02
         0.29849E-02
         0.29849E-02
         0.32843E-02
         0.32843E-02
         0.32843E-02
         0.32843E-02
         0.42420E-02
         0.35201E-02
         0.37629E-02
         0.42420E-02
         0.37629E-02
         0.37629E-02
         0.30087E-02
         0.32071E-02
         0.42420E-02
         0.32071E-02
         0.24178E-02
         0.29952E-02
         0.32407E-02
         0.26596E-02
         0.27191E-02
         0.42679E-02
         0.36502E-02
         0.42679E-02
         0.32071E-02
         0.29727E-02
         0.34648E-02
         0.32622E-02
         0.37119E-02
         0.32071E-02
         0.30833E-02
         0.35193E-02
         0.26910E-02
         0.26910E-02
         0.24638E-02
         0.27644E-02
         0.42679E-02
         0.35193E-02
         0.42679E-02
         0.34670E-02
         0.27274E-02
         0.31802E-02
         0.32407E-02
         0.26968E-02
         0.27828E-02
         0.27828E-02
         0.27005E-02
         0.31885E-02
         0.31885E-02
         0.37119E-02
         0.36244E-02
         0.28250E-02
         0.31647E-02
         0.33484E-02
         0.33484E-02
         0.31986E-02
         0.29848E-02
         0.32841E-02
         0.27274E-02
         0.31099E-02
         0.31802E-02
         0.32407E-02
         0.32407E-02
         0.29952E-02
         0.27191E-02
         0.26968E-02
         0.27828E-02
         0.27828E-02
         0.27005E-02
         0.31885E-02
         0.31885E-02
         0.32622E-02
         0.34648E-02
         0.37119E-02
         0.37119E-02
         0.36244E-02
         0.28250E-02
         0.29106E-02
         0.32401E-02
         0.32401E-02
         0.31986E-02
         0.29848E-02
         0.32841E-02
         0.32841E-02
         0.42421E-02
         0.35201E-02
         0.37634E-02
         0.42421E-02
         0.37634E-02
         0.37634E-02
         0.30089E-02
         0.32073E-02
         0.42421E-02
         0.32073E-02
         0.24177E-02
         0.29961E-02
         0.32418E-02
         0.26584E-02
         0.27191E-02
         0.42670E-02
         0.36493E-02
         0.42670E-02
         0.32073E-02
         0.29714E-02
         0.34644E-02
         0.32623E-02
         0.37115E-02
         0.32073E-02
         0.30822E-02
         0.35195E-02
         0.26896E-02
         0.26896E-02
         0.24633E-02
         0.27638E-02
         0.42670E-02
         0.35195E-02
         0.42670E-02
         0.34681E-02
         0.27275E-02
         0.31805E-02
         0.32418E-02
         0.26972E-02
         0.27828E-02
         0.27828E-02
         0.27006E-02
         0.31888E-02
         0.31888E-02
         0.37115E-02
         0.36243E-02
         0.28247E-02
         0.31652E-02
         0.33483E-02
         0.33483E-02
         0.31995E-02
         0.29847E-02
         0.32839E-02
         0.27275E-02
         0.31090E-02
         0.31805E-02
         0.32418E-02
         0.32418E-02
         0.29961E-02
         0.27191E-02
         0.26972E-02
         0.27828E-02
         0.27828E-02
         0.27006E-02
         0.31888E-02
         0.31888E-02
         0.32623E-02
         0.34644E-02
         0.37115E-02
         0.37115E-02
         0.36243E-02
         0.28247E-02
         0.29116E-02
         0.32412E-02
         0.32412E-02
         0.31995E-02
         0.29847E-02
         0.32839E-02
         0.32839E-02
         0.42423E-02
         0.35200E-02
         0.37639E-02
         0.42423E-02
         0.37639E-02
         0.37639E-02
         0.30091E-02
         0.32075E-02
         0.42423E-02
         0.32075E-02
         0.24176E-02
         0.29970E-02
         0.32428E-02
         0.26572E-02
         0.27192E-02
         0.42662E-02
         0.36483E-02
         0.42662E-02
         0.32075E-02
         0.29702E-02
         0.34639E-02
         0.32624E-02
         0.37111E-02
         0.32075E-02
         0.30811E-02
         0.35197E-02
         0.26881E-02
         0.26881E-02
         0.24628E-02
         0.27631E-02
         0.42662E-02
         0.35197E-02
         0.42662E-02
         0.34692E-02
         0.27276E-02
         0.31808E-02
         0.32428E-02
         0.26975E-02
         0.27828E-02
         0.27828E-02
         0.27007E-02
         0.31890E-02
         0.31890E-02
         0.37111E-02
         0.36242E-02
         0.28243E-02
         0.31658E-02
         0.33482E-02
         0.33482E-02
         0.32003E-02
         0.29846E-02
         0.32837E-02
         0.27276E-02
         0.31081E-02
         0.31808E-02
         0.32428E-02
         0.32428E-02
         0.29970E-02
         0.27192E-02
         0.26975E-02
         0.27828E-02
         0.27828E-02
         0.27007E-02
         0.31890E-02
         0.31890E-02
         0.32624E-02
         0.34639E-02
         0.37111E-02
         0.37111E-02
         0.36242E-02
         0.28243E-02
         0.29125E-02
         0.32423E-02
         0.32423E-02
         0.32003E-02
         0.29846E-02
         0.32837E-02
         0.32837E-02
         0.42424E-02
         0.35200E-02
         0.37644E-02
         0.42424E-02
         0.37644E-02
         0.37644E-02
         0.30093E-02
         0.32077E-02
         0.42424E-02
         0.32077E-02
         0.24174E-02
         0.29979E-02
         0.32439E-02
         0.26559E-02
         0.27192E-02
         0.42653E-02
         0.36474E-02
         0.42653E-02
         0.32077E-02
         0.29690E-02
         0.34635E-02
         0.32624E-02
         0.37108E-02
         0.32077E-02
         0.30799E-02
         0.35199E-02
         0.26867E-02
         0.26867E-02
         0.24623E-02
         0.27625E-02
         0.42653E-02
         0.35199E-02
         0.42653E-02
         0.34703E-02
         0.27276E-02
         0.31812E-02
         0.32439E-02
         0.26979E-02
         0.27828E-02
         0.27828E-02
         0.27008E-02
         0.31893E-02
         0.31893E-02
         0.37108E-02
         0.36241E-02
         0.28240E-02
         0.31663E-02
         0.33481E-02
         0.33481E-02
         0.32012E-02
         0.29844E-02
         0.32835E-02
         0.27276E-02
         0.31071E-02
         0.31812E-02
         0.32439E-02
         0.32439E-02
         0.29979E-02
         0.27192E-02
         0.26979E-02
         0.27828E-02
         0.27828E-02
         0.27008E-02
         0.31893E-02
         0.31893E-02
         0.32624E-02
         0.34635E-02
         0.37108E-02
         0.37108E-02
         0.36241E-02
         0.28240E-02
         0.29135E-02
         0.32434E-02
         0.32434E-02
         0.32012E-02
         0.29844E-02
         0.32835E-02
         0.32835E-02
         0.42425E-02
         0.35200E-02
         0.37649E-02
         0.42425E-02
         0.37649E-02
         0.37649E-02
         0.30095E-02
         0.32079E-02
         0.42425E-02
         0.32079E-02
         0.24173E-02
         0.29989E-02
         0.32450E-02
         0.26547E-02
         0.27193E-02
         0.42645E-02
         0.36465E-02
         0.42645E-02
         0.32079E-02
         0.29677E-02
         0.34631E-02
         0.32625E-02
         0.37104E-02
         0.32079E-02
         0.30788E-02
         0.35201E-02
         0.26852E-02
         0.26852E-02
         0.24618E-02
         0.27618E-02
         0.42645E-02
         0.35201E-02
         0.42645E-02
         0.34715E-02
         0.27277E-02
         0.31815E-02
         0.32450E-02
         0.26983E-02
         0.27828E-02
         0.27828E-02
         0.27009E-02
         0.31895E-02
         0.31895E-02
         0.37104E-02
         0.36239E-02
         0.28237E-02
         0.31668E-02
         0.33480E-02
         0.33480E-02
         0.32020E-02
         0.29843E-02
         0.32833E-02
         0.27277E-02
         0.31062E-02
         0.31815E-02
         0.32450E-02
         0.32450E-02
         0.29989E-02
         0.27193E-02
         0.26983E-02
         0.27828E-02
         0.27828E-02
         0.27009E-02
         0.31895E-02
         0.31895E-02
         0.32625E-02
         0.34631E-02
         0.37104E-02
         0.37104E-02
         0.36239E-02
         0.28237E-02
         0.29145E-02
         0.32445E-02
         0.32445E-02
         0.32020E-02
         0.29843E-02
         0.32833E-02
         0.32833E-02
         0.42427E-02
         0.35200E-02
         0.37654E-02
         0.42427E-02
         0.37654E-02
         0.37654E-02
         0.30097E-02
         0.32081E-02
         0.42427E-02
         0.32081E-02
         0.24171E-02
         0.29998E-02
         0.32461E-02
         0.26535E-02
         0.27193E-02
         0.42636E-02
         0.36455E-02
         0.42636E-02
         0.32081E-02
         0.29665E-02
         0.34626E-02
         0.32626E-02
         0.37100E-02
         0.32081E-02
         0.30777E-02
         0.35203E-02
         0.26838E-02
         0.26838E-02
         0.24613E-02
         0.27611E-02
         0.42636E-02
         0.35203E-02
         0.42636E-02
         0.34726E-02
         0.27278E-02
         0.31818E-02
         0.32461E-02
         0.26987E-02
         0.27827E-02
         0.27827E-02
         0.27010E-02
         0.31898E-02
         0.31898E-02
         0.37100E-02
         0.36238E-02
         0.28234E-02
         0.31673E-02
         0.33479E-02
         0.33479E-02
         0.32029E-02
         0.29842E-02
         0.32831E-02
         0.27278E-02
         0.31052E-02
         0.31818E-02
         0.32461E-02
         0.32461E-02
         0.29998E-02
         0.27193E-02
         0.26987E-02
         0.27827E-02
         0.27827E-02
         0.27010E-02
         0.31898E-02
         0.31898E-02
         0.32626E-02
         0.34626E-02
         0.37100E-02
         0.37100E-02
         0.36238E-02
         0.28234E-02
         0.29154E-02
         0.32457E-02
         0.32457E-02
         0.32029E-02
         0.29842E-02
         0.32831E-02
         0.32831E-02
         0.42428E-02
         0.35199E-02
         0.37660E-02
         0.42428E-02
         0.37660E-02
         0.37660E-02
         0.30099E-02
         0.32083E-02
         0.42428E-02
         0.32083E-02
         0.24170E-02
         0.30007E-02
         0.32471E-02
         0.26523E-02
         0.27194E-02
         0.42628E-02
         0.36446E-02
         0.42628E-02
         0.32083E-02
         0.29652E-02
         0.34622E-02
         0.32627E-02
         0.37096E-02
         0.32083E-02
         0.30766E-02
         0.35205E-02
         0.26823E-02
         0.26823E-02
         0.24608E-02
         0.27605E-02
         0.42628E-02
         0.35205E-02
         0.42628E-02
         0.34737E-02
         0.27279E-02
         0.31821E-02
         0.32471E-02
         0.26991E-02
         0.27827E-02
         0.27827E-02
         0.27011E-02
         0.31900E-02
         0.31900E-02
         0.37096E-02
         0.36237E-02
         0.28231E-02
         0.31679E-02
         0.33478E-02
         0.33478E-02
         0.32038E-02
         0.29841E-02
         0.32829E-02
         0.27279E-02
         0.31043E-02
         0.31821E-02
         0.32471E-02
         0.32471E-02
         0.30007E-02
         0.27194E-02
         0.26991E-02
         0.27827E-02
         0.27827E-02
         0.27011E-02
         0.31900E-02
         0.31900E-02
         0.32627E-02
         0.34622E-02
         0.37096E-02
         0.37096E-02
         0.36237E-02
         0.28231E-02
         0.29164E-02
         0.32468E-02
         0.32468E-02
         0.32038E-02
         0.29841E-02
         0.32829E-02
         0.32829E-02
         0.42429E-02
         0.35199E-02
         0.37665E-02
         0.42429E-02
         0.37665E-02
         0.37665E-02
         0.30101E-02
         0.32085E-02
         0.42429E-02
         0.32085E-02
         0.24168E-02
         0.30017E-02
         0.32482E-02
         0.26510E-02
         0.27194E-02
         0.42619E-02
         0.36437E-02
         0.42619E-02
         0.32085E-02
         0.29640E-02
         0.34618E-02
         0.32627E-02
         0.37092E-02
         0.32085E-02
         0.30755E-02
         0.35207E-02
         0.26808E-02
         0.26808E-02
         0.24603E-02
         0.27599E-02
         0.42619E-02
         0.35207E-02
         0.42619E-02
         0.34748E-02
         0.27279E-02
         0.31824E-02
         0.32482E-02
         0.26994E-02
         0.27827E-02
         0.27827E-02
         0.27012E-02
         0.31902E-02
         0.31902E-02
         0.37092E-02
         0.36236E-02
         0.28227E-02
         0.31684E-02
         0.33477E-02
         0.33477E-02
         0.32046E-02
         0.29840E-02
         0.32827E-02
         0.27279E-02
         0.31034E-02
         0.31824E-02
         0.32482E-02
         0.32482E-02
         0.30017E-02
         0.27194E-02
         0.26994E-02
         0.27827E-02
         0.27827E-02
         0.27012E-02
         0.31902E-02
         0.31902E-02
         0.32627E-02
         0.34618E-02
         0.37092E-02
         0.37092E-02
         0.36236E-02
         0.28227E-02
         0.29173E-02
         0.32479E-02
         0.32479E-02
         0.32046E-02
         0.29840E-02
         0.32827E-02
         0.32827E-02
         0.42431E-02
         0.35199E-02
         0.37670E-02
         0.42431E-02
         0.37670E-02
         0.37670E-02
         0.30102E-02
         0.32087E-02
         0.42431E-02
         0.32087E-02
         0.24167E-02
         0.30026E-02
         0.32493E-02
         0.26498E-02
         0.27194E-02
         0.42611E-02
         0.36427E-02
         0.42611E-02
         0.32087E-02
         0.29628E-02
         0.34613E-02
         0.32628E-02
         0.37089E-02
         0.32087E-02
         0.30744E-02
         0.35209E-02
         0.26794E-02
         0.26794E-02
         0.24598E-02
         0.27592E-02
         0.42611E-02
         0.35209E-02
         0.42611E-02
         0.34759E-02
         0.27280E-02
         0.31827E-02
         0.32493E-02
         0.26998E-02
         0.27827E-02
         0.27827E-02
         0.27013E-02
         0.31905E-02
         0.31905E-02
         0.37089E-02
         0.36235E-02
         0.28224E-02
         0.31689E-02
         0.33476E-02
         0.33476E-02
         0.32055E-02
         0.29839E-02
         0.32825E-02
         0.27280E-02
         0.31024E-02
         0.31827E-02
         0.32493E-02
         0.32493E-02
         0.30026E-02
         0.27194E-02
         0.26998E-02
         0.27827E-02
         0.27827E-02
         0.27013E-02
         0.31905E-02
         0.31905E-02
         0.32628E-02
         0.34613E-02
         0.37089E-02
         0.37089E-02
         0.36235E-02
         0.28224E-02
         0.29183E-02
         0.32490E-02
         0.32490E-02
         0.32055E-02
         0.29839E-02
         0.32825E-02
         0.32825E-02
         0.42432E-02
         0.35199E-02
         0.37675E-02
         0.42432E-02
         0.37675E-02
         0.37675E-02
         0.30104E-02
         0.32089E-02
         0.42432E-02
         0.32089E-02
         0.24166E-02
         0.30035E-02
         0.32504E-02
         0.26486E-02
         0.27195E-02
         0.42603E-02
         0.36418E-02
         0.42603E-02
         0.32089E-02
         0.29615E-02
         0.34609E-02
         0.32629E-02
         0.37085E-02
         0.32089E-02
         0.30732E-02
         0.35211E-02
         0.26779E-02
         0.26779E-02
         0.24593E-02
         0.27585E-02
         0.42603E-02
         0.35211E-02
         0.42603E-02
         0.34771E-02
         0.27281E-02
         0.31830E-02
         0.32504E-02
         0.27002E-02
         0.27827E-02
         0.27827E-02
         0.27014E-02
         0.31907E-02
         0.31907E-02
         0.37085E-02
         0.36233E-02
         0.28221E-02
         0.31694E-02
         0.33475E-02
         0.33475E-02
         0.32063E-02
         0.29838E-02
         0.32823E-02
         0.27281E-02
         0.31015E-02
         0.31830E-02
         0.32504E-02
         0.32504E-02
         0.30035E-02
         0.27195E-02
         0.27002E-02
         0.27827E-02
         0.27827E-02
         0.27014E-02
         0.31907E-02
         0.31907E-02
         0.32629E-02
         0.34609E-02
         0.37085E-02
         0.37085E-02
         0.36233E-02
         0.28221E-02
         0.29193E-02
         0.32501E-02
         0.32501E-02
         0.32063E-02
         0.29838E-02
         0.32823E-02
         0.32823E-02
         0.42433E-02
         0.35199E-02
         0.37680E-02
         0.42433E-02
         0.37680E-02
         0.37680E-02
         0.30106E-02
         0.32091E-02
         0.42433E-02
         0.32091E-02
         0.24164E-02
         0.30045E-02
         0.32514E-02
         0.26474E-02
         0.27195E-02
         0.42594E-02
         0.36409E-02
         0.42594E-02
         0.32091E-02
         0.29603E-02
         0.34605E-02
         0.32630E-02
         0.37081E-02
         0.32091E-02
         0.30721E-02
         0.35213E-02
         0.26765E-02
         0.26765E-02
         0.24588E-02
         0.27579E-02
         0.42594E-02
         0.35213E-02
         0.42594E-02
         0.34782E-02
         0.27281E-02
         0.31833E-02
         0.32514E-02
         0.27006E-02
         0.27826E-02
         0.27826E-02
         0.27015E-02
         0.31910E-02
         0.31910E-02
         0.37081E-02
         0.36232E-02
         0.28218E-02
         0.31700E-02
         0.33474E-02
         0.33474E-02
         0.32072E-02
         0.29836E-02
         0.32821E-02
         0.27281E-02
         0.31005E-02
         0.31833E-02
         0.32514E-02
         0.32514E-02
         0.30045E-02
         0.27195E-02
         0.27006E-02
         0.27826E-02
         0.27826E-02
         0.27015E-02
         0.31910E-02
         0.31910E-02
         0.32630E-02
         0.34605E-02
         0.37081E-02
         0.37081E-02
         0.36232E-02
         0.28218E-02
         0.29202E-02
         0.32512E-02
         0.32512E-02
         0.32072E-02
         0.29836E-02
         0.32821E-02
         0.32821E-02
         0.42435E-02
         0.35199E-02
         0.37685E-02
         0.42435E-02
         0.37685E-02
         0.37685E-02
         0.30108E-02
         0.32093E-02
         0.42435E-02
         0.32093E-02
         0.24163E-02
         0.30054E-02
         0.32525E-02
         0.26461E-02
         0.27196E-02
         0.42586E-02
         0.36399E-02
         0.42586E-02
         0.32093E-02
         0.29591E-02
         0.34601E-02
         0.32630E-02
         0.37077E-02
         0.32093E-02
         0.30710E-02
         0.35215E-02
         0.26750E-02
         0.26750E-02
         0.24583E-02
         0.27572E-02
         0.42586E-02
         0.35215E-02
         0.42586E-02
         0.34793E-02
         0.27282E-02
         0.31836E-02
         0.32525E-02
         0.27010E-02
         0.27826E-02
         0.27826E-02
         0.27016E-02
         0.31912E-02
         0.31912E-02
         0.37077E-02
         0.36231E-02
         0.28215E-02
         0.31705E-02
         0.33473E-02
         0.33473E-02
         0.32080E-02
         0.29835E-02
         0.32819E-02
         0.27282E-02
         0.30996E-02
         0.31836E-02
         0.32525E-02
         0.32525E-02
         0.30054E-02
         0.27196E-02
         0.27010E-02
         0.27826E-02
         0.27826E-02
         0.27016E-02
         0.31912E-02
         0.31912E-02
         0.32630E-02
         0.34601E-02
         0.37077E-02
         0.37077E-02
         0.36231E-02
         0.28215E-02
         0.29212E-02
         0.32524E-02
         0.32524E-02
         0.32080E-02
         0.29835E-02
         0.32819E-02
         0.32819E-02
         0.42436E-02
         0.35198E-02
         0.37690E-02
         0.42436E-02
         0.37690E-02
         0.37690E-02
         0.30110E-02
         0.32095E-02
         0.42436E-02
         0.32095E-02
         0.24162E-02
         0.30064E-02
         0.32536E-02
         0.26449E-02
         0.27196E-02
         0.42577E-02
         0.36390E-02
         0.42577E-02
         0.32096E-02
         0.29578E-02
         0.34596E-02
         0.32631E-02
         0.37074E-02
         0.32096E-02
         0.30699E-02
         0.35217E-02
         0.26735E-02
         0.26735E-02
         0.24578E-02
         0.27566E-02
         0.42577E-02
         0.35217E-02
         0.42577E-02
         0.34804E-02
         0.27283E-02
         0.31839E-02
         0.32536E-02
         0.27013E-02
         0.27826E-02
         0.27826E-02
         0.27017E-02
         0.31915E-02
         0.31915E-02
         0.37074E-02
         0.36230E-02
         0.28211E-02
         0.31710E-02
         0.33472E-02
         0.33472E-02
         0.32089E-02
         0.29834E-02
         0.32817E-02
         0.27283E-02
         0.30986E-02
         0.31839E-02
         0.32536E-02
         0.32536E-02
         0.30064E-02
         0.27196E-02
         0.27013E-02
         0.27826E-02
         0.27826E-02
         0.27017E-02
         0.31915E-02
         0.31915E-02
         0.32631E-02
         0.34596E-02
         0.37074E-02
         0.37074E-02
         0.36230E-02
         0.28211E-02
         0.29221E-02
         0.32535E-02
         0.32535E-02
         0.32089E-02
         0.29834E-02
         0.32817E-02
         0.32817E-02
         0.42437E-02
         0.35198E-02
         0.37695E-02
         0.42437E-02
         0.37695E-02
         0.37695E-02
         0.30112E-02
         0.32097E-02
         0.42437E-02
         0.32097E-02
         0.24160E-02
         0.30073E-02
         0.32547E-02
         0.26437E-02
         0.27197E-02
         0.42569E-02
         0.36381E-02
         0.42569E-02
         0.32098E-02
         0.29566E-02
         0.34592E-02
         0.32632E-02
         0.37070E-02
         0.32098E-02
         0.30688E-02
         0.35219E-02
         0.26721E-02
         0.26721E-02
         0.24573E-02
         0.27560E-02
         0.42569E-02
         0.35219E-02
         0.42569E-02
         0.34815E-02
         0.27284E-02
         0.31843E-02
         0.32547E-02
         0.27017E-02
         0.27826E-02
         0.27826E-02
         0.27018E-02
         0.31917E-02
         0.31917E-02
         0.37070E-02
         0.36229E-02
         0.28208E-02
         0.31716E-02
         0.33471E-02
         0.33471E-02
         0.32097E-02
         0.29833E-02
         0.32815E-02
         0.27284E-02
         0.30977E-02
         0.31843E-02
         0.32547E-02
         0.32547E-02
         0.30073E-02
         0.27197E-02
         0.27017E-02
         0.27826E-02
         0.27826E-02
         0.27018E-02
         0.31917E-02
         0.31917E-02
         0.32632E-02
         0.34592E-02
         0.37070E-02
         0.37070E-02
         0.36229E-02
         0.28208E-02
         0.29231E-02
         0.32546E-02
         0.32546E-02
         0.32097E-02
         0.29833E-02
         0.32815E-02
         0.32815E-02
         0.42439E-02
         0.35198E-02
         0.37701E-02
         0.42439E-02
         0.37701E-02
         0.37701E-02
         0.30113E-02
         0.32099E-02
         0.42439E-02
         0.32099E-02
         0.24159E-02
         0.30082E-02
         0.32558E-02
         0.26425E-02
         0.27197E-02
         0.42560E-02
         0.36371E-02
         0.42560E-02
         0.32100E-02
         0.29554E-02
         0.34588E-02
         0.32633E-02
         0.37066E-02
         0.32100E-02
         0.30677E-02
         0.35221E-02
         0.26706E-02
         0.26706E-02
         0.24568E-02
         0.27553E-02
         0.42560E-02
         0.35221E-02
         0.42560E-02
         0.34827E-02
         0.27284E-02
         0.31846E-02
         0.32558E-02
         0.27021E-02
         0.27826E-02
         0.27826E-02
         0.27019E-02
         0.31920E-02
         0.31920E-02
         0.37066E-02
         0.36227E-02
         0.28205E-02
         0.31721E-02
         0.33470E-02
         0.33470E-02
         0.32106E-02
         0.29831E-02
         0.32813E-02
         0.27284E-02
         0.30968E-02
         0.31846E-02
         0.32558E-02
         0.32558E-02
         0.30082E-02
         0.27197E-02
         0.27021E-02
         0.27826E-02
         0.27826E-02
         0.27019E-02
         0.31920E-02
         0.31920E-02
         0.32633E-02
         0.34588E-02
         0.37066E-02
         0.37066E-02
         0.36227E-02
         0.28205E-02
         0.29241E-02
         0.32557E-02
         0.32557E-02
         0.32106E-02
         0.29831E-02
         0.32813E-02
         0.32813E-02
         0.42440E-02
         0.35198E-02
         0.37706E-02
         0.42440E-02
         0.37706E-02
         0.37706E-02
         0.30115E-02
         0.32101E-02
         0.42440E-02
         0.32101E-02
         0.24158E-02
         0.30091E-02
         0.32568E-02
         0.26412E-02
         0.27198E-02
         0.42552E-02
         0.36362E-02
         0.42552E-02
         0.32102E-02
         0.29541E-02
         0.34583E-02
         0.32633E-02
         0.37062E-02
         0.32102E-02
         0.30665E-02
         0.35223E-02
         0.26692E-02
         0.26692E-02
         0.24563E-02
         0.27546E-02
         0.42552E-02
         0.35223E-02
         0.42552E-02
         0.34838E-02
         0.27285E-02
         0.31849E-02
         0.32568E-02
         0.27025E-02
         0.27826E-02
         0.27826E-02
         0.27020E-02
         0.31922E-02
         0.31922E-02
         0.37062E-02
         0.36226E-02
         0.28202E-02
         0.31726E-02
         0.33469E-02
         0.33469E-02
         0.32114E-02
         0.29830E-02
         0.32811E-02
         0.27285E-02
         0.30958E-02
         0.31849E-02
         0.32568E-02
         0.32568E-02
         0.30091E-02
         0.27198E-02
         0.27025E-02
         0.27826E-02
         0.27826E-02
         0.27020E-02
         0.31922E-02
         0.31922E-02
         0.32633E-02
         0.34583E-02
         0.37062E-02
         0.37062E-02
         0.36226E-02
         0.28202E-02
         0.29250E-02
         0.32568E-02
         0.32568E-02
         0.32114E-02
         0.29830E-02
         0.32811E-02
         0.32811E-02
         0.42441E-02
         0.35198E-02
         0.37711E-02
         0.42441E-02
         0.37711E-02
         0.37711E-02
         0.30117E-02
         0.32103E-02
         0.42441E-02
         0.32103E-02
         0.24156E-02
         0.30101E-02
         0.32579E-02
         0.26400E-02
         0.27198E-02
         0.42543E-02
         0.36353E-02
         0.42543E-02
         0.32104E-02
         0.29529E-02
         0.34579E-02
         0.32634E-02
         0.37058E-02
         0.32104E-02
         0.30654E-02
         0.35225E-02
         0.26677E-02
         0.26677E-02
         0.24558E-02
         0.27540E-02
         0.42543E-02
         0.35225E-02
         0.42543E-02
         0.34849E-02
         0.27286E-02
         0.31852E-02
         0.32579E-02
         0.27029E-02
         0.27826E-02
         0.27826E-02
         0.27021E-02
         0.31924E-02
         0.31924E-02
         0.37058E-02
         0.36225E-02
         0.28198E-02
         0.31731E-02
         0.33468E-02
         0.33468E-02
         0.32123E-02
         0.29829E-02
         0.32809E-02
         0.27286E-02
         0.30949E-02
         0.31852E-02
         0.32579E-02
         0.32579E-02
         0.30101E-02
         0.27198E-02
         0.27029E-02
         0.27826E-02
         0.27826E-02
         0.27021E-02
         0.31924E-02
         0.31924E-02
         0.32634E-02
         0.34579E-02
         0.37058E-02
         0.37058E-02
         0.36225E-02
         0.28198E-02
         0.29260E-02
         0.32579E-02
         0.32579E-02
         0.32123E-02
         0.29829E-02
         0.32809E-02
         0.32809E-02
         0.42443E-02
         0.35197E-02
         0.37716E-02
         0.42443E-02
         0.37716E-02
         0.37716E-02
         0.30119E-02
         0.32105E-02
         0.42443E-02
         0.32105E-02
         0.24155E-02
         0.30110E-02
         0.32590E-02
         0.26388E-02
         0.27199E-02
         0.42535E-02
         0.36343E-02
         0.42535E-02
         0.32106E-02
         0.29517E-02
         0.34575E-02
         0.32635E-02
         0.37055E-02
         0.32106E-02
         0.30643E-02
         0.35227E-02
         0.26663E-02
         0.26663E-02
         0.24553E-02
         0.27533E-02
         0.42535E-02
         0.35227E-02
         0.42535E-02
         0.34860E-02
         0.27286E-02
         0.31855E-02
         0.32590E-02
         0.27032E-02
         0.27826E-02
         0.27826E-02
         0.27022E-02
         0.31927E-02
         0.31927E-02
         0.37055E-02
         0.36224E-02
         0.28195E-02
         0.31737E-02
         0.33467E-02
         0.33467E-02
         0.32132E-02
         0.29828E-02
         0.32807E-02
         0.27286E-02
         0.30939E-02
         0.31855E-02
         0.32590E-02
         0.32590E-02
         0.30110E-02
         0.27199E-02
         0.27032E-02
         0.27826E-02
         0.27826E-02
         0.27022E-02
         0.31927E-02
         0.31927E-02
         0.32635E-02
         0.34575E-02
         0.37055E-02
         0.37055E-02
         0.36224E-02
         0.28195E-02
         0.29269E-02
         0.32591E-02
         0.32591E-02
         0.32132E-02
         0.29828E-02
         0.32807E-02
         0.32807E-02
         0.42444E-02
         0.35197E-02
         0.37721E-02
         0.42444E-02
         0.37721E-02
         0.37721E-02
         0.30121E-02
         0.32107E-02
         0.42444E-02
         0.32107E-02
         0.24154E-02
         0.30119E-02
         0.32601E-02
         0.26376E-02
         0.27199E-02
         0.42527E-02
         0.36334E-02
         0.42527E-02
         0.32108E-02
         0.29504E-02
         0.34571E-02
         0.32636E-02
         0.37051E-02
         0.32108E-02
         0.30632E-02
         0.35229E-02
         0.26648E-02
         0.26648E-02
         0.24552E-02
         0.27527E-02
         0.42527E-02
         0.35229E-02
         0.42527E-02
         0.34871E-02
         0.27287E-02
         0.31858E-02
         0.32601E-02
         0.27036E-02
         0.27825E-02
         0.27825E-02
         0.27023E-02
         0.31929E-02
         0.31929E-02
         0.37051E-02
         0.36223E-02
         0.28192E-02
         0.31742E-02
         0.33466E-02
         0.33466E-02
         0.32140E-02
         0.29827E-02
         0.32805E-02
         0.27287E-02
         0.30930E-02
         0.31858E-02
         0.32601E-02
         0.32601E-02
         0.30119E-02
         0.27199E-02
         0.27036E-02
         0.27825E-02
         0.27825E-02
         0.27023E-02
         0.31929E-02
         0.31929E-02
         0.32636E-02
         0.34571E-02
         0.37051E-02
         0.37051E-02
         0.36223E-02
         0.28192E-02
         0.29279E-02
         0.32602E-02
         0.32602E-02
         0.32140E-02
         0.29827E-02
         0.32805E-02
         0.32805E-02
         0.42445E-02
         0.35197E-02
         0.37726E-02
         0.42445E-02
         0.37726E-02
         0.37726E-02
         0.30123E-02
         0.32108E-02
         0.42445E-02
         0.32108E-02
         0.24152E-02
         0.30129E-02
         0.32611E-02
         0.26363E-02
         0.27200E-02
         0.42518E-02
         0.36325E-02
         0.42518E-02
         0.32110E-02
         0.29492E-02
         0.34566E-02
         0.32636E-02
         0.37047E-02
         0.32110E-02
         0.30621E-02
         0.35231E-02
         0.26633E-02
         0.26633E-02
         0.24554E-02
         0.27520E-02
         0.42518E-02
         0.35231E-02
         0.42518E-02
         0.34882E-02
         0.27288E-02
         0.31861E-02
         0.32611E-02
         0.27040E-02
         0.27825E-02
         0.27825E-02
         0.27024E-02
         0.31932E-02
         0.31932E-02
         0.37047E-02
         0.36222E-02
         0.28189E-02
         0.31747E-02
         0.33465E-02
         0.33465E-02
         0.32149E-02
         0.29826E-02
         0.32803E-02
         0.27288E-02
         0.30921E-02
         0.31861E-02
         0.32611E-02
         0.32611E-02
         0.30129E-02
         0.27200E-02
         0.27040E-02
         0.27825E-02
         0.27825E-02
         0.27024E-02
         0.31932E-02
         0.31932E-02
         0.32636E-02
         0.34566E-02
         0.37047E-02
         0.37047E-02
         0.36222E-02
         0.28189E-02
         0.29289E-02
         0.32613E-02
         0.32613E-02
         0.32149E-02
         0.29826E-02
         0.32803E-02
         0.32803E-02
         0.42447E-02
         0.35196E-02
         0.37732E-02
         0.42447E-02
         0.37732E-02
         0.37732E-02
         0.30125E-02
         0.32111E-02
         0.42447E-02
         0.32111E-02
         0.24151E-02
         0.30138E-02
         0.32622E-02
         0.26351E-02
         0.27200E-02
         0.42510E-02
         0.36315E-02
         0.42510E-02
         0.32112E-02
         0.29480E-02
         0.34562E-02
         0.32637E-02
         0.37043E-02
         0.32112E-02
         0.30610E-02
         0.35233E-02
         0.26619E-02
         0.26619E-02
         0.24557E-02
         0.27514E-02
         0.42510E-02
         0.35233E-02
         0.42510E-02
         0.34894E-02
         0.27289E-02
         0.31864E-02
         0.32622E-02
         0.27044E-02
         0.27825E-02
         0.27825E-02
         0.27025E-02
         0.31934E-02
         0.31934E-02
         0.37043E-02
         0.36220E-02
         0.28186E-02
         0.31753E-02
         0.33464E-02
         0.33464E-02
         0.32157E-02
         0.29824E-02
         0.32801E-02
         0.27289E-02
         0.30911E-02
         0.31864E-02
         0.32622E-02
         0.32622E-02
         0.30138E-02
         0.27200E-02
         0.27044E-02
         0.27825E-02
         0.27825E-02
         0.27025E-02
         0.31934E-02
         0.31934E-02
         0.32637E-02
         0.34562E-02
         0.37043E-02
         0.37043E-02
         0.36220E-02
         0.28186E-02
         0.29298E-02
         0.32624E-02
         0.32624E-02
         0.32157E-02
         0.29824E-02
         0.32801E-02
         0.32801E-02
         0.42448E-02
         0.35196E-02
         0.37737E-02
         0.42448E-02
         0.37737E-02
         0.37737E-02
         0.30126E-02
         0.32112E-02
         0.42448E-02
         0.32112E-02
         0.24150E-02
         0.30147E-02
         0.32633E-02
         0.26339E-02
         0.27200E-02
         0.42501E-02
         0.36306E-02
         0.42501E-02
         0.32114E-02
         0.29467E-02
         0.34558E-02
         0.32638E-02
         0.37039E-02
         0.32114E-02
         0.30598E-02
         0.35235E-02
         0.26604E-02
         0.26604E-02
         0.24559E-02
         0.27507E-02
         0.42501E-02
         0.35235E-02
         0.42501E-02
         0.34905E-02
         0.27289E-02
         0.31867E-02
         0.32633E-02
         0.27048E-02
         0.27825E-02
         0.27825E-02
         0.27026E-02
         0.31937E-02
         0.31937E-02
         0.37039E-02
         0.36219E-02
         0.28183E-02
         0.31758E-02
         0.33463E-02
         0.33463E-02
         0.32166E-02
         0.29823E-02
         0.32799E-02
         0.27289E-02
         0.30902E-02
         0.31867E-02
         0.32633E-02
         0.32633E-02
         0.30147E-02
         0.27200E-02
         0.27048E-02
         0.27825E-02
         0.27825E-02
         0.27026E-02
         0.31937E-02
         0.31937E-02
         0.32638E-02
         0.34558E-02
         0.37039E-02
         0.37039E-02
         0.36219E-02
         0.28183E-02
         0.29308E-02
         0.32635E-02
         0.32635E-02
         0.32166E-02
         0.29823E-02
         0.32799E-02
         0.32799E-02
         0.42448E-02
         0.35196E-02
         0.37737E-02
         0.42448E-02
         0.37737E-02
         0.37737E-02
         0.30126E-02
         0.32112E-02
         0.42448E-02
         0.32112E-02
         0.24148E-02
         0.30147E-02
         0.32633E-02
         0.26327E-02
         0.27200E-02
         0.42493E-02
         0.36297E-02
         0.42493E-02
         0.32114E-02
         0.29455E-02
         0.34553E-02
         0.32638E-02
         0.37036E-02
         0.32114E-02
         0.30587E-02
         0.35235E-02
         0.26590E-02
         0.26590E-02
         0.24559E-02
         0.27501E-02
         0.42493E-02
         0.35235E-02
         0.42493E-02
         0.34905E-02
         0.27289E-02
         0.31867E-02
         0.32633E-02
         0.27048E-02
         0.27825E-02
         0.27825E-02
         0.27026E-02
         0.31937E-02
         0.31937E-02
         0.37036E-02
         0.36218E-02
         0.28180E-02
         0.31758E-02
         0.33462E-02
         0.33462E-02
         0.32166E-02
         0.29822E-02
         0.32797E-02
         0.27289E-02
         0.30892E-02
         0.31867E-02
         0.32633E-02
         0.32633E-02
         0.30147E-02
         0.27200E-02
         0.27048E-02
         0.27825E-02
         0.27825E-02
         0.27026E-02
         0.31937E-02
         0.31937E-02
         0.32638E-02
         0.34553E-02
         0.37036E-02
         0.37036E-02
         0.36218E-02
         0.28180E-02
         0.29308E-02
         0.32635E-02
         0.32635E-02
         0.32166E-02
         0.29822E-02
         0.32797E-02
         0.32797E-02
  
SCALARS              physical_window_y  double 1
LOOKUP_TABLE default
         0.43155E-02
         0.43155E-02
         0.43155E-02
         0.43155E-02
         0.43155E-02
         0.43155E-02
         0.43155E-02
         0.43155E-02
         0.34883E-02
         0.34883E-02
         0.34882E-02
         0.34882E-02
         0.32826E-02
         0.32142E-02
         0.32826E-02
         0.32142E-02
         0.37863E-02
         0.31884E-02
         0.37863E-02
         0.31884E-02
         0.27172E-02
         0.33887E-02
         0.37164E-02
         0.27172E-02
         0.33887E-02
         0.37164E-02
         0.27582E-02
         0.28966E-02
         0.27582E-02
         0.28954E-02
         0.37007E-02
         0.35859E-02
         0.37863E-02
         0.37007E-02
         0.35824E-02
         0.37863E-02
         0.29875E-02
         0.29875E-02
         0.29867E-02
         0.29867E-02
         0.28561E-02
         0.26860E-02
         0.28556E-02
         0.26852E-02
         0.29518E-02
         0.28068E-02
         0.29517E-02
         0.28066E-02
         0.29975E-02
         0.29949E-02
         0.37007E-02
         0.37007E-02
         0.28693E-02
         0.28693E-02
         0.28693E-02
         0.28693E-02
         0.27602E-02
         0.26193E-02
         0.27602E-02
         0.26193E-02
         0.37007E-02
         0.37007E-02
         0.37007E-02
         0.37007E-02
         0.37685E-02
         0.37665E-02
         0.37685E-02
         0.37665E-02
         0.30230E-02
         0.37003E-02
         0.30229E-02
         0.37003E-02
         0.37164E-02
         0.37164E-02
         0.31934E-02
         0.31921E-02
         0.32777E-02
         0.32771E-02
         0.32777E-02
         0.32771E-02
         0.27006E-02
         0.25920E-02
         0.27006E-02
         0.25920E-02
         0.25916E-02
         0.25916E-02
         0.29715E-02
         0.29715E-02
         0.29715E-02
         0.29715E-02
         0.26477E-02
         0.29102E-02
         0.26477E-02
         0.29102E-02
         0.34085E-02
         0.34085E-02
         0.35350E-02
         0.35350E-02
         0.35350E-02
         0.35350E-02
         0.29766E-02
         0.32272E-02
         0.29763E-02
         0.32254E-02
         0.29087E-02
         0.29835E-02
         0.29087E-02
         0.29825E-02
         0.37003E-02
         0.37003E-02
         0.37164E-02
         0.37164E-02
         0.37164E-02
         0.37164E-02
         0.33887E-02
         0.33887E-02
         0.28966E-02
         0.28954E-02
         0.31934E-02
         0.31921E-02
         0.32777E-02
         0.32771E-02
         0.32777E-02
         0.32771E-02
         0.27006E-02
         0.27006E-02
         0.25920E-02
         0.25920E-02
         0.25916E-02
         0.25916E-02
         0.26860E-02
         0.26852E-02
         0.28561E-02
         0.28556E-02
         0.29518E-02
         0.29517E-02
         0.29715E-02
         0.29715E-02
         0.29715E-02
         0.29715E-02
         0.26477E-02
         0.26477E-02
         0.27685E-02
         0.27685E-02
         0.34085E-02
         0.34085E-02
         0.35350E-02
         0.35350E-02
         0.35350E-02
         0.35350E-02
         0.29766E-02
         0.29763E-02
         0.31381E-02
         0.31368E-02
         0.31381E-02
         0.31368E-02
         0.43153E-02
         0.43153E-02
         0.43153E-02
         0.43153E-02
         0.34883E-02
         0.34883E-02
         0.32812E-02
         0.32132E-02
         0.37858E-02
         0.31880E-02
         0.27155E-02
         0.33883E-02
         0.37163E-02
         0.27535E-02
         0.28978E-02
         0.37004E-02
         0.35894E-02
         0.37858E-02
         0.29882E-02
         0.29882E-02
         0.28566E-02
         0.26867E-02
         0.29519E-02
         0.28071E-02
         0.30001E-02
         0.37004E-02
         0.28667E-02
         0.28667E-02
         0.27589E-02
         0.26183E-02
         0.37004E-02
         0.37004E-02
         0.37706E-02
         0.37706E-02
         0.30232E-02
         0.36991E-02
         0.37163E-02
         0.31947E-02
         0.32784E-02
         0.32784E-02
         0.27006E-02
         0.25920E-02
         0.25909E-02
         0.29715E-02
         0.29715E-02
         0.26476E-02
         0.29101E-02
         0.34078E-02
         0.35344E-02
         0.35344E-02
         0.29769E-02
         0.32290E-02
         0.29059E-02
         0.29845E-02
         0.36991E-02
         0.37163E-02
         0.37163E-02
         0.33883E-02
         0.28978E-02
         0.31947E-02
         0.32784E-02
         0.32784E-02
         0.27006E-02
         0.25920E-02
         0.25909E-02
         0.26867E-02
         0.28566E-02
         0.29519E-02
         0.29715E-02
         0.29715E-02
         0.26476E-02
         0.27685E-02
         0.34078E-02
         0.35344E-02
         0.35344E-02
         0.29769E-02
         0.31395E-02
         0.31395E-02
         0.43150E-02
         0.43150E-02
         0.43150E-02
         0.43150E-02
         0.34884E-02
         0.34884E-02
         0.32798E-02
         0.32122E-02
         0.37853E-02
         0.31876E-02
         0.27137E-02
         0.33879E-02
         0.37162E-02
         0.27488E-02
         0.28990E-02
         0.37001E-02
         0.35930E-02
         0.37853E-02
         0.29889E-02
         0.29889E-02
         0.28571E-02
         0.26875E-02
         0.29521E-02
         0.28074E-02
         0.30027E-02
         0.37001E-02
         0.28641E-02
         0.28641E-02
         0.27576E-02
         0.26173E-02
         0.37001E-02
         0.37001E-02
         0.37727E-02
         0.37727E-02
         0.30234E-02
         0.36979E-02
         0.37162E-02
         0.31960E-02
         0.32790E-02
         0.32790E-02
         0.27006E-02
         0.25920E-02
         0.25902E-02
         0.29715E-02
         0.29715E-02
         0.26476E-02
         0.29100E-02
         0.34071E-02
         0.35339E-02
         0.35339E-02
         0.29772E-02
         0.32307E-02
         0.29032E-02
         0.29855E-02
         0.36979E-02
         0.37162E-02
         0.37162E-02
         0.33879E-02
         0.28990E-02
         0.31960E-02
         0.32790E-02
         0.32790E-02
         0.27006E-02
         0.25920E-02
         0.25902E-02
         0.26875E-02
         0.28571E-02
         0.29521E-02
         0.29715E-02
         0.29715E-02
         0.26476E-02
         0.27684E-02
         0.34071E-02
         0.35339E-02
         0.35339E-02
         0.29772E-02
         0.31408E-02
         0.31408E-02
         0.43148E-02
         0.43148E-02
         0.43148E-02
         0.43148E-02
         0.34885E-02
         0.34885E-02
         0.32783E-02
         0.32112E-02
         0.37849E-02
         0.31872E-02
         0.27120E-02
         0.33875E-02
         0.37161E-02
         0.27441E-02
         0.29003E-02
         0.36998E-02
         0.35965E-02
         0.37849E-02
         0.29896E-02
         0.29896E-02
         0.28575E-02
         0.26882E-02
         0.29522E-02
         0.28077E-02
         0.30053E-02
         0.36998E-02
         0.28615E-02
         0.28615E-02
         0.27563E-02
         0.26163E-02
         0.36998E-02
         0.36998E-02
         0.37747E-02
         0.37747E-02
         0.30236E-02
         0.36967E-02
         0.37161E-02
         0.31973E-02
         0.32796E-02
         0.32796E-02
         0.27006E-02
         0.25920E-02
         0.25895E-02
         0.29714E-02
         0.29714E-02
         0.26475E-02
         0.29099E-02
         0.34063E-02
         0.35333E-02
         0.35333E-02
         0.29775E-02
         0.32325E-02
         0.29004E-02
         0.29865E-02
         0.36967E-02
         0.37161E-02
         0.37161E-02
         0.33875E-02
         0.29003E-02
         0.31973E-02
         0.32796E-02
         0.32796E-02
         0.27006E-02
         0.25920E-02
         0.25895E-02
         0.26882E-02
         0.28575E-02
         0.29522E-02
         0.29714E-02
         0.29714E-02
         0.26475E-02
         0.27684E-02
         0.34063E-02
         0.35333E-02
         0.35333E-02
         0.29775E-02
         0.31422E-02
         0.31422E-02
         0.43145E-02
         0.43145E-02
         0.43145E-02
         0.43145E-02
         0.34886E-02
         0.34886E-02
         0.32769E-02
         0.32102E-02
         0.37844E-02
         0.31868E-02
         0.27103E-02
         0.33871E-02
         0.37160E-02
         0.27394E-02
         0.29015E-02
         0.36995E-02
         0.36000E-02
         0.37844E-02
         0.29903E-02
         0.29903E-02
         0.28580E-02
         0.26890E-02
         0.29523E-02
         0.28079E-02
         0.30079E-02
         0.36995E-02
         0.28589E-02
         0.28589E-02
         0.27550E-02
         0.26152E-02
         0.36995E-02
         0.36995E-02
         0.37768E-02
         0.37768E-02
         0.30238E-02
         0.36956E-02
         0.37160E-02
         0.31986E-02
         0.32802E-02
         0.32802E-02
         0.27006E-02
         0.25920E-02
         0.25887E-02
         0.29714E-02
         0.29714E-02
         0.26475E-02
         0.29098E-02
         0.34056E-02
         0.35327E-02
         0.35327E-02
         0.29778E-02
         0.32342E-02
         0.28977E-02
         0.29875E-02
         0.36956E-02
         0.37160E-02
         0.37160E-02
         0.33871E-02
         0.29015E-02
         0.31986E-02
         0.32802E-02
         0.32802E-02
         0.27006E-02
         0.25920E-02
         0.25887E-02
         0.26890E-02
         0.28580E-02
         0.29523E-02
         0.29714E-02
         0.29714E-02
         0.26475E-02
         0.27683E-02
         0.34056E-02
         0.35327E-02
         0.35327E-02
         0.29778E-02
         0.31435E-02
         0.31435E-02
         0.43143E-02
         0.43143E-02
         0.43143E-02
         0.43143E-02
         0.34887E-02
         0.34887E-02
         0.32755E-02
         0.32091E-02
         0.37839E-02
         0.31864E-02
         0.27086E-02
         0.33867E-02
         0.37159E-02
         0.27347E-02
         0.29027E-02
         0.36991E-02
         0.36036E-02
         0.37839E-02
         0.29920E-02
         0.29920E-02
         0.28585E-02
         0.26897E-02
         0.29525E-02
         0.28082E-02
         0.30105E-02
         0.36991E-02
         0.28563E-02
         0.28563E-02
         0.27537E-02
         0.26142E-02
         0.36991E-02
         0.36991E-02
         0.37789E-02
         0.37789E-02
         0.30240E-02
         0.36944E-02
         0.37159E-02
         0.31999E-02
         0.32808E-02
         0.32808E-02
         0.27006E-02
         0.25920E-02
         0.25880E-02
         0.29714E-02
         0.29714E-02
         0.26474E-02
         0.29097E-02
         0.34049E-02
         0.35322E-02
         0.35322E-02
         0.29781E-02
         0.32360E-02
         0.28949E-02
         0.29885E-02
         0.36944E-02
         0.37159E-02
         0.37159E-02
         0.33867E-02
         0.29027E-02
         0.31999E-02
         0.32808E-02
         0.32808E-02
         0.27006E-02
         0.25920E-02
         0.25880E-02
         0.26897E-02
         0.28585E-02
         0.29525E-02
         0.29714E-02
         0.29714E-02
         0.26474E-02
         0.27683E-02
         0.34049E-02
         0.35322E-02
         0.35322E-02
         0.29781E-02
         0.31449E-02
         0.31449E-02
         0.43140E-02
         0.43140E-02
         0.43140E-02
         0.43140E-02
         0.34888E-02
         0.34888E-02
         0.32740E-02
         0.32081E-02
         0.37834E-02
         0.31860E-02
         0.27069E-02
         0.33863E-02
         0.37158E-02
         0.27299E-02
         0.29039E-02
         0.36988E-02
         0.36071E-02
         0.37834E-02
         0.29946E-02
         0.29946E-02
         0.28589E-02
         0.26905E-02
         0.29526E-02
         0.28085E-02
         0.30131E-02
         0.36988E-02
         0.28538E-02
         0.28538E-02
         0.27524E-02
         0.26132E-02
         0.36988E-02
         0.36988E-02
         0.37809E-02
         0.37809E-02
         0.30241E-02
         0.36932E-02
         0.37158E-02
         0.32012E-02
         0.32814E-02
         0.32814E-02
         0.27006E-02
         0.25920E-02
         0.25873E-02
         0.29714E-02
         0.29714E-02
         0.26473E-02
         0.29097E-02
         0.34041E-02
         0.35316E-02
         0.35316E-02
         0.29784E-02
         0.32378E-02
         0.28921E-02
         0.29895E-02
         0.36932E-02
         0.37158E-02
         0.37158E-02
         0.33863E-02
         0.29039E-02
         0.32012E-02
         0.32814E-02
         0.32814E-02
         0.27006E-02
         0.25920E-02
         0.25873E-02
         0.26905E-02
         0.28589E-02
         0.29526E-02
         0.29714E-02
         0.29714E-02
         0.26473E-02
         0.27683E-02
         0.34041E-02
         0.35316E-02
         0.35316E-02
         0.29784E-02
         0.31463E-02
         0.31463E-02
         0.43138E-02
         0.43138E-02
         0.43138E-02
         0.43138E-02
         0.34888E-02
         0.34888E-02
         0.32726E-02
         0.32071E-02
         0.37830E-02
         0.31856E-02
         0.27051E-02
         0.33859E-02
         0.37157E-02
         0.27252E-02
         0.29051E-02
         0.36985E-02
         0.36106E-02
         0.37830E-02
         0.29972E-02
         0.29972E-02
         0.28594E-02
         0.26912E-02
         0.29528E-02
         0.28087E-02
         0.30156E-02
         0.36985E-02
         0.28512E-02
         0.28512E-02
         0.27512E-02
         0.26122E-02
         0.36985E-02
         0.36985E-02
         0.37830E-02
         0.37830E-02
         0.30243E-02
         0.36920E-02
         0.37157E-02
         0.32025E-02
         0.32821E-02
         0.32821E-02
         0.27006E-02
         0.25920E-02
         0.25866E-02
         0.29714E-02
         0.29714E-02
         0.26473E-02
         0.29096E-02
         0.34034E-02
         0.35310E-02
         0.35310E-02
         0.29787E-02
         0.32396E-02
         0.28894E-02
         0.29905E-02
         0.36920E-02
         0.37157E-02
         0.37157E-02
         0.33859E-02
         0.29051E-02
         0.32025E-02
         0.32821E-02
         0.32821E-02
         0.27006E-02
         0.25920E-02
         0.25866E-02
         0.26912E-02
         0.28594E-02
         0.29528E-02
         0.29714E-02
         0.29714E-02
         0.26473E-02
         0.27682E-02
         0.34034E-02
         0.35310E-02
         0.35310E-02
         0.29787E-02
         0.31476E-02
         0.31476E-02
         0.43135E-02
         0.43135E-02
         0.43135E-02
         0.43135E-02
         0.34889E-02
         0.34889E-02
         0.32712E-02
         0.32061E-02
         0.37825E-02
         0.31852E-02
         0.27034E-02
         0.33856E-02
         0.37156E-02
         0.27205E-02
         0.29063E-02
         0.36982E-02
         0.36142E-02
         0.37851E-02
         0.29998E-02
         0.29998E-02
         0.28599E-02
         0.26920E-02
         0.29529E-02
         0.28090E-02
         0.30182E-02
         0.36982E-02
         0.28486E-02
         0.28486E-02
         0.27499E-02
         0.26112E-02
         0.36982E-02
         0.36982E-02
         0.37851E-02
         0.37851E-02
         0.30245E-02
         0.36908E-02
         0.37156E-02
         0.32038E-02
         0.32827E-02
         0.32827E-02
         0.27006E-02
         0.25920E-02
         0.25859E-02
         0.29714E-02
         0.29714E-02
         0.26472E-02
         0.29095E-02
         0.34027E-02
         0.35304E-02
         0.35304E-02
         0.29790E-02
         0.32413E-02
         0.28866E-02
         0.29915E-02
         0.36908E-02
         0.37156E-02
         0.37156E-02
         0.33856E-02
         0.29063E-02
         0.32038E-02
         0.32827E-02
         0.32827E-02
         0.27006E-02
         0.25920E-02
         0.25859E-02
         0.26920E-02
         0.28599E-02
         0.29529E-02
         0.29714E-02
         0.29714E-02
         0.26472E-02
         0.27682E-02
         0.34027E-02
         0.35304E-02
         0.35304E-02
         0.29790E-02
         0.31490E-02
         0.31490E-02
         0.43133E-02
         0.43133E-02
         0.43133E-02
         0.43133E-02
         0.34890E-02
         0.34890E-02
         0.32698E-02
         0.32051E-02
         0.37820E-02
         0.31848E-02
         0.27017E-02
         0.33851E-02
         0.37155E-02
         0.27158E-02
         0.29075E-02
         0.36979E-02
         0.36177E-02
         0.37871E-02
         0.30024E-02
         0.30024E-02
         0.28603E-02
         0.26927E-02
         0.29530E-02
         0.28093E-02
         0.30208E-02
         0.36979E-02
         0.28460E-02
         0.28460E-02
         0.27486E-02
         0.26101E-02
         0.36979E-02
         0.36979E-02
         0.37871E-02
         0.37871E-02
         0.30247E-02
         0.36896E-02
         0.37155E-02
         0.32051E-02
         0.32833E-02
         0.32833E-02
         0.27006E-02
         0.25920E-02
         0.25851E-02
         0.29714E-02
         0.29714E-02
         0.26472E-02
         0.29094E-02
         0.34019E-02
         0.35299E-02
         0.35299E-02
         0.29793E-02
         0.32431E-02
         0.28838E-02
         0.29925E-02
         0.36896E-02
         0.37155E-02
         0.37155E-02
         0.33851E-02
         0.29075E-02
         0.32051E-02
         0.32833E-02
         0.32833E-02
         0.27006E-02
         0.25920E-02
         0.25851E-02
         0.26927E-02
         0.28603E-02
         0.29530E-02
         0.29714E-02
         0.29714E-02
         0.26472E-02
         0.27681E-02
         0.34019E-02
         0.35299E-02
         0.35299E-02
         0.29793E-02
         0.31503E-02
         0.31503E-02
         0.43130E-02
         0.43130E-02
         0.43130E-02
         0.43130E-02
         0.34891E-02
         0.34891E-02
         0.32683E-02
         0.32041E-02
         0.37816E-02
         0.31844E-02
         0.27000E-02
         0.33848E-02
         0.37154E-02
         0.27111E-02
         0.29087E-02
         0.36976E-02
         0.36213E-02
         0.37892E-02
         0.30050E-02
         0.30050E-02
         0.28608E-02
         0.26935E-02
         0.29532E-02
         0.28096E-02
         0.30234E-02
         0.36976E-02
         0.28434E-02
         0.28434E-02
         0.27472E-02
         0.26091E-02
         0.36976E-02
         0.36976E-02
         0.37892E-02
         0.37892E-02
         0.30249E-02
         0.36885E-02
         0.37154E-02
         0.32064E-02
         0.32839E-02
         0.32839E-02
         0.27006E-02
         0.25920E-02
         0.25844E-02
         0.29714E-02
         0.29714E-02
         0.26471E-02
         0.29094E-02
         0.34012E-02
         0.35293E-02
         0.35293E-02
         0.29797E-02
         0.32449E-02
         0.28811E-02
         0.29935E-02
         0.36885E-02
         0.37154E-02
         0.37154E-02
         0.33848E-02
         0.29087E-02
         0.32064E-02
         0.32839E-02
         0.32839E-02
         0.27006E-02
         0.25920E-02
         0.25844E-02
         0.26935E-02
         0.28608E-02
         0.29532E-02
         0.29714E-02
         0.29714E-02
         0.26471E-02
         0.27681E-02
         0.34012E-02
         0.35293E-02
         0.35293E-02
         0.29797E-02
         0.31517E-02
         0.31517E-02
         0.43128E-02
         0.43128E-02
         0.43128E-02
         0.43128E-02
         0.34892E-02
         0.34892E-02
         0.32669E-02
         0.32031E-02
         0.37811E-02
         0.31840E-02
         0.26982E-02
         0.33844E-02
         0.37152E-02
         0.27063E-02
         0.29099E-02
         0.36973E-02
         0.36248E-02
         0.37913E-02
         0.30076E-02
         0.30076E-02
         0.28613E-02
         0.26942E-02
         0.29533E-02
         0.28099E-02
         0.30260E-02
         0.36973E-02
         0.28408E-02
         0.28408E-02
         0.27460E-02
         0.26081E-02
         0.36973E-02
         0.36973E-02
         0.37913E-02
         0.37913E-02
         0.30250E-02
         0.36873E-02
         0.37152E-02
         0.32077E-02
         0.32845E-02
         0.32845E-02
         0.27006E-02
         0.25920E-02
         0.25837E-02
         0.29714E-02
         0.29714E-02
         0.26471E-02
         0.29093E-02
         0.34005E-02
         0.35287E-02
         0.35287E-02
         0.29800E-02
         0.32467E-02
         0.28783E-02
         0.29945E-02
         0.36873E-02
         0.37152E-02
         0.37152E-02
         0.33844E-02
         0.29099E-02
         0.32077E-02
         0.32845E-02
         0.32845E-02
         0.27006E-02
         0.25920E-02
         0.25837E-02
         0.26942E-02
         0.28613E-02
         0.29533E-02
         0.29714E-02
         0.29714E-02
         0.26471E-02
         0.27681E-02
         0.34005E-02
         0.35287E-02
         0.35287E-02
         0.29800E-02
         0.31530E-02
         0.31530E-02
         0.43125E-02
         0.43125E-02
         0.43125E-02
         0.43125E-02
         0.34893E-02
         0.34893E-02
         0.32655E-02
         0.32021E-02
         0.37806E-02
         0.31836E-02
         0.26965E-02
         0.33840E-02
         0.37151E-02
         0.27016E-02
         0.29111E-02
         0.36969E-02
         0.36283E-02
         0.37933E-02
         0.30102E-02
         0.30102E-02
         0.28617E-02
         0.26950E-02
         0.29535E-02
         0.28101E-02
         0.30286E-02
         0.36969E-02
         0.28382E-02
         0.28382E-02
         0.27447E-02
         0.26071E-02
         0.36969E-02
         0.36969E-02
         0.37933E-02
         0.37933E-02
         0.30252E-02
         0.36861E-02
         0.37151E-02
         0.32090E-02
         0.32852E-02
         0.32852E-02
         0.27006E-02
         0.25920E-02
         0.25830E-02
         0.29714E-02
         0.29714E-02
         0.26470E-02
         0.29092E-02
         0.33997E-02
         0.35282E-02
         0.35282E-02
         0.29803E-02
         0.32484E-02
         0.28755E-02
         0.29955E-02
         0.36861E-02
         0.37151E-02
         0.37151E-02
         0.33840E-02
         0.29111E-02
         0.32090E-02
         0.32852E-02
         0.32852E-02
         0.27006E-02
         0.25920E-02
         0.25830E-02
         0.26950E-02
         0.28617E-02
         0.29535E-02
         0.29714E-02
         0.29714E-02
         0.26470E-02
         0.27680E-02
         0.33997E-02
         0.35282E-02
         0.35282E-02
         0.29803E-02
         0.31544E-02
         0.31544E-02
         0.43123E-02
         0.43123E-02
         0.43123E-02
         0.43123E-02
         0.34893E-02
         0.34893E-02
         0.32640E-02
         0.32011E-02
         0.37801E-02
         0.31832E-02
         0.26948E-02
         0.33836E-02
         0.37150E-02
         0.26969E-02
         0.29123E-02
         0.36966E-02
         0.36319E-02
         0.37954E-02
         0.30128E-02
         0.30128E-02
         0.28622E-02
         0.26957E-02
         0.29536E-02
         0.28104E-02
         0.30312E-02
         0.36966E-02
         0.28357E-02
         0.28357E-02
         0.27434E-02
         0.26061E-02
         0.36966E-02
         0.36966E-02
         0.37954E-02
         0.37954E-02
         0.30254E-02
         0.36849E-02
         0.37150E-02
         0.32103E-02
         0.32858E-02
         0.32858E-02
         0.27006E-02
         0.25920E-02
         0.25823E-02
         0.29714E-02
         0.29714E-02
         0.26470E-02
         0.29091E-02
         0.33990E-02
         0.35276E-02
         0.35276E-02
         0.29806E-02
         0.32502E-02
         0.28728E-02
         0.29965E-02
         0.36849E-02
         0.37150E-02
         0.37150E-02
         0.33836E-02
         0.29123E-02
         0.32103E-02
         0.32858E-02
         0.32858E-02
         0.27006E-02
         0.25920E-02
         0.25823E-02
         0.26957E-02
         0.28622E-02
         0.29536E-02
         0.29714E-02
         0.29714E-02
         0.26470E-02
         0.27680E-02
         0.33990E-02
         0.35276E-02
         0.35276E-02
         0.29806E-02
         0.31557E-02
         0.31557E-02
         0.43120E-02
         0.43120E-02
         0.43120E-02
         0.43120E-02
         0.34894E-02
         0.34894E-02
         0.32626E-02
         0.32001E-02
         0.37797E-02
         0.31828E-02
         0.26931E-02
         0.33832E-02
         0.37149E-02
         0.26922E-02
         0.29135E-02
         0.36963E-02
         0.36354E-02
         0.37975E-02
         0.30154E-02
         0.30154E-02
         0.28627E-02
         0.26965E-02
         0.29537E-02
         0.28107E-02
         0.30338E-02
         0.36963E-02
         0.28331E-02
         0.28331E-02
         0.27421E-02
         0.26051E-02
         0.36963E-02
         0.36963E-02
         0.37975E-02
         0.37975E-02
         0.30256E-02
         0.36838E-02
         0.37149E-02
         0.32116E-02
         0.32864E-02
         0.32864E-02
         0.27006E-02
         0.25920E-02
         0.25815E-02
         0.29714E-02
         0.29714E-02
         0.26469E-02
         0.29090E-02
         0.33983E-02
         0.35270E-02
         0.35270E-02
         0.29809E-02
         0.32519E-02
         0.28700E-02
         0.29975E-02
         0.36838E-02
         0.37149E-02
         0.37149E-02
         0.33832E-02
         0.29135E-02
         0.32116E-02
         0.32864E-02
         0.32864E-02
         0.27006E-02
         0.25920E-02
         0.25815E-02
         0.26965E-02
         0.28627E-02
         0.29537E-02
         0.29714E-02
         0.29714E-02
         0.26469E-02
         0.27680E-02
         0.33983E-02
         0.35270E-02
         0.35270E-02
         0.29809E-02
         0.31571E-02
         0.31571E-02
         0.43118E-02
         0.43118E-02
         0.43118E-02
         0.43118E-02
         0.34895E-02
         0.34895E-02
         0.32612E-02
         0.31990E-02
         0.37792E-02
         0.31824E-02
         0.26913E-02
         0.33828E-02
         0.37148E-02
         0.26875E-02
         0.29148E-02
         0.36960E-02
         0.36390E-02
         0.37995E-02
         0.30180E-02
         0.30180E-02
         0.28631E-02
         0.26972E-02
         0.29539E-02
         0.28110E-02
         0.30364E-02
         0.36960E-02
         0.28305E-02
         0.28305E-02
         0.27408E-02
         0.26040E-02
         0.36960E-02
         0.36960E-02
         0.37995E-02
         0.37995E-02
         0.30258E-02
         0.36826E-02
         0.37148E-02
         0.32129E-02
         0.32870E-02
         0.32870E-02
         0.27006E-02
         0.25920E-02
         0.25808E-02
         0.29713E-02
         0.29713E-02
         0.26468E-02
         0.29089E-02
         0.33975E-02
         0.35264E-02
         0.35264E-02
         0.29812E-02
         0.32537E-02
         0.28672E-02
         0.29985E-02
         0.36826E-02
         0.37148E-02
         0.37148E-02
         0.33828E-02
         0.29148E-02
         0.32129E-02
         0.32870E-02
         0.32870E-02
         0.27006E-02
         0.25920E-02
         0.25808E-02
         0.26972E-02
         0.28631E-02
         0.29539E-02
         0.29713E-02
         0.29713E-02
         0.26468E-02
         0.27679E-02
         0.33975E-02
         0.35264E-02
         0.35264E-02
         0.29812E-02
         0.31585E-02
         0.31585E-02
         0.43115E-02
         0.43115E-02
         0.43115E-02
         0.43115E-02
         0.34896E-02
         0.34896E-02
         0.32597E-02
         0.31980E-02
         0.37787E-02
         0.31820E-02
         0.26896E-02
         0.33824E-02
         0.37147E-02
         0.26827E-02
         0.29160E-02
         0.36957E-02
         0.36425E-02
         0.38016E-02
         0.30206E-02
         0.30206E-02
         0.28636E-02
         0.26980E-02
         0.29540E-02
         0.28112E-02
         0.30390E-02
         0.36957E-02
         0.28279E-02
         0.28279E-02
         0.27395E-02
         0.26030E-02
         0.36957E-02
         0.36957E-02
         0.38016E-02
         0.38016E-02
         0.30260E-02
         0.36814E-02
         0.37147E-02
         0.32141E-02
         0.32876E-02
         0.32876E-02
         0.27006E-02
         0.25920E-02
         0.25801E-02
         0.29713E-02
         0.29713E-02
         0.26468E-02
         0.29089E-02
         0.33968E-02
         0.35259E-02
         0.35259E-02
         0.29815E-02
         0.32555E-02
         0.28645E-02
         0.29995E-02
         0.36814E-02
         0.37147E-02
         0.37147E-02
         0.33824E-02
         0.29160E-02
         0.32141E-02
         0.32876E-02
         0.32876E-02
         0.27006E-02
         0.25920E-02
         0.25801E-02
         0.26980E-02
         0.28636E-02
         0.29540E-02
         0.29713E-02
         0.29713E-02
         0.26468E-02
         0.27679E-02
         0.33968E-02
         0.35259E-02
         0.35259E-02
         0.29815E-02
         0.31598E-02
         0.31598E-02
         0.43113E-02
         0.43113E-02
         0.43113E-02
         0.43113E-02
         0.34897E-02
         0.34897E-02
         0.32583E-02
         0.31970E-02
         0.37783E-02
         0.31816E-02
         0.26879E-02
         0.33820E-02
         0.37146E-02
         0.26780E-02
         0.29172E-02
         0.36954E-02
         0.36460E-02
         0.38037E-02
         0.30232E-02
         0.30232E-02
         0.28641E-02
         0.26987E-02
         0.29542E-02
         0.28115E-02
         0.30416E-02
         0.36954E-02
         0.28253E-02
         0.28253E-02
         0.27382E-02
         0.26020E-02
         0.36954E-02
         0.36954E-02
         0.38037E-02
         0.38037E-02
         0.30261E-02
         0.36802E-02
         0.37146E-02
         0.32154E-02
         0.32882E-02
         0.32882E-02
         0.27006E-02
         0.25921E-02
         0.25794E-02
         0.29713E-02
         0.29713E-02
         0.26467E-02
         0.29088E-02
         0.33961E-02
         0.35253E-02
         0.35253E-02
         0.29818E-02
         0.32573E-02
         0.28617E-02
         0.30005E-02
         0.36802E-02
         0.37146E-02
         0.37146E-02
         0.33820E-02
         0.29172E-02
         0.32154E-02
         0.32882E-02
         0.32882E-02
         0.27006E-02
         0.25921E-02
         0.25794E-02
         0.26987E-02
         0.28641E-02
         0.29542E-02
         0.29713E-02
         0.29713E-02
         0.26467E-02
         0.27678E-02
         0.33961E-02
         0.35253E-02
         0.35253E-02
         0.29818E-02
         0.31612E-02
         0.31612E-02
         0.43110E-02
         0.43110E-02
         0.43110E-02
         0.43110E-02
         0.34898E-02
         0.34898E-02
         0.32569E-02
         0.31960E-02
         0.37778E-02
         0.31812E-02
         0.26862E-02
         0.33816E-02
         0.37145E-02
         0.26733E-02
         0.29184E-02
         0.36950E-02
         0.36495E-02
         0.38057E-02
         0.30258E-02
         0.30258E-02
         0.28645E-02
         0.26995E-02
         0.29543E-02
         0.28118E-02
         0.30442E-02
         0.36950E-02
         0.28227E-02
         0.28227E-02
         0.27369E-02
         0.26010E-02
         0.36950E-02
         0.36950E-02
         0.38057E-02
         0.38057E-02
         0.30263E-02
         0.36790E-02
         0.37145E-02
         0.32167E-02
         0.32889E-02
         0.32889E-02
         0.27006E-02
         0.25921E-02
         0.25787E-02
         0.29713E-02
         0.29713E-02
         0.26467E-02
         0.29087E-02
         0.33953E-02
         0.35247E-02
         0.35247E-02
         0.29821E-02
         0.32590E-02
         0.28589E-02
         0.30015E-02
         0.36790E-02
         0.37145E-02
         0.37145E-02
         0.33816E-02
         0.29184E-02
         0.32167E-02
         0.32889E-02
         0.32889E-02
         0.27006E-02
         0.25921E-02
         0.25787E-02
         0.26995E-02
         0.28645E-02
         0.29543E-02
         0.29713E-02
         0.29713E-02
         0.26467E-02
         0.27678E-02
         0.33953E-02
         0.35247E-02
         0.35247E-02
         0.29821E-02
         0.31625E-02
         0.31625E-02
         0.43108E-02
         0.43108E-02
         0.43108E-02
         0.43108E-02
         0.34898E-02
         0.34898E-02
         0.32555E-02
         0.31950E-02
         0.37773E-02
         0.31808E-02
         0.26845E-02
         0.33812E-02
         0.37144E-02
         0.26686E-02
         0.29196E-02
         0.36948E-02
         0.36531E-02
         0.38078E-02
         0.30285E-02
         0.30285E-02
         0.28650E-02
         0.27002E-02
         0.29544E-02
         0.28120E-02
         0.30467E-02
         0.36948E-02
         0.28201E-02
         0.28201E-02
         0.27356E-02
         0.26000E-02
         0.36948E-02
         0.36948E-02
         0.38078E-02
         0.38078E-02
         0.30265E-02
         0.36779E-02
         0.37144E-02
         0.32181E-02
         0.32895E-02
         0.32895E-02
         0.27006E-02
         0.25921E-02
         0.25779E-02
         0.29713E-02
         0.29713E-02
         0.26466E-02
         0.29086E-02
         0.33946E-02
         0.35242E-02
         0.35242E-02
         0.29824E-02
         0.32608E-02
         0.28562E-02
         0.30025E-02
         0.36779E-02
         0.37144E-02
         0.37144E-02
         0.33812E-02
         0.29196E-02
         0.32181E-02
         0.32895E-02
         0.32895E-02
         0.27006E-02
         0.25921E-02
         0.25779E-02
         0.27002E-02
         0.28650E-02
         0.29544E-02
         0.29713E-02
         0.29713E-02
         0.26466E-02
         0.27678E-02
         0.33946E-02
         0.35242E-02
         0.35242E-02
         0.29824E-02
         0.31639E-02
         0.31639E-02
         0.43105E-02
         0.43105E-02
         0.43105E-02
         0.43105E-02
         0.34899E-02
         0.34899E-02
         0.32540E-02
         0.31940E-02
         0.37768E-02
         0.31804E-02
         0.26827E-02
         0.33808E-02
         0.37143E-02
         0.26639E-02
         0.29208E-02
         0.36944E-02
         0.36566E-02
         0.38099E-02
         0.30311E-02
         0.30311E-02
         0.28655E-02
         0.27010E-02
         0.29546E-02
         0.28123E-02
         0.30493E-02
         0.36944E-02
         0.28175E-02
         0.28175E-02
         0.27343E-02
         0.25990E-02
         0.36944E-02
         0.36944E-02
         0.38099E-02
         0.38099E-02
         0.30267E-02
         0.36767E-02
         0.37143E-02
         0.32193E-02
         0.32901E-02
         0.32901E-02
         0.27006E-02
         0.25921E-02
         0.25772E-02
         0.29713E-02
         0.29713E-02
         0.26466E-02
         0.29085E-02
         0.33939E-02
         0.35236E-02
         0.35236E-02
         0.29827E-02
         0.32626E-02
         0.28534E-02
         0.30035E-02
         0.36767E-02
         0.37143E-02
         0.37143E-02
         0.33808E-02
         0.29208E-02
         0.32193E-02
         0.32901E-02
         0.32901E-02
         0.27006E-02
         0.25921E-02
         0.25772E-02
         0.27010E-02
         0.28655E-02
         0.29546E-02
         0.29713E-02
         0.29713E-02
         0.26466E-02
         0.27677E-02
         0.33939E-02
         0.35236E-02
         0.35236E-02
         0.29827E-02
         0.31652E-02
         0.31652E-02
         0.43103E-02
         0.43103E-02
         0.43103E-02
         0.43103E-02
         0.34900E-02
         0.34900E-02
         0.32526E-02
         0.31930E-02
         0.37764E-02
         0.31800E-02
         0.26810E-02
         0.33804E-02
         0.37142E-02
         0.26591E-02
         0.29220E-02
         0.36941E-02
         0.36602E-02
         0.38119E-02
         0.30337E-02
         0.30337E-02
         0.28660E-02
         0.27017E-02
         0.29547E-02
         0.28126E-02
         0.30519E-02
         0.36941E-02
         0.28150E-02
         0.28150E-02
         0.27330E-02
         0.25979E-02
         0.36941E-02
         0.36941E-02
         0.38119E-02
         0.38119E-02
         0.30269E-02
         0.36755E-02
         0.37142E-02
         0.32206E-02
         0.32907E-02
         0.32907E-02
         0.27006E-02
         0.25921E-02
         0.25765E-02
         0.29713E-02
         0.29713E-02
         0.26465E-02
         0.29085E-02
         0.33931E-02
         0.35230E-02
         0.35230E-02
         0.29830E-02
         0.32643E-02
         0.28507E-02
         0.30045E-02
         0.36755E-02
         0.37142E-02
         0.37142E-02
         0.33804E-02
         0.29220E-02
         0.32206E-02
         0.32907E-02
         0.32907E-02
         0.27006E-02
         0.25921E-02
         0.25765E-02
         0.27017E-02
         0.28660E-02
         0.29547E-02
         0.29713E-02
         0.29713E-02
         0.26465E-02
         0.27677E-02
         0.33931E-02
         0.35230E-02
         0.35230E-02
         0.29830E-02
         0.31666E-02
         0.31666E-02
         0.43100E-02
         0.43100E-02
         0.43100E-02
         0.43100E-02
         0.34901E-02
         0.34901E-02
         0.32512E-02
         0.31920E-02
         0.37759E-02
         0.31796E-02
         0.26793E-02
         0.33800E-02
         0.37141E-02
         0.26544E-02
         0.29232E-02
         0.36938E-02
         0.36637E-02
         0.38140E-02
         0.30363E-02
         0.30363E-02
         0.28664E-02
         0.27025E-02
         0.29548E-02
         0.28129E-02
         0.30545E-02
         0.36938E-02
         0.28124E-02
         0.28124E-02
         0.27317E-02
         0.25969E-02
         0.36938E-02
         0.36938E-02
         0.38140E-02
         0.38140E-02
         0.30271E-02
         0.36743E-02
         0.37141E-02
         0.32219E-02
         0.32913E-02
         0.32913E-02
         0.27006E-02
         0.25921E-02
         0.25758E-02
         0.29713E-02
         0.29713E-02
         0.26465E-02
         0.29084E-02
         0.33924E-02
         0.35224E-02
         0.35224E-02
         0.29833E-02
         0.32661E-02
         0.28479E-02
         0.30055E-02
         0.36743E-02
         0.37141E-02
         0.37141E-02
         0.33800E-02
         0.29232E-02
         0.32219E-02
         0.32913E-02
         0.32913E-02
         0.27006E-02
         0.25921E-02
         0.25758E-02
         0.27025E-02
         0.28664E-02
         0.29548E-02
         0.29713E-02
         0.29713E-02
         0.26465E-02
         0.27677E-02
         0.33924E-02
         0.35224E-02
         0.35224E-02
         0.29833E-02
         0.31680E-02
         0.31680E-02
         0.43098E-02
         0.43098E-02
         0.43098E-02
         0.43098E-02
         0.34901E-02
         0.34901E-02
         0.32498E-02
         0.31910E-02
         0.37754E-02
         0.31792E-02
         0.26776E-02
         0.33796E-02
         0.37140E-02
         0.26497E-02
         0.29232E-02
         0.36935E-02
         0.36637E-02
         0.38140E-02
         0.30363E-02
         0.30363E-02
         0.28664E-02
         0.27025E-02
         0.29548E-02
         0.28129E-02
         0.30545E-02
         0.36935E-02
         0.28098E-02
         0.28098E-02
         0.27304E-02
         0.25959E-02
         0.36935E-02
         0.36935E-02
         0.38140E-02
         0.38140E-02
         0.30271E-02
         0.36731E-02
         0.37140E-02
         0.32219E-02
         0.32913E-02
         0.32913E-02
         0.27006E-02
         0.25921E-02
         0.25751E-02
         0.29713E-02
         0.29713E-02
         0.26464E-02
         0.29083E-02
         0.33916E-02
         0.35219E-02
         0.35219E-02
         0.29833E-02
         0.32661E-02
         0.28451E-02
         0.30055E-02
         0.36731E-02
         0.37140E-02
         0.37140E-02
         0.33796E-02
         0.29232E-02
         0.32219E-02
         0.32913E-02
         0.32913E-02
         0.27006E-02
         0.25921E-02
         0.25751E-02
         0.27025E-02
         0.28664E-02
         0.29548E-02
         0.29713E-02
         0.29713E-02
         0.26464E-02
         0.27676E-02
         0.33916E-02
         0.35219E-02
         0.35219E-02
         0.29833E-02
         0.31680E-02
         0.31680E-02
  
SCALARS              physical_window_z  double 1
LOOKUP_TABLE default
         0.26928E-02
         0.26928E-02
         0.26928E-02
         0.26928E-02
         0.26928E-02
         0.26928E-02
         0.26928E-02
         0.26928E-02
         0.26928E-02
         0.26928E-02
         0.26928E-02
         0.26928E-02
         0.26928E-02
         0.26928E-02
         0.26928E-02
         0.26928E-02
         0.26928E-02
         0.26928E-02
         0.26928E-02
         0.26928E-02
         0.26928E-02
         0.26928E-02
         0.26928E-02
         0.26928E-02
         0.26928E-02
         0.26928E-02
         0.26928E-02
         0.26928E-02
         0.26928E-02
         0.26928E-02
         0.26928E-02
         0.26928E-02
         0.26928E-02
         0.26928E-02
         0.26928E-02
         0.26928E-02
         0.26928E-02
         0.26928E-02
         0.26928E-02
         0.26928E-02
         0.26928E-02
         0.26928E-02
         0.26928E-02
         0.26928E-02
         0.26928E-02
         0.26928E-02
         0.26928E-02
         0.26928E-02
         0.26928E-02
         0.26928E-02
         0.26928E-02
         0.26928E-02
         0.26928E-02
         0.26928E-02
         0.26928E-02
         0.26928E-02
         0.26928E-02
         0.26928E-02
         0.26928E-02
         0.26928E-02
         0.26928E-02
         0.26928E-02
         0.26928E-02
         0.26928E-02
         0.26928E-02
         0.26928E-02
         0.26928E-02
         0.26928E-02
         0.26928E-02
         0.26928E-02
         0.26928E-02
         0.26928E-02
         0.26928E-02
         0.26928E-02
         0.26928E-02
         0.26928E-02
         0.26928E-02
         0.26928E-02
         0.26928E-02
         0.26928E-02
         0.26928E-02
         0.26928E-02
         0.26928E-02
         0.26928E-02
         0.26928E-02
         0.26928E-02
         0.26928E-02
         0.26928E-02
         0.26928E-02
         0.26928E-02
         0.26928E-02
         0.26928E-02
         0.26928E-02
         0.26928E-02
         0.26928E-02
         0.26928E-02
         0.26928E-02
         0.26928E-02
         0.26928E-02
         0.26928E-02
         0.26928E-02
         0.26928E-02
         0.26928E-02
         0.26928E-02
         0.26928E-02
         0.26928E-02
         0.26928E-02
         0.26928E-02
         0.26928E-02
         0.26928E-02
         0.26928E-02
         0.26928E-02
         0.26928E-02
         0.26928E-02
         0.26928E-02
         0.26928E-02
         0.26928E-02
         0.26928E-02
         0.26928E-02
         0.26928E-02
         0.26928E-02
         0.26928E-02
         0.26928E-02
         0.26928E-02
         0.26928E-02
         0.26928E-02
         0.26928E-02
         0.26928E-02
         0.26928E-02
         0.26928E-02
         0.26928E-02
         0.26928E-02
         0.26928E-02
         0.26928E-02
         0.26928E-02
         0.26928E-02
         0.26928E-02
         0.26928E-02
         0.26928E-02
         0.26928E-02
         0.26928E-02
         0.26928E-02
         0.26928E-02
         0.26928E-02
         0.26928E-02
         0.26928E-02
         0.26928E-02
         0.26928E-02
         0.26928E-02
         0.26928E-02
         0.26928E-02
         0.26928E-02
         0.26928E-02
         0.26928E-02
         0.26928E-02
         0.26928E-02
         0.26927E-02
         0.26927E-02
         0.26927E-02
         0.26927E-02
         0.26927E-02
         0.26927E-02
         0.26927E-02
         0.26927E-02
         0.26927E-02
         0.26927E-02
         0.26927E-02
         0.26927E-02
         0.26927E-02
         0.26927E-02
         0.26927E-02
         0.26927E-02
         0.26927E-02
         0.26927E-02
         0.26927E-02
         0.26927E-02
         0.26927E-02
         0.26927E-02
         0.26927E-02
         0.26927E-02
         0.26927E-02
         0.26927E-02
         0.26927E-02
         0.26927E-02
         0.26927E-02
         0.26927E-02
         0.26927E-02
         0.26927E-02
         0.26927E-02
         0.26927E-02
         0.26927E-02
         0.26927E-02
         0.26927E-02
         0.26927E-02
         0.26927E-02
         0.26927E-02
         0.26927E-02
         0.26927E-02
         0.26927E-02
         0.26927E-02
         0.26927E-02
         0.26927E-02
         0.26927E-02
         0.26927E-02
         0.26927E-02
         0.26927E-02
         0.26927E-02
         0.26927E-02
         0.26927E-02
         0.26927E-02
         0.26927E-02
         0.26927E-02
         0.26927E-02
         0.26927E-02
         0.26927E-02
         0.26927E-02
         0.26927E-02
         0.26927E-02
         0.26927E-02
         0.26927E-02
         0.26927E-02
         0.26927E-02
         0.26927E-02
         0.26927E-02
         0.26927E-02
         0.26927E-02
         0.26927E-02
         0.26927E-02
         0.26927E-02
         0.26927E-02
         0.26927E-02
         0.26927E-02
         0.26927E-02
         0.26927E-02
         0.26927E-02
         0.26927E-02
         0.26927E-02
         0.26927E-02
         0.26927E-02
         0.26927E-02
         0.26927E-02
         0.26927E-02
         0.26927E-02
         0.26927E-02
         0.26927E-02
         0.26927E-02
         0.26927E-02
         0.26927E-02
         0.26927E-02
         0.26927E-02
         0.26927E-02
         0.26927E-02
         0.26927E-02
         0.26927E-02
         0.26927E-02
         0.26927E-02
         0.26927E-02
         0.26927E-02
         0.26927E-02
         0.26927E-02
         0.26927E-02
         0.26927E-02
         0.26927E-02
         0.26927E-02
         0.26927E-02
         0.26927E-02
         0.26927E-02
         0.26927E-02
         0.26927E-02
         0.26927E-02
         0.26927E-02
         0.26927E-02
         0.26927E-02
         0.26927E-02
         0.26927E-02
         0.26927E-02
         0.26927E-02
         0.26927E-02
         0.26927E-02
         0.26927E-02
         0.26927E-02
         0.26927E-02
         0.26927E-02
         0.26927E-02
         0.26927E-02
         0.26927E-02
         0.26927E-02
         0.26927E-02
         0.26927E-02
         0.26927E-02
         0.26927E-02
         0.26927E-02
         0.26927E-02
         0.26927E-02
         0.26927E-02
         0.26927E-02
         0.26927E-02
         0.26927E-02
         0.26927E-02
         0.26927E-02
         0.26927E-02
         0.26927E-02
         0.26927E-02
         0.26927E-02
         0.26927E-02
         0.26927E-02
         0.26927E-02
         0.26927E-02
         0.26927E-02
         0.26927E-02
         0.26927E-02
         0.26927E-02
         0.26927E-02
         0.26927E-02
         0.26927E-02
         0.26927E-02
         0.26927E-02
         0.26927E-02
         0.26927E-02
         0.26927E-02
         0.26927E-02
         0.26927E-02
         0.26927E-02
         0.26927E-02
         0.26927E-02
         0.26927E-02
         0.26927E-02
         0.26927E-02
         0.26927E-02
         0.26927E-02
         0.26927E-02
         0.26927E-02
         0.26927E-02
         0.26927E-02
         0.26927E-02
         0.26927E-02
         0.26927E-02
         0.26927E-02
         0.26927E-02
         0.26927E-02
         0.26927E-02
         0.26927E-02
         0.26927E-02
         0.26927E-02
         0.26927E-02
         0.26927E-02
         0.26927E-02
         0.26927E-02
         0.26927E-02
         0.26927E-02
         0.26927E-02
         0.26927E-02
         0.26927E-02
         0.26927E-02
         0.26927E-02
         0.26927E-02
         0.26927E-02
         0.26927E-02
         0.26927E-02
         0.26927E-02
         0.26927E-02
         0.26927E-02
         0.26927E-02
         0.26927E-02
         0.26927E-02
         0.26927E-02
         0.26927E-02
         0.26927E-02
         0.26927E-02
         0.26927E-02
         0.26927E-02
         0.26927E-02
         0.26927E-02
         0.26927E-02
         0.26927E-02
         0.26927E-02
         0.26927E-02
         0.26927E-02
         0.26927E-02
         0.26927E-02
         0.26927E-02
         0.26927E-02
         0.26927E-02
         0.26927E-02
         0.26927E-02
         0.26927E-02
         0.26927E-02
         0.26927E-02
         0.26927E-02
         0.26927E-02
         0.26927E-02
         0.26927E-02
         0.26927E-02
         0.26927E-02
         0.26927E-02
         0.26927E-02
         0.26927E-02
         0.26927E-02
         0.26927E-02
         0.26927E-02
         0.26927E-02
         0.26927E-02
         0.26927E-02
         0.26927E-02
         0.26927E-02
         0.26927E-02
         0.26927E-02
         0.26927E-02
         0.26927E-02
         0.26927E-02
         0.26927E-02
         0.26927E-02
         0.26927E-02
         0.26927E-02
         0.26927E-02
         0.26927E-02
         0.26927E-02
         0.26927E-02
         0.26927E-02
         0.26927E-02
         0.26927E-02
         0.26927E-02
         0.26927E-02
         0.26927E-02
         0.26927E-02
         0.26927E-02
         0.26927E-02
         0.26927E-02
         0.26927E-02
         0.26927E-02
         0.26927E-02
         0.26927E-02
         0.26927E-02
         0.26927E-02
         0.26927E-02
         0.26927E-02
         0.26927E-02
         0.26927E-02
         0.26927E-02
         0.26927E-02
         0.26927E-02
         0.26927E-02
         0.26927E-02
         0.26927E-02
         0.26927E-02
         0.26927E-02
         0.26927E-02
         0.26927E-02
         0.26927E-02
         0.26927E-02
         0.26927E-02
         0.26927E-02
         0.26927E-02
         0.26927E-02
         0.26927E-02
         0.26927E-02
         0.26927E-02
         0.26927E-02
         0.26927E-02
         0.26927E-02
         0.26927E-02
         0.26927E-02
         0.26927E-02
         0.26927E-02
         0.26927E-02
         0.26927E-02
         0.26927E-02
         0.26927E-02
         0.26927E-02
         0.26927E-02
         0.26927E-02
         0.26927E-02
         0.26927E-02
         0.26927E-02
         0.26927E-02
         0.26927E-02
         0.26927E-02
         0.26927E-02
         0.26927E-02
         0.26927E-02
         0.26927E-02
         0.26927E-02
         0.26927E-02
         0.26927E-02
         0.26927E-02
         0.26927E-02
         0.26927E-02
         0.26927E-02
         0.26927E-02
         0.26927E-02
         0.26927E-02
         0.26927E-02
         0.26927E-02
         0.26927E-02
         0.26927E-02
         0.26927E-02
         0.26927E-02
         0.26927E-02
         0.26927E-02
         0.26927E-02
         0.26927E-02
         0.26927E-02
         0.26927E-02
         0.26927E-02
         0.26927E-02
         0.26927E-02
         0.26927E-02
         0.26927E-02
         0.26927E-02
         0.26927E-02
         0.26927E-02
         0.26927E-02
         0.26927E-02
         0.26927E-02
         0.26927E-02
         0.26927E-02
         0.26927E-02
         0.26927E-02
         0.26927E-02
         0.26927E-02
         0.26927E-02
         0.26927E-02
         0.26927E-02
         0.26927E-02
         0.26927E-02
         0.26927E-02
         0.26927E-02
         0.26927E-02
         0.26927E-02
         0.26927E-02
         0.26927E-02
         0.26927E-02
         0.26927E-02
         0.26927E-02
         0.26927E-02
         0.26927E-02
         0.26927E-02
         0.26927E-02
         0.26927E-02
         0.26927E-02
         0.26927E-02
         0.26927E-02
         0.26927E-02
         0.26927E-02
         0.26927E-02
         0.26927E-02
         0.26927E-02
         0.26927E-02
         0.26927E-02
         0.26927E-02
         0.26927E-02
         0.26927E-02
         0.26927E-02
         0.26927E-02
         0.26927E-02
         0.26927E-02
         0.26927E-02
         0.26927E-02
         0.26927E-02
         0.26927E-02
         0.26927E-02
         0.26927E-02
         0.26927E-02
         0.26927E-02
         0.26927E-02
         0.26927E-02
         0.26927E-02
         0.26927E-02
         0.26927E-02
         0.26927E-02
         0.26927E-02
         0.26927E-02
         0.26927E-02
         0.26927E-02
         0.26927E-02
         0.26927E-02
         0.26927E-02
         0.26927E-02
         0.26927E-02
         0.26927E-02
         0.26927E-02
         0.26927E-02
         0.26927E-02
         0.26927E-02
         0.26927E-02
         0.26927E-02
         0.26927E-02
         0.26927E-02
         0.26927E-02
         0.26927E-02
         0.26927E-02
         0.26927E-02
         0.26927E-02
         0.26927E-02
         0.26927E-02
         0.26927E-02
         0.26927E-02
         0.26927E-02
         0.26927E-02
         0.26927E-02
         0.26927E-02
         0.26927E-02
         0.26927E-02
         0.26927E-02
         0.26927E-02
         0.26927E-02
         0.26927E-02
         0.26927E-02
         0.26927E-02
         0.26927E-02
         0.26927E-02
         0.26927E-02
         0.26927E-02
         0.26927E-02
         0.26927E-02
         0.26927E-02
         0.26927E-02
         0.26927E-02
         0.26927E-02
         0.26927E-02
         0.26927E-02
         0.26927E-02
         0.26927E-02
         0.26927E-02
         0.26927E-02
         0.26927E-02
         0.26927E-02
         0.26927E-02
         0.26927E-02
         0.26927E-02
         0.26927E-02
         0.26927E-02
         0.26927E-02
         0.26927E-02
         0.26927E-02
         0.26927E-02
         0.26927E-02
         0.26927E-02
         0.26927E-02
         0.26927E-02
         0.26927E-02
         0.26927E-02
         0.26927E-02
         0.26927E-02
         0.26927E-02
         0.26927E-02
         0.26927E-02
         0.26927E-02
         0.26927E-02
         0.26927E-02
         0.26927E-02
         0.26927E-02
         0.26927E-02
         0.26927E-02
         0.26927E-02
         0.26927E-02
         0.26927E-02
         0.26927E-02
         0.26927E-02
         0.26927E-02
         0.26927E-02
         0.26927E-02
         0.26927E-02
         0.26927E-02
         0.26927E-02
         0.26927E-02
         0.26927E-02
         0.26927E-02
         0.26927E-02
         0.26927E-02
         0.26927E-02
         0.26927E-02
         0.26927E-02
         0.26927E-02
         0.26927E-02
         0.26927E-02
         0.26927E-02
         0.26927E-02
         0.26927E-02
         0.26927E-02
         0.26927E-02
         0.26927E-02
         0.26927E-02
         0.26927E-02
         0.26927E-02
         0.26927E-02
         0.26927E-02
         0.26927E-02
         0.26927E-02
         0.26927E-02
         0.26927E-02
         0.26927E-02
         0.26927E-02
         0.26927E-02
         0.26927E-02
         0.26927E-02
         0.26927E-02
         0.26927E-02
         0.26927E-02
         0.26927E-02
         0.26927E-02
         0.26927E-02
         0.26927E-02
         0.26927E-02
         0.26927E-02
         0.26927E-02
         0.26927E-02
         0.26927E-02
         0.26927E-02
         0.26927E-02
         0.26927E-02
         0.26927E-02
         0.26927E-02
         0.26927E-02
         0.26927E-02
         0.26927E-02
         0.26927E-02
         0.26927E-02
         0.26927E-02
         0.26927E-02
         0.26927E-02
         0.26927E-02
         0.26927E-02
         0.26927E-02
         0.26927E-02
         0.26927E-02
         0.26927E-02
         0.26927E-02
         0.26927E-02
         0.26927E-02
         0.26927E-02
         0.26927E-02
         0.26927E-02
         0.26927E-02
         0.26927E-02
         0.26927E-02
         0.26927E-02
         0.26927E-02
         0.26927E-02
         0.26927E-02
         0.26927E-02
         0.26927E-02
         0.26927E-02
         0.26927E-02
         0.26927E-02
         0.26927E-02
         0.26927E-02
         0.26927E-02
         0.26927E-02
         0.26927E-02
         0.26927E-02
         0.26927E-02
         0.26927E-02
         0.26927E-02
         0.26927E-02
         0.26927E-02
         0.26927E-02
         0.26927E-02
         0.26927E-02
         0.26927E-02
         0.26927E-02
         0.26927E-02
         0.26927E-02
         0.26927E-02
         0.26927E-02
         0.26927E-02
         0.26927E-02
         0.26927E-02
         0.26927E-02
         0.26927E-02
         0.26927E-02
         0.26927E-02
         0.26927E-02
         0.26927E-02
         0.26927E-02
         0.26927E-02
         0.26927E-02
         0.26927E-02
         0.26927E-02
         0.26927E-02
         0.26927E-02
         0.26927E-02
         0.26927E-02
         0.26927E-02
         0.26927E-02
         0.26927E-02
         0.26927E-02
         0.26927E-02
         0.26927E-02
         0.26927E-02
         0.26927E-02
         0.26927E-02
         0.26927E-02
         0.26927E-02
         0.26927E-02
         0.26927E-02
         0.26927E-02
         0.26927E-02
         0.26927E-02
         0.26927E-02
         0.26927E-02
         0.26927E-02
         0.26927E-02
         0.26927E-02
         0.26927E-02
         0.26927E-02
         0.26927E-02
         0.26927E-02
         0.26927E-02
         0.26927E-02
         0.26927E-02
         0.26927E-02
         0.26927E-02
         0.26927E-02
         0.26927E-02
         0.26927E-02
         0.26927E-02
         0.26927E-02
         0.26927E-02
         0.26927E-02
         0.26927E-02
         0.26927E-02
         0.26927E-02
         0.26927E-02
         0.26927E-02
         0.26927E-02
         0.26927E-02
         0.26927E-02
         0.26927E-02
         0.26927E-02
         0.26927E-02
         0.26927E-02
         0.26927E-02
         0.26927E-02
         0.26927E-02
         0.26927E-02
         0.26927E-02
         0.26927E-02
         0.26927E-02
         0.26927E-02
         0.26927E-02
         0.26927E-02
         0.26927E-02
         0.26927E-02
         0.26927E-02
         0.26927E-02
         0.26927E-02
         0.26927E-02
         0.26927E-02
         0.26927E-02
         0.26927E-02
         0.26927E-02
         0.26927E-02
         0.26927E-02
         0.26927E-02
         0.26927E-02
         0.26927E-02
         0.26927E-02
         0.26927E-02
         0.26927E-02
         0.26927E-02
         0.26927E-02
         0.26927E-02
         0.26927E-02
         0.26927E-02
         0.26927E-02
         0.26927E-02
         0.26927E-02
         0.26927E-02
         0.26927E-02
         0.26927E-02
         0.26927E-02
         0.26927E-02
         0.26927E-02
         0.26927E-02
         0.26927E-02
         0.26927E-02
         0.26927E-02
         0.26927E-02
         0.26927E-02
         0.26927E-02
         0.26927E-02
         0.26927E-02
         0.26927E-02
         0.26927E-02
         0.26927E-02
         0.26927E-02
         0.26927E-02
         0.26927E-02
         0.26927E-02
         0.26927E-02
         0.26927E-02
         0.26927E-02
         0.26927E-02
         0.26927E-02
         0.26927E-02
         0.26927E-02
         0.26927E-02
         0.26927E-02
         0.26927E-02
         0.26927E-02
         0.26927E-02
         0.26927E-02
         0.26927E-02
         0.26927E-02
         0.26927E-02
         0.26927E-02
         0.26927E-02
         0.26927E-02
         0.26927E-02
         0.26927E-02
         0.26927E-02
         0.26927E-02
         0.26927E-02
         0.26927E-02
         0.26927E-02
         0.26927E-02
         0.26927E-02
         0.26927E-02
         0.26927E-02
         0.26927E-02
         0.26927E-02
         0.26927E-02
         0.26927E-02
         0.26927E-02
         0.26927E-02
         0.26927E-02
         0.26927E-02
         0.26927E-02
         0.26927E-02
         0.26927E-02
         0.26927E-02
         0.26927E-02
         0.26927E-02
         0.26927E-02
         0.26927E-02
         0.26927E-02
         0.26927E-02
         0.26927E-02
         0.26927E-02
         0.26927E-02
         0.26927E-02
         0.26927E-02
         0.26927E-02
         0.26927E-02
         0.26927E-02
         0.26927E-02
         0.26927E-02
         0.26927E-02
         0.26927E-02
         0.26927E-02
         0.26927E-02
         0.26927E-02
         0.26927E-02
         0.26927E-02
         0.26927E-02
         0.26927E-02
         0.26927E-02
         0.26927E-02
         0.26927E-02
         0.26927E-02
         0.26927E-02
         0.26927E-02
         0.26927E-02
         0.26927E-02
         0.26927E-02
         0.26927E-02
         0.26927E-02
         0.26927E-02
         0.26927E-02
         0.26927E-02
         0.26927E-02
         0.26927E-02
         0.26927E-02
         0.26927E-02
         0.26927E-02
         0.26927E-02
         0.26927E-02
         0.26927E-02
         0.26927E-02
         0.26927E-02
         0.26927E-02
         0.26927E-02
         0.26927E-02
         0.26927E-02
         0.26927E-02
         0.26927E-02
         0.26927E-02
         0.26927E-02
         0.26927E-02
         0.26927E-02
         0.26927E-02
         0.26927E-02
         0.26927E-02
         0.26927E-02
         0.26927E-02
         0.26927E-02
         0.26927E-02
         0.26927E-02
         0.26927E-02
         0.26927E-02
         0.26927E-02
         0.26927E-02
         0.26927E-02
         0.26927E-02
         0.26927E-02
         0.26927E-02
         0.26927E-02
         0.26927E-02
         0.26927E-02
         0.26927E-02
         0.26927E-02
         0.26927E-02
         0.26927E-02
         0.26927E-02
         0.26927E-02
         0.26927E-02
         0.26927E-02
         0.26927E-02
         0.26927E-02
         0.26927E-02
         0.26927E-02
         0.26927E-02
         0.26927E-02
         0.26927E-02
         0.26927E-02
         0.26927E-02
         0.26927E-02
         0.26927E-02
         0.26927E-02
         0.26927E-02
         0.26927E-02
         0.26927E-02
         0.26927E-02
         0.26927E-02
         0.26927E-02
         0.26927E-02
         0.26927E-02
         0.26927E-02
         0.26927E-02
         0.26927E-02
         0.26927E-02
         0.26927E-02
         0.26927E-02
         0.26927E-02
         0.26927E-02
         0.26927E-02
         0.26927E-02
         0.26927E-02
         0.26927E-02
         0.26927E-02
         0.26927E-02
         0.26927E-02
         0.26927E-02
         0.26927E-02
         0.26927E-02
         0.26927E-02
         0.26927E-02
         0.26927E-02
         0.26927E-02
         0.26927E-02
         0.26927E-02
         0.26927E-02
         0.26927E-02
         0.26927E-02
         0.26927E-02
         0.26927E-02
         0.26927E-02
         0.26927E-02
         0.26927E-02
         0.26927E-02
         0.26927E-02
         0.26927E-02
         0.26927E-02
         0.26927E-02
         0.26927E-02
         0.26927E-02
         0.26927E-02
         0.26927E-02
         0.26927E-02
         0.26927E-02
         0.26927E-02
         0.26927E-02
         0.26927E-02
         0.26927E-02
         0.26927E-02
         0.26927E-02
         0.26927E-02
         0.26927E-02
         0.26927E-02
         0.26927E-02
         0.26927E-02
         0.26927E-02
         0.26927E-02
         0.26927E-02
         0.26927E-02
         0.26927E-02
         0.26927E-02
         0.26927E-02
         0.26927E-02
         0.26927E-02
         0.26927E-02
         0.26927E-02
         0.26927E-02
         0.26927E-02
         0.26927E-02
         0.26927E-02
         0.26927E-02
         0.26927E-02
         0.26927E-02
         0.26927E-02
         0.26927E-02
         0.26927E-02
         0.26927E-02
         0.26927E-02
         0.26927E-02
         0.26927E-02
         0.26927E-02
         0.26927E-02
         0.26927E-02
         0.26927E-02
         0.26927E-02
         0.26927E-02
         0.26927E-02
         0.26927E-02
         0.26927E-02
         0.26927E-02
         0.26927E-02
         0.26927E-02
         0.26927E-02
         0.26927E-02
         0.26927E-02
         0.26927E-02
         0.26927E-02
         0.26927E-02
         0.26927E-02
         0.26927E-02
         0.26927E-02
         0.26927E-02
         0.26927E-02
         0.26927E-02
         0.26927E-02
         0.26927E-02
         0.26927E-02
         0.26927E-02
         0.26927E-02
         0.26927E-02
         0.26927E-02
         0.26927E-02
         0.26927E-02
         0.26927E-02
         0.26927E-02
         0.26927E-02
         0.26927E-02
         0.26927E-02
         0.26927E-02
         0.26927E-02
         0.26927E-02
         0.26927E-02
         0.26927E-02
         0.26927E-02
         0.26927E-02
         0.26927E-02
         0.26927E-02
         0.26927E-02
         0.26927E-02
         0.26927E-02
         0.26927E-02
         0.26927E-02
         0.26927E-02
         0.26927E-02
         0.26927E-02
         0.26927E-02
         0.26927E-02
         0.26927E-02
         0.26927E-02
         0.26927E-02
         0.26927E-02
         0.26927E-02
         0.26927E-02
         0.26927E-02
         0.26927E-02
         0.26927E-02
         0.26927E-02
         0.26927E-02
         0.26927E-02
         0.26927E-02
         0.26927E-02
         0.26927E-02
         0.26927E-02
         0.26927E-02
         0.26927E-02
         0.26927E-02
         0.26927E-02
         0.26927E-02
         0.26927E-02
         0.26927E-02
         0.26927E-02
         0.26927E-02
         0.26927E-02
         0.26927E-02
         0.26927E-02
         0.26927E-02
         0.26927E-02
         0.26927E-02
         0.26927E-02
         0.26927E-02
         0.26927E-02
         0.26927E-02
         0.26927E-02
         0.26927E-02
         0.26927E-02
         0.26927E-02
         0.26927E-02
         0.26927E-02
         0.26927E-02
         0.26927E-02
         0.26927E-02
         0.26927E-02
         0.26927E-02
         0.26927E-02
         0.26927E-02
         0.26927E-02
         0.26927E-02
         0.26927E-02
         0.26927E-02
         0.26927E-02
         0.26927E-02
         0.26927E-02
         0.26927E-02
         0.26927E-02
         0.26927E-02
         0.26927E-02
         0.26927E-02
         0.26927E-02
         0.26927E-02
         0.26927E-02
         0.26927E-02
         0.26927E-02
         0.26927E-02
         0.26927E-02
         0.26927E-02
         0.26927E-02
         0.26927E-02
         0.26927E-02
         0.26927E-02
         0.26927E-02
         0.26927E-02
         0.26927E-02
         0.26927E-02
         0.26927E-02
         0.26927E-02
         0.26927E-02
         0.26927E-02
         0.26927E-02
         0.26927E-02
         0.26927E-02
         0.26927E-02
         0.26927E-02
         0.26927E-02
         0.26927E-02
         0.26927E-02
         0.26927E-02
         0.26927E-02
         0.26927E-02
         0.26927E-02
         0.26927E-02
         0.26927E-02
         0.26927E-02
         0.26927E-02
         0.26927E-02
         0.26927E-02
         0.26927E-02
         0.26927E-02
         0.26927E-02
         0.26927E-02
         0.26927E-02
         0.26927E-02
         0.26927E-02
         0.26927E-02
         0.26927E-02
         0.26927E-02
         0.26927E-02
         0.26927E-02
         0.26927E-02
         0.26927E-02
         0.26927E-02
         0.26927E-02
         0.26927E-02
         0.26927E-02
         0.26927E-02
         0.26927E-02
         0.26927E-02
         0.26927E-02
         0.26927E-02
         0.26927E-02
         0.26927E-02
         0.26927E-02
         0.26927E-02
         0.26927E-02
         0.26927E-02
         0.26927E-02
         0.26927E-02
         0.26927E-02
         0.26927E-02
         0.26927E-02
         0.26927E-02
         0.26927E-02
         0.26927E-02
         0.26927E-02
         0.26927E-02
         0.26927E-02
         0.26927E-02
         0.26927E-02
         0.26927E-02
         0.26927E-02
         0.26927E-02
         0.26927E-02
         0.26927E-02
         0.26927E-02
         0.26927E-02
         0.26927E-02
         0.26927E-02
         0.26927E-02
         0.26927E-02
         0.26927E-02
         0.26927E-02
         0.26927E-02
         0.26927E-02
         0.26927E-02
         0.26927E-02
         0.26927E-02
         0.26927E-02
         0.26927E-02
         0.26927E-02
         0.26927E-02
         0.26927E-02
         0.26927E-02
         0.26927E-02
         0.26927E-02
         0.26927E-02
         0.26927E-02
         0.26927E-02
         0.26927E-02
         0.26927E-02
         0.26927E-02
         0.26927E-02
         0.26927E-02
         0.26927E-02
         0.26927E-02
         0.26927E-02
         0.26927E-02
         0.26927E-02
         0.26927E-02
         0.26927E-02
         0.26927E-02
         0.26927E-02
         0.26927E-02
         0.26927E-02
         0.26927E-02
         0.26927E-02
         0.26927E-02
         0.26927E-02
         0.26927E-02
         0.26927E-02
         0.26927E-02
         0.26927E-02
         0.26927E-02
         0.26927E-02
         0.26927E-02
         0.26927E-02
         0.26927E-02
         0.26927E-02
         0.26927E-02
         0.26927E-02
         0.26927E-02
         0.26927E-02
         0.26927E-02
         0.26927E-02
         0.26927E-02
         0.26927E-02
         0.26927E-02
         0.26927E-02
         0.26927E-02
         0.26927E-02
         0.26927E-02
         0.26927E-02
         0.26927E-02
         0.26927E-02
         0.26927E-02
         0.26927E-02
         0.26927E-02
         0.26927E-02
         0.26927E-02
         0.26927E-02
         0.26927E-02
         0.26927E-02
         0.26927E-02
         0.26927E-02
         0.26927E-02
         0.26927E-02
         0.26927E-02
         0.26927E-02
         0.26927E-02
         0.26927E-02
         0.26927E-02
         0.26927E-02
         0.26927E-02
         0.26927E-02
         0.26927E-02
         0.26927E-02
         0.26927E-02
         0.26927E-02
         0.26927E-02
         0.26927E-02
         0.26927E-02
         0.26927E-02
         0.26927E-02
         0.26927E-02
         0.26927E-02
         0.26927E-02
         0.26927E-02
         0.26927E-02
         0.26927E-02
         0.26927E-02
         0.26927E-02
         0.26927E-02
         0.26927E-02
         0.26927E-02
         0.26927E-02
         0.26927E-02
         0.26927E-02
         0.26927E-02
         0.26927E-02
         0.26927E-02
         0.26927E-02
         0.26927E-02
         0.26927E-02
         0.26927E-02
         0.26927E-02
         0.26927E-02
         0.26927E-02
         0.26927E-02
         0.26927E-02
         0.26927E-02
         0.26927E-02
         0.26927E-02
         0.26927E-02
         0.26927E-02
         0.26927E-02
         0.26927E-02
         0.26927E-02
         0.26927E-02
         0.26927E-02
         0.26927E-02
         0.26927E-02
         0.26927E-02
         0.26927E-02
         0.26927E-02
         0.26927E-02
         0.26927E-02
         0.26927E-02
         0.26927E-02
         0.26927E-02
         0.26927E-02
         0.26927E-02
         0.26927E-02
         0.26927E-02
         0.26927E-02
         0.26927E-02
         0.26927E-02
         0.26927E-02
         0.26927E-02
         0.26927E-02
         0.26927E-02
         0.26927E-02
         0.26927E-02
         0.26927E-02
         0.26927E-02
         0.26927E-02
         0.26927E-02
         0.26927E-02
         0.26927E-02
         0.26927E-02
         0.26927E-02
         0.26927E-02
         0.26927E-02
         0.26927E-02
         0.26927E-02
         0.26927E-02
         0.26927E-02
         0.26927E-02
         0.26927E-02
         0.26927E-02
         0.26927E-02
         0.26927E-02
         0.26927E-02
         0.26927E-02
         0.26927E-02
         0.26927E-02
         0.26927E-02
         0.26927E-02
         0.26927E-02
         0.26927E-02
         0.26927E-02
         0.26927E-02
         0.26927E-02
         0.26927E-02
         0.26927E-02
         0.26927E-02
         0.26927E-02
         0.26927E-02
         0.26927E-02
         0.26927E-02
         0.26927E-02
         0.26927E-02
         0.26927E-02
         0.26927E-02
         0.26927E-02
         0.26927E-02
         0.26927E-02
         0.26927E-02
         0.26927E-02
         0.26927E-02
         0.26927E-02
         0.26927E-02
         0.26927E-02
         0.26927E-02
         0.26927E-02
         0.26927E-02
         0.26927E-02
         0.26927E-02
         0.26927E-02
         0.26927E-02
         0.26927E-02
         0.26927E-02
         0.26927E-02
         0.26927E-02
         0.26927E-02
         0.26927E-02
         0.26927E-02
         0.26927E-02
         0.26927E-02
         0.26927E-02
         0.26927E-02
         0.26927E-02
         0.26927E-02
         0.26927E-02
         0.26927E-02
         0.26927E-02
         0.26927E-02
         0.26927E-02
         0.26927E-02
         0.26927E-02
         0.26927E-02
         0.26927E-02
         0.26927E-02
         0.26927E-02
         0.26927E-02
         0.26927E-02
         0.26927E-02
         0.26927E-02
         0.26927E-02
         0.26927E-02
         0.26927E-02
         0.26927E-02
         0.26927E-02
         0.26927E-02
         0.26927E-02
         0.26927E-02
         0.26927E-02
         0.26927E-02
         0.26927E-02
         0.26927E-02
         0.26927E-02
         0.26927E-02
         0.26927E-02
         0.26927E-02
         0.26927E-02
         0.26927E-02
         0.26927E-02
         0.26927E-02
         0.26927E-02
         0.26927E-02
         0.26927E-02
         0.26927E-02
         0.26927E-02
         0.26927E-02
         0.26927E-02
         0.26927E-02
         0.26927E-02
         0.26927E-02
         0.26927E-02
         0.26927E-02
         0.26927E-02
         0.26927E-02
         0.26927E-02
         0.26927E-02
         0.26927E-02
         0.26927E-02
         0.26927E-02
         0.26927E-02
         0.26927E-02
         0.26927E-02
         0.26927E-02
         0.26927E-02
         0.26927E-02
         0.26927E-02
         0.26927E-02
         0.26927E-02
         0.26927E-02
         0.26927E-02
         0.26927E-02
         0.26927E-02
         0.26927E-02
         0.26927E-02
         0.26927E-02
         0.26927E-02
         0.26927E-02
         0.26927E-02
         0.26927E-02
         0.26927E-02
         0.26927E-02
         0.26927E-02
         0.26927E-02
         0.26927E-02
         0.26927E-02
         0.26927E-02
         0.26927E-02
         0.26927E-02
         0.26927E-02
         0.26927E-02
         0.26927E-02
         0.26927E-02
         0.26927E-02
         0.26927E-02
         0.26927E-02
         0.26927E-02
         0.26927E-02
         0.26927E-02
         0.26927E-02
         0.26927E-02
         0.26927E-02
         0.26927E-02
         0.26927E-02
         0.26927E-02
         0.26927E-02
         0.26927E-02
         0.26927E-02
         0.26927E-02
         0.26927E-02
         0.26927E-02
         0.26927E-02
         0.26927E-02
         0.26927E-02
         0.26927E-02
         0.26927E-02
         0.26927E-02
         0.26927E-02
         0.26927E-02
         0.26927E-02
         0.26927E-02
         0.26927E-02
         0.26927E-02
         0.26927E-02
         0.26927E-02
         0.26927E-02
         0.26927E-02
         0.26927E-02
         0.26927E-02
         0.26927E-02
         0.26927E-02
         0.26927E-02
         0.26927E-02
         0.26927E-02
         0.26927E-02
         0.26927E-02
         0.26927E-02
         0.26927E-02
         0.26927E-02
         0.26927E-02
         0.26927E-02
         0.26927E-02
         0.26927E-02
         0.26927E-02
         0.26927E-02
         0.26927E-02
         0.26927E-02
         0.26927E-02
         0.26927E-02
         0.26927E-02
         0.26927E-02
         0.26927E-02
         0.26927E-02
         0.26927E-02
         0.26927E-02
         0.26927E-02
         0.26927E-02
         0.26927E-02
         0.26927E-02
         0.26927E-02
         0.26927E-02
         0.26927E-02
         0.26927E-02
         0.26927E-02
         0.26927E-02
         0.26927E-02
         0.26927E-02
         0.26927E-02
         0.26927E-02
         0.26927E-02
         0.26927E-02
         0.26927E-02
         0.26927E-02
         0.26927E-02
         0.26927E-02
         0.26927E-02
         0.26927E-02
         0.26927E-02
         0.26927E-02
         0.26927E-02
         0.26927E-02
         0.26927E-02
         0.26927E-02
         0.26927E-02
         0.26927E-02
         0.26927E-02
         0.26927E-02
         0.26927E-02
         0.26927E-02
         0.26927E-02
         0.26927E-02
         0.26927E-02
         0.26927E-02
         0.26927E-02
         0.26927E-02
         0.26927E-02
         0.26927E-02
         0.26927E-02
         0.26927E-02
         0.26927E-02
         0.26927E-02
         0.26927E-02
         0.26927E-02
         0.26927E-02
         0.26927E-02
         0.26927E-02
         0.26927E-02
         0.26927E-02
         0.26927E-02
         0.26927E-02
         0.26927E-02
         0.26927E-02
         0.26927E-02
         0.26927E-02
         0.26927E-02
         0.26927E-02
         0.26927E-02
         0.26927E-02
         0.26927E-02
         0.26927E-02
         0.26927E-02
         0.26927E-02
         0.26927E-02
         0.26927E-02
         0.26927E-02
         0.26927E-02
         0.26927E-02
         0.26927E-02
         0.26927E-02
         0.26927E-02
         0.26927E-02
         0.26927E-02
         0.26927E-02
         0.26927E-02
         0.26927E-02
         0.26927E-02
         0.26927E-02
         0.26927E-02
         0.26927E-02
         0.26927E-02
         0.26927E-02
         0.26927E-02
         0.26927E-02
         0.26927E-02
         0.26927E-02
         0.26927E-02
         0.26927E-02
         0.26927E-02
         0.26927E-02
         0.26927E-02
         0.26927E-02
         0.26927E-02
         0.26927E-02
         0.26928E-02
         0.26928E-02
         0.26928E-02
         0.26928E-02
         0.26928E-02
         0.26928E-02
         0.26928E-02
         0.26928E-02
         0.26928E-02
         0.26928E-02
         0.26928E-02
         0.26928E-02
         0.26928E-02
         0.26928E-02
         0.26928E-02
         0.26928E-02
         0.26928E-02
         0.26928E-02
         0.26928E-02
         0.26928E-02
         0.26928E-02
         0.26928E-02
         0.26928E-02
         0.26928E-02
         0.26928E-02
         0.26928E-02
         0.26928E-02
         0.26928E-02
         0.26928E-02
         0.26928E-02
         0.26928E-02
         0.26928E-02
         0.26928E-02
         0.26928E-02
         0.26928E-02
         0.26928E-02
         0.26928E-02
         0.26928E-02
         0.26928E-02
         0.26928E-02
         0.26928E-02
         0.26928E-02
         0.26928E-02
         0.26928E-02
         0.26928E-02
         0.26928E-02
         0.26928E-02
         0.26928E-02
         0.26928E-02
         0.26928E-02
         0.26928E-02
         0.26928E-02
         0.26928E-02
         0.26928E-02
         0.26928E-02
         0.26928E-02
         0.26928E-02
         0.26928E-02
         0.26928E-02
         0.26928E-02
         0.26928E-02
         0.26928E-02
         0.26928E-02
         0.26928E-02
         0.26928E-02
         0.26928E-02
         0.26928E-02
         0.26928E-02
         0.26928E-02
         0.26928E-02
         0.26928E-02
         0.26928E-02
         0.26928E-02
         0.26928E-02
         0.26928E-02
         0.26928E-02
         0.26928E-02
         0.26928E-02
         0.26928E-02
         0.26928E-02
         0.26928E-02
         0.26928E-02
         0.26928E-02
         0.26928E-02
         0.26928E-02
         0.26928E-02
         0.26928E-02
         0.26928E-02
         0.26928E-02
         0.26928E-02
         0.26928E-02
         0.26928E-02
         0.26928E-02
         0.26928E-02
         0.26928E-02
         0.26928E-02
         0.26928E-02
         0.26928E-02
         0.26928E-02
         0.26928E-02
         0.26928E-02
         0.26928E-02
         0.26928E-02
         0.26928E-02
         0.26928E-02
         0.26928E-02
         0.26928E-02
         0.26928E-02
         0.26928E-02
         0.26928E-02
         0.26928E-02
         0.26928E-02
         0.26928E-02
         0.26928E-02
         0.26928E-02
         0.26928E-02
         0.26928E-02
         0.26928E-02
         0.26928E-02
         0.26928E-02
         0.26928E-02
         0.26928E-02
         0.26928E-02
         0.26928E-02
         0.26928E-02
         0.26928E-02
         0.26928E-02
         0.26928E-02
         0.26928E-02
         0.26928E-02
         0.26928E-02
         0.26928E-02
         0.26928E-02
         0.26928E-02
         0.26928E-02
         0.26928E-02
         0.26928E-02
         0.26928E-02
         0.26928E-02
         0.26928E-02
         0.26928E-02
         0.26928E-02
         0.26928E-02
         0.26928E-02
         0.26928E-02
         0.26928E-02
         0.26928E-02
         0.26928E-02
         0.26928E-02
         0.26928E-02
         0.26928E-02
         0.26928E-02
         0.26928E-02
         0.26928E-02
         0.26928E-02
         0.26928E-02
  
SCALARS                   nodal_volume  double 1
LOOKUP_TABLE default
         0.91140E-09
         0.72412E-09
         0.77574E-09
         0.13316E-08
         0.45570E-09
         0.36211E-09
         0.38787E-09
         0.66566E-09
         0.71537E-09
         0.91211E-09
         0.35767E-09
         0.45600E-09
         0.51195E-09
         0.61532E-09
         0.25605E-09
         0.30776E-09
         0.10101E-08
         0.74536E-09
         0.50500E-09
         0.37281E-09
         0.30273E-09
         0.57012E-09
         0.62699E-09
         0.15144E-09
         0.28509E-09
         0.31352E-09
         0.51329E-09
         0.64933E-09
         0.25683E-09
         0.32471E-09
         0.12026E-08
         0.93909E-09
         0.11935E-08
         0.60122E-09
         0.46945E-09
         0.59663E-09
         0.70296E-09
         0.80270E-09
         0.35149E-09
         0.40134E-09
         0.75859E-09
         0.84013E-09
         0.37932E-09
         0.42007E-09
         0.64542E-09
         0.40086E-09
         0.32274E-09
         0.20045E-09
         0.76288E-09
         0.38153E-09
         0.63346E-09
         0.31675E-09
         0.66583E-09
         0.33318E-09
         0.68008E-09
         0.34022E-09
         0.58930E-09
         0.71738E-09
         0.29472E-09
         0.35874E-09
         0.90938E-09
         0.64302E-09
         0.45469E-09
         0.32154E-09
         0.10152E-08
         0.50747E-09
         0.88120E-09
         0.44042E-09
         0.40077E-09
         0.61872E-09
         0.20039E-09
         0.30940E-09
         0.70206E-09
         0.35106E-09
         0.74172E-09
         0.37089E-09
         0.71539E-09
         0.35770E-09
         0.56226E-09
         0.28113E-09
         0.35349E-09
         0.58452E-09
         0.17675E-09
         0.29229E-09
         0.77354E-09
         0.38679E-09
         0.62469E-09
         0.31238E-09
         0.54957E-09
         0.27483E-09
         0.36009E-09
         0.61365E-09
         0.18007E-09
         0.30685E-09
         0.83268E-09
         0.41635E-09
         0.87287E-09
         0.43642E-09
         0.70438E-09
         0.35217E-09
         0.43365E-09
         0.74413E-09
         0.21683E-09
         0.37198E-09
         0.27660E-09
         0.35144E-09
         0.13833E-09
         0.17573E-09
         0.32921E-09
         0.16465E-09
         0.38764E-09
         0.19382E-09
         0.37797E-09
         0.18897E-09
         0.36707E-09
         0.18352E-09
         0.39112E-09
         0.19552E-09
         0.41268E-09
         0.20627E-09
         0.38876E-09
         0.19433E-09
         0.30402E-09
         0.15200E-09
         0.24796E-09
         0.12398E-09
         0.31999E-09
         0.16000E-09
         0.42608E-09
         0.21303E-09
         0.46805E-09
         0.23401E-09
         0.44933E-09
         0.22466E-09
         0.40550E-09
         0.20276E-09
         0.36826E-09
         0.18414E-09
         0.29911E-09
         0.14956E-09
         0.25178E-09
         0.12591E-09
         0.32888E-09
         0.16445E-09
         0.43529E-09
         0.21765E-09
         0.44963E-09
         0.22482E-09
         0.36384E-09
         0.18194E-09
         0.29543E-09
         0.14774E-09
         0.36126E-09
         0.18063E-09
         0.42771E-09
         0.21386E-09
         0.91143E-09
         0.72396E-09
         0.77579E-09
         0.13322E-08
         0.71547E-09
         0.91237E-09
         0.51167E-09
         0.61494E-09
         0.10105E-08
         0.74486E-09
         0.30244E-09
         0.57001E-09
         0.62694E-09
         0.51257E-09
         0.64918E-09
         0.12029E-08
         0.93950E-09
         0.11941E-08
         0.70298E-09
         0.80279E-09
         0.75855E-09
         0.84015E-09
         0.64535E-09
         0.40081E-09
         0.76254E-09
         0.63339E-09
         0.66483E-09
         0.67941E-09
         0.58904E-09
         0.71721E-09
         0.90946E-09
         0.64293E-09
         0.10157E-08
         0.88199E-09
         0.40076E-09
         0.61859E-09
         0.70195E-09
         0.74166E-09
         0.71543E-09
         0.56228E-09
         0.35349E-09
         0.58443E-09
         0.77349E-09
         0.62459E-09
         0.54943E-09
         0.35999E-09
         0.61359E-09
         0.83268E-09
         0.87299E-09
         0.70451E-09
         0.43366E-09
         0.74449E-09
         0.27651E-09
         0.35143E-09
         0.32904E-09
         0.38765E-09
         0.37805E-09
         0.36714E-09
         0.39129E-09
         0.41297E-09
         0.38899E-09
         0.30408E-09
         0.24798E-09
         0.31999E-09
         0.42613E-09
         0.46815E-09
         0.44938E-09
         0.40548E-09
         0.36823E-09
         0.29908E-09
         0.25174E-09
         0.32885E-09
         0.43527E-09
         0.44962E-09
         0.36376E-09
         0.29536E-09
         0.36130E-09
         0.42769E-09
         0.91151E-09
         0.72383E-09
         0.77587E-09
         0.13329E-08
         0.71560E-09
         0.91267E-09
         0.51142E-09
         0.61459E-09
         0.10109E-08
         0.74439E-09
         0.30216E-09
         0.56992E-09
         0.62691E-09
         0.51187E-09
         0.64906E-09
         0.12033E-08
         0.93995E-09
         0.11947E-08
         0.70302E-09
         0.80291E-09
         0.75853E-09
         0.84020E-09
         0.64530E-09
         0.40078E-09
         0.76223E-09
         0.63335E-09
         0.66385E-09
         0.67875E-09
         0.58880E-09
         0.71706E-09
         0.90957E-09
         0.64286E-09
         0.10162E-08
         0.88281E-09
         0.40076E-09
         0.61849E-09
         0.70188E-09
         0.74162E-09
         0.71550E-09
         0.56232E-09
         0.35350E-09
         0.58436E-09
         0.77347E-09
         0.62452E-09
         0.54931E-09
         0.35990E-09
         0.61355E-09
         0.83270E-09
         0.87315E-09
         0.70467E-09
         0.43368E-09
         0.74487E-09
         0.27643E-09
         0.35143E-09
         0.32889E-09
         0.38767E-09
         0.37814E-09
         0.36723E-09
         0.39147E-09
         0.41328E-09
         0.38923E-09
         0.30416E-09
         0.24800E-09
         0.32001E-09
         0.42620E-09
         0.46826E-09
         0.44944E-09
         0.40548E-09
         0.36821E-09
         0.29906E-09
         0.25171E-09
         0.32883E-09
         0.43527E-09
         0.44963E-09
         0.36369E-09
         0.29530E-09
         0.36135E-09
         0.42769E-09
         0.91156E-09
         0.72368E-09
         0.77594E-09
         0.13335E-08
         0.71571E-09
         0.91295E-09
         0.51115E-09
         0.61422E-09
         0.10112E-08
         0.74389E-09
         0.30187E-09
         0.56982E-09
         0.62686E-09
         0.51116E-09
         0.64892E-09
         0.12036E-08
         0.94038E-09
         0.11953E-08
         0.70304E-09
         0.80300E-09
         0.75850E-09
         0.84023E-09
         0.64523E-09
         0.40073E-09
         0.76190E-09
         0.63330E-09
         0.66285E-09
         0.67809E-09
         0.58855E-09
         0.71689E-09
         0.90966E-09
         0.64278E-09
         0.10168E-08
         0.88361E-09
         0.40076E-09
         0.61837E-09
         0.70178E-09
         0.74156E-09
         0.71554E-09
         0.56234E-09
         0.35350E-09
         0.58428E-09
         0.77343E-09
         0.62442E-09
         0.54918E-09
         0.35981E-09
         0.61349E-09
         0.83271E-09
         0.87328E-09
         0.70481E-09
         0.43369E-09
         0.74524E-09
         0.27634E-09
         0.35142E-09
         0.32873E-09
         0.38768E-09
         0.37823E-09
         0.36731E-09
         0.39163E-09
         0.41358E-09
         0.38945E-09
         0.30422E-09
         0.24802E-09
         0.32001E-09
         0.42625E-09
         0.46837E-09
         0.44949E-09
         0.40546E-09
         0.36819E-09
         0.29904E-09
         0.25167E-09
         0.32881E-09
         0.43526E-09
         0.44963E-09
         0.36362E-09
         0.29523E-09
         0.36139E-09
         0.42768E-09
         0.91161E-09
         0.72353E-09
         0.77600E-09
         0.13341E-08
         0.71583E-09
         0.91323E-09
         0.51088E-09
         0.61386E-09
         0.10116E-08
         0.74341E-09
         0.30158E-09
         0.56972E-09
         0.62682E-09
         0.51045E-09
         0.64879E-09
         0.12040E-08
         0.94081E-09
         0.11959E-08
         0.70307E-09
         0.80310E-09
         0.75847E-09
         0.84027E-09
         0.64517E-09
         0.40069E-09
         0.76158E-09
         0.63325E-09
         0.66186E-09
         0.67742E-09
         0.58831E-09
         0.71673E-09
         0.90975E-09
         0.64270E-09
         0.10173E-08
         0.88441E-09
         0.40075E-09
         0.61825E-09
         0.70169E-09
         0.74151E-09
         0.71559E-09
         0.56237E-09
         0.35350E-09
         0.58420E-09
         0.77339E-09
         0.62433E-09
         0.54905E-09
         0.35972E-09
         0.61344E-09
         0.83272E-09
         0.87341E-09
         0.70496E-09
         0.43370E-09
         0.74562E-09
         0.27626E-09
         0.35142E-09
         0.32857E-09
         0.38770E-09
         0.37832E-09
         0.36739E-09
         0.39181E-09
         0.41387E-09
         0.38968E-09
         0.30429E-09
         0.24804E-09
         0.32002E-09
         0.42631E-09
         0.46847E-09
         0.44954E-09
         0.40545E-09
         0.36816E-09
         0.29901E-09
         0.25163E-09
         0.32878E-09
         0.43525E-09
         0.44963E-09
         0.36354E-09
         0.29517E-09
         0.36144E-09
         0.42766E-09
         0.91167E-09
         0.72338E-09
         0.77607E-09
         0.13348E-08
         0.71594E-09
         0.91351E-09
         0.51062E-09
         0.61349E-09
         0.10119E-08
         0.74292E-09
         0.30129E-09
         0.56962E-09
         0.62678E-09
         0.50974E-09
         0.64865E-09
         0.12044E-08
         0.94125E-09
         0.11965E-08
         0.70310E-09
         0.80321E-09
         0.75844E-09
         0.84031E-09
         0.64511E-09
         0.40065E-09
         0.76125E-09
         0.63320E-09
         0.66087E-09
         0.67676E-09
         0.58806E-09
         0.71657E-09
         0.90984E-09
         0.64263E-09
         0.10179E-08
         0.88522E-09
         0.40075E-09
         0.61813E-09
         0.70160E-09
         0.74146E-09
         0.71564E-09
         0.56240E-09
         0.35350E-09
         0.58412E-09
         0.77336E-09
         0.62425E-09
         0.54892E-09
         0.35963E-09
         0.61339E-09
         0.83274E-09
         0.87355E-09
         0.70511E-09
         0.43371E-09
         0.74599E-09
         0.27618E-09
         0.35141E-09
         0.32841E-09
         0.38771E-09
         0.37841E-09
         0.36747E-09
         0.39198E-09
         0.41417E-09
         0.38992E-09
         0.30436E-09
         0.24806E-09
         0.32003E-09
         0.42637E-09
         0.46858E-09
         0.44960E-09
         0.40544E-09
         0.36814E-09
         0.29899E-09
         0.25159E-09
         0.32876E-09
         0.43525E-09
         0.44963E-09
         0.36347E-09
         0.29511E-09
         0.36148E-09
         0.42766E-09
         0.91171E-09
         0.72323E-09
         0.77613E-09
         0.13354E-08
         0.71606E-09
         0.91379E-09
         0.51035E-09
         0.61313E-09
         0.10123E-08
         0.74243E-09
         0.30101E-09
         0.56952E-09
         0.62674E-09
         0.50903E-09
         0.64851E-09
         0.12047E-08
         0.94167E-09
         0.11971E-08
         0.70312E-09
         0.80331E-09
         0.75840E-09
         0.84034E-09
         0.64504E-09
         0.40061E-09
         0.76092E-09
         0.63314E-09
         0.65988E-09
         0.67609E-09
         0.58781E-09
         0.71641E-09
         0.90993E-09
         0.64255E-09
         0.10184E-08
         0.88601E-09
         0.40075E-09
         0.61801E-09
         0.70151E-09
         0.74140E-09
         0.71569E-09
         0.56243E-09
         0.35350E-09
         0.58404E-09
         0.77332E-09
         0.62416E-09
         0.54879E-09
         0.35953E-09
         0.61334E-09
         0.83274E-09
         0.87368E-09
         0.70525E-09
         0.43372E-09
         0.74636E-09
         0.27609E-09
         0.35141E-09
         0.32825E-09
         0.38772E-09
         0.37849E-09
         0.36754E-09
         0.39215E-09
         0.41447E-09
         0.39014E-09
         0.30443E-09
         0.24808E-09
         0.32004E-09
         0.42642E-09
         0.46868E-09
         0.44965E-09
         0.40543E-09
         0.36812E-09
         0.29897E-09
         0.25155E-09
         0.32874E-09
         0.43524E-09
         0.44963E-09
         0.36340E-09
         0.29504E-09
         0.36153E-09
         0.42764E-09
         0.91176E-09
         0.72308E-09
         0.77620E-09
         0.13360E-08
         0.71617E-09
         0.91407E-09
         0.51008E-09
         0.61276E-09
         0.10126E-08
         0.74195E-09
         0.30072E-09
         0.56942E-09
         0.62670E-09
         0.50832E-09
         0.64838E-09
         0.12051E-08
         0.94210E-09
         0.11977E-08
         0.70314E-09
         0.80341E-09
         0.75837E-09
         0.84038E-09
         0.64498E-09
         0.40056E-09
         0.76060E-09
         0.63309E-09
         0.65888E-09
         0.67542E-09
         0.58756E-09
         0.71624E-09
         0.91002E-09
         0.64247E-09
         0.10189E-08
         0.88682E-09
         0.40074E-09
         0.61790E-09
         0.70142E-09
         0.74135E-09
         0.71574E-09
         0.56245E-09
         0.35351E-09
         0.58396E-09
         0.77328E-09
         0.62407E-09
         0.54866E-09
         0.35944E-09
         0.61329E-09
         0.83275E-09
         0.87382E-09
         0.70539E-09
         0.43373E-09
         0.74673E-09
         0.27601E-09
         0.35140E-09
         0.32809E-09
         0.38774E-09
         0.37858E-09
         0.36762E-09
         0.39232E-09
         0.41477E-09
         0.39037E-09
         0.30450E-09
         0.24810E-09
         0.32005E-09
         0.42648E-09
         0.46879E-09
         0.44970E-09
         0.40541E-09
         0.36809E-09
         0.29894E-09
         0.25151E-09
         0.32871E-09
         0.43523E-09
         0.44963E-09
         0.36333E-09
         0.29497E-09
         0.36157E-09
         0.42763E-09
         0.91182E-09
         0.72293E-09
         0.77627E-09
         0.13367E-08
         0.71629E-09
         0.91436E-09
         0.50982E-09
         0.61240E-09
         0.10130E-08
         0.74146E-09
         0.30043E-09
         0.56932E-09
         0.62666E-09
         0.50762E-09
         0.64825E-09
         0.12054E-08
         0.94253E-09
         0.11983E-08
         0.70317E-09
         0.80351E-09
         0.75834E-09
         0.84041E-09
         0.64491E-09
         0.40053E-09
         0.76028E-09
         0.63304E-09
         0.65790E-09
         0.67476E-09
         0.58731E-09
         0.71609E-09
         0.91012E-09
         0.64239E-09
         0.10195E-08
         0.88762E-09
         0.40074E-09
         0.61778E-09
         0.70133E-09
         0.74130E-09
         0.71579E-09
         0.56249E-09
         0.35351E-09
         0.58388E-09
         0.77324E-09
         0.62398E-09
         0.54853E-09
         0.35935E-09
         0.61324E-09
         0.83277E-09
         0.87396E-09
         0.70554E-09
         0.43375E-09
         0.74711E-09
         0.27592E-09
         0.35140E-09
         0.32793E-09
         0.38775E-09
         0.37867E-09
         0.36770E-09
         0.39249E-09
         0.41507E-09
         0.39061E-09
         0.30457E-09
         0.24812E-09
         0.32006E-09
         0.42654E-09
         0.46890E-09
         0.44975E-09
         0.40540E-09
         0.36807E-09
         0.29892E-09
         0.25148E-09
         0.32869E-09
         0.43522E-09
         0.44963E-09
         0.36325E-09
         0.29491E-09
         0.36162E-09
         0.42762E-09
         0.91187E-09
         0.72278E-09
         0.77633E-09
         0.13373E-08
         0.71640E-09
         0.91463E-09
         0.50955E-09
         0.61204E-09
         0.10134E-08
         0.74098E-09
         0.30015E-09
         0.56922E-09
         0.62662E-09
         0.50691E-09
         0.64811E-09
         0.12058E-08
         0.94296E-09
         0.11989E-08
         0.70320E-09
         0.80361E-09
         0.75831E-09
         0.84045E-09
         0.64485E-09
         0.40048E-09
         0.75995E-09
         0.63298E-09
         0.65690E-09
         0.67409E-09
         0.58706E-09
         0.71592E-09
         0.91020E-09
         0.64231E-09
         0.10200E-08
         0.88843E-09
         0.40074E-09
         0.61766E-09
         0.70124E-09
         0.74124E-09
         0.71584E-09
         0.56251E-09
         0.35351E-09
         0.58380E-09
         0.77320E-09
         0.62389E-09
         0.54840E-09
         0.35926E-09
         0.61318E-09
         0.83277E-09
         0.87409E-09
         0.70568E-09
         0.43376E-09
         0.74748E-09
         0.27584E-09
         0.35139E-09
         0.32777E-09
         0.38777E-09
         0.37876E-09
         0.36778E-09
         0.39266E-09
         0.41536E-09
         0.39084E-09
         0.30464E-09
         0.24814E-09
         0.32006E-09
         0.42659E-09
         0.46900E-09
         0.44980E-09
         0.40539E-09
         0.36805E-09
         0.29890E-09
         0.25144E-09
         0.32867E-09
         0.43521E-09
         0.44963E-09
         0.36318E-09
         0.29485E-09
         0.36166E-09
         0.42761E-09
         0.91192E-09
         0.72263E-09
         0.77640E-09
         0.13380E-08
         0.71652E-09
         0.91491E-09
         0.50928E-09
         0.61167E-09
         0.10137E-08
         0.74049E-09
         0.29986E-09
         0.56912E-09
         0.62657E-09
         0.50620E-09
         0.64797E-09
         0.12061E-08
         0.94339E-09
         0.11995E-08
         0.70322E-09
         0.80371E-09
         0.75827E-09
         0.84048E-09
         0.64478E-09
         0.40044E-09
         0.75962E-09
         0.63293E-09
         0.65591E-09
         0.67343E-09
         0.58681E-09
         0.71576E-09
         0.91029E-09
         0.64223E-09
         0.10205E-08
         0.88923E-09
         0.40073E-09
         0.61754E-09
         0.70114E-09
         0.74119E-09
         0.71588E-09
         0.56254E-09
         0.35351E-09
         0.58372E-09
         0.77316E-09
         0.62380E-09
         0.54827E-09
         0.35917E-09
         0.61313E-09
         0.83278E-09
         0.87422E-09
         0.70582E-09
         0.43377E-09
         0.74785E-09
         0.27575E-09
         0.35138E-09
         0.32761E-09
         0.38778E-09
         0.37885E-09
         0.36786E-09
         0.39283E-09
         0.41566E-09
         0.39107E-09
         0.30470E-09
         0.24816E-09
         0.32007E-09
         0.42665E-09
         0.46911E-09
         0.44985E-09
         0.40538E-09
         0.36802E-09
         0.29887E-09
         0.25140E-09
         0.32864E-09
         0.43520E-09
         0.44963E-09
         0.36310E-09
         0.29478E-09
         0.36170E-09
         0.42760E-09
         0.91198E-09
         0.72248E-09
         0.77646E-09
         0.13386E-08
         0.71663E-09
         0.91520E-09
         0.50901E-09
         0.61131E-09
         0.10141E-08
         0.74000E-09
         0.29957E-09
         0.56902E-09
         0.62653E-09
         0.50549E-09
         0.64784E-09
         0.12065E-08
         0.94382E-09
         0.12002E-08
         0.70325E-09
         0.80381E-09
         0.75824E-09
         0.84052E-09
         0.64472E-09
         0.40040E-09
         0.75929E-09
         0.63288E-09
         0.65492E-09
         0.67276E-09
         0.58657E-09
         0.71560E-09
         0.91038E-09
         0.64216E-09
         0.10211E-08
         0.89003E-09
         0.40073E-09
         0.61742E-09
         0.70105E-09
         0.74114E-09
         0.71593E-09
         0.56257E-09
         0.35351E-09
         0.58364E-09
         0.77313E-09
         0.62371E-09
         0.54814E-09
         0.35908E-09
         0.61308E-09
         0.83280E-09
         0.87436E-09
         0.70597E-09
         0.43378E-09
         0.74823E-09
         0.27567E-09
         0.35138E-09
         0.32745E-09
         0.38779E-09
         0.37893E-09
         0.36794E-09
         0.39300E-09
         0.41596E-09
         0.39130E-09
         0.30477E-09
         0.24818E-09
         0.32008E-09
         0.42671E-09
         0.46921E-09
         0.44991E-09
         0.40537E-09
         0.36800E-09
         0.29885E-09
         0.25136E-09
         0.32862E-09
         0.43520E-09
         0.44963E-09
         0.36303E-09
         0.29472E-09
         0.36175E-09
         0.42759E-09
         0.91203E-09
         0.72233E-09
         0.77653E-09
         0.13392E-08
         0.71675E-09
         0.91547E-09
         0.50875E-09
         0.61094E-09
         0.10144E-08
         0.73952E-09
         0.29928E-09
         0.56892E-09
         0.62649E-09
         0.50478E-09
         0.64770E-09
         0.12068E-08
         0.94424E-09
         0.12008E-08
         0.70327E-09
         0.80391E-09
         0.75821E-09
         0.84055E-09
         0.64465E-09
         0.40035E-09
         0.75896E-09
         0.63282E-09
         0.65393E-09
         0.67210E-09
         0.58632E-09
         0.71543E-09
         0.91047E-09
         0.64208E-09
         0.10216E-08
         0.89084E-09
         0.40073E-09
         0.61730E-09
         0.70096E-09
         0.74108E-09
         0.71598E-09
         0.56259E-09
         0.35351E-09
         0.58356E-09
         0.77309E-09
         0.62362E-09
         0.54801E-09
         0.35898E-09
         0.61303E-09
         0.83281E-09
         0.87449E-09
         0.70611E-09
         0.43379E-09
         0.74860E-09
         0.27558E-09
         0.35137E-09
         0.32729E-09
         0.38781E-09
         0.37902E-09
         0.36802E-09
         0.39317E-09
         0.41625E-09
         0.39153E-09
         0.30484E-09
         0.24820E-09
         0.32009E-09
         0.42677E-09
         0.46932E-09
         0.44996E-09
         0.40536E-09
         0.36798E-09
         0.29883E-09
         0.25132E-09
         0.32859E-09
         0.43519E-09
         0.44963E-09
         0.36296E-09
         0.29465E-09
         0.36179E-09
         0.42758E-09
         0.91208E-09
         0.72218E-09
         0.77659E-09
         0.13399E-08
         0.71686E-09
         0.91576E-09
         0.50848E-09
         0.61058E-09
         0.10148E-08
         0.73903E-09
         0.29900E-09
         0.56882E-09
         0.62645E-09
         0.50408E-09
         0.64757E-09
         0.12072E-08
         0.94467E-09
         0.12014E-08
         0.70330E-09
         0.80401E-09
         0.75818E-09
         0.84059E-09
         0.64459E-09
         0.40031E-09
         0.75864E-09
         0.63277E-09
         0.65294E-09
         0.67143E-09
         0.58607E-09
         0.71527E-09
         0.91057E-09
         0.64200E-09
         0.10221E-08
         0.89164E-09
         0.40072E-09
         0.61719E-09
         0.70087E-09
         0.74103E-09
         0.71603E-09
         0.56262E-09
         0.35352E-09
         0.58348E-09
         0.77305E-09
         0.62354E-09
         0.54788E-09
         0.35889E-09
         0.61298E-09
         0.83282E-09
         0.87463E-09
         0.70626E-09
         0.43380E-09
         0.74897E-09
         0.27550E-09
         0.35137E-09
         0.32713E-09
         0.38782E-09
         0.37911E-09
         0.36810E-09
         0.39334E-09
         0.41655E-09
         0.39176E-09
         0.30491E-09
         0.24822E-09
         0.32010E-09
         0.42682E-09
         0.46942E-09
         0.45001E-09
         0.40534E-09
         0.36796E-09
         0.29881E-09
         0.25128E-09
         0.32857E-09
         0.43518E-09
         0.44963E-09
         0.36288E-09
         0.29459E-09
         0.36184E-09
         0.42757E-09
         0.91214E-09
         0.72204E-09
         0.77666E-09
         0.13405E-08
         0.71698E-09
         0.91604E-09
         0.50822E-09
         0.61022E-09
         0.10151E-08
         0.73855E-09
         0.29871E-09
         0.56872E-09
         0.62641E-09
         0.50337E-09
         0.64743E-09
         0.12075E-08
         0.94510E-09
         0.12020E-08
         0.70333E-09
         0.80411E-09
         0.75815E-09
         0.84063E-09
         0.64453E-09
         0.40027E-09
         0.75831E-09
         0.63272E-09
         0.65196E-09
         0.67077E-09
         0.58582E-09
         0.71511E-09
         0.91066E-09
         0.64192E-09
         0.10227E-08
         0.89245E-09
         0.40072E-09
         0.61707E-09
         0.70078E-09
         0.74098E-09
         0.71608E-09
         0.56265E-09
         0.35352E-09
         0.58340E-09
         0.77301E-09
         0.62345E-09
         0.54775E-09
         0.35880E-09
         0.61293E-09
         0.83283E-09
         0.87476E-09
         0.70641E-09
         0.43382E-09
         0.74935E-09
         0.27541E-09
         0.35136E-09
         0.32697E-09
         0.38784E-09
         0.37920E-09
         0.36818E-09
         0.39352E-09
         0.41685E-09
         0.39199E-09
         0.30498E-09
         0.24824E-09
         0.32011E-09
         0.42688E-09
         0.46953E-09
         0.45007E-09
         0.40533E-09
         0.36793E-09
         0.29878E-09
         0.25124E-09
         0.32855E-09
         0.43517E-09
         0.44963E-09
         0.36281E-09
         0.29452E-09
         0.36188E-09
         0.42756E-09
         0.91219E-09
         0.72188E-09
         0.77672E-09
         0.13412E-08
         0.71709E-09
         0.91632E-09
         0.50795E-09
         0.60986E-09
         0.10155E-08
         0.73806E-09
         0.29842E-09
         0.56862E-09
         0.62636E-09
         0.50266E-09
         0.64730E-09
         0.12079E-08
         0.94552E-09
         0.12026E-08
         0.70335E-09
         0.80421E-09
         0.75811E-09
         0.84066E-09
         0.64446E-09
         0.40023E-09
         0.75798E-09
         0.63267E-09
         0.65096E-09
         0.67010E-09
         0.58557E-09
         0.71494E-09
         0.91074E-09
         0.64184E-09
         0.10232E-08
         0.89325E-09
         0.40072E-09
         0.61695E-09
         0.70069E-09
         0.74092E-09
         0.71612E-09
         0.56268E-09
         0.35352E-09
         0.58332E-09
         0.77297E-09
         0.62336E-09
         0.54762E-09
         0.35871E-09
         0.61287E-09
         0.83284E-09
         0.87489E-09
         0.70655E-09
         0.43383E-09
         0.74972E-09
         0.27533E-09
         0.35136E-09
         0.32681E-09
         0.38785E-09
         0.37929E-09
         0.36825E-09
         0.39369E-09
         0.41715E-09
         0.39222E-09
         0.30505E-09
         0.24826E-09
         0.32011E-09
         0.42694E-09
         0.46963E-09
         0.45011E-09
         0.40532E-09
         0.36791E-09
         0.29876E-09
         0.25120E-09
         0.32853E-09
         0.43516E-09
         0.44962E-09
         0.36274E-09
         0.29445E-09
         0.36192E-09
         0.42755E-09
         0.91224E-09
         0.72173E-09
         0.77679E-09
         0.13418E-08
         0.71720E-09
         0.91660E-09
         0.50768E-09
         0.60949E-09
         0.10158E-08
         0.73758E-09
         0.29814E-09
         0.56852E-09
         0.62632E-09
         0.50195E-09
         0.64716E-09
         0.12082E-08
         0.94595E-09
         0.12032E-08
         0.70337E-09
         0.80431E-09
         0.75808E-09
         0.84069E-09
         0.64440E-09
         0.40018E-09
         0.75766E-09
         0.63262E-09
         0.64998E-09
         0.66943E-09
         0.58532E-09
         0.71478E-09
         0.91083E-09
         0.64176E-09
         0.10238E-08
         0.89406E-09
         0.40071E-09
         0.61683E-09
         0.70059E-09
         0.74087E-09
         0.71617E-09
         0.56270E-09
         0.35352E-09
         0.58324E-09
         0.77294E-09
         0.62327E-09
         0.54749E-09
         0.35861E-09
         0.61282E-09
         0.83284E-09
         0.87503E-09
         0.70669E-09
         0.43384E-09
         0.75009E-09
         0.27524E-09
         0.35135E-09
         0.32665E-09
         0.38786E-09
         0.37937E-09
         0.36833E-09
         0.39386E-09
         0.41745E-09
         0.39245E-09
         0.30512E-09
         0.24828E-09
         0.32012E-09
         0.42699E-09
         0.46974E-09
         0.45017E-09
         0.40531E-09
         0.36788E-09
         0.29873E-09
         0.25117E-09
         0.32850E-09
         0.43515E-09
         0.44962E-09
         0.36266E-09
         0.29439E-09
         0.36197E-09
         0.42754E-09
         0.91230E-09
         0.72159E-09
         0.77686E-09
         0.13425E-08
         0.71732E-09
         0.91688E-09
         0.50742E-09
         0.60913E-09
         0.10162E-08
         0.73710E-09
         0.29785E-09
         0.56842E-09
         0.62628E-09
         0.50125E-09
         0.64703E-09
         0.12086E-08
         0.94638E-09
         0.12038E-08
         0.70340E-09
         0.80441E-09
         0.75805E-09
         0.84073E-09
         0.64433E-09
         0.40014E-09
         0.75733E-09
         0.63257E-09
         0.64899E-09
         0.66877E-09
         0.58508E-09
         0.71462E-09
         0.91093E-09
         0.64169E-09
         0.10243E-08
         0.89487E-09
         0.40071E-09
         0.61671E-09
         0.70051E-09
         0.74082E-09
         0.71622E-09
         0.56273E-09
         0.35352E-09
         0.58316E-09
         0.77290E-09
         0.62318E-09
         0.54737E-09
         0.35852E-09
         0.61277E-09
         0.83286E-09
         0.87517E-09
         0.70684E-09
         0.43385E-09
         0.75047E-09
         0.27516E-09
         0.35135E-09
         0.32649E-09
         0.38788E-09
         0.37946E-09
         0.36841E-09
         0.39403E-09
         0.41775E-09
         0.39268E-09
         0.30519E-09
         0.24830E-09
         0.32013E-09
         0.42705E-09
         0.46985E-09
         0.45022E-09
         0.40530E-09
         0.36786E-09
         0.29871E-09
         0.25113E-09
         0.32848E-09
         0.43515E-09
         0.44962E-09
         0.36259E-09
         0.29433E-09
         0.36201E-09
         0.42753E-09
         0.91235E-09
         0.72143E-09
         0.77692E-09
         0.13431E-08
         0.71743E-09
         0.91716E-09
         0.50715E-09
         0.60877E-09
         0.10165E-08
         0.73661E-09
         0.29757E-09
         0.56832E-09
         0.62624E-09
         0.50054E-09
         0.64689E-09
         0.12089E-08
         0.94680E-09
         0.12044E-08
         0.70342E-09
         0.80450E-09
         0.75802E-09
         0.84076E-09
         0.64427E-09
         0.40010E-09
         0.75700E-09
         0.63251E-09
         0.64800E-09
         0.66810E-09
         0.58482E-09
         0.71445E-09
         0.91101E-09
         0.64161E-09
         0.10248E-08
         0.89567E-09
         0.40071E-09
         0.61659E-09
         0.70041E-09
         0.74077E-09
         0.71627E-09
         0.56276E-09
         0.35352E-09
         0.58308E-09
         0.77286E-09
         0.62309E-09
         0.54723E-09
         0.35843E-09
         0.61272E-09
         0.83287E-09
         0.87530E-09
         0.70698E-09
         0.43386E-09
         0.75084E-09
         0.27507E-09
         0.35134E-09
         0.32633E-09
         0.38789E-09
         0.37955E-09
         0.36849E-09
         0.39420E-09
         0.41804E-09
         0.39291E-09
         0.30525E-09
         0.24832E-09
         0.32014E-09
         0.42711E-09
         0.46995E-09
         0.45027E-09
         0.40528E-09
         0.36784E-09
         0.29869E-09
         0.25109E-09
         0.32845E-09
         0.43514E-09
         0.44962E-09
         0.36252E-09
         0.29426E-09
         0.36206E-09
         0.42751E-09
         0.91240E-09
         0.72128E-09
         0.77698E-09
         0.13437E-08
         0.71755E-09
         0.91744E-09
         0.50688E-09
         0.60841E-09
         0.10169E-08
         0.73612E-09
         0.29728E-09
         0.56822E-09
         0.62619E-09
         0.49984E-09
         0.64676E-09
         0.12093E-08
         0.94723E-09
         0.12050E-08
         0.70345E-09
         0.80460E-09
         0.75798E-09
         0.84080E-09
         0.64420E-09
         0.40006E-09
         0.75667E-09
         0.63246E-09
         0.64701E-09
         0.66744E-09
         0.58457E-09
         0.71429E-09
         0.91110E-09
         0.64153E-09
         0.10254E-08
         0.89648E-09
         0.40070E-09
         0.61647E-09
         0.70032E-09
         0.74071E-09
         0.71632E-09
         0.56279E-09
         0.35353E-09
         0.58300E-09
         0.77282E-09
         0.62300E-09
         0.54710E-09
         0.35834E-09
         0.61266E-09
         0.83288E-09
         0.87543E-09
         0.70713E-09
         0.43387E-09
         0.75122E-09
         0.27499E-09
         0.35133E-09
         0.32617E-09
         0.38790E-09
         0.37964E-09
         0.36857E-09
         0.39437E-09
         0.41834E-09
         0.39314E-09
         0.30532E-09
         0.24834E-09
         0.32014E-09
         0.42716E-09
         0.47005E-09
         0.45032E-09
         0.40527E-09
         0.36781E-09
         0.29866E-09
         0.25105E-09
         0.32843E-09
         0.43513E-09
         0.44962E-09
         0.36244E-09
         0.29419E-09
         0.36210E-09
         0.42750E-09
         0.91246E-09
         0.72114E-09
         0.77705E-09
         0.13444E-08
         0.71767E-09
         0.91773E-09
         0.50662E-09
         0.60805E-09
         0.10173E-08
         0.73564E-09
         0.29700E-09
         0.56812E-09
         0.62616E-09
         0.49914E-09
         0.64663E-09
         0.12097E-08
         0.94766E-09
         0.12056E-08
         0.70348E-09
         0.80471E-09
         0.75796E-09
         0.84084E-09
         0.64414E-09
         0.40002E-09
         0.75635E-09
         0.63241E-09
         0.64603E-09
         0.66678E-09
         0.58433E-09
         0.71413E-09
         0.91120E-09
         0.64146E-09
         0.10259E-08
         0.89729E-09
         0.40070E-09
         0.61636E-09
         0.70023E-09
         0.74067E-09
         0.71637E-09
         0.56282E-09
         0.35353E-09
         0.58293E-09
         0.77279E-09
         0.62291E-09
         0.54698E-09
         0.35825E-09
         0.61261E-09
         0.83289E-09
         0.87557E-09
         0.70728E-09
         0.43389E-09
         0.75160E-09
         0.27491E-09
         0.35133E-09
         0.32601E-09
         0.38792E-09
         0.37972E-09
         0.36865E-09
         0.39454E-09
         0.41864E-09
         0.39337E-09
         0.30539E-09
         0.24836E-09
         0.32015E-09
         0.42722E-09
         0.47016E-09
         0.45038E-09
         0.40526E-09
         0.36779E-09
         0.29864E-09
         0.25101E-09
         0.32841E-09
         0.43512E-09
         0.44962E-09
         0.36237E-09
         0.29413E-09
         0.36215E-09
         0.42750E-09
         0.91249E-09
         0.72097E-09
         0.77710E-09
         0.13450E-08
         0.71777E-09
         0.91799E-09
         0.50634E-09
         0.60767E-09
         0.10176E-08
         0.73514E-09
         0.29670E-09
         0.56801E-09
         0.62610E-09
         0.49842E-09
         0.64648E-09
         0.12100E-08
         0.94806E-09
         0.12062E-08
         0.70349E-09
         0.80479E-09
         0.75791E-09
         0.84086E-09
         0.64406E-09
         0.39997E-09
         0.75600E-09
         0.63234E-09
         0.64503E-09
         0.66610E-09
         0.58407E-09
         0.71395E-09
         0.91127E-09
         0.64136E-09
         0.10264E-08
         0.89808E-09
         0.40069E-09
         0.61622E-09
         0.70012E-09
         0.74060E-09
         0.71641E-09
         0.56283E-09
         0.35352E-09
         0.58283E-09
         0.77273E-09
         0.62281E-09
         0.54684E-09
         0.35815E-09
         0.61255E-09
         0.83288E-09
         0.87569E-09
         0.70741E-09
         0.43389E-09
         0.75195E-09
         0.27482E-09
         0.35132E-09
         0.32584E-09
         0.38793E-09
         0.37980E-09
         0.36872E-09
         0.39470E-09
         0.41893E-09
         0.39360E-09
         0.30545E-09
         0.24837E-09
         0.32016E-09
         0.42727E-09
         0.47026E-09
         0.45042E-09
         0.40524E-09
         0.36776E-09
         0.29861E-09
         0.25097E-09
         0.32838E-09
         0.43510E-09
         0.44961E-09
         0.36229E-09
         0.29406E-09
         0.36218E-09
         0.42748E-09
         0.91256E-09
         0.72083E-09
         0.77718E-09
         0.13457E-08
         0.71789E-09
         0.91829E-09
         0.50608E-09
         0.60732E-09
         0.10180E-08
         0.73467E-09
         0.29642E-09
         0.56792E-09
         0.62607E-09
         0.49772E-09
         0.64636E-09
         0.12103E-08
         0.94850E-09
         0.12068E-08
         0.70352E-09
         0.80490E-09
         0.75789E-09
         0.84091E-09
         0.64401E-09
         0.39993E-09
         0.75569E-09
         0.63230E-09
         0.64405E-09
         0.66544E-09
         0.58382E-09
         0.71379E-09
         0.91137E-09
         0.64129E-09
         0.10270E-08
         0.89890E-09
         0.40069E-09
         0.61611E-09
         0.70004E-09
         0.74056E-09
         0.71646E-09
         0.56287E-09
         0.35353E-09
         0.58276E-09
         0.77271E-09
         0.62273E-09
         0.54672E-09
         0.35806E-09
         0.61251E-09
         0.83291E-09
         0.87583E-09
         0.70756E-09
         0.43391E-09
         0.75234E-09
         0.27474E-09
         0.35132E-09
         0.32569E-09
         0.38794E-09
         0.37990E-09
         0.36881E-09
         0.39488E-09
         0.41923E-09
         0.39383E-09
         0.30553E-09
         0.24840E-09
         0.32017E-09
         0.42734E-09
         0.47037E-09
         0.45048E-09
         0.40524E-09
         0.36774E-09
         0.29859E-09
         0.25093E-09
         0.32836E-09
         0.43510E-09
         0.44962E-09
         0.36222E-09
         0.29400E-09
         0.36223E-09
         0.42747E-09
         0.45631E-09
         0.36039E-09
         0.38862E-09
         0.67302E-09
         0.35899E-09
         0.45923E-09
         0.25298E-09
         0.30358E-09
         0.50909E-09
         0.36723E-09
         0.14815E-09
         0.28394E-09
         0.31303E-09
         0.24869E-09
         0.32316E-09
         0.60528E-09
         0.47437E-09
         0.60357E-09
         0.35178E-09
         0.40249E-09
         0.37895E-09
         0.42048E-09
         0.32200E-09
         0.19996E-09
         0.37777E-09
         0.31615E-09
         0.32179E-09
         0.33257E-09
         0.29186E-09
         0.35687E-09
         0.45572E-09
         0.32064E-09
         0.51365E-09
         0.44967E-09
         0.20035E-09
         0.30804E-09
         0.35001E-09
         0.37028E-09
         0.35826E-09
         0.28145E-09
         0.17677E-09
         0.29137E-09
         0.38636E-09
         0.31135E-09
         0.27333E-09
         0.17901E-09
         0.30625E-09
         0.41647E-09
         0.43797E-09
         0.35383E-09
         0.21697E-09
         0.37628E-09
         0.13735E-09
         0.17566E-09
         0.16281E-09
         0.19398E-09
         0.18998E-09
         0.18443E-09
         0.19749E-09
         0.20970E-09
         0.19698E-09
         0.15279E-09
         0.12421E-09
         0.16009E-09
         0.21369E-09
         0.23522E-09
         0.22526E-09
         0.20262E-09
         0.18387E-09
         0.14930E-09
         0.12546E-09
         0.16418E-09
         0.21756E-09
         0.22482E-09
         0.18110E-09
         0.14699E-09
         0.18113E-09
         0.21374E-09
  
SCALARS               pre_disp_force_x  double 1
LOOKUP_TABLE default
         0.00000E+00
         0.00000E+00
         0.00000E+00
         0.00000E+00
         0.00000E+00
         0.00000E+00
         0.00000E+00
         0.00000E+00
         0.00000E+00
         0.00000E+00
         0.00000E+00
         0.00000E+00
         0.00000E+00
         0.00000E+00
         0.00000E+00
         0.00000E+00
         0.00000E+00
         0.00000E+00
         0.00000E+00
         0.00000E+00
         0.00000E+00
         0.00000E+00
         0.00000E+00
         0.00000E+00
         0.00000E+00
         0.00000E+00
         0.00000E+00
         0.00000E+00
         0.00000E+00
         0.00000E+00
         0.00000E+00
         0.00000E+00
         0.00000E+00
         0.00000E+00
         0.00000E+00
         0.00000E+00
         0.00000E+00
         0.00000E+00
         0.00000E+00
         0.00000E+00
         0.00000E+00
         0.00000E+00
         0.00000E+00
         0.00000E+00
         0.00000E+00
         0.00000E+00
         0.00000E+00
         0.00000E+00
         0.00000E+00
         0.00000E+00
         0.00000E+00
         0.00000E+00
         0.00000E+00
         0.00000E+00
         0.00000E+00
         0.00000E+00
         0.00000E+00
         0.00000E+00
         0.00000E+00
         0.00000E+00
         0.00000E+00
         0.00000E+00
         0.00000E+00
         0.00000E+00
         0.00000E+00
         0.00000E+00
         0.00000E+00
         0.00000E+00
         0.00000E+00
         0.00000E+00
         0.00000E+00
         0.00000E+00
         0.00000E+00
         0.00000E+00
         0.00000E+00
         0.00000E+00
         0.00000E+00
         0.00000E+00
         0.00000E+00
         0.00000E+00
         0.00000E+00
         0.00000E+00
         0.00000E+00
         0.00000E+00
         0.00000E+00
         0.00000E+00
         0.00000E+00
         0.00000E+00
         0.00000E+00
         0.00000E+00
         0.00000E+00
         0.00000E+00
         0.00000E+00
         0.00000E+00
         0.00000E+00
         0.00000E+00
         0.00000E+00
         0.00000E+00
         0.00000E+00
         0.00000E+00
         0.00000E+00
         0.00000E+00
         0.00000E+00
         0.00000E+00
         0.00000E+00
         0.00000E+00
         0.00000E+00
         0.00000E+00
         0.00000E+00
         0.00000E+00
         0.00000E+00
         0.00000E+00
         0.00000E+00
         0.00000E+00
         0.00000E+00
         0.00000E+00
         0.00000E+00
         0.00000E+00
         0.00000E+00
         0.00000E+00
         0.00000E+00
         0.00000E+00
         0.00000E+00
         0.00000E+00
         0.00000E+00
         0.00000E+00
         0.00000E+00
         0.00000E+00
         0.00000E+00
         0.00000E+00
         0.00000E+00
         0.00000E+00
         0.00000E+00
         0.00000E+00
         0.00000E+00
         0.00000E+00
         0.00000E+00
         0.00000E+00
         0.00000E+00
         0.00000E+00
         0.00000E+00
         0.00000E+00
         0.00000E+00
         0.00000E+00
         0.00000E+00
         0.00000E+00
         0.00000E+00
         0.00000E+00
         0.00000E+00
         0.00000E+00
         0.00000E+00
         0.00000E+00
         0.00000E+00
         0.00000E+00
         0.00000E+00
         0.00000E+00
         0.00000E+00
         0.00000E+00
         0.00000E+00
         0.00000E+00
         0.00000E+00
         0.00000E+00
         0.00000E+00
         0.00000E+00
         0.00000E+00
         0.00000E+00
         0.00000E+00
         0.00000E+00
         0.00000E+00
         0.00000E+00
         0.00000E+00
         0.00000E+00
         0.00000E+00
         0.00000E+00
         0.00000E+00
         0.00000E+00
         0.00000E+00
         0.00000E+00
         0.00000E+00
         0.00000E+00
         0.00000E+00
         0.00000E+00
         0.00000E+00
         0.00000E+00
         0.00000E+00
         0.00000E+00
         0.00000E+00
         0.00000E+00
         0.00000E+00
         0.00000E+00
         0.00000E+00
         0.00000E+00
         0.00000E+00
         0.00000E+00
         0.00000E+00
         0.00000E+00
         0.00000E+00
         0.00000E+00
         0.00000E+00
         0.00000E+00
         0.00000E+00
         0.00000E+00
         0.00000E+00
         0.00000E+00
         0.00000E+00
         0.00000E+00
         0.00000E+00
         0.00000E+00
         0.00000E+00
         0.00000E+00
         0.00000E+00
         0.00000E+00
         0.00000E+00
         0.00000E+00
         0.00000E+00
         0.00000E+00
         0.00000E+00
         0.00000E+00
         0.00000E+00
         0.00000E+00
         0.00000E+00
         0.00000E+00
         0.00000E+00
         0.00000E+00
         0.00000E+00
         0.00000E+00
         0.00000E+00
         0.00000E+00
         0.00000E+00
         0.00000E+00
         0.00000E+00
         0.00000E+00
         0.00000E+00
         0.00000E+00
         0.00000E+00
         0.00000E+00
         0.00000E+00
         0.00000E+00
         0.00000E+00
         0.00000E+00
         0.00000E+00
         0.00000E+00
         0.00000E+00
         0.00000E+00
         0.00000E+00
         0.00000E+00
         0.00000E+00
         0.00000E+00
         0.00000E+00
         0.00000E+00
         0.00000E+00
         0.00000E+00
         0.00000E+00
         0.00000E+00
         0.00000E+00
         0.00000E+00
         0.00000E+00
         0.00000E+00
         0.00000E+00
         0.00000E+00
         0.00000E+00
         0.00000E+00
         0.00000E+00
         0.00000E+00
         0.00000E+00
         0.00000E+00
         0.00000E+00
         0.00000E+00
         0.00000E+00
         0.00000E+00
         0.00000E+00
         0.00000E+00
         0.00000E+00
         0.00000E+00
         0.00000E+00
         0.00000E+00
         0.00000E+00
         0.00000E+00
         0.00000E+00
         0.00000E+00
         0.00000E+00
         0.00000E+00
         0.00000E+00
         0.00000E+00
         0.00000E+00
         0.00000E+00
         0.00000E+00
         0.00000E+00
         0.00000E+00
         0.00000E+00
         0.00000E+00
         0.00000E+00
         0.00000E+00
         0.00000E+00
         0.00000E+00
         0.00000E+00
         0.00000E+00
         0.00000E+00
         0.00000E+00
         0.00000E+00
         0.00000E+00
         0.00000E+00
         0.00000E+00
         0.00000E+00
         0.00000E+00
         0.00000E+00
         0.00000E+00
         0.00000E+00
         0.00000E+00
         0.00000E+00
         0.00000E+00
         0.00000E+00
         0.00000E+00
         0.00000E+00
         0.00000E+00
         0.00000E+00
         0.00000E+00
         0.00000E+00
         0.00000E+00
         0.00000E+00
         0.00000E+00
         0.00000E+00
         0.00000E+00
         0.00000E+00
         0.00000E+00
         0.00000E+00
         0.00000E+00
         0.00000E+00
         0.00000E+00
         0.00000E+00
         0.00000E+00
         0.00000E+00
         0.00000E+00
         0.00000E+00
         0.00000E+00
         0.00000E+00
         0.00000E+00
         0.00000E+00
         0.00000E+00
         0.00000E+00
         0.00000E+00
         0.00000E+00
         0.00000E+00
         0.00000E+00
         0.00000E+00
         0.00000E+00
         0.00000E+00
         0.00000E+00
         0.00000E+00
         0.00000E+00
         0.00000E+00
         0.00000E+00
         0.00000E+00
         0.00000E+00
         0.00000E+00
         0.00000E+00
         0.00000E+00
         0.00000E+00
         0.00000E+00
         0.00000E+00
         0.00000E+00
         0.00000E+00
         0.00000E+00
         0.00000E+00
         0.00000E+00
         0.00000E+00
         0.00000E+00
         0.00000E+00
         0.00000E+00
         0.00000E+00
         0.00000E+00
         0.00000E+00
         0.00000E+00
         0.00000E+00
         0.00000E+00
         0.00000E+00
         0.00000E+00
         0.00000E+00
         0.00000E+00
         0.00000E+00
         0.00000E+00
         0.00000E+00
         0.00000E+00
         0.00000E+00
         0.00000E+00
         0.00000E+00
         0.00000E+00
         0.00000E+00
         0.00000E+00
         0.00000E+00
         0.00000E+00
         0.00000E+00
         0.00000E+00
         0.00000E+00
         0.00000E+00
         0.00000E+00
         0.00000E+00
         0.00000E+00
         0.00000E+00
         0.00000E+00
         0.00000E+00
         0.00000E+00
         0.00000E+00
         0.00000E+00
         0.00000E+00
         0.00000E+00
         0.00000E+00
         0.00000E+00
         0.00000E+00
         0.00000E+00
         0.00000E+00
         0.00000E+00
         0.00000E+00
         0.00000E+00
         0.00000E+00
         0.00000E+00
         0.00000E+00
         0.00000E+00
         0.00000E+00
         0.00000E+00
         0.00000E+00
         0.00000E+00
         0.00000E+00
         0.00000E+00
         0.00000E+00
         0.00000E+00
         0.00000E+00
         0.00000E+00
         0.00000E+00
         0.00000E+00
         0.00000E+00
         0.00000E+00
         0.00000E+00
         0.00000E+00
         0.00000E+00
         0.00000E+00
         0.00000E+00
         0.00000E+00
         0.00000E+00
         0.00000E+00
         0.00000E+00
         0.00000E+00
         0.00000E+00
         0.00000E+00
         0.00000E+00
         0.00000E+00
         0.00000E+00
         0.00000E+00
         0.00000E+00
         0.00000E+00
         0.00000E+00
         0.00000E+00
         0.00000E+00
         0.00000E+00
         0.00000E+00
         0.00000E+00
         0.00000E+00
         0.00000E+00
         0.00000E+00
         0.00000E+00
         0.00000E+00
         0.00000E+00
         0.00000E+00
         0.00000E+00
         0.00000E+00
         0.00000E+00
         0.00000E+00
         0.00000E+00
         0.00000E+00
         0.00000E+00
         0.00000E+00
         0.00000E+00
         0.00000E+00
         0.00000E+00
         0.00000E+00
         0.00000E+00
         0.00000E+00
         0.00000E+00
         0.00000E+00
         0.00000E+00
         0.00000E+00
         0.00000E+00
         0.00000E+00
         0.00000E+00
         0.00000E+00
         0.00000E+00
         0.00000E+00
         0.00000E+00
         0.00000E+00
         0.00000E+00
         0.00000E+00
         0.00000E+00
         0.00000E+00
         0.00000E+00
         0.00000E+00
         0.00000E+00
         0.00000E+00
         0.00000E+00
         0.00000E+00
         0.00000E+00
         0.00000E+00
         0.00000E+00
         0.00000E+00
         0.00000E+00
         0.00000E+00
         0.00000E+00
         0.00000E+00
         0.00000E+00
         0.00000E+00
         0.00000E+00
         0.00000E+00
         0.00000E+00
         0.00000E+00
         0.00000E+00
         0.00000E+00
         0.00000E+00
         0.00000E+00
         0.00000E+00
         0.00000E+00
         0.00000E+00
         0.00000E+00
         0.00000E+00
         0.00000E+00
         0.00000E+00
         0.00000E+00
         0.00000E+00
         0.00000E+00
         0.00000E+00
         0.00000E+00
         0.00000E+00
         0.00000E+00
         0.00000E+00
         0.00000E+00
         0.00000E+00
         0.00000E+00
         0.00000E+00
         0.00000E+00
         0.00000E+00
         0.00000E+00
         0.00000E+00
         0.00000E+00
         0.00000E+00
         0.00000E+00
         0.00000E+00
         0.00000E+00
         0.00000E+00
         0.00000E+00
         0.00000E+00
         0.00000E+00
         0.00000E+00
         0.00000E+00
         0.00000E+00
         0.00000E+00
         0.00000E+00
         0.00000E+00
         0.00000E+00
         0.00000E+00
         0.00000E+00
         0.00000E+00
         0.00000E+00
         0.00000E+00
         0.00000E+00
         0.00000E+00
         0.00000E+00
         0.00000E+00
         0.00000E+00
         0.00000E+00
         0.00000E+00
         0.00000E+00
         0.00000E+00
         0.00000E+00
         0.00000E+00
         0.00000E+00
         0.00000E+00
         0.00000E+00
         0.00000E+00
         0.00000E+00
         0.00000E+00
         0.00000E+00
         0.00000E+00
         0.00000E+00
         0.00000E+00
         0.00000E+00
         0.00000E+00
         0.00000E+00
         0.00000E+00
         0.00000E+00
         0.00000E+00
         0.00000E+00
         0.00000E+00
         0.00000E+00
         0.00000E+00
         0.00000E+00
         0.00000E+00
         0.00000E+00
         0.00000E+00
         0.00000E+00
         0.00000E+00
         0.00000E+00
         0.00000E+00
         0.00000E+00
         0.00000E+00
         0.00000E+00
         0.00000E+00
         0.00000E+00
         0.00000E+00
         0.00000E+00
         0.00000E+00
         0.00000E+00
         0.00000E+00
         0.00000E+00
         0.00000E+00
         0.00000E+00
         0.00000E+00
         0.00000E+00
         0.00000E+00
         0.00000E+00
         0.00000E+00
         0.00000E+00
         0.00000E+00
         0.00000E+00
         0.00000E+00
         0.00000E+00
         0.00000E+00
         0.00000E+00
         0.00000E+00
         0.00000E+00
         0.00000E+00
         0.00000E+00
         0.00000E+00
         0.00000E+00
         0.00000E+00
         0.00000E+00
         0.00000E+00
         0.00000E+00
         0.00000E+00
         0.00000E+00
         0.00000E+00
         0.00000E+00
         0.00000E+00
         0.00000E+00
         0.00000E+00
         0.00000E+00
         0.00000E+00
         0.00000E+00
         0.00000E+00
         0.00000E+00
         0.00000E+00
         0.00000E+00
         0.00000E+00
         0.00000E+00
         0.00000E+00
         0.00000E+00
         0.00000E+00
         0.00000E+00
         0.00000E+00
         0.00000E+00
         0.00000E+00
         0.00000E+00
         0.00000E+00
         0.00000E+00
         0.00000E+00
         0.00000E+00
         0.00000E+00
         0.00000E+00
         0.00000E+00
         0.00000E+00
         0.00000E+00
         0.00000E+00
         0.00000E+00
         0.00000E+00
         0.00000E+00
         0.00000E+00
         0.00000E+00
         0.00000E+00
         0.00000E+00
         0.00000E+00
         0.00000E+00
         0.00000E+00
         0.00000E+00
         0.00000E+00
         0.00000E+00
         0.00000E+00
         0.00000E+00
         0.00000E+00
         0.00000E+00
         0.00000E+00
         0.00000E+00
         0.00000E+00
         0.00000E+00
         0.00000E+00
         0.00000E+00
         0.00000E+00
         0.00000E+00
         0.00000E+00
         0.00000E+00
         0.00000E+00
         0.00000E+00
         0.00000E+00
         0.00000E+00
         0.00000E+00
         0.00000E+00
         0.00000E+00
         0.00000E+00
         0.00000E+00
         0.00000E+00
         0.00000E+00
         0.00000E+00
         0.00000E+00
         0.00000E+00
         0.00000E+00
         0.00000E+00
         0.00000E+00
         0.00000E+00
         0.00000E+00
         0.00000E+00
         0.00000E+00
         0.00000E+00
         0.00000E+00
         0.00000E+00
         0.00000E+00
         0.00000E+00
         0.00000E+00
         0.00000E+00
         0.00000E+00
         0.00000E+00
         0.00000E+00
         0.00000E+00
         0.00000E+00
         0.00000E+00
         0.00000E+00
         0.00000E+00
         0.00000E+00
         0.00000E+00
         0.00000E+00
         0.00000E+00
         0.00000E+00
         0.00000E+00
         0.00000E+00
         0.00000E+00
         0.00000E+00
         0.00000E+00
         0.00000E+00
         0.00000E+00
         0.00000E+00
         0.00000E+00
         0.00000E+00
         0.00000E+00
         0.00000E+00
         0.00000E+00
         0.00000E+00
         0.00000E+00
         0.00000E+00
         0.00000E+00
         0.00000E+00
         0.00000E+00
         0.00000E+00
         0.00000E+00
         0.00000E+00
         0.00000E+00
         0.00000E+00
         0.00000E+00
         0.00000E+00
         0.00000E+00
         0.00000E+00
         0.00000E+00
         0.00000E+00
         0.00000E+00
         0.00000E+00
         0.00000E+00
         0.00000E+00
         0.00000E+00
         0.00000E+00
         0.00000E+00
         0.00000E+00
         0.00000E+00
         0.00000E+00
         0.00000E+00
         0.00000E+00
         0.00000E+00
         0.00000E+00
         0.00000E+00
         0.00000E+00
         0.00000E+00
         0.00000E+00
         0.00000E+00
         0.00000E+00
         0.00000E+00
         0.00000E+00
         0.00000E+00
         0.00000E+00
         0.00000E+00
         0.00000E+00
         0.00000E+00
         0.00000E+00
         0.00000E+00
         0.00000E+00
         0.00000E+00
         0.00000E+00
         0.00000E+00
         0.00000E+00
         0.00000E+00
         0.00000E+00
         0.00000E+00
         0.00000E+00
         0.00000E+00
         0.00000E+00
         0.00000E+00
         0.00000E+00
         0.00000E+00
         0.00000E+00
         0.00000E+00
         0.00000E+00
         0.00000E+00
         0.00000E+00
         0.00000E+00
         0.00000E+00
         0.00000E+00
         0.00000E+00
         0.00000E+00
         0.00000E+00
         0.00000E+00
         0.00000E+00
         0.00000E+00
         0.00000E+00
         0.00000E+00
         0.00000E+00
         0.00000E+00
         0.00000E+00
         0.00000E+00
         0.00000E+00
         0.00000E+00
         0.00000E+00
         0.00000E+00
         0.00000E+00
         0.00000E+00
         0.00000E+00
         0.00000E+00
         0.00000E+00
         0.00000E+00
         0.00000E+00
         0.00000E+00
         0.00000E+00
         0.00000E+00
         0.00000E+00
         0.00000E+00
         0.00000E+00
         0.00000E+00
         0.00000E+00
         0.00000E+00
         0.00000E+00
         0.00000E+00
         0.00000E+00
         0.00000E+00
         0.00000E+00
         0.00000E+00
         0.00000E+00
         0.00000E+00
         0.00000E+00
         0.00000E+00
         0.00000E+00
         0.00000E+00
         0.00000E+00
         0.00000E+00
         0.00000E+00
         0.00000E+00
         0.00000E+00
         0.00000E+00
         0.00000E+00
         0.00000E+00
         0.00000E+00
         0.00000E+00
         0.00000E+00
         0.00000E+00
         0.00000E+00
         0.00000E+00
         0.00000E+00
         0.00000E+00
         0.00000E+00
         0.00000E+00
         0.00000E+00
         0.00000E+00
         0.00000E+00
         0.00000E+00
         0.00000E+00
         0.00000E+00
         0.00000E+00
         0.00000E+00
         0.00000E+00
         0.00000E+00
         0.00000E+00
         0.00000E+00
         0.00000E+00
         0.00000E+00
         0.00000E+00
         0.00000E+00
         0.00000E+00
         0.00000E+00
         0.00000E+00
         0.00000E+00
         0.00000E+00
         0.00000E+00
         0.00000E+00
         0.00000E+00
         0.00000E+00
         0.00000E+00
         0.00000E+00
         0.00000E+00
         0.00000E+00
         0.00000E+00
         0.00000E+00
         0.00000E+00
         0.00000E+00
         0.00000E+00
         0.00000E+00
         0.00000E+00
         0.00000E+00
         0.00000E+00
         0.00000E+00
         0.00000E+00
         0.00000E+00
         0.00000E+00
         0.00000E+00
         0.00000E+00
         0.00000E+00
         0.00000E+00
         0.00000E+00
         0.00000E+00
         0.00000E+00
         0.00000E+00
         0.00000E+00
         0.00000E+00
         0.00000E+00
         0.00000E+00
         0.00000E+00
         0.00000E+00
         0.00000E+00
         0.00000E+00
         0.00000E+00
         0.00000E+00
         0.00000E+00
         0.00000E+00
         0.00000E+00
         0.00000E+00
         0.00000E+00
         0.00000E+00
         0.00000E+00
         0.00000E+00
         0.00000E+00
         0.00000E+00
         0.00000E+00
         0.00000E+00
         0.00000E+00
         0.00000E+00
         0.00000E+00
         0.00000E+00
         0.00000E+00
         0.00000E+00
         0.00000E+00
         0.00000E+00
         0.00000E+00
         0.00000E+00
         0.00000E+00
         0.00000E+00
         0.00000E+00
         0.00000E+00
         0.00000E+00
         0.00000E+00
         0.00000E+00
         0.00000E+00
         0.00000E+00
         0.00000E+00
         0.00000E+00
         0.00000E+00
         0.00000E+00
         0.00000E+00
         0.00000E+00
         0.00000E+00
         0.00000E+00
         0.00000E+00
         0.00000E+00
         0.00000E+00
         0.00000E+00
         0.00000E+00
         0.00000E+00
         0.00000E+00
         0.00000E+00
         0.00000E+00
         0.00000E+00
         0.00000E+00
         0.00000E+00
         0.00000E+00
         0.00000E+00
         0.00000E+00
         0.00000E+00
         0.00000E+00
         0.00000E+00
         0.00000E+00
         0.00000E+00
         0.00000E+00
         0.00000E+00
         0.00000E+00
         0.00000E+00
         0.00000E+00
         0.00000E+00
         0.00000E+00
         0.00000E+00
         0.00000E+00
         0.00000E+00
         0.00000E+00
         0.00000E+00
         0.00000E+00
         0.00000E+00
         0.00000E+00
         0.00000E+00
         0.00000E+00
         0.00000E+00
         0.00000E+00
         0.00000E+00
         0.00000E+00
         0.00000E+00
         0.00000E+00
         0.00000E+00
         0.00000E+00
         0.00000E+00
         0.00000E+00
         0.00000E+00
         0.00000E+00
         0.00000E+00
         0.00000E+00
         0.00000E+00
         0.00000E+00
         0.00000E+00
         0.00000E+00
         0.00000E+00
         0.00000E+00
         0.00000E+00
         0.00000E+00
         0.00000E+00
         0.00000E+00
         0.00000E+00
         0.00000E+00
         0.00000E+00
         0.00000E+00
         0.00000E+00
         0.00000E+00
         0.00000E+00
         0.00000E+00
         0.00000E+00
         0.00000E+00
         0.00000E+00
         0.00000E+00
         0.00000E+00
         0.00000E+00
         0.00000E+00
         0.00000E+00
         0.00000E+00
         0.00000E+00
         0.00000E+00
         0.00000E+00
         0.00000E+00
         0.00000E+00
         0.00000E+00
         0.00000E+00
         0.00000E+00
         0.00000E+00
         0.00000E+00
         0.00000E+00
         0.00000E+00
         0.00000E+00
         0.00000E+00
         0.00000E+00
         0.00000E+00
         0.00000E+00
         0.00000E+00
         0.00000E+00
         0.00000E+00
         0.00000E+00
         0.00000E+00
         0.00000E+00
         0.00000E+00
         0.00000E+00
         0.00000E+00
         0.00000E+00
         0.00000E+00
         0.00000E+00
         0.00000E+00
         0.00000E+00
         0.00000E+00
         0.00000E+00
         0.00000E+00
         0.00000E+00
         0.00000E+00
         0.00000E+00
         0.00000E+00
         0.00000E+00
         0.00000E+00
         0.00000E+00
         0.00000E+00
         0.00000E+00
         0.00000E+00
         0.00000E+00
         0.00000E+00
         0.00000E+00
         0.00000E+00
         0.00000E+00
         0.00000E+00
         0.00000E+00
         0.00000E+00
         0.00000E+00
         0.00000E+00
         0.00000E+00
         0.00000E+00
         0.00000E+00
         0.00000E+00
         0.00000E+00
         0.00000E+00
         0.00000E+00
         0.00000E+00
         0.00000E+00
         0.00000E+00
         0.00000E+00
         0.00000E+00
         0.00000E+00
         0.00000E+00
         0.00000E+00
         0.00000E+00
         0.00000E+00
         0.00000E+00
         0.00000E+00
         0.00000E+00
         0.00000E+00
         0.00000E+00
         0.00000E+00
         0.00000E+00
         0.00000E+00
         0.00000E+00
         0.00000E+00
         0.00000E+00
         0.00000E+00
         0.00000E+00
         0.00000E+00
         0.00000E+00
         0.00000E+00
         0.00000E+00
         0.00000E+00
         0.00000E+00
         0.00000E+00
         0.00000E+00
         0.00000E+00
         0.00000E+00
         0.00000E+00
         0.00000E+00
         0.00000E+00
         0.00000E+00
         0.00000E+00
         0.00000E+00
         0.00000E+00
         0.00000E+00
         0.00000E+00
         0.00000E+00
         0.00000E+00
         0.00000E+00
         0.00000E+00
         0.00000E+00
         0.00000E+00
         0.00000E+00
         0.00000E+00
         0.00000E+00
         0.00000E+00
         0.00000E+00
         0.00000E+00
         0.00000E+00
         0.00000E+00
         0.00000E+00
         0.00000E+00
         0.00000E+00
         0.00000E+00
         0.00000E+00
         0.00000E+00
         0.00000E+00
         0.00000E+00
         0.00000E+00
         0.00000E+00
         0.00000E+00
         0.00000E+00
         0.00000E+00
         0.00000E+00
         0.00000E+00
         0.00000E+00
         0.00000E+00
         0.00000E+00
         0.00000E+00
         0.00000E+00
         0.00000E+00
         0.00000E+00
         0.00000E+00
         0.00000E+00
         0.00000E+00
         0.00000E+00
         0.00000E+00
         0.00000E+00
         0.00000E+00
         0.00000E+00
         0.00000E+00
         0.00000E+00
         0.00000E+00
         0.00000E+00
         0.00000E+00
         0.00000E+00
         0.00000E+00
         0.00000E+00
         0.00000E+00
         0.00000E+00
         0.00000E+00
         0.00000E+00
         0.00000E+00
         0.00000E+00
         0.00000E+00
         0.00000E+00
         0.00000E+00
         0.00000E+00
         0.00000E+00
         0.00000E+00
         0.00000E+00
         0.00000E+00
         0.00000E+00
         0.00000E+00
         0.00000E+00
         0.00000E+00
         0.00000E+00
         0.00000E+00
         0.00000E+00
         0.00000E+00
         0.00000E+00
         0.00000E+00
         0.00000E+00
         0.00000E+00
         0.00000E+00
         0.00000E+00
         0.00000E+00
         0.00000E+00
         0.00000E+00
         0.00000E+00
         0.00000E+00
         0.00000E+00
         0.00000E+00
         0.00000E+00
         0.00000E+00
         0.00000E+00
         0.00000E+00
         0.00000E+00
         0.00000E+00
         0.00000E+00
         0.00000E+00
         0.00000E+00
         0.00000E+00
         0.00000E+00
         0.00000E+00
         0.00000E+00
         0.00000E+00
         0.00000E+00
         0.00000E+00
         0.00000E+00
         0.00000E+00
         0.00000E+00
         0.00000E+00
         0.00000E+00
         0.00000E+00
         0.00000E+00
         0.00000E+00
         0.00000E+00
         0.00000E+00
         0.00000E+00
         0.00000E+00
         0.00000E+00
         0.00000E+00
         0.00000E+00
         0.00000E+00
         0.00000E+00
         0.00000E+00
         0.00000E+00
         0.00000E+00
         0.00000E+00
         0.00000E+00
         0.00000E+00
         0.00000E+00
         0.00000E+00
         0.00000E+00
         0.00000E+00
         0.00000E+00
         0.00000E+00
         0.00000E+00
         0.00000E+00
         0.00000E+00
         0.00000E+00
         0.00000E+00
         0.00000E+00
         0.00000E+00
         0.00000E+00
         0.00000E+00
         0.00000E+00
         0.00000E+00
         0.00000E+00
         0.00000E+00
         0.00000E+00
         0.00000E+00
         0.00000E+00
         0.00000E+00
         0.00000E+00
         0.00000E+00
         0.00000E+00
         0.00000E+00
         0.00000E+00
         0.00000E+00
         0.00000E+00
         0.00000E+00
         0.00000E+00
         0.00000E+00
         0.00000E+00
         0.00000E+00
         0.00000E+00
         0.00000E+00
         0.00000E+00
         0.00000E+00
         0.00000E+00
         0.00000E+00
         0.00000E+00
         0.00000E+00
         0.00000E+00
         0.00000E+00
         0.00000E+00
         0.00000E+00
         0.00000E+00
         0.00000E+00
         0.00000E+00
         0.00000E+00
         0.00000E+00
         0.00000E+00
         0.00000E+00
         0.00000E+00
         0.00000E+00
         0.00000E+00
         0.00000E+00
         0.00000E+00
         0.00000E+00
         0.00000E+00
         0.00000E+00
         0.00000E+00
         0.00000E+00
         0.00000E+00
         0.00000E+00
         0.00000E+00
         0.00000E+00
         0.00000E+00
         0.00000E+00
         0.00000E+00
         0.00000E+00
         0.00000E+00
         0.00000E+00
         0.00000E+00
         0.00000E+00
         0.00000E+00
         0.00000E+00
         0.00000E+00
         0.00000E+00
         0.00000E+00
         0.00000E+00
         0.00000E+00
         0.00000E+00
         0.00000E+00
         0.00000E+00
         0.00000E+00
         0.00000E+00
         0.00000E+00
         0.00000E+00
         0.00000E+00
         0.00000E+00
         0.00000E+00
         0.00000E+00
         0.00000E+00
         0.00000E+00
         0.00000E+00
         0.00000E+00
         0.00000E+00
         0.00000E+00
         0.00000E+00
         0.00000E+00
         0.00000E+00
         0.00000E+00
         0.00000E+00
         0.00000E+00
         0.00000E+00
         0.00000E+00
         0.00000E+00
         0.00000E+00
         0.00000E+00
         0.00000E+00
         0.00000E+00
         0.00000E+00
         0.00000E+00
         0.00000E+00
         0.00000E+00
         0.00000E+00
         0.00000E+00
         0.00000E+00
         0.00000E+00
         0.00000E+00
         0.00000E+00
         0.00000E+00
         0.00000E+00
         0.00000E+00
         0.00000E+00
         0.00000E+00
         0.00000E+00
         0.00000E+00
         0.00000E+00
         0.00000E+00
         0.00000E+00
         0.00000E+00
         0.00000E+00
         0.00000E+00
         0.00000E+00
         0.00000E+00
         0.00000E+00
         0.00000E+00
         0.00000E+00
         0.00000E+00
         0.00000E+00
         0.00000E+00
         0.00000E+00
         0.00000E+00
         0.00000E+00
         0.00000E+00
         0.00000E+00
         0.00000E+00
         0.00000E+00
         0.00000E+00
         0.00000E+00
         0.00000E+00
         0.00000E+00
         0.00000E+00
         0.00000E+00
         0.00000E+00
         0.00000E+00
         0.00000E+00
         0.00000E+00
         0.00000E+00
         0.00000E+00
         0.00000E+00
         0.00000E+00
         0.00000E+00
         0.00000E+00
         0.00000E+00
         0.00000E+00
         0.00000E+00
         0.00000E+00
         0.00000E+00
         0.00000E+00
         0.00000E+00
         0.00000E+00
         0.00000E+00
         0.00000E+00
         0.00000E+00
         0.00000E+00
         0.00000E+00
         0.00000E+00
         0.00000E+00
         0.00000E+00
         0.00000E+00
         0.00000E+00
         0.00000E+00
         0.00000E+00
         0.00000E+00
         0.00000E+00
         0.00000E+00
         0.00000E+00
         0.00000E+00
         0.00000E+00
         0.00000E+00
         0.00000E+00
         0.00000E+00
         0.00000E+00
         0.00000E+00
         0.00000E+00
         0.00000E+00
         0.00000E+00
         0.00000E+00
         0.00000E+00
         0.00000E+00
         0.00000E+00
         0.00000E+00
         0.00000E+00
         0.00000E+00
         0.00000E+00
         0.00000E+00
         0.00000E+00
         0.00000E+00
         0.00000E+00
         0.00000E+00
         0.00000E+00
         0.00000E+00
         0.00000E+00
         0.00000E+00
         0.00000E+00
         0.00000E+00
         0.00000E+00
         0.00000E+00
         0.00000E+00
         0.00000E+00
         0.00000E+00
         0.00000E+00
         0.00000E+00
         0.00000E+00
         0.00000E+00
         0.00000E+00
         0.00000E+00
         0.00000E+00
         0.00000E+00
         0.00000E+00
         0.00000E+00
         0.00000E+00
         0.00000E+00
         0.00000E+00
         0.00000E+00
         0.00000E+00
         0.00000E+00
         0.00000E+00
         0.00000E+00
         0.00000E+00
         0.00000E+00
         0.00000E+00
         0.00000E+00
         0.00000E+00
         0.00000E+00
         0.00000E+00
         0.00000E+00
         0.00000E+00
         0.00000E+00
         0.00000E+00
         0.00000E+00
         0.00000E+00
         0.00000E+00
         0.00000E+00
         0.00000E+00
         0.00000E+00
         0.00000E+00
         0.00000E+00
         0.00000E+00
         0.00000E+00
         0.00000E+00
         0.00000E+00
         0.00000E+00
         0.00000E+00
         0.00000E+00
         0.00000E+00
         0.00000E+00
         0.00000E+00
         0.00000E+00
         0.00000E+00
         0.00000E+00
         0.00000E+00
         0.00000E+00
         0.00000E+00
         0.00000E+00
         0.00000E+00
         0.00000E+00
         0.00000E+00
         0.00000E+00
         0.00000E+00
         0.00000E+00
         0.00000E+00
         0.00000E+00
         0.00000E+00
         0.00000E+00
         0.00000E+00
         0.00000E+00
         0.00000E+00
         0.00000E+00
         0.00000E+00
         0.00000E+00
         0.00000E+00
         0.00000E+00
         0.00000E+00
         0.00000E+00
         0.00000E+00
         0.00000E+00
         0.00000E+00
         0.00000E+00
         0.00000E+00
         0.00000E+00
         0.00000E+00
         0.00000E+00
         0.00000E+00
         0.00000E+00
         0.00000E+00
         0.00000E+00
         0.00000E+00
         0.00000E+00
         0.00000E+00
         0.00000E+00
         0.00000E+00
         0.00000E+00
         0.00000E+00
         0.00000E+00
         0.00000E+00
         0.00000E+00
         0.00000E+00
         0.00000E+00
         0.00000E+00
         0.00000E+00
         0.00000E+00
         0.00000E+00
         0.00000E+00
         0.00000E+00
         0.00000E+00
         0.00000E+00
         0.00000E+00
         0.00000E+00
         0.00000E+00
         0.00000E+00
         0.00000E+00
         0.00000E+00
         0.00000E+00
         0.00000E+00
         0.00000E+00
         0.00000E+00
         0.00000E+00
         0.00000E+00
         0.00000E+00
         0.00000E+00
         0.00000E+00
         0.00000E+00
         0.00000E+00
         0.00000E+00
         0.00000E+00
         0.00000E+00
         0.00000E+00
         0.00000E+00
         0.00000E+00
         0.00000E+00
         0.00000E+00
         0.00000E+00
         0.00000E+00
         0.00000E+00
         0.00000E+00
         0.00000E+00
         0.00000E+00
         0.00000E+00
         0.00000E+00
         0.00000E+00
         0.00000E+00
         0.00000E+00
         0.00000E+00
         0.00000E+00
         0.00000E+00
         0.00000E+00
         0.00000E+00
         0.00000E+00
         0.00000E+00
         0.00000E+00
         0.00000E+00
         0.00000E+00
         0.00000E+00
         0.00000E+00
         0.00000E+00
         0.00000E+00
         0.00000E+00
         0.00000E+00
         0.00000E+00
         0.00000E+00
         0.00000E+00
         0.00000E+00
         0.00000E+00
         0.00000E+00
         0.00000E+00
         0.00000E+00
         0.00000E+00
         0.00000E+00
         0.00000E+00
         0.00000E+00
         0.00000E+00
         0.00000E+00
         0.00000E+00
         0.00000E+00
         0.00000E+00
         0.00000E+00
         0.00000E+00
         0.00000E+00
         0.00000E+00
         0.00000E+00
         0.00000E+00
         0.00000E+00
         0.00000E+00
         0.00000E+00
         0.00000E+00
         0.00000E+00
         0.00000E+00
         0.00000E+00
         0.00000E+00
         0.00000E+00
         0.00000E+00
         0.00000E+00
         0.00000E+00
         0.00000E+00
         0.00000E+00
         0.00000E+00
         0.00000E+00
         0.00000E+00
         0.00000E+00
         0.00000E+00
         0.00000E+00
         0.00000E+00
         0.00000E+00
         0.00000E+00
         0.00000E+00
         0.00000E+00
         0.00000E+00
         0.00000E+00
         0.00000E+00
         0.00000E+00
         0.00000E+00
         0.00000E+00
         0.00000E+00
         0.00000E+00
         0.00000E+00
         0.00000E+00
         0.00000E+00
         0.00000E+00
         0.00000E+00
         0.00000E+00
         0.00000E+00
         0.00000E+00
         0.00000E+00
         0.00000E+00
         0.00000E+00
         0.00000E+00
         0.00000E+00
         0.00000E+00
         0.00000E+00
         0.00000E+00
         0.00000E+00
         0.00000E+00
         0.00000E+00
         0.00000E+00
         0.00000E+00
         0.00000E+00
         0.00000E+00
         0.00000E+00
         0.00000E+00
         0.00000E+00
         0.00000E+00
         0.00000E+00
         0.00000E+00
         0.00000E+00
         0.00000E+00
         0.00000E+00
         0.00000E+00
         0.00000E+00
         0.00000E+00
         0.00000E+00
         0.00000E+00
         0.00000E+00
         0.00000E+00
         0.00000E+00
         0.00000E+00
         0.00000E+00
         0.00000E+00
         0.00000E+00
         0.00000E+00
         0.00000E+00
         0.00000E+00
         0.00000E+00
         0.00000E+00
         0.00000E+00
         0.00000E+00
         0.00000E+00
         0.00000E+00
         0.00000E+00
         0.00000E+00
         0.00000E+00
         0.00000E+00
         0.00000E+00
         0.00000E+00
         0.00000E+00
         0.00000E+00
         0.00000E+00
         0.00000E+00
         0.00000E+00
         0.00000E+00
         0.00000E+00
         0.00000E+00
         0.00000E+00
         0.00000E+00
         0.00000E+00
         0.00000E+00
         0.00000E+00
         0.00000E+00
         0.00000E+00
         0.00000E+00
         0.00000E+00
         0.00000E+00
         0.00000E+00
         0.00000E+00
         0.00000E+00
         0.00000E+00
         0.00000E+00
         0.00000E+00
         0.00000E+00
         0.00000E+00
         0.00000E+00
         0.00000E+00
         0.00000E+00
         0.00000E+00
         0.00000E+00
         0.00000E+00
         0.00000E+00
         0.00000E+00
         0.00000E+00
         0.00000E+00
         0.00000E+00
         0.00000E+00
         0.00000E+00
         0.00000E+00
         0.00000E+00
         0.00000E+00
         0.00000E+00
         0.00000E+00
         0.00000E+00
         0.00000E+00
         0.00000E+00
         0.00000E+00
         0.00000E+00
         0.00000E+00
         0.00000E+00
         0.00000E+00
         0.00000E+00
         0.00000E+00
         0.00000E+00
         0.00000E+00
         0.00000E+00
         0.00000E+00
         0.00000E+00
         0.00000E+00
         0.00000E+00
         0.00000E+00
         0.00000E+00
         0.00000E+00
         0.00000E+00
         0.00000E+00
         0.00000E+00
         0.00000E+00
         0.00000E+00
         0.00000E+00
         0.00000E+00
         0.00000E+00
         0.00000E+00
         0.00000E+00
         0.00000E+00
         0.00000E+00
         0.00000E+00
         0.00000E+00
         0.00000E+00
         0.00000E+00
         0.00000E+00
         0.00000E+00
         0.00000E+00
         0.00000E+00
         0.00000E+00
         0.00000E+00
         0.00000E+00
         0.00000E+00
         0.00000E+00
         0.00000E+00
         0.00000E+00
         0.00000E+00
         0.00000E+00
         0.00000E+00
         0.00000E+00
         0.00000E+00
         0.00000E+00
         0.00000E+00
         0.00000E+00
         0.00000E+00
         0.00000E+00
         0.00000E+00
         0.00000E+00
         0.00000E+00
         0.00000E+00
         0.00000E+00
         0.00000E+00
         0.00000E+00
         0.00000E+00
         0.00000E+00
         0.00000E+00
         0.00000E+00
         0.00000E+00
         0.00000E+00
         0.00000E+00
         0.00000E+00
         0.00000E+00
         0.00000E+00
         0.00000E+00
         0.00000E+00
         0.00000E+00
         0.00000E+00
         0.00000E+00
         0.00000E+00
         0.00000E+00
         0.00000E+00
         0.00000E+00
         0.00000E+00
         0.00000E+00
         0.00000E+00
         0.00000E+00
         0.00000E+00
         0.00000E+00
         0.00000E+00
         0.00000E+00
         0.00000E+00
         0.00000E+00
         0.00000E+00
         0.00000E+00
         0.00000E+00
         0.00000E+00
         0.00000E+00
         0.00000E+00
         0.00000E+00
         0.00000E+00
         0.00000E+00
         0.00000E+00
         0.00000E+00
         0.00000E+00
         0.00000E+00
         0.00000E+00
         0.00000E+00
         0.00000E+00
         0.00000E+00
         0.00000E+00
         0.00000E+00
         0.00000E+00
         0.00000E+00
         0.00000E+00
         0.00000E+00
         0.00000E+00
         0.00000E+00
         0.00000E+00
         0.00000E+00
         0.00000E+00
         0.00000E+00
  
SCALARS               pre_disp_force_y  double 1
LOOKUP_TABLE default
         0.00000E+00
         0.00000E+00
         0.00000E+00
         0.00000E+00
         0.00000E+00
         0.00000E+00
         0.00000E+00
         0.00000E+00
         0.00000E+00
         0.00000E+00
         0.00000E+00
         0.00000E+00
         0.00000E+00
         0.00000E+00
         0.00000E+00
         0.00000E+00
         0.00000E+00
         0.00000E+00
         0.00000E+00
         0.00000E+00
         0.00000E+00
         0.00000E+00
         0.00000E+00
         0.00000E+00
         0.00000E+00
         0.00000E+00
         0.00000E+00
         0.00000E+00
         0.00000E+00
         0.00000E+00
         0.00000E+00
         0.00000E+00
         0.00000E+00
         0.00000E+00
         0.00000E+00
         0.00000E+00
         0.00000E+00
         0.00000E+00
         0.00000E+00
         0.00000E+00
         0.00000E+00
         0.00000E+00
         0.00000E+00
         0.00000E+00
         0.00000E+00
         0.00000E+00
         0.00000E+00
         0.00000E+00
         0.00000E+00
         0.00000E+00
         0.00000E+00
         0.00000E+00
         0.00000E+00
         0.00000E+00
         0.00000E+00
         0.00000E+00
         0.00000E+00
         0.00000E+00
         0.00000E+00
         0.00000E+00
         0.00000E+00
         0.00000E+00
         0.00000E+00
         0.00000E+00
         0.00000E+00
         0.00000E+00
         0.00000E+00
         0.00000E+00
         0.00000E+00
         0.00000E+00
         0.00000E+00
         0.00000E+00
         0.00000E+00
         0.00000E+00
         0.00000E+00
         0.00000E+00
         0.00000E+00
         0.00000E+00
         0.00000E+00
         0.00000E+00
         0.00000E+00
         0.00000E+00
         0.00000E+00
         0.00000E+00
         0.00000E+00
         0.00000E+00
         0.00000E+00
         0.00000E+00
         0.00000E+00
         0.00000E+00
         0.00000E+00
         0.00000E+00
         0.00000E+00
         0.00000E+00
         0.00000E+00
         0.00000E+00
         0.00000E+00
         0.00000E+00
         0.00000E+00
         0.00000E+00
         0.00000E+00
         0.00000E+00
         0.00000E+00
         0.00000E+00
         0.00000E+00
         0.00000E+00
         0.00000E+00
         0.00000E+00
         0.00000E+00
         0.00000E+00
         0.00000E+00
         0.00000E+00
         0.00000E+00
         0.00000E+00
         0.00000E+00
         0.00000E+00
         0.00000E+00
         0.00000E+00
         0.00000E+00
         0.00000E+00
         0.00000E+00
         0.00000E+00
         0.00000E+00
         0.00000E+00
         0.00000E+00
         0.00000E+00
         0.00000E+00
         0.00000E+00
         0.00000E+00
         0.00000E+00
         0.00000E+00
         0.00000E+00
         0.00000E+00
         0.00000E+00
         0.00000E+00
         0.00000E+00
         0.00000E+00
         0.00000E+00
         0.00000E+00
         0.00000E+00
         0.00000E+00
         0.00000E+00
         0.00000E+00
         0.00000E+00
         0.00000E+00
         0.00000E+00
         0.00000E+00
         0.00000E+00
         0.00000E+00
         0.00000E+00
         0.00000E+00
         0.00000E+00
         0.00000E+00
         0.00000E+00
         0.00000E+00
         0.00000E+00
         0.00000E+00
         0.00000E+00
         0.00000E+00
         0.00000E+00
         0.00000E+00
         0.00000E+00
         0.00000E+00
         0.00000E+00
         0.00000E+00
         0.00000E+00
         0.00000E+00
         0.00000E+00
         0.00000E+00
         0.00000E+00
         0.00000E+00
         0.00000E+00
         0.00000E+00
         0.00000E+00
         0.00000E+00
         0.00000E+00
         0.00000E+00
         0.00000E+00
         0.00000E+00
         0.00000E+00
         0.00000E+00
         0.00000E+00
         0.00000E+00
         0.00000E+00
         0.00000E+00
         0.00000E+00
         0.00000E+00
         0.00000E+00
         0.00000E+00
         0.00000E+00
         0.00000E+00
         0.00000E+00
         0.00000E+00
         0.00000E+00
         0.00000E+00
         0.00000E+00
         0.00000E+00
         0.00000E+00
         0.00000E+00
         0.00000E+00
         0.00000E+00
         0.00000E+00
         0.00000E+00
         0.00000E+00
         0.00000E+00
         0.00000E+00
         0.00000E+00
         0.00000E+00
         0.00000E+00
         0.00000E+00
         0.00000E+00
         0.00000E+00
         0.00000E+00
         0.00000E+00
         0.00000E+00
         0.00000E+00
         0.00000E+00
         0.00000E+00
         0.00000E+00
         0.00000E+00
         0.00000E+00
         0.00000E+00
         0.00000E+00
         0.00000E+00
         0.00000E+00
         0.00000E+00
         0.00000E+00
         0.00000E+00
         0.00000E+00
         0.00000E+00
         0.00000E+00
         0.00000E+00
         0.00000E+00
         0.00000E+00
         0.00000E+00
         0.00000E+00
         0.00000E+00
         0.00000E+00
         0.00000E+00
         0.00000E+00
         0.00000E+00
         0.00000E+00
         0.00000E+00
         0.00000E+00
         0.00000E+00
         0.00000E+00
         0.00000E+00
         0.00000E+00
         0.00000E+00
         0.00000E+00
         0.00000E+00
         0.00000E+00
         0.00000E+00
         0.00000E+00
         0.00000E+00
         0.00000E+00
         0.00000E+00
         0.00000E+00
         0.00000E+00
         0.00000E+00
         0.00000E+00
         0.00000E+00
         0.00000E+00
         0.00000E+00
         0.00000E+00
         0.00000E+00
         0.00000E+00
         0.00000E+00
         0.00000E+00
         0.00000E+00
         0.00000E+00
         0.00000E+00
         0.00000E+00
         0.00000E+00
         0.00000E+00
         0.00000E+00
         0.00000E+00
         0.00000E+00
         0.00000E+00
         0.00000E+00
         0.00000E+00
         0.00000E+00
         0.00000E+00
         0.00000E+00
         0.00000E+00
         0.00000E+00
         0.00000E+00
         0.00000E+00
         0.00000E+00
         0.00000E+00
         0.00000E+00
         0.00000E+00
         0.00000E+00
         0.00000E+00
         0.00000E+00
         0.00000E+00
         0.00000E+00
         0.00000E+00
         0.00000E+00
         0.00000E+00
         0.00000E+00
         0.00000E+00
         0.00000E+00
         0.00000E+00
         0.00000E+00
         0.00000E+00
         0.00000E+00
         0.00000E+00
         0.00000E+00
         0.00000E+00
         0.00000E+00
         0.00000E+00
         0.00000E+00
         0.00000E+00
         0.00000E+00
         0.00000E+00
         0.00000E+00
         0.00000E+00
         0.00000E+00
         0.00000E+00
         0.00000E+00
         0.00000E+00
         0.00000E+00
         0.00000E+00
         0.00000E+00
         0.00000E+00
         0.00000E+00
         0.00000E+00
         0.00000E+00
         0.00000E+00
         0.00000E+00
         0.00000E+00
         0.00000E+00
         0.00000E+00
         0.00000E+00
         0.00000E+00
         0.00000E+00
         0.00000E+00
         0.00000E+00
         0.00000E+00
         0.00000E+00
         0.00000E+00
         0.00000E+00
         0.00000E+00
         0.00000E+00
         0.00000E+00
         0.00000E+00
         0.00000E+00
         0.00000E+00
         0.00000E+00
         0.00000E+00
         0.00000E+00
         0.00000E+00
         0.00000E+00
         0.00000E+00
         0.00000E+00
         0.00000E+00
         0.00000E+00
         0.00000E+00
         0.00000E+00
         0.00000E+00
         0.00000E+00
         0.00000E+00
         0.00000E+00
         0.00000E+00
         0.00000E+00
         0.00000E+00
         0.00000E+00
         0.00000E+00
         0.00000E+00
         0.00000E+00
         0.00000E+00
         0.00000E+00
         0.00000E+00
         0.00000E+00
         0.00000E+00
         0.00000E+00
         0.00000E+00
         0.00000E+00
         0.00000E+00
         0.00000E+00
         0.00000E+00
         0.00000E+00
         0.00000E+00
         0.00000E+00
         0.00000E+00
         0.00000E+00
         0.00000E+00
         0.00000E+00
         0.00000E+00
         0.00000E+00
         0.00000E+00
         0.00000E+00
         0.00000E+00
         0.00000E+00
         0.00000E+00
         0.00000E+00
         0.00000E+00
         0.00000E+00
         0.00000E+00
         0.00000E+00
         0.00000E+00
         0.00000E+00
         0.00000E+00
         0.00000E+00
         0.00000E+00
         0.00000E+00
         0.00000E+00
         0.00000E+00
         0.00000E+00
         0.00000E+00
         0.00000E+00
         0.00000E+00
         0.00000E+00
         0.00000E+00
         0.00000E+00
         0.00000E+00
         0.00000E+00
         0.00000E+00
         0.00000E+00
         0.00000E+00
         0.00000E+00
         0.00000E+00
         0.00000E+00
         0.00000E+00
         0.00000E+00
         0.00000E+00
         0.00000E+00
         0.00000E+00
         0.00000E+00
         0.00000E+00
         0.00000E+00
         0.00000E+00
         0.00000E+00
         0.00000E+00
         0.00000E+00
         0.00000E+00
         0.00000E+00
         0.00000E+00
         0.00000E+00
         0.00000E+00
         0.00000E+00
         0.00000E+00
         0.00000E+00
         0.00000E+00
         0.00000E+00
         0.00000E+00
         0.00000E+00
         0.00000E+00
         0.00000E+00
         0.00000E+00
         0.00000E+00
         0.00000E+00
         0.00000E+00
         0.00000E+00
         0.00000E+00
         0.00000E+00
         0.00000E+00
         0.00000E+00
         0.00000E+00
         0.00000E+00
         0.00000E+00
         0.00000E+00
         0.00000E+00
         0.00000E+00
         0.00000E+00
         0.00000E+00
         0.00000E+00
         0.00000E+00
         0.00000E+00
         0.00000E+00
         0.00000E+00
         0.00000E+00
         0.00000E+00
         0.00000E+00
         0.00000E+00
         0.00000E+00
         0.00000E+00
         0.00000E+00
         0.00000E+00
         0.00000E+00
         0.00000E+00
         0.00000E+00
         0.00000E+00
         0.00000E+00
         0.00000E+00
         0.00000E+00
         0.00000E+00
         0.00000E+00
         0.00000E+00
         0.00000E+00
         0.00000E+00
         0.00000E+00
         0.00000E+00
         0.00000E+00
         0.00000E+00
         0.00000E+00
         0.00000E+00
         0.00000E+00
         0.00000E+00
         0.00000E+00
         0.00000E+00
         0.00000E+00
         0.00000E+00
         0.00000E+00
         0.00000E+00
         0.00000E+00
         0.00000E+00
         0.00000E+00
         0.00000E+00
         0.00000E+00
         0.00000E+00
         0.00000E+00
         0.00000E+00
         0.00000E+00
         0.00000E+00
         0.00000E+00
         0.00000E+00
         0.00000E+00
         0.00000E+00
         0.00000E+00
         0.00000E+00
         0.00000E+00
         0.00000E+00
         0.00000E+00
         0.00000E+00
         0.00000E+00
         0.00000E+00
         0.00000E+00
         0.00000E+00
         0.00000E+00
         0.00000E+00
         0.00000E+00
         0.00000E+00
         0.00000E+00
         0.00000E+00
         0.00000E+00
         0.00000E+00
         0.00000E+00
         0.00000E+00
         0.00000E+00
         0.00000E+00
         0.00000E+00
         0.00000E+00
         0.00000E+00
         0.00000E+00
         0.00000E+00
         0.00000E+00
         0.00000E+00
         0.00000E+00
         0.00000E+00
         0.00000E+00
         0.00000E+00
         0.00000E+00
         0.00000E+00
         0.00000E+00
         0.00000E+00
         0.00000E+00
         0.00000E+00
         0.00000E+00
         0.00000E+00
         0.00000E+00
         0.00000E+00
         0.00000E+00
         0.00000E+00
         0.00000E+00
         0.00000E+00
         0.00000E+00
         0.00000E+00
         0.00000E+00
         0.00000E+00
         0.00000E+00
         0.00000E+00
         0.00000E+00
         0.00000E+00
         0.00000E+00
         0.00000E+00
         0.00000E+00
         0.00000E+00
         0.00000E+00
         0.00000E+00
         0.00000E+00
         0.00000E+00
         0.00000E+00
         0.00000E+00
         0.00000E+00
         0.00000E+00
         0.00000E+00
         0.00000E+00
         0.00000E+00
         0.00000E+00
         0.00000E+00
         0.00000E+00
         0.00000E+00
         0.00000E+00
         0.00000E+00
         0.00000E+00
         0.00000E+00
         0.00000E+00
         0.00000E+00
         0.00000E+00
         0.00000E+00
         0.00000E+00
         0.00000E+00
         0.00000E+00
         0.00000E+00
         0.00000E+00
         0.00000E+00
         0.00000E+00
         0.00000E+00
         0.00000E+00
         0.00000E+00
         0.00000E+00
         0.00000E+00
         0.00000E+00
         0.00000E+00
         0.00000E+00
         0.00000E+00
         0.00000E+00
         0.00000E+00
         0.00000E+00
         0.00000E+00
         0.00000E+00
         0.00000E+00
         0.00000E+00
         0.00000E+00
         0.00000E+00
         0.00000E+00
         0.00000E+00
         0.00000E+00
         0.00000E+00
         0.00000E+00
         0.00000E+00
         0.00000E+00
         0.00000E+00
         0.00000E+00
         0.00000E+00
         0.00000E+00
         0.00000E+00
         0.00000E+00
         0.00000E+00
         0.00000E+00
         0.00000E+00
         0.00000E+00
         0.00000E+00
         0.00000E+00
         0.00000E+00
         0.00000E+00
         0.00000E+00
         0.00000E+00
         0.00000E+00
         0.00000E+00
         0.00000E+00
         0.00000E+00
         0.00000E+00
         0.00000E+00
         0.00000E+00
         0.00000E+00
         0.00000E+00
         0.00000E+00
         0.00000E+00
         0.00000E+00
         0.00000E+00
         0.00000E+00
         0.00000E+00
         0.00000E+00
         0.00000E+00
         0.00000E+00
         0.00000E+00
         0.00000E+00
         0.00000E+00
         0.00000E+00
         0.00000E+00
         0.00000E+00
         0.00000E+00
         0.00000E+00
         0.00000E+00
         0.00000E+00
         0.00000E+00
         0.00000E+00
         0.00000E+00
         0.00000E+00
         0.00000E+00
         0.00000E+00
         0.00000E+00
         0.00000E+00
         0.00000E+00
         0.00000E+00
         0.00000E+00
         0.00000E+00
         0.00000E+00
         0.00000E+00
         0.00000E+00
         0.00000E+00
         0.00000E+00
         0.00000E+00
         0.00000E+00
         0.00000E+00
         0.00000E+00
         0.00000E+00
         0.00000E+00
         0.00000E+00
         0.00000E+00
         0.00000E+00
         0.00000E+00
         0.00000E+00
         0.00000E+00
         0.00000E+00
         0.00000E+00
         0.00000E+00
         0.00000E+00
         0.00000E+00
         0.00000E+00
         0.00000E+00
         0.00000E+00
         0.00000E+00
         0.00000E+00
         0.00000E+00
         0.00000E+00
         0.00000E+00
         0.00000E+00
         0.00000E+00
         0.00000E+00
         0.00000E+00
         0.00000E+00
         0.00000E+00
         0.00000E+00
         0.00000E+00
         0.00000E+00
         0.00000E+00
         0.00000E+00
         0.00000E+00
         0.00000E+00
         0.00000E+00
         0.00000E+00
         0.00000E+00
         0.00000E+00
         0.00000E+00
         0.00000E+00
         0.00000E+00
         0.00000E+00
         0.00000E+00
         0.00000E+00
         0.00000E+00
         0.00000E+00
         0.00000E+00
         0.00000E+00
         0.00000E+00
         0.00000E+00
         0.00000E+00
         0.00000E+00
         0.00000E+00
         0.00000E+00
         0.00000E+00
         0.00000E+00
         0.00000E+00
         0.00000E+00
         0.00000E+00
         0.00000E+00
         0.00000E+00
         0.00000E+00
         0.00000E+00
         0.00000E+00
         0.00000E+00
         0.00000E+00
         0.00000E+00
         0.00000E+00
         0.00000E+00
         0.00000E+00
         0.00000E+00
         0.00000E+00
         0.00000E+00
         0.00000E+00
         0.00000E+00
         0.00000E+00
         0.00000E+00
         0.00000E+00
         0.00000E+00
         0.00000E+00
         0.00000E+00
         0.00000E+00
         0.00000E+00
         0.00000E+00
         0.00000E+00
         0.00000E+00
         0.00000E+00
         0.00000E+00
         0.00000E+00
         0.00000E+00
         0.00000E+00
         0.00000E+00
         0.00000E+00
         0.00000E+00
         0.00000E+00
         0.00000E+00
         0.00000E+00
         0.00000E+00
         0.00000E+00
         0.00000E+00
         0.00000E+00
         0.00000E+00
         0.00000E+00
         0.00000E+00
         0.00000E+00
         0.00000E+00
         0.00000E+00
         0.00000E+00
         0.00000E+00
         0.00000E+00
         0.00000E+00
         0.00000E+00
         0.00000E+00
         0.00000E+00
         0.00000E+00
         0.00000E+00
         0.00000E+00
         0.00000E+00
         0.00000E+00
         0.00000E+00
         0.00000E+00
         0.00000E+00
         0.00000E+00
         0.00000E+00
         0.00000E+00
         0.00000E+00
         0.00000E+00
         0.00000E+00
         0.00000E+00
         0.00000E+00
         0.00000E+00
         0.00000E+00
         0.00000E+00
         0.00000E+00
         0.00000E+00
         0.00000E+00
         0.00000E+00
         0.00000E+00
         0.00000E+00
         0.00000E+00
         0.00000E+00
         0.00000E+00
         0.00000E+00
         0.00000E+00
         0.00000E+00
         0.00000E+00
         0.00000E+00
         0.00000E+00
         0.00000E+00
         0.00000E+00
         0.00000E+00
         0.00000E+00
         0.00000E+00
         0.00000E+00
         0.00000E+00
         0.00000E+00
         0.00000E+00
         0.00000E+00
         0.00000E+00
         0.00000E+00
         0.00000E+00
         0.00000E+00
         0.00000E+00
         0.00000E+00
         0.00000E+00
         0.00000E+00
         0.00000E+00
         0.00000E+00
         0.00000E+00
         0.00000E+00
         0.00000E+00
         0.00000E+00
         0.00000E+00
         0.00000E+00
         0.00000E+00
         0.00000E+00
         0.00000E+00
         0.00000E+00
         0.00000E+00
         0.00000E+00
         0.00000E+00
         0.00000E+00
         0.00000E+00
         0.00000E+00
         0.00000E+00
         0.00000E+00
         0.00000E+00
         0.00000E+00
         0.00000E+00
         0.00000E+00
         0.00000E+00
         0.00000E+00
         0.00000E+00
         0.00000E+00
         0.00000E+00
         0.00000E+00
         0.00000E+00
         0.00000E+00
         0.00000E+00
         0.00000E+00
         0.00000E+00
         0.00000E+00
         0.00000E+00
         0.00000E+00
         0.00000E+00
         0.00000E+00
         0.00000E+00
         0.00000E+00
         0.00000E+00
         0.00000E+00
         0.00000E+00
         0.00000E+00
         0.00000E+00
         0.00000E+00
         0.00000E+00
         0.00000E+00
         0.00000E+00
         0.00000E+00
         0.00000E+00
         0.00000E+00
         0.00000E+00
         0.00000E+00
         0.00000E+00
         0.00000E+00
         0.00000E+00
         0.00000E+00
         0.00000E+00
         0.00000E+00
         0.00000E+00
         0.00000E+00
         0.00000E+00
         0.00000E+00
         0.00000E+00
         0.00000E+00
         0.00000E+00
         0.00000E+00
         0.00000E+00
         0.00000E+00
         0.00000E+00
         0.00000E+00
         0.00000E+00
         0.00000E+00
         0.00000E+00
         0.00000E+00
         0.00000E+00
         0.00000E+00
         0.00000E+00
         0.00000E+00
         0.00000E+00
         0.00000E+00
         0.00000E+00
         0.00000E+00
         0.00000E+00
         0.00000E+00
         0.00000E+00
         0.00000E+00
         0.00000E+00
         0.00000E+00
         0.00000E+00
         0.00000E+00
         0.00000E+00
         0.00000E+00
         0.00000E+00
         0.00000E+00
         0.00000E+00
         0.00000E+00
         0.00000E+00
         0.00000E+00
         0.00000E+00
         0.00000E+00
         0.00000E+00
         0.00000E+00
         0.00000E+00
         0.00000E+00
         0.00000E+00
         0.00000E+00
         0.00000E+00
         0.00000E+00
         0.00000E+00
         0.00000E+00
         0.00000E+00
         0.00000E+00
         0.00000E+00
         0.00000E+00
         0.00000E+00
         0.00000E+00
         0.00000E+00
         0.00000E+00
         0.00000E+00
         0.00000E+00
         0.00000E+00
         0.00000E+00
         0.00000E+00
         0.00000E+00
         0.00000E+00
         0.00000E+00
         0.00000E+00
         0.00000E+00
         0.00000E+00
         0.00000E+00
         0.00000E+00
         0.00000E+00
         0.00000E+00
         0.00000E+00
         0.00000E+00
         0.00000E+00
         0.00000E+00
         0.00000E+00
         0.00000E+00
         0.00000E+00
         0.00000E+00
         0.00000E+00
         0.00000E+00
         0.00000E+00
         0.00000E+00
         0.00000E+00
         0.00000E+00
         0.00000E+00
         0.00000E+00
         0.00000E+00
         0.00000E+00
         0.00000E+00
         0.00000E+00
         0.00000E+00
         0.00000E+00
         0.00000E+00
         0.00000E+00
         0.00000E+00
         0.00000E+00
         0.00000E+00
         0.00000E+00
         0.00000E+00
         0.00000E+00
         0.00000E+00
         0.00000E+00
         0.00000E+00
         0.00000E+00
         0.00000E+00
         0.00000E+00
         0.00000E+00
         0.00000E+00
         0.00000E+00
         0.00000E+00
         0.00000E+00
         0.00000E+00
         0.00000E+00
         0.00000E+00
         0.00000E+00
         0.00000E+00
         0.00000E+00
         0.00000E+00
         0.00000E+00
         0.00000E+00
         0.00000E+00
         0.00000E+00
         0.00000E+00
         0.00000E+00
         0.00000E+00
         0.00000E+00
         0.00000E+00
         0.00000E+00
         0.00000E+00
         0.00000E+00
         0.00000E+00
         0.00000E+00
         0.00000E+00
         0.00000E+00
         0.00000E+00
         0.00000E+00
         0.00000E+00
         0.00000E+00
         0.00000E+00
         0.00000E+00
         0.00000E+00
         0.00000E+00
         0.00000E+00
         0.00000E+00
         0.00000E+00
         0.00000E+00
         0.00000E+00
         0.00000E+00
         0.00000E+00
         0.00000E+00
         0.00000E+00
         0.00000E+00
         0.00000E+00
         0.00000E+00
         0.00000E+00
         0.00000E+00
         0.00000E+00
         0.00000E+00
         0.00000E+00
         0.00000E+00
         0.00000E+00
         0.00000E+00
         0.00000E+00
         0.00000E+00
         0.00000E+00
         0.00000E+00
         0.00000E+00
         0.00000E+00
         0.00000E+00
         0.00000E+00
         0.00000E+00
         0.00000E+00
         0.00000E+00
         0.00000E+00
         0.00000E+00
         0.00000E+00
         0.00000E+00
         0.00000E+00
         0.00000E+00
         0.00000E+00
         0.00000E+00
         0.00000E+00
         0.00000E+00
         0.00000E+00
         0.00000E+00
         0.00000E+00
         0.00000E+00
         0.00000E+00
         0.00000E+00
         0.00000E+00
         0.00000E+00
         0.00000E+00
         0.00000E+00
         0.00000E+00
         0.00000E+00
         0.00000E+00
         0.00000E+00
         0.00000E+00
         0.00000E+00
         0.00000E+00
         0.00000E+00
         0.00000E+00
         0.00000E+00
         0.00000E+00
         0.00000E+00
         0.00000E+00
         0.00000E+00
         0.00000E+00
         0.00000E+00
         0.00000E+00
         0.00000E+00
         0.00000E+00
         0.00000E+00
         0.00000E+00
         0.00000E+00
         0.00000E+00
         0.00000E+00
         0.00000E+00
         0.00000E+00
         0.00000E+00
         0.00000E+00
         0.00000E+00
         0.00000E+00
         0.00000E+00
         0.00000E+00
         0.00000E+00
         0.00000E+00
         0.00000E+00
         0.00000E+00
         0.00000E+00
         0.00000E+00
         0.00000E+00
         0.00000E+00
         0.00000E+00
         0.00000E+00
         0.00000E+00
         0.00000E+00
         0.00000E+00
         0.00000E+00
         0.00000E+00
         0.00000E+00
         0.00000E+00
         0.00000E+00
         0.00000E+00
         0.00000E+00
         0.00000E+00
         0.00000E+00
         0.00000E+00
         0.00000E+00
         0.00000E+00
         0.00000E+00
         0.00000E+00
         0.00000E+00
         0.00000E+00
         0.00000E+00
         0.00000E+00
         0.00000E+00
         0.00000E+00
         0.00000E+00
         0.00000E+00
         0.00000E+00
         0.00000E+00
         0.00000E+00
         0.00000E+00
         0.00000E+00
         0.00000E+00
         0.00000E+00
         0.00000E+00
         0.00000E+00
         0.00000E+00
         0.00000E+00
         0.00000E+00
         0.00000E+00
         0.00000E+00
         0.00000E+00
         0.00000E+00
         0.00000E+00
         0.00000E+00
         0.00000E+00
         0.00000E+00
         0.00000E+00
         0.00000E+00
         0.00000E+00
         0.00000E+00
         0.00000E+00
         0.00000E+00
         0.00000E+00
         0.00000E+00
         0.00000E+00
         0.00000E+00
         0.00000E+00
         0.00000E+00
         0.00000E+00
         0.00000E+00
         0.00000E+00
         0.00000E+00
         0.00000E+00
         0.00000E+00
         0.00000E+00
         0.00000E+00
         0.00000E+00
         0.00000E+00
         0.00000E+00
         0.00000E+00
         0.00000E+00
         0.00000E+00
         0.00000E+00
         0.00000E+00
         0.00000E+00
         0.00000E+00
         0.00000E+00
         0.00000E+00
         0.00000E+00
         0.00000E+00
         0.00000E+00
         0.00000E+00
         0.00000E+00
         0.00000E+00
         0.00000E+00
         0.00000E+00
         0.00000E+00
         0.00000E+00
         0.00000E+00
         0.00000E+00
         0.00000E+00
         0.00000E+00
         0.00000E+00
         0.00000E+00
         0.00000E+00
         0.00000E+00
         0.00000E+00
         0.00000E+00
         0.00000E+00
         0.00000E+00
         0.00000E+00
         0.00000E+00
         0.00000E+00
         0.00000E+00
         0.00000E+00
         0.00000E+00
         0.00000E+00
         0.00000E+00
         0.00000E+00
         0.00000E+00
         0.00000E+00
         0.00000E+00
         0.00000E+00
         0.00000E+00
         0.00000E+00
         0.00000E+00
         0.00000E+00
         0.00000E+00
         0.00000E+00
         0.00000E+00
         0.00000E+00
         0.00000E+00
         0.00000E+00
         0.00000E+00
         0.00000E+00
         0.00000E+00
         0.00000E+00
         0.00000E+00
         0.00000E+00
         0.00000E+00
         0.00000E+00
         0.00000E+00
         0.00000E+00
         0.00000E+00
         0.00000E+00
         0.00000E+00
         0.00000E+00
         0.00000E+00
         0.00000E+00
         0.00000E+00
         0.00000E+00
         0.00000E+00
         0.00000E+00
         0.00000E+00
         0.00000E+00
         0.00000E+00
         0.00000E+00
         0.00000E+00
         0.00000E+00
         0.00000E+00
         0.00000E+00
         0.00000E+00
         0.00000E+00
         0.00000E+00
         0.00000E+00
         0.00000E+00
         0.00000E+00
         0.00000E+00
         0.00000E+00
         0.00000E+00
         0.00000E+00
         0.00000E+00
         0.00000E+00
         0.00000E+00
         0.00000E+00
         0.00000E+00
         0.00000E+00
         0.00000E+00
         0.00000E+00
         0.00000E+00
         0.00000E+00
         0.00000E+00
         0.00000E+00
         0.00000E+00
         0.00000E+00
         0.00000E+00
         0.00000E+00
         0.00000E+00
         0.00000E+00
         0.00000E+00
         0.00000E+00
         0.00000E+00
         0.00000E+00
         0.00000E+00
         0.00000E+00
         0.00000E+00
         0.00000E+00
         0.00000E+00
         0.00000E+00
         0.00000E+00
         0.00000E+00
         0.00000E+00
         0.00000E+00
         0.00000E+00
         0.00000E+00
         0.00000E+00
         0.00000E+00
         0.00000E+00
         0.00000E+00
         0.00000E+00
         0.00000E+00
         0.00000E+00
         0.00000E+00
         0.00000E+00
         0.00000E+00
         0.00000E+00
         0.00000E+00
         0.00000E+00
         0.00000E+00
         0.00000E+00
         0.00000E+00
         0.00000E+00
         0.00000E+00
         0.00000E+00
         0.00000E+00
         0.00000E+00
         0.00000E+00
         0.00000E+00
         0.00000E+00
         0.00000E+00
         0.00000E+00
         0.00000E+00
         0.00000E+00
         0.00000E+00
         0.00000E+00
         0.00000E+00
         0.00000E+00
         0.00000E+00
         0.00000E+00
         0.00000E+00
         0.00000E+00
         0.00000E+00
         0.00000E+00
         0.00000E+00
         0.00000E+00
         0.00000E+00
         0.00000E+00
         0.00000E+00
         0.00000E+00
         0.00000E+00
         0.00000E+00
         0.00000E+00
         0.00000E+00
         0.00000E+00
         0.00000E+00
         0.00000E+00
         0.00000E+00
         0.00000E+00
         0.00000E+00
         0.00000E+00
         0.00000E+00
         0.00000E+00
         0.00000E+00
         0.00000E+00
         0.00000E+00
         0.00000E+00
         0.00000E+00
         0.00000E+00
         0.00000E+00
         0.00000E+00
         0.00000E+00
         0.00000E+00
         0.00000E+00
         0.00000E+00
         0.00000E+00
         0.00000E+00
         0.00000E+00
         0.00000E+00
         0.00000E+00
         0.00000E+00
         0.00000E+00
         0.00000E+00
         0.00000E+00
         0.00000E+00
         0.00000E+00
         0.00000E+00
         0.00000E+00
         0.00000E+00
         0.00000E+00
         0.00000E+00
         0.00000E+00
         0.00000E+00
         0.00000E+00
         0.00000E+00
         0.00000E+00
         0.00000E+00
         0.00000E+00
         0.00000E+00
         0.00000E+00
         0.00000E+00
         0.00000E+00
         0.00000E+00
         0.00000E+00
         0.00000E+00
         0.00000E+00
         0.00000E+00
         0.00000E+00
         0.00000E+00
         0.00000E+00
         0.00000E+00
         0.00000E+00
         0.00000E+00
         0.00000E+00
         0.00000E+00
         0.00000E+00
         0.00000E+00
         0.00000E+00
         0.00000E+00
         0.00000E+00
         0.00000E+00
         0.00000E+00
         0.00000E+00
         0.00000E+00
         0.00000E+00
         0.00000E+00
         0.00000E+00
         0.00000E+00
         0.00000E+00
         0.00000E+00
         0.00000E+00
         0.00000E+00
         0.00000E+00
         0.00000E+00
         0.00000E+00
         0.00000E+00
         0.00000E+00
         0.00000E+00
         0.00000E+00
         0.00000E+00
         0.00000E+00
         0.00000E+00
         0.00000E+00
         0.00000E+00
         0.00000E+00
         0.00000E+00
         0.00000E+00
         0.00000E+00
         0.00000E+00
         0.00000E+00
         0.00000E+00
         0.00000E+00
         0.00000E+00
         0.00000E+00
         0.00000E+00
         0.00000E+00
         0.00000E+00
         0.00000E+00
         0.00000E+00
         0.00000E+00
         0.00000E+00
         0.00000E+00
         0.00000E+00
         0.00000E+00
         0.00000E+00
         0.00000E+00
         0.00000E+00
         0.00000E+00
         0.00000E+00
         0.00000E+00
         0.00000E+00
         0.00000E+00
         0.00000E+00
         0.00000E+00
         0.00000E+00
         0.00000E+00
         0.00000E+00
         0.00000E+00
         0.00000E+00
         0.00000E+00
         0.00000E+00
         0.00000E+00
         0.00000E+00
         0.00000E+00
         0.00000E+00
         0.00000E+00
         0.00000E+00
         0.00000E+00
         0.00000E+00
         0.00000E+00
         0.00000E+00
         0.00000E+00
         0.00000E+00
         0.00000E+00
         0.00000E+00
         0.00000E+00
         0.00000E+00
         0.00000E+00
         0.00000E+00
         0.00000E+00
         0.00000E+00
         0.00000E+00
         0.00000E+00
         0.00000E+00
         0.00000E+00
         0.00000E+00
         0.00000E+00
         0.00000E+00
         0.00000E+00
         0.00000E+00
         0.00000E+00
         0.00000E+00
         0.00000E+00
         0.00000E+00
         0.00000E+00
         0.00000E+00
         0.00000E+00
         0.00000E+00
         0.00000E+00
         0.00000E+00
         0.00000E+00
         0.00000E+00
         0.00000E+00
         0.00000E+00
         0.00000E+00
         0.00000E+00
         0.00000E+00
         0.00000E+00
         0.00000E+00
         0.00000E+00
         0.00000E+00
         0.00000E+00
         0.00000E+00
         0.00000E+00
         0.00000E+00
         0.00000E+00
         0.00000E+00
         0.00000E+00
         0.00000E+00
         0.00000E+00
         0.00000E+00
         0.00000E+00
         0.00000E+00
         0.00000E+00
         0.00000E+00
         0.00000E+00
         0.00000E+00
         0.00000E+00
         0.00000E+00
         0.00000E+00
         0.00000E+00
         0.00000E+00
         0.00000E+00
         0.00000E+00
         0.00000E+00
         0.00000E+00
         0.00000E+00
         0.00000E+00
         0.00000E+00
         0.00000E+00
         0.00000E+00
         0.00000E+00
         0.00000E+00
         0.00000E+00
         0.00000E+00
         0.00000E+00
         0.00000E+00
         0.00000E+00
         0.00000E+00
         0.00000E+00
         0.00000E+00
         0.00000E+00
         0.00000E+00
         0.00000E+00
         0.00000E+00
         0.00000E+00
         0.00000E+00
         0.00000E+00
         0.00000E+00
         0.00000E+00
         0.00000E+00
         0.00000E+00
         0.00000E+00
         0.00000E+00
         0.00000E+00
         0.00000E+00
         0.00000E+00
         0.00000E+00
         0.00000E+00
         0.00000E+00
         0.00000E+00
         0.00000E+00
         0.00000E+00
         0.00000E+00
         0.00000E+00
         0.00000E+00
         0.00000E+00
         0.00000E+00
         0.00000E+00
         0.00000E+00
         0.00000E+00
         0.00000E+00
         0.00000E+00
         0.00000E+00
         0.00000E+00
         0.00000E+00
         0.00000E+00
         0.00000E+00
         0.00000E+00
         0.00000E+00
         0.00000E+00
         0.00000E+00
         0.00000E+00
         0.00000E+00
         0.00000E+00
         0.00000E+00
         0.00000E+00
         0.00000E+00
         0.00000E+00
         0.00000E+00
         0.00000E+00
         0.00000E+00
         0.00000E+00
         0.00000E+00
         0.00000E+00
         0.00000E+00
         0.00000E+00
         0.00000E+00
         0.00000E+00
         0.00000E+00
         0.00000E+00
         0.00000E+00
         0.00000E+00
         0.00000E+00
         0.00000E+00
         0.00000E+00
         0.00000E+00
         0.00000E+00
         0.00000E+00
         0.00000E+00
         0.00000E+00
         0.00000E+00
         0.00000E+00
         0.00000E+00
         0.00000E+00
         0.00000E+00
         0.00000E+00
         0.00000E+00
         0.00000E+00
         0.00000E+00
         0.00000E+00
         0.00000E+00
         0.00000E+00
         0.00000E+00
         0.00000E+00
         0.00000E+00
         0.00000E+00
         0.00000E+00
         0.00000E+00
         0.00000E+00
         0.00000E+00
         0.00000E+00
         0.00000E+00
         0.00000E+00
         0.00000E+00
         0.00000E+00
         0.00000E+00
         0.00000E+00
         0.00000E+00
         0.00000E+00
         0.00000E+00
         0.00000E+00
         0.00000E+00
         0.00000E+00
         0.00000E+00
         0.00000E+00
         0.00000E+00
         0.00000E+00
         0.00000E+00
         0.00000E+00
         0.00000E+00
         0.00000E+00
         0.00000E+00
         0.00000E+00
         0.00000E+00
         0.00000E+00
         0.00000E+00
         0.00000E+00
         0.00000E+00
         0.00000E+00
         0.00000E+00
         0.00000E+00
         0.00000E+00
         0.00000E+00
         0.00000E+00
         0.00000E+00
         0.00000E+00
         0.00000E+00
         0.00000E+00
         0.00000E+00
         0.00000E+00
         0.00000E+00
         0.00000E+00
         0.00000E+00
         0.00000E+00
         0.00000E+00
         0.00000E+00
         0.00000E+00
         0.00000E+00
         0.00000E+00
         0.00000E+00
         0.00000E+00
         0.00000E+00
         0.00000E+00
         0.00000E+00
         0.00000E+00
         0.00000E+00
         0.00000E+00
         0.00000E+00
         0.00000E+00
         0.00000E+00
         0.00000E+00
         0.00000E+00
         0.00000E+00
         0.00000E+00
         0.00000E+00
         0.00000E+00
         0.00000E+00
         0.00000E+00
         0.00000E+00
         0.00000E+00
         0.00000E+00
         0.00000E+00
         0.00000E+00
         0.00000E+00
         0.00000E+00
         0.00000E+00
         0.00000E+00
         0.00000E+00
         0.00000E+00
         0.00000E+00
         0.00000E+00
         0.00000E+00
         0.00000E+00
         0.00000E+00
         0.00000E+00
         0.00000E+00
         0.00000E+00
         0.00000E+00
         0.00000E+00
         0.00000E+00
         0.00000E+00
         0.00000E+00
         0.00000E+00
         0.00000E+00
         0.00000E+00
         0.00000E+00
         0.00000E+00
         0.00000E+00
         0.00000E+00
         0.00000E+00
         0.00000E+00
         0.00000E+00
         0.00000E+00
         0.00000E+00
         0.00000E+00
         0.00000E+00
         0.00000E+00
         0.00000E+00
         0.00000E+00
         0.00000E+00
         0.00000E+00
         0.00000E+00
         0.00000E+00
         0.00000E+00
         0.00000E+00
         0.00000E+00
         0.00000E+00
         0.00000E+00
         0.00000E+00
         0.00000E+00
         0.00000E+00
         0.00000E+00
         0.00000E+00
         0.00000E+00
         0.00000E+00
         0.00000E+00
         0.00000E+00
         0.00000E+00
         0.00000E+00
         0.00000E+00
         0.00000E+00
         0.00000E+00
         0.00000E+00
         0.00000E+00
         0.00000E+00
         0.00000E+00
         0.00000E+00
         0.00000E+00
         0.00000E+00
         0.00000E+00
         0.00000E+00
         0.00000E+00
         0.00000E+00
         0.00000E+00
         0.00000E+00
         0.00000E+00
         0.00000E+00
         0.00000E+00
         0.00000E+00
         0.00000E+00
         0.00000E+00
         0.00000E+00
         0.00000E+00
         0.00000E+00
         0.00000E+00
         0.00000E+00
         0.00000E+00
         0.00000E+00
         0.00000E+00
         0.00000E+00
         0.00000E+00
         0.00000E+00
         0.00000E+00
         0.00000E+00
         0.00000E+00
         0.00000E+00
         0.00000E+00
         0.00000E+00
         0.00000E+00
         0.00000E+00
         0.00000E+00
         0.00000E+00
         0.00000E+00
         0.00000E+00
         0.00000E+00
         0.00000E+00
         0.00000E+00
         0.00000E+00
         0.00000E+00
         0.00000E+00
         0.00000E+00
         0.00000E+00
         0.00000E+00
         0.00000E+00
         0.00000E+00
         0.00000E+00
         0.00000E+00
         0.00000E+00
         0.00000E+00
         0.00000E+00
         0.00000E+00
         0.00000E+00
         0.00000E+00
         0.00000E+00
         0.00000E+00
         0.00000E+00
         0.00000E+00
         0.00000E+00
         0.00000E+00
         0.00000E+00
         0.00000E+00
         0.00000E+00
         0.00000E+00
         0.00000E+00
         0.00000E+00
         0.00000E+00
         0.00000E+00
         0.00000E+00
         0.00000E+00
         0.00000E+00
         0.00000E+00
         0.00000E+00
         0.00000E+00
         0.00000E+00
         0.00000E+00
         0.00000E+00
         0.00000E+00
         0.00000E+00
         0.00000E+00
         0.00000E+00
         0.00000E+00
         0.00000E+00
         0.00000E+00
         0.00000E+00
         0.00000E+00
         0.00000E+00
         0.00000E+00
         0.00000E+00
         0.00000E+00
         0.00000E+00
         0.00000E+00
         0.00000E+00
         0.00000E+00
         0.00000E+00
  
SCALARS               pre_disp_force_z  double 1
LOOKUP_TABLE default
         0.00000E+00
         0.00000E+00
         0.00000E+00
         0.00000E+00
        -0.00000E+00
        -0.00000E+00
        -0.00000E+00
        -0.00000E+00
         0.00000E+00
         0.00000E+00
        -0.00000E+00
        -0.00000E+00
         0.00000E+00
         0.00000E+00
        -0.00000E+00
        -0.00000E+00
         0.00000E+00
         0.00000E+00
        -0.00000E+00
        -0.00000E+00
         0.00000E+00
         0.00000E+00
         0.00000E+00
        -0.00000E+00
        -0.00000E+00
        -0.00000E+00
         0.00000E+00
         0.00000E+00
        -0.00000E+00
        -0.00000E+00
         0.00000E+00
         0.00000E+00
         0.00000E+00
        -0.00000E+00
        -0.00000E+00
        -0.00000E+00
         0.00000E+00
         0.00000E+00
        -0.00000E+00
        -0.00000E+00
         0.00000E+00
         0.00000E+00
        -0.00000E+00
        -0.00000E+00
         0.00000E+00
         0.00000E+00
        -0.00000E+00
        -0.00000E+00
         0.00000E+00
        -0.00000E+00
         0.00000E+00
        -0.00000E+00
         0.00000E+00
        -0.00000E+00
         0.00000E+00
        -0.00000E+00
         0.00000E+00
         0.00000E+00
        -0.00000E+00
        -0.00000E+00
         0.00000E+00
         0.00000E+00
        -0.00000E+00
        -0.00000E+00
         0.00000E+00
        -0.00000E+00
         0.00000E+00
        -0.00000E+00
         0.00000E+00
         0.00000E+00
        -0.00000E+00
        -0.00000E+00
         0.00000E+00
        -0.00000E+00
         0.00000E+00
        -0.00000E+00
         0.00000E+00
        -0.00000E+00
         0.00000E+00
        -0.00000E+00
         0.00000E+00
         0.00000E+00
        -0.00000E+00
        -0.00000E+00
         0.00000E+00
        -0.00000E+00
         0.00000E+00
        -0.00000E+00
         0.00000E+00
        -0.00000E+00
         0.00000E+00
         0.00000E+00
        -0.00000E+00
        -0.00000E+00
         0.00000E+00
        -0.00000E+00
         0.00000E+00
        -0.00000E+00
         0.00000E+00
        -0.00000E+00
         0.00000E+00
         0.00000E+00
        -0.00000E+00
        -0.00000E+00
         0.00000E+00
         0.00000E+00
        -0.00000E+00
        -0.00000E+00
         0.00000E+00
        -0.00000E+00
         0.00000E+00
        -0.00000E+00
         0.00000E+00
        -0.00000E+00
         0.00000E+00
        -0.00000E+00
         0.00000E+00
        -0.00000E+00
         0.00000E+00
        -0.00000E+00
         0.00000E+00
        -0.00000E+00
         0.00000E+00
        -0.00000E+00
         0.00000E+00
        -0.00000E+00
         0.00000E+00
        -0.00000E+00
         0.00000E+00
        -0.00000E+00
         0.00000E+00
        -0.00000E+00
         0.00000E+00
        -0.00000E+00
         0.00000E+00
        -0.00000E+00
         0.00000E+00
        -0.00000E+00
         0.00000E+00
        -0.00000E+00
         0.00000E+00
        -0.00000E+00
         0.00000E+00
        -0.00000E+00
         0.00000E+00
        -0.00000E+00
         0.00000E+00
        -0.00000E+00
         0.00000E+00
        -0.00000E+00
         0.00000E+00
        -0.00000E+00
         0.00000E+00
        -0.00000E+00
         0.00000E+00
        -0.00000E+00
         0.00000E+00
         0.00000E+00
         0.00000E+00
         0.00000E+00
         0.00000E+00
         0.00000E+00
         0.00000E+00
         0.00000E+00
         0.00000E+00
         0.00000E+00
         0.00000E+00
         0.00000E+00
         0.00000E+00
         0.00000E+00
         0.00000E+00
         0.00000E+00
         0.00000E+00
         0.00000E+00
         0.00000E+00
         0.00000E+00
         0.00000E+00
         0.00000E+00
         0.00000E+00
         0.00000E+00
         0.00000E+00
         0.00000E+00
         0.00000E+00
         0.00000E+00
         0.00000E+00
         0.00000E+00
         0.00000E+00
         0.00000E+00
         0.00000E+00
         0.00000E+00
         0.00000E+00
         0.00000E+00
         0.00000E+00
         0.00000E+00
         0.00000E+00
         0.00000E+00
         0.00000E+00
         0.00000E+00
         0.00000E+00
         0.00000E+00
         0.00000E+00
         0.00000E+00
         0.00000E+00
         0.00000E+00
         0.00000E+00
         0.00000E+00
         0.00000E+00
         0.00000E+00
         0.00000E+00
         0.00000E+00
         0.00000E+00
         0.00000E+00
         0.00000E+00
         0.00000E+00
         0.00000E+00
         0.00000E+00
         0.00000E+00
         0.00000E+00
         0.00000E+00
         0.00000E+00
         0.00000E+00
         0.00000E+00
         0.00000E+00
         0.00000E+00
         0.00000E+00
         0.00000E+00
         0.00000E+00
         0.00000E+00
         0.00000E+00
         0.00000E+00
         0.00000E+00
         0.00000E+00
         0.00000E+00
         0.00000E+00
         0.00000E+00
         0.00000E+00
         0.00000E+00
         0.00000E+00
         0.00000E+00
         0.00000E+00
         0.00000E+00
         0.00000E+00
         0.00000E+00
         0.00000E+00
         0.00000E+00
         0.00000E+00
         0.00000E+00
         0.00000E+00
         0.00000E+00
         0.00000E+00
         0.00000E+00
         0.00000E+00
         0.00000E+00
         0.00000E+00
         0.00000E+00
         0.00000E+00
         0.00000E+00
         0.00000E+00
         0.00000E+00
         0.00000E+00
         0.00000E+00
         0.00000E+00
         0.00000E+00
         0.00000E+00
         0.00000E+00
         0.00000E+00
         0.00000E+00
         0.00000E+00
         0.00000E+00
         0.00000E+00
         0.00000E+00
         0.00000E+00
         0.00000E+00
         0.00000E+00
         0.00000E+00
         0.00000E+00
         0.00000E+00
         0.00000E+00
         0.00000E+00
         0.00000E+00
         0.00000E+00
         0.00000E+00
         0.00000E+00
         0.00000E+00
         0.00000E+00
         0.00000E+00
         0.00000E+00
         0.00000E+00
         0.00000E+00
         0.00000E+00
         0.00000E+00
         0.00000E+00
         0.00000E+00
         0.00000E+00
         0.00000E+00
         0.00000E+00
         0.00000E+00
         0.00000E+00
         0.00000E+00
         0.00000E+00
         0.00000E+00
         0.00000E+00
         0.00000E+00
         0.00000E+00
         0.00000E+00
         0.00000E+00
         0.00000E+00
         0.00000E+00
         0.00000E+00
         0.00000E+00
         0.00000E+00
         0.00000E+00
         0.00000E+00
         0.00000E+00
         0.00000E+00
         0.00000E+00
         0.00000E+00
         0.00000E+00
         0.00000E+00
         0.00000E+00
         0.00000E+00
         0.00000E+00
         0.00000E+00
         0.00000E+00
         0.00000E+00
         0.00000E+00
         0.00000E+00
         0.00000E+00
         0.00000E+00
         0.00000E+00
         0.00000E+00
         0.00000E+00
         0.00000E+00
         0.00000E+00
         0.00000E+00
         0.00000E+00
         0.00000E+00
         0.00000E+00
         0.00000E+00
         0.00000E+00
         0.00000E+00
         0.00000E+00
         0.00000E+00
         0.00000E+00
         0.00000E+00
         0.00000E+00
         0.00000E+00
         0.00000E+00
         0.00000E+00
         0.00000E+00
         0.00000E+00
         0.00000E+00
         0.00000E+00
         0.00000E+00
         0.00000E+00
         0.00000E+00
         0.00000E+00
         0.00000E+00
         0.00000E+00
         0.00000E+00
         0.00000E+00
         0.00000E+00
         0.00000E+00
         0.00000E+00
         0.00000E+00
         0.00000E+00
         0.00000E+00
         0.00000E+00
         0.00000E+00
         0.00000E+00
         0.00000E+00
         0.00000E+00
         0.00000E+00
         0.00000E+00
         0.00000E+00
         0.00000E+00
         0.00000E+00
         0.00000E+00
         0.00000E+00
         0.00000E+00
         0.00000E+00
         0.00000E+00
         0.00000E+00
         0.00000E+00
         0.00000E+00
         0.00000E+00
         0.00000E+00
         0.00000E+00
         0.00000E+00
         0.00000E+00
         0.00000E+00
         0.00000E+00
         0.00000E+00
         0.00000E+00
         0.00000E+00
         0.00000E+00
         0.00000E+00
         0.00000E+00
         0.00000E+00
         0.00000E+00
         0.00000E+00
         0.00000E+00
         0.00000E+00
         0.00000E+00
         0.00000E+00
         0.00000E+00
         0.00000E+00
         0.00000E+00
         0.00000E+00
         0.00000E+00
         0.00000E+00
         0.00000E+00
         0.00000E+00
         0.00000E+00
         0.00000E+00
         0.00000E+00
         0.00000E+00
         0.00000E+00
         0.00000E+00
         0.00000E+00
         0.00000E+00
         0.00000E+00
         0.00000E+00
         0.00000E+00
         0.00000E+00
         0.00000E+00
         0.00000E+00
         0.00000E+00
         0.00000E+00
         0.00000E+00
         0.00000E+00
         0.00000E+00
         0.00000E+00
         0.00000E+00
         0.00000E+00
         0.00000E+00
         0.00000E+00
         0.00000E+00
         0.00000E+00
         0.00000E+00
         0.00000E+00
         0.00000E+00
         0.00000E+00
         0.00000E+00
         0.00000E+00
         0.00000E+00
         0.00000E+00
         0.00000E+00
         0.00000E+00
         0.00000E+00
         0.00000E+00
         0.00000E+00
         0.00000E+00
         0.00000E+00
         0.00000E+00
         0.00000E+00
         0.00000E+00
         0.00000E+00
         0.00000E+00
         0.00000E+00
         0.00000E+00
         0.00000E+00
         0.00000E+00
         0.00000E+00
         0.00000E+00
         0.00000E+00
         0.00000E+00
         0.00000E+00
         0.00000E+00
         0.00000E+00
         0.00000E+00
         0.00000E+00
         0.00000E+00
         0.00000E+00
         0.00000E+00
         0.00000E+00
         0.00000E+00
         0.00000E+00
         0.00000E+00
         0.00000E+00
         0.00000E+00
         0.00000E+00
         0.00000E+00
         0.00000E+00
         0.00000E+00
         0.00000E+00
         0.00000E+00
         0.00000E+00
         0.00000E+00
         0.00000E+00
         0.00000E+00
         0.00000E+00
         0.00000E+00
         0.00000E+00
         0.00000E+00
         0.00000E+00
         0.00000E+00
         0.00000E+00
         0.00000E+00
         0.00000E+00
         0.00000E+00
         0.00000E+00
         0.00000E+00
         0.00000E+00
         0.00000E+00
         0.00000E+00
         0.00000E+00
         0.00000E+00
         0.00000E+00
         0.00000E+00
         0.00000E+00
         0.00000E+00
         0.00000E+00
         0.00000E+00
         0.00000E+00
         0.00000E+00
         0.00000E+00
         0.00000E+00
         0.00000E+00
         0.00000E+00
         0.00000E+00
         0.00000E+00
         0.00000E+00
         0.00000E+00
         0.00000E+00
         0.00000E+00
         0.00000E+00
         0.00000E+00
         0.00000E+00
         0.00000E+00
         0.00000E+00
         0.00000E+00
         0.00000E+00
         0.00000E+00
         0.00000E+00
         0.00000E+00
         0.00000E+00
         0.00000E+00
         0.00000E+00
         0.00000E+00
         0.00000E+00
         0.00000E+00
         0.00000E+00
         0.00000E+00
         0.00000E+00
         0.00000E+00
         0.00000E+00
         0.00000E+00
         0.00000E+00
         0.00000E+00
         0.00000E+00
         0.00000E+00
         0.00000E+00
         0.00000E+00
         0.00000E+00
         0.00000E+00
         0.00000E+00
         0.00000E+00
         0.00000E+00
         0.00000E+00
         0.00000E+00
         0.00000E+00
         0.00000E+00
         0.00000E+00
         0.00000E+00
         0.00000E+00
         0.00000E+00
         0.00000E+00
         0.00000E+00
         0.00000E+00
         0.00000E+00
         0.00000E+00
         0.00000E+00
         0.00000E+00
         0.00000E+00
         0.00000E+00
         0.00000E+00
         0.00000E+00
         0.00000E+00
         0.00000E+00
         0.00000E+00
         0.00000E+00
         0.00000E+00
         0.00000E+00
         0.00000E+00
         0.00000E+00
         0.00000E+00
         0.00000E+00
         0.00000E+00
         0.00000E+00
         0.00000E+00
         0.00000E+00
         0.00000E+00
         0.00000E+00
         0.00000E+00
         0.00000E+00
         0.00000E+00
         0.00000E+00
         0.00000E+00
         0.00000E+00
         0.00000E+00
         0.00000E+00
         0.00000E+00
         0.00000E+00
         0.00000E+00
         0.00000E+00
         0.00000E+00
         0.00000E+00
         0.00000E+00
         0.00000E+00
         0.00000E+00
         0.00000E+00
         0.00000E+00
         0.00000E+00
         0.00000E+00
         0.00000E+00
         0.00000E+00
         0.00000E+00
         0.00000E+00
         0.00000E+00
         0.00000E+00
         0.00000E+00
         0.00000E+00
         0.00000E+00
         0.00000E+00
         0.00000E+00
         0.00000E+00
         0.00000E+00
         0.00000E+00
         0.00000E+00
         0.00000E+00
         0.00000E+00
         0.00000E+00
         0.00000E+00
         0.00000E+00
         0.00000E+00
         0.00000E+00
         0.00000E+00
         0.00000E+00
         0.00000E+00
         0.00000E+00
         0.00000E+00
         0.00000E+00
         0.00000E+00
         0.00000E+00
         0.00000E+00
         0.00000E+00
         0.00000E+00
         0.00000E+00
         0.00000E+00
         0.00000E+00
         0.00000E+00
         0.00000E+00
         0.00000E+00
         0.00000E+00
         0.00000E+00
         0.00000E+00
         0.00000E+00
         0.00000E+00
         0.00000E+00
         0.00000E+00
         0.00000E+00
         0.00000E+00
         0.00000E+00
         0.00000E+00
         0.00000E+00
         0.00000E+00
         0.00000E+00
         0.00000E+00
         0.00000E+00
         0.00000E+00
         0.00000E+00
         0.00000E+00
         0.00000E+00
         0.00000E+00
         0.00000E+00
         0.00000E+00
         0.00000E+00
         0.00000E+00
         0.00000E+00
         0.00000E+00
         0.00000E+00
         0.00000E+00
         0.00000E+00
         0.00000E+00
         0.00000E+00
         0.00000E+00
         0.00000E+00
         0.00000E+00
         0.00000E+00
         0.00000E+00
         0.00000E+00
         0.00000E+00
         0.00000E+00
         0.00000E+00
         0.00000E+00
         0.00000E+00
         0.00000E+00
         0.00000E+00
         0.00000E+00
         0.00000E+00
         0.00000E+00
         0.00000E+00
         0.00000E+00
         0.00000E+00
         0.00000E+00
         0.00000E+00
         0.00000E+00
         0.00000E+00
         0.00000E+00
         0.00000E+00
         0.00000E+00
         0.00000E+00
         0.00000E+00
         0.00000E+00
         0.00000E+00
         0.00000E+00
         0.00000E+00
         0.00000E+00
         0.00000E+00
         0.00000E+00
         0.00000E+00
         0.00000E+00
         0.00000E+00
         0.00000E+00
         0.00000E+00
         0.00000E+00
         0.00000E+00
         0.00000E+00
         0.00000E+00
         0.00000E+00
         0.00000E+00
         0.00000E+00
         0.00000E+00
         0.00000E+00
         0.00000E+00
         0.00000E+00
         0.00000E+00
         0.00000E+00
         0.00000E+00
         0.00000E+00
         0.00000E+00
         0.00000E+00
         0.00000E+00
         0.00000E+00
         0.00000E+00
         0.00000E+00
         0.00000E+00
         0.00000E+00
         0.00000E+00
         0.00000E+00
         0.00000E+00
         0.00000E+00
         0.00000E+00
         0.00000E+00
         0.00000E+00
         0.00000E+00
         0.00000E+00
         0.00000E+00
         0.00000E+00
         0.00000E+00
         0.00000E+00
         0.00000E+00
         0.00000E+00
         0.00000E+00
         0.00000E+00
         0.00000E+00
         0.00000E+00
         0.00000E+00
         0.00000E+00
         0.00000E+00
         0.00000E+00
         0.00000E+00
         0.00000E+00
         0.00000E+00
         0.00000E+00
         0.00000E+00
         0.00000E+00
         0.00000E+00
         0.00000E+00
         0.00000E+00
         0.00000E+00
         0.00000E+00
         0.00000E+00
         0.00000E+00
         0.00000E+00
         0.00000E+00
         0.00000E+00
         0.00000E+00
         0.00000E+00
         0.00000E+00
         0.00000E+00
         0.00000E+00
         0.00000E+00
         0.00000E+00
         0.00000E+00
         0.00000E+00
         0.00000E+00
         0.00000E+00
         0.00000E+00
         0.00000E+00
         0.00000E+00
         0.00000E+00
         0.00000E+00
         0.00000E+00
         0.00000E+00
         0.00000E+00
         0.00000E+00
         0.00000E+00
         0.00000E+00
         0.00000E+00
         0.00000E+00
         0.00000E+00
         0.00000E+00
         0.00000E+00
         0.00000E+00
         0.00000E+00
         0.00000E+00
         0.00000E+00
         0.00000E+00
         0.00000E+00
         0.00000E+00
         0.00000E+00
         0.00000E+00
         0.00000E+00
         0.00000E+00
         0.00000E+00
         0.00000E+00
         0.00000E+00
         0.00000E+00
         0.00000E+00
         0.00000E+00
         0.00000E+00
         0.00000E+00
         0.00000E+00
         0.00000E+00
         0.00000E+00
         0.00000E+00
         0.00000E+00
         0.00000E+00
         0.00000E+00
         0.00000E+00
         0.00000E+00
         0.00000E+00
         0.00000E+00
         0.00000E+00
         0.00000E+00
         0.00000E+00
         0.00000E+00
         0.00000E+00
         0.00000E+00
         0.00000E+00
         0.00000E+00
         0.00000E+00
         0.00000E+00
         0.00000E+00
         0.00000E+00
         0.00000E+00
         0.00000E+00
         0.00000E+00
         0.00000E+00
         0.00000E+00
         0.00000E+00
         0.00000E+00
         0.00000E+00
         0.00000E+00
         0.00000E+00
         0.00000E+00
         0.00000E+00
         0.00000E+00
         0.00000E+00
         0.00000E+00
         0.00000E+00
         0.00000E+00
         0.00000E+00
         0.00000E+00
         0.00000E+00
         0.00000E+00
         0.00000E+00
         0.00000E+00
         0.00000E+00
         0.00000E+00
         0.00000E+00
         0.00000E+00
         0.00000E+00
         0.00000E+00
         0.00000E+00
         0.00000E+00
         0.00000E+00
         0.00000E+00
         0.00000E+00
         0.00000E+00
         0.00000E+00
         0.00000E+00
         0.00000E+00
         0.00000E+00
         0.00000E+00
         0.00000E+00
         0.00000E+00
         0.00000E+00
         0.00000E+00
         0.00000E+00
         0.00000E+00
         0.00000E+00
         0.00000E+00
         0.00000E+00
         0.00000E+00
         0.00000E+00
         0.00000E+00
         0.00000E+00
         0.00000E+00
         0.00000E+00
         0.00000E+00
         0.00000E+00
         0.00000E+00
         0.00000E+00
         0.00000E+00
         0.00000E+00
         0.00000E+00
         0.00000E+00
         0.00000E+00
         0.00000E+00
         0.00000E+00
         0.00000E+00
         0.00000E+00
         0.00000E+00
         0.00000E+00
         0.00000E+00
         0.00000E+00
         0.00000E+00
         0.00000E+00
         0.00000E+00
         0.00000E+00
         0.00000E+00
         0.00000E+00
         0.00000E+00
         0.00000E+00
         0.00000E+00
         0.00000E+00
         0.00000E+00
         0.00000E+00
         0.00000E+00
         0.00000E+00
         0.00000E+00
         0.00000E+00
         0.00000E+00
         0.00000E+00
         0.00000E+00
         0.00000E+00
         0.00000E+00
         0.00000E+00
         0.00000E+00
         0.00000E+00
         0.00000E+00
         0.00000E+00
         0.00000E+00
         0.00000E+00
         0.00000E+00
         0.00000E+00
         0.00000E+00
         0.00000E+00
         0.00000E+00
         0.00000E+00
         0.00000E+00
         0.00000E+00
         0.00000E+00
         0.00000E+00
         0.00000E+00
         0.00000E+00
         0.00000E+00
         0.00000E+00
         0.00000E+00
         0.00000E+00
         0.00000E+00
         0.00000E+00
         0.00000E+00
         0.00000E+00
         0.00000E+00
         0.00000E+00
         0.00000E+00
         0.00000E+00
         0.00000E+00
         0.00000E+00
         0.00000E+00
         0.00000E+00
         0.00000E+00
         0.00000E+00
         0.00000E+00
         0.00000E+00
         0.00000E+00
         0.00000E+00
         0.00000E+00
         0.00000E+00
         0.00000E+00
         0.00000E+00
         0.00000E+00
         0.00000E+00
         0.00000E+00
         0.00000E+00
         0.00000E+00
         0.00000E+00
         0.00000E+00
         0.00000E+00
         0.00000E+00
         0.00000E+00
         0.00000E+00
         0.00000E+00
         0.00000E+00
         0.00000E+00
         0.00000E+00
         0.00000E+00
         0.00000E+00
         0.00000E+00
         0.00000E+00
         0.00000E+00
         0.00000E+00
         0.00000E+00
         0.00000E+00
         0.00000E+00
         0.00000E+00
         0.00000E+00
         0.00000E+00
         0.00000E+00
         0.00000E+00
         0.00000E+00
         0.00000E+00
         0.00000E+00
         0.00000E+00
         0.00000E+00
         0.00000E+00
         0.00000E+00
         0.00000E+00
         0.00000E+00
         0.00000E+00
         0.00000E+00
         0.00000E+00
         0.00000E+00
         0.00000E+00
         0.00000E+00
         0.00000E+00
         0.00000E+00
         0.00000E+00
         0.00000E+00
         0.00000E+00
         0.00000E+00
         0.00000E+00
         0.00000E+00
         0.00000E+00
         0.00000E+00
         0.00000E+00
         0.00000E+00
         0.00000E+00
         0.00000E+00
         0.00000E+00
         0.00000E+00
         0.00000E+00
         0.00000E+00
         0.00000E+00
         0.00000E+00
         0.00000E+00
         0.00000E+00
         0.00000E+00
         0.00000E+00
         0.00000E+00
         0.00000E+00
         0.00000E+00
         0.00000E+00
         0.00000E+00
         0.00000E+00
         0.00000E+00
         0.00000E+00
         0.00000E+00
         0.00000E+00
         0.00000E+00
         0.00000E+00
         0.00000E+00
         0.00000E+00
         0.00000E+00
         0.00000E+00
         0.00000E+00
         0.00000E+00
         0.00000E+00
         0.00000E+00
         0.00000E+00
         0.00000E+00
         0.00000E+00
         0.00000E+00
         0.00000E+00
         0.00000E+00
         0.00000E+00
         0.00000E+00
         0.00000E+00
         0.00000E+00
         0.00000E+00
         0.00000E+00
         0.00000E+00
         0.00000E+00
         0.00000E+00
         0.00000E+00
         0.00000E+00
         0.00000E+00
         0.00000E+00
         0.00000E+00
         0.00000E+00
         0.00000E+00
         0.00000E+00
         0.00000E+00
         0.00000E+00
         0.00000E+00
         0.00000E+00
         0.00000E+00
         0.00000E+00
         0.00000E+00
         0.00000E+00
         0.00000E+00
         0.00000E+00
         0.00000E+00
         0.00000E+00
         0.00000E+00
         0.00000E+00
         0.00000E+00
         0.00000E+00
         0.00000E+00
         0.00000E+00
         0.00000E+00
         0.00000E+00
         0.00000E+00
         0.00000E+00
         0.00000E+00
         0.00000E+00
         0.00000E+00
         0.00000E+00
         0.00000E+00
         0.00000E+00
         0.00000E+00
         0.00000E+00
         0.00000E+00
         0.00000E+00
         0.00000E+00
         0.00000E+00
         0.00000E+00
         0.00000E+00
         0.00000E+00
         0.00000E+00
         0.00000E+00
         0.00000E+00
         0.00000E+00
         0.00000E+00
         0.00000E+00
         0.00000E+00
         0.00000E+00
         0.00000E+00
         0.00000E+00
         0.00000E+00
         0.00000E+00
         0.00000E+00
         0.00000E+00
         0.00000E+00
         0.00000E+00
         0.00000E+00
         0.00000E+00
         0.00000E+00
         0.00000E+00
         0.00000E+00
         0.00000E+00
         0.00000E+00
         0.00000E+00
         0.00000E+00
         0.00000E+00
         0.00000E+00
         0.00000E+00
         0.00000E+00
         0.00000E+00
         0.00000E+00
         0.00000E+00
         0.00000E+00
         0.00000E+00
         0.00000E+00
         0.00000E+00
         0.00000E+00
         0.00000E+00
         0.00000E+00
         0.00000E+00
         0.00000E+00
         0.00000E+00
         0.00000E+00
         0.00000E+00
         0.00000E+00
         0.00000E+00
         0.00000E+00
         0.00000E+00
         0.00000E+00
         0.00000E+00
         0.00000E+00
         0.00000E+00
         0.00000E+00
         0.00000E+00
         0.00000E+00
         0.00000E+00
         0.00000E+00
         0.00000E+00
         0.00000E+00
         0.00000E+00
         0.00000E+00
         0.00000E+00
         0.00000E+00
         0.00000E+00
         0.00000E+00
         0.00000E+00
         0.00000E+00
         0.00000E+00
         0.00000E+00
         0.00000E+00
         0.00000E+00
         0.00000E+00
         0.00000E+00
         0.00000E+00
         0.00000E+00
         0.00000E+00
         0.00000E+00
         0.00000E+00
         0.00000E+00
         0.00000E+00
         0.00000E+00
         0.00000E+00
         0.00000E+00
         0.00000E+00
         0.00000E+00
         0.00000E+00
         0.00000E+00
         0.00000E+00
         0.00000E+00
         0.00000E+00
         0.00000E+00
         0.00000E+00
         0.00000E+00
         0.00000E+00
         0.00000E+00
         0.00000E+00
         0.00000E+00
         0.00000E+00
         0.00000E+00
         0.00000E+00
         0.00000E+00
         0.00000E+00
         0.00000E+00
         0.00000E+00
         0.00000E+00
         0.00000E+00
         0.00000E+00
         0.00000E+00
         0.00000E+00
         0.00000E+00
         0.00000E+00
         0.00000E+00
         0.00000E+00
         0.00000E+00
         0.00000E+00
         0.00000E+00
         0.00000E+00
         0.00000E+00
         0.00000E+00
         0.00000E+00
         0.00000E+00
         0.00000E+00
         0.00000E+00
         0.00000E+00
         0.00000E+00
         0.00000E+00
         0.00000E+00
         0.00000E+00
         0.00000E+00
         0.00000E+00
         0.00000E+00
         0.00000E+00
         0.00000E+00
         0.00000E+00
         0.00000E+00
         0.00000E+00
         0.00000E+00
         0.00000E+00
         0.00000E+00
         0.00000E+00
         0.00000E+00
         0.00000E+00
         0.00000E+00
         0.00000E+00
         0.00000E+00
         0.00000E+00
         0.00000E+00
         0.00000E+00
         0.00000E+00
         0.00000E+00
         0.00000E+00
         0.00000E+00
         0.00000E+00
         0.00000E+00
         0.00000E+00
         0.00000E+00
         0.00000E+00
         0.00000E+00
         0.00000E+00
         0.00000E+00
         0.00000E+00
         0.00000E+00
         0.00000E+00
         0.00000E+00
         0.00000E+00
         0.00000E+00
         0.00000E+00
         0.00000E+00
         0.00000E+00
         0.00000E+00
         0.00000E+00
         0.00000E+00
         0.00000E+00
         0.00000E+00
         0.00000E+00
         0.00000E+00
         0.00000E+00
         0.00000E+00
         0.00000E+00
         0.00000E+00
         0.00000E+00
         0.00000E+00
         0.00000E+00
         0.00000E+00
         0.00000E+00
         0.00000E+00
         0.00000E+00
         0.00000E+00
         0.00000E+00
         0.00000E+00
         0.00000E+00
         0.00000E+00
         0.00000E+00
         0.00000E+00
         0.00000E+00
         0.00000E+00
         0.00000E+00
         0.00000E+00
         0.00000E+00
         0.00000E+00
         0.00000E+00
         0.00000E+00
         0.00000E+00
         0.00000E+00
         0.00000E+00
         0.00000E+00
         0.00000E+00
         0.00000E+00
         0.00000E+00
         0.00000E+00
         0.00000E+00
         0.00000E+00
         0.00000E+00
         0.00000E+00
         0.00000E+00
         0.00000E+00
         0.00000E+00
         0.00000E+00
         0.00000E+00
         0.00000E+00
         0.00000E+00
         0.00000E+00
         0.00000E+00
         0.00000E+00
         0.00000E+00
         0.00000E+00
         0.00000E+00
         0.00000E+00
         0.00000E+00
         0.00000E+00
         0.00000E+00
         0.00000E+00
         0.00000E+00
         0.00000E+00
         0.00000E+00
         0.00000E+00
         0.00000E+00
         0.00000E+00
         0.00000E+00
         0.00000E+00
         0.00000E+00
         0.00000E+00
         0.00000E+00
         0.00000E+00
         0.00000E+00
         0.00000E+00
         0.00000E+00
         0.00000E+00
         0.00000E+00
         0.00000E+00
         0.00000E+00
         0.00000E+00
         0.00000E+00
         0.00000E+00
         0.00000E+00
         0.00000E+00
         0.00000E+00
         0.00000E+00
         0.00000E+00
         0.00000E+00
         0.00000E+00
         0.00000E+00
         0.00000E+00
         0.00000E+00
         0.00000E+00
         0.00000E+00
         0.00000E+00
         0.00000E+00
         0.00000E+00
         0.00000E+00
         0.00000E+00
         0.00000E+00
         0.00000E+00
         0.00000E+00
         0.00000E+00
         0.00000E+00
         0.00000E+00
         0.00000E+00
         0.00000E+00
         0.00000E+00
         0.00000E+00
         0.00000E+00
         0.00000E+00
         0.00000E+00
         0.00000E+00
         0.00000E+00
         0.00000E+00
         0.00000E+00
         0.00000E+00
         0.00000E+00
         0.00000E+00
         0.00000E+00
         0.00000E+00
         0.00000E+00
         0.00000E+00
         0.00000E+00
         0.00000E+00
         0.00000E+00
         0.00000E+00
         0.00000E+00
         0.00000E+00
         0.00000E+00
         0.00000E+00
         0.00000E+00
         0.00000E+00
         0.00000E+00
         0.00000E+00
         0.00000E+00
         0.00000E+00
         0.00000E+00
         0.00000E+00
         0.00000E+00
         0.00000E+00
         0.00000E+00
         0.00000E+00
         0.00000E+00
         0.00000E+00
         0.00000E+00
         0.00000E+00
         0.00000E+00
         0.00000E+00
         0.00000E+00
         0.00000E+00
         0.00000E+00
         0.00000E+00
         0.00000E+00
         0.00000E+00
         0.00000E+00
         0.00000E+00
         0.00000E+00
         0.00000E+00
         0.00000E+00
         0.00000E+00
         0.00000E+00
         0.00000E+00
         0.00000E+00
         0.00000E+00
         0.00000E+00
         0.00000E+00
         0.00000E+00
         0.00000E+00
         0.00000E+00
         0.00000E+00
         0.00000E+00
         0.00000E+00
         0.00000E+00
         0.00000E+00
         0.00000E+00
         0.00000E+00
         0.00000E+00
         0.00000E+00
         0.00000E+00
         0.00000E+00
         0.00000E+00
         0.00000E+00
         0.00000E+00
         0.00000E+00
         0.00000E+00
         0.00000E+00
         0.00000E+00
         0.00000E+00
         0.00000E+00
         0.00000E+00
         0.00000E+00
         0.00000E+00
         0.00000E+00
         0.00000E+00
         0.00000E+00
         0.00000E+00
         0.00000E+00
         0.00000E+00
         0.00000E+00
         0.00000E+00
         0.00000E+00
         0.00000E+00
         0.00000E+00
         0.00000E+00
         0.00000E+00
         0.00000E+00
         0.00000E+00
         0.00000E+00
         0.00000E+00
         0.00000E+00
         0.00000E+00
         0.00000E+00
         0.00000E+00
         0.00000E+00
         0.00000E+00
         0.00000E+00
         0.00000E+00
         0.00000E+00
         0.00000E+00
         0.00000E+00
         0.00000E+00
         0.00000E+00
         0.00000E+00
         0.00000E+00
         0.00000E+00
         0.00000E+00
         0.00000E+00
         0.00000E+00
         0.00000E+00
         0.00000E+00
         0.00000E+00
         0.00000E+00
         0.00000E+00
         0.00000E+00
         0.00000E+00
         0.00000E+00
         0.00000E+00
         0.00000E+00
         0.00000E+00
         0.00000E+00
         0.00000E+00
         0.00000E+00
         0.00000E+00
         0.00000E+00
         0.00000E+00
         0.00000E+00
         0.00000E+00
         0.00000E+00
         0.00000E+00
         0.00000E+00
         0.00000E+00
         0.00000E+00
         0.00000E+00
         0.00000E+00
         0.00000E+00
         0.00000E+00
         0.00000E+00
         0.00000E+00
         0.00000E+00
         0.00000E+00
         0.00000E+00
         0.00000E+00
         0.00000E+00
         0.00000E+00
         0.00000E+00
         0.00000E+00
         0.00000E+00
         0.00000E+00
         0.00000E+00
         0.00000E+00
         0.00000E+00
         0.00000E+00
         0.00000E+00
         0.00000E+00
         0.00000E+00
         0.00000E+00
         0.00000E+00
         0.00000E+00
         0.00000E+00
         0.00000E+00
         0.00000E+00
         0.00000E+00
         0.00000E+00
         0.00000E+00
         0.00000E+00
         0.00000E+00
         0.00000E+00
         0.00000E+00
         0.00000E+00
         0.00000E+00
         0.00000E+00
         0.00000E+00
         0.00000E+00
         0.00000E+00
         0.00000E+00
         0.00000E+00
         0.00000E+00
         0.00000E+00
         0.00000E+00
         0.00000E+00
         0.00000E+00
         0.00000E+00
         0.00000E+00
         0.00000E+00
         0.00000E+00
         0.00000E+00
         0.00000E+00
         0.00000E+00
         0.00000E+00
         0.00000E+00
         0.00000E+00
         0.00000E+00
         0.00000E+00
         0.00000E+00
         0.00000E+00
         0.00000E+00
         0.00000E+00
         0.00000E+00
         0.00000E+00
         0.00000E+00
         0.00000E+00
         0.00000E+00
         0.00000E+00
         0.00000E+00
         0.00000E+00
         0.00000E+00
         0.00000E+00
         0.00000E+00
         0.00000E+00
         0.00000E+00
         0.00000E+00
         0.00000E+00
         0.00000E+00
         0.00000E+00
         0.00000E+00
         0.00000E+00
         0.00000E+00
         0.00000E+00
         0.00000E+00
         0.00000E+00
         0.00000E+00
         0.00000E+00
         0.00000E+00
         0.00000E+00
         0.00000E+00
         0.00000E+00
         0.00000E+00
         0.00000E+00
         0.00000E+00
         0.00000E+00
         0.00000E+00
         0.00000E+00
         0.00000E+00
         0.00000E+00
         0.00000E+00
         0.00000E+00
         0.00000E+00
         0.00000E+00
         0.00000E+00
         0.00000E+00
         0.00000E+00
         0.00000E+00
         0.00000E+00
         0.00000E+00
         0.00000E+00
         0.00000E+00
         0.00000E+00
         0.00000E+00
         0.00000E+00
         0.00000E+00
         0.00000E+00
         0.00000E+00
         0.00000E+00
         0.00000E+00
         0.00000E+00
         0.00000E+00
         0.00000E+00
         0.00000E+00
         0.00000E+00
         0.00000E+00
         0.00000E+00
         0.00000E+00
         0.00000E+00
         0.00000E+00
         0.00000E+00
         0.00000E+00
         0.00000E+00
         0.00000E+00
         0.00000E+00
         0.00000E+00
         0.00000E+00
         0.00000E+00
         0.00000E+00
         0.00000E+00
         0.00000E+00
         0.00000E+00
         0.00000E+00
         0.00000E+00
         0.00000E+00
         0.00000E+00
         0.00000E+00
         0.00000E+00
         0.00000E+00
         0.00000E+00
         0.00000E+00
         0.00000E+00
         0.00000E+00
         0.00000E+00
         0.00000E+00
         0.00000E+00
         0.00000E+00
         0.00000E+00
         0.00000E+00
         0.00000E+00
         0.00000E+00
         0.00000E+00
         0.00000E+00
         0.00000E+00
         0.00000E+00
         0.00000E+00
         0.00000E+00
         0.00000E+00
         0.00000E+00
         0.00000E+00
         0.00000E+00
         0.00000E+00
         0.00000E+00
         0.00000E+00
         0.00000E+00
         0.00000E+00
         0.00000E+00
         0.00000E+00
         0.00000E+00
         0.00000E+00
         0.00000E+00
         0.00000E+00
         0.00000E+00
         0.00000E+00
         0.00000E+00
         0.00000E+00
         0.00000E+00
         0.00000E+00
         0.00000E+00
         0.00000E+00
         0.00000E+00
         0.00000E+00
         0.00000E+00
         0.00000E+00
         0.00000E+00
         0.00000E+00
         0.00000E+00
         0.00000E+00
         0.00000E+00
         0.00000E+00
         0.00000E+00
         0.00000E+00
         0.00000E+00
         0.00000E+00
         0.00000E+00
         0.00000E+00
         0.00000E+00
         0.00000E+00
         0.00000E+00
         0.00000E+00
         0.00000E+00
         0.00000E+00
         0.00000E+00
         0.00000E+00
         0.00000E+00
         0.00000E+00
         0.00000E+00
         0.00000E+00
         0.00000E+00
         0.00000E+00
         0.00000E+00
         0.00000E+00
         0.00000E+00
         0.00000E+00
         0.00000E+00
         0.00000E+00
         0.00000E+00
         0.00000E+00
         0.00000E+00
         0.00000E+00
         0.00000E+00
         0.00000E+00
         0.00000E+00
         0.00000E+00
         0.00000E+00
         0.00000E+00
         0.00000E+00
         0.00000E+00
         0.00000E+00
         0.00000E+00
         0.00000E+00
         0.00000E+00
         0.00000E+00
         0.00000E+00
         0.00000E+00
         0.00000E+00
         0.00000E+00
         0.00000E+00
         0.00000E+00
         0.00000E+00
         0.00000E+00
         0.00000E+00
         0.00000E+00
         0.00000E+00
         0.00000E+00
         0.00000E+00
         0.00000E+00
         0.00000E+00
         0.00000E+00
         0.00000E+00
         0.00000E+00
         0.00000E+00
         0.00000E+00
         0.00000E+00
         0.00000E+00
         0.00000E+00
         0.00000E+00
         0.00000E+00
         0.00000E+00
         0.00000E+00
         0.00000E+00
         0.00000E+00
         0.00000E+00
         0.00000E+00
         0.00000E+00
         0.00000E+00
         0.00000E+00
         0.00000E+00
         0.00000E+00
         0.00000E+00
         0.00000E+00
         0.00000E+00
         0.00000E+00
         0.00000E+00
         0.00000E+00
         0.00000E+00
         0.00000E+00
         0.00000E+00
         0.00000E+00
         0.00000E+00
         0.00000E+00
         0.00000E+00
         0.00000E+00
         0.00000E+00
         0.00000E+00
         0.00000E+00
         0.00000E+00
         0.00000E+00
         0.00000E+00
         0.00000E+00
         0.00000E+00
         0.00000E+00
         0.00000E+00
         0.00000E+00
         0.00000E+00
         0.00000E+00
         0.00000E+00
         0.00000E+00
         0.00000E+00
         0.00000E+00
         0.00000E+00
         0.00000E+00
         0.00000E+00
         0.00000E+00
         0.00000E+00
         0.00000E+00
         0.00000E+00
         0.00000E+00
         0.00000E+00
         0.00000E+00
         0.00000E+00
         0.00000E+00
         0.00000E+00
         0.00000E+00
         0.00000E+00
         0.00000E+00
         0.00000E+00
         0.00000E+00
         0.00000E+00
         0.00000E+00
         0.00000E+00
         0.00000E+00
         0.00000E+00
         0.00000E+00
         0.00000E+00
         0.00000E+00
         0.00000E+00
         0.00000E+00
         0.00000E+00
         0.00000E+00
         0.00000E+00
         0.00000E+00
         0.00000E+00
         0.00000E+00
         0.00000E+00
         0.00000E+00
         0.00000E+00
         0.00000E+00
         0.00000E+00
         0.00000E+00
         0.00000E+00
         0.00000E+00
         0.00000E+00
         0.00000E+00
         0.00000E+00
         0.00000E+00
         0.00000E+00
         0.00000E+00
         0.00000E+00
         0.00000E+00
         0.00000E+00
         0.00000E+00
         0.00000E+00
         0.00000E+00
         0.00000E+00
         0.00000E+00
         0.00000E+00
         0.00000E+00
         0.00000E+00
         0.00000E+00
         0.00000E+00
         0.00000E+00
         0.00000E+00
         0.00000E+00
         0.00000E+00
         0.00000E+00
         0.00000E+00
         0.00000E+00
         0.00000E+00
         0.00000E+00
  
SCALARS                      stress_xx  double 1
LOOKUP_TABLE default
         0.93595E+12
         0.92369E+12
         0.93147E+12
         0.94541E+12
        -0.16510E+03
        -0.18514E+03
        -0.17727E+03
        -0.16105E+03
         0.92326E+12
         0.92742E+12
        -0.16648E+03
        -0.16111E+03
         0.90591E+12
         0.90526E+12
        -0.19782E+03
        -0.18600E+03
         0.94337E+12
         0.90622E+12
        -0.14617E+03
        -0.16212E+03
         0.89255E+12
         0.88192E+12
         0.89882E+12
        -0.19606E+03
        -0.17122E+03
        -0.17681E+03
         0.88234E+12
         0.86681E+12
        -0.18809E+03
        -0.15862E+03
         0.94270E+12
         0.92655E+12
         0.95834E+12
        -0.16051E+03
        -0.14922E+03
        -0.14508E+03
         0.93335E+12
         0.91276E+12
        -0.16981E+03
        -0.15495E+03
         0.92520E+12
         0.90931E+12
        -0.14677E+03
        -0.12993E+03
         0.93864E+12
         0.94461E+12
        -0.16084E+03
        -0.17971E+03
         0.89655E+12
        -0.15712E+03
         0.94344E+12
        -0.18462E+03
         0.87786E+12
        -0.16593E+03
         0.87298E+12
        -0.15916E+03
         0.87306E+12
         0.89040E+12
        -0.16216E+03
        -0.15793E+03
         0.94237E+12
         0.93616E+12
        -0.16261E+03
        -0.18383E+03
         0.94624E+12
        -0.15690E+03
         0.93887E+12
        -0.17124E+03
         0.91944E+12
         0.91749E+12
        -0.16484E+03
        -0.17272E+03
         0.91310E+12
        -0.17417E+03
         0.86129E+12
        -0.13761E+03
         0.85857E+12
        -0.13357E+03
         0.85992E+12
        -0.14083E+03
         0.86744E+12
         0.87524E+12
        -0.13418E+03
        -0.13989E+03
         0.89095E+12
        -0.13029E+03
         0.93833E+12
        -0.17086E+03
         0.93095E+12
        -0.17487E+03
         0.92489E+12
         0.92156E+12
        -0.16793E+03
        -0.16989E+03
         0.92566E+12
        -0.15431E+03
         0.92858E+12
        -0.15211E+03
         0.92594E+12
        -0.16284E+03
         0.92501E+12
         0.92768E+12
        -0.15968E+03
        -0.16437E+03
         0.91038E+12
         0.91740E+12
        -0.12398E+03
        -0.11661E+03
         0.90905E+12
        -0.11838E+03
         0.91715E+12
        -0.11351E+03
         0.90915E+12
        -0.11193E+03
         0.89144E+12
        -0.10577E+03
         0.87425E+12
        -0.93969E+02
         0.86395E+12
        -0.84614E+02
         0.86289E+12
        -0.84026E+02
         0.86322E+12
        -0.91122E+02
         0.87440E+12
        -0.95766E+02
         0.89526E+12
        -0.87444E+02
         0.91814E+12
        -0.78822E+02
         0.93153E+12
        -0.78732E+02
         0.94474E+12
        -0.88003E+02
         0.95347E+12
        -0.10034E+03
         0.95315E+12
        -0.10780E+03
         0.93195E+12
        -0.11642E+03
         0.91715E+12
        -0.12473E+03
         0.91207E+12
        -0.11426E+03
         0.92000E+12
        -0.10024E+03
         0.92414E+12
        -0.99928E+02
         0.91720E+12
        -0.10933E+03
         0.91731E+12
        -0.11656E+03
         0.92254E+12
        -0.11061E+03
         0.92936E+12
        -0.10694E+03
        -0.31267E+11
        -0.30933E+11
        -0.30980E+11
        -0.31400E+11
        -0.30579E+11
        -0.31020E+11
        -0.30467E+11
        -0.30765E+11
        -0.31338E+11
        -0.30992E+11
        -0.30125E+11
        -0.30017E+11
        -0.30302E+11
        -0.30321E+11
        -0.30139E+11
        -0.31382E+11
        -0.31307E+11
        -0.31511E+11
        -0.30895E+11
        -0.31017E+11
        -0.30842E+11
        -0.30958E+11
        -0.30740E+11
        -0.30798E+11
        -0.31007E+11
        -0.30992E+11
        -0.30628E+11
        -0.30662E+11
        -0.30372E+11
        -0.30803E+11
        -0.31345E+11
        -0.30928E+11
        -0.31342E+11
        -0.31075E+11
        -0.29941E+11
        -0.30335E+11
        -0.30512E+11
        -0.30303E+11
        -0.30275E+11
        -0.29912E+11
        -0.29634E+11
        -0.30291E+11
        -0.30849E+11
        -0.30777E+11
        -0.30495E+11
        -0.29956E+11
        -0.30419E+11
        -0.30872E+11
        -0.30842E+11
        -0.30493E+11
        -0.30109E+11
        -0.30620E+11
        -0.28910E+11
        -0.29460E+11
        -0.29372E+11
        -0.29496E+11
        -0.29464E+11
        -0.29173E+11
        -0.28861E+11
        -0.28757E+11
        -0.28802E+11
        -0.28770E+11
        -0.28633E+11
        -0.29437E+11
        -0.29718E+11
        -0.29823E+11
        -0.29999E+11
        -0.30128E+11
        -0.30122E+11
        -0.29900E+11
        -0.29098E+11
        -0.29297E+11
        -0.29576E+11
        -0.29573E+11
        -0.29525E+11
        -0.29256E+11
        -0.29649E+11
        -0.29789E+11
         0.12406E+07
         0.55396E+06
         0.70183E+06
         0.71444E+06
         0.44673E+06
         0.85816E+06
        -0.46686E+06
        -0.96061E+06
         0.15667E+07
        -0.10587E+07
        -0.12177E+07
        -0.44515E+05
        -0.44205E+05
        -0.36248E+07
        -0.11294E+07
        -0.22086E+06
         0.26594E+06
         0.71683E+06
        -0.17432E+05
        -0.17566E+06
        -0.12033E+07
        -0.52667E+06
        -0.17482E+07
        -0.70312E+06
        -0.11908E+07
        -0.18286E+06
        -0.46459E+07
        -0.24917E+07
        -0.15307E+07
        -0.11584E+07
        -0.11394E+06
        -0.48740E+06
         0.68638E+06
         0.12334E+07
        -0.98604E+06
        -0.68187E+06
        -0.29148E+06
        -0.14232E+07
        -0.94416E+06
        -0.58352E+06
        -0.75994E+06
        -0.13625E+07
        -0.11458E+07
        -0.14308E+07
        -0.10809E+07
        -0.48382E+06
        -0.19976E+06
        -0.21635E+06
         0.66607E+06
         0.10996E+07
         0.46982E+06
         0.62885E+06
        -0.29488E+07
        -0.50295E+06
        -0.16985E+07
         0.48317E+06
         0.23334E+07
         0.36512E+07
         0.30154E+07
         0.32837E+07
         0.26131E+07
         0.14085E+07
         0.41761E+06
        -0.36843E+06
        -0.11158E+07
        -0.13719E+06
        -0.18226E+07
        -0.29210E+07
        -0.24458E+07
        -0.21556E+07
        -0.11679E+07
         0.64435E+06
         0.64394E+06
         0.64359E+05
        -0.95830E+06
        -0.15062E+07
        -0.92459E+06
         0.27203E+05
         0.11647E+07
         0.48057E+06
         0.63005E+06
         0.65625E+06
         0.35683E+06
         0.77788E+06
        -0.53646E+06
        -0.10466E+07
         0.14916E+07
        -0.11524E+07
        -0.13017E+07
        -0.16302E+06
        -0.14653E+06
        -0.37151E+07
        -0.12469E+07
        -0.30049E+06
         0.19111E+06
         0.66477E+06
        -0.99743E+05
        -0.24848E+06
        -0.13044E+07
        -0.62528E+06
        -0.18523E+07
        -0.78070E+06
        -0.12890E+07
        -0.25180E+06
        -0.47346E+07
        -0.25644E+07
        -0.16141E+07
        -0.12603E+07
        -0.18930E+06
        -0.55506E+06
         0.62696E+06
         0.11760E+07
        -0.10896E+07
        -0.76806E+06
        -0.38051E+06
        -0.15418E+07
        -0.10541E+07
        -0.69161E+06
        -0.87675E+06
        -0.14765E+07
        -0.12540E+07
        -0.15303E+07
        -0.11745E+07
        -0.58821E+06
        -0.29339E+06
        -0.30387E+06
         0.58840E+06
         0.10199E+07
         0.37462E+06
         0.54401E+06
        -0.31399E+07
        -0.68933E+06
        -0.18819E+07
         0.30737E+06
         0.21475E+07
         0.34441E+07
         0.28086E+07
         0.30745E+07
         0.24018E+07
         0.11924E+07
         0.20251E+06
        -0.56727E+06
        -0.12818E+07
        -0.29226E+06
        -0.19851E+07
        -0.30945E+07
        -0.26231E+07
        -0.23409E+07
        -0.13539E+07
         0.44763E+06
         0.45836E+06
        -0.10330E+06
        -0.11261E+07
        -0.16782E+07
        -0.10984E+07
        -0.14981E+06
         0.11824E+07
         0.49496E+06
         0.64529E+06
         0.67283E+06
         0.38119E+06
         0.80027E+06
        -0.52467E+06
        -0.10260E+07
         0.15046E+07
        -0.11480E+07
        -0.12837E+07
        -0.14050E+06
        -0.12733E+06
        -0.36902E+07
        -0.12177E+07
        -0.31698E+06
         0.18717E+06
         0.68043E+06
        -0.11995E+06
        -0.26143E+06
        -0.13209E+07
        -0.63156E+06
        -0.19206E+07
        -0.83670E+06
        -0.13318E+07
        -0.30020E+06
        -0.47174E+07
        -0.25726E+07
        -0.16501E+07
        -0.13315E+07
        -0.18996E+06
        -0.57047E+06
         0.64532E+06
         0.11956E+07
        -0.10630E+07
        -0.74586E+06
        -0.36055E+06
        -0.15218E+07
        -0.10370E+07
        -0.68625E+06
        -0.87977E+06
        -0.15182E+07
        -0.13123E+07
        -0.15969E+07
        -0.11903E+07
        -0.57373E+06
        -0.27629E+06
        -0.28460E+06
         0.60975E+06
         0.10444E+07
         0.40189E+06
         0.56831E+06
        -0.30829E+07
        -0.63815E+06
        -0.18252E+07
         0.35093E+06
         0.21799E+07
         0.34763E+07
         0.28496E+07
         0.31156E+07
         0.24436E+07
         0.12357E+07
         0.22796E+06
        -0.56819E+06
        -0.12791E+07
        -0.26367E+06
        -0.19663E+07
        -0.31297E+07
        -0.26611E+07
        -0.23311E+07
        -0.13027E+07
         0.50680E+06
         0.51135E+06
        -0.49783E+05
        -0.10659E+07
        -0.16276E+07
        -0.10573E+07
        -0.11022E+06
         0.11714E+07
         0.48871E+06
         0.63926E+06
         0.66429E+06
         0.37330E+06
         0.79399E+06
        -0.53252E+06
        -0.10364E+07
         0.14833E+07
        -0.11878E+07
        -0.12917E+07
        -0.15287E+06
        -0.13574E+06
        -0.36990E+07
        -0.12320E+07
        -0.38053E+06
         0.14295E+06
         0.67214E+06
        -0.19191E+06
        -0.32254E+06
        -0.13976E+07
        -0.69967E+06
        -0.20795E+07
        -0.96187E+06
        -0.14486E+07
        -0.41014E+06
        -0.47416E+07
        -0.26312E+07
        -0.17518E+07
        -0.15024E+07
        -0.22708E+06
        -0.63158E+06
         0.63777E+06
         0.11867E+07
        -0.10766E+07
        -0.75419E+06
        -0.36749E+06
        -0.15440E+07
        -0.10645E+07
        -0.73568E+06
        -0.94596E+06
        -0.16474E+07
        -0.14704E+07
        -0.17540E+07
        -0.12676E+07
        -0.61569E+06
        -0.30632E+06
        -0.30118E+06
         0.59662E+06
         0.10294E+07
         0.38772E+06
         0.55924E+06
        -0.31095E+07
        -0.65644E+06
        -0.18541E+07
         0.32557E+06
         0.21629E+07
         0.34566E+07
         0.28166E+07
         0.30798E+07
         0.24091E+07
         0.11939E+07
         0.16170E+06
        -0.67514E+06
        -0.13797E+07
        -0.31137E+06
        -0.20200E+07
        -0.32773E+07
        -0.28174E+07
        -0.24043E+07
        -0.13375E+07
         0.47364E+06
         0.48617E+06
        -0.79591E+05
        -0.10969E+07
        -0.16487E+07
        -0.10734E+07
        -0.12626E+06
         0.11517E+07
         0.47605E+06
         0.62880E+06
         0.65543E+06
         0.36410E+06
         0.78500E+06
        -0.54367E+06
        -0.10543E+07
         0.14576E+07
        -0.12294E+07
        -0.13003E+07
        -0.16061E+06
        -0.14509E+06
        -0.37088E+07
        -0.12387E+07
        -0.42379E+06
         0.10785E+06
         0.66455E+06
        -0.23925E+06
        -0.36622E+06
        -0.14468E+07
        -0.74859E+06
        -0.21771E+07
        -0.10395E+07
        -0.15331E+07
        -0.48070E+06
        -0.47627E+07
        -0.26730E+07
        -0.18231E+07
        -0.16159E+07
        -0.26588E+06
        -0.67612E+06
         0.62121E+06
         0.11741E+07
        -0.10906E+07
        -0.76495E+06
        -0.37801E+06
        -0.15607E+07
        -0.10873E+07
        -0.77332E+06
        -0.99261E+06
        -0.17344E+07
        -0.15742E+07
        -0.18536E+07
        -0.13184E+07
        -0.64332E+06
        -0.33295E+06
        -0.32752E+06
         0.57371E+06
         0.10071E+07
         0.36547E+06
         0.54438E+06
        -0.31335E+07
        -0.67239E+06
        -0.18786E+07
         0.30584E+06
         0.21550E+07
         0.34509E+07
         0.28025E+07
         0.30561E+07
         0.23799E+07
         0.11681E+07
         0.12137E+06
        -0.74913E+06
        -0.14483E+07
        -0.34824E+06
        -0.20579E+07
        -0.33730E+07
        -0.29271E+07
        -0.24566E+07
        -0.13532E+07
         0.44351E+06
         0.45277E+06
        -0.11380E+06
        -0.11368E+07
        -0.16831E+07
        -0.10946E+07
        -0.14225E+06
         0.11041E+07
         0.45181E+06
         0.61846E+06
         0.66442E+06
         0.37700E+06
         0.80081E+06
        -0.55209E+06
        -0.10863E+07
         0.14214E+07
        -0.12857E+07
        -0.12923E+07
        -0.13428E+06
        -0.13513E+06
        -0.37028E+07
        -0.12053E+07
        -0.41678E+06
         0.99551E+05
         0.68057E+06
        -0.22948E+06
        -0.35859E+06
        -0.14322E+07
        -0.73130E+06
        -0.21750E+07
        -0.10411E+07
        -0.15699E+07
        -0.49089E+06
        -0.47677E+07
        -0.26763E+07
        -0.18234E+07
        -0.16202E+07
        -0.31209E+06
        -0.69971E+06
         0.59226E+06
         0.11715E+07
        -0.10790E+07
        -0.76340E+06
        -0.37979E+06
        -0.15404E+07
        -0.10700E+07
        -0.75404E+06
        -0.96991E+06
        -0.17212E+07
        -0.15631E+07
        -0.18596E+07
        -0.13245E+07
        -0.64781E+06
        -0.35597E+06
        -0.38016E+06
         0.51741E+06
         0.97675E+06
         0.35829E+06
         0.55177E+06
        -0.30866E+07
        -0.62392E+06
        -0.18391E+07
         0.33224E+06
         0.21828E+07
         0.34885E+07
         0.28452E+07
         0.30970E+07
         0.24270E+07
         0.12303E+07
         0.17573E+06
        -0.71632E+06
        -0.14120E+07
        -0.31047E+06
        -0.20215E+07
        -0.33439E+07
        -0.29059E+07
        -0.24356E+07
        -0.13279E+07
         0.46095E+06
         0.44903E+06
        -0.13758E+06
        -0.11524E+07
        -0.16750E+07
        -0.10711E+07
        -0.10861E+06
         0.10317E+07
         0.40892E+06
         0.59373E+06
         0.65941E+06
         0.36791E+06
         0.80056E+06
        -0.58170E+06
        -0.11497E+07
         0.13599E+07
        -0.13691E+07
        -0.13120E+07
        -0.14452E+06
        -0.15187E+06
        -0.37301E+07
        -0.12121E+07
        -0.43026E+06
         0.70671E+05
         0.67916E+06
        -0.23773E+06
        -0.36790E+06
        -0.14388E+07
        -0.73605E+06
        -0.21827E+07
        -0.10506E+07
        -0.16214E+07
        -0.50893E+06
        -0.48036E+07
        -0.26969E+07
        -0.18347E+07
        -0.16340E+07
        -0.37631E+06
        -0.73812E+06
         0.54716E+06
         0.11545E+07
        -0.10954E+07
        -0.78113E+06
        -0.40061E+06
        -0.15579E+07
        -0.10867E+07
        -0.76338E+06
        -0.97394E+06
        -0.17235E+07
        -0.15642E+07
        -0.18745E+07
        -0.13524E+07
        -0.68698E+06
        -0.40911E+06
        -0.45904E+06
         0.43710E+06
         0.92379E+06
         0.32848E+06
         0.54176E+06
        -0.31061E+07
        -0.63905E+06
        -0.18507E+07
         0.31892E+06
         0.21636E+07
         0.34655E+07
         0.28260E+07
         0.30805E+07
         0.24106E+07
         0.12181E+07
         0.16593E+06
        -0.72822E+06
        -0.14141E+07
        -0.31341E+06
        -0.20296E+07
        -0.33485E+07
        -0.29151E+07
        -0.24687E+07
        -0.13771E+07
         0.40665E+06
         0.38806E+06
        -0.21293E+06
        -0.12184E+07
        -0.17099E+07
        -0.10900E+07
        -0.12346E+06
         0.10105E+07
         0.39295E+06
         0.58357E+06
         0.65234E+06
         0.35806E+06
         0.79187E+06
        -0.59790E+06
        -0.11709E+07
         0.13421E+07
        -0.13939E+07
        -0.13259E+07
        -0.15887E+06
        -0.16835E+06
        -0.37440E+07
        -0.12240E+07
        -0.44247E+06
         0.58915E+05
         0.67355E+06
        -0.24530E+06
        -0.37501E+06
        -0.14494E+07
        -0.74729E+06
        -0.21928E+07
        -0.10579E+07
        -0.16404E+07
        -0.51928E+06
        -0.48190E+07
        -0.27072E+07
        -0.18513E+07
        -0.16472E+07
        -0.39790E+06
        -0.75336E+06
         0.53409E+06
         0.11452E+07
        -0.11094E+07
        -0.79058E+06
        -0.41325E+06
        -0.15797E+07
        -0.11059E+07
        -0.78263E+06
        -0.99356E+06
        -0.17394E+07
        -0.15742E+07
        -0.18879E+07
        -0.13689E+07
        -0.70528E+06
        -0.42652E+06
        -0.47879E+06
         0.41732E+06
         0.90542E+06
         0.31010E+06
         0.52919E+06
        -0.31329E+07
        -0.66537E+06
        -0.18685E+07
         0.30052E+06
         0.21414E+07
         0.34459E+07
         0.28059E+07
         0.30526E+07
         0.23740E+07
         0.11795E+07
         0.13097E+06
        -0.74403E+06
        -0.14267E+07
        -0.34023E+06
        -0.20579E+07
        -0.33754E+07
        -0.29499E+07
        -0.25021E+07
        -0.14050E+07
         0.38394E+06
         0.36954E+06
        -0.23804E+06
        -0.12515E+07
        -0.17408E+07
        -0.11161E+07
        -0.14934E+06
         0.10237E+07
         0.40360E+06
         0.59137E+06
         0.65577E+06
         0.37002E+06
         0.79537E+06
        -0.59070E+06
        -0.11537E+07
         0.13545E+07
        -0.13776E+07
        -0.13151E+07
        -0.14465E+06
        -0.15812E+06
        -0.37249E+07
        -0.12011E+07
        -0.42825E+06
         0.69903E+05
         0.68160E+06
        -0.23096E+06
        -0.36333E+06
        -0.14345E+07
        -0.73343E+06
        -0.21780E+07
        -0.10452E+07
        -0.16286E+07
        -0.50842E+06
        -0.47972E+07
        -0.26917E+07
        -0.18454E+07
        -0.16351E+07
        -0.38676E+06
        -0.74476E+06
         0.54376E+06
         0.11493E+07
        -0.10942E+07
        -0.77897E+06
        -0.40312E+06
        -0.15647E+07
        -0.10943E+07
        -0.77237E+06
        -0.98020E+06
        -0.17253E+07
        -0.15594E+07
        -0.18742E+07
        -0.13575E+07
        -0.69345E+06
        -0.41484E+06
        -0.46543E+06
         0.43062E+06
         0.91572E+06
         0.31812E+06
         0.53256E+06
        -0.30929E+07
        -0.62595E+06
        -0.18449E+07
         0.31016E+06
         0.21611E+07
         0.34764E+07
         0.28399E+07
         0.30768E+07
         0.23834E+07
         0.11939E+07
         0.15679E+06
        -0.70737E+06
        -0.13946E+07
        -0.31945E+06
        -0.20384E+07
        -0.33528E+07
        -0.29269E+07
        -0.24737E+07
        -0.13780E+07
         0.41556E+06
         0.40224E+06
        -0.20889E+06
        -0.12270E+07
        -0.17191E+07
        -0.10944E+07
        -0.12593E+06
         0.10201E+07
         0.40258E+06
         0.58933E+06
         0.65137E+06
         0.36847E+06
         0.79100E+06
        -0.59472E+06
        -0.11586E+07
         0.13459E+07
        -0.13870E+07
        -0.13208E+07
        -0.15339E+06
        -0.16082E+06
        -0.37307E+07
        -0.12136E+07
        -0.43606E+06
         0.62258E+05
         0.67548E+06
        -0.23719E+06
        -0.36863E+06
        -0.14398E+07
        -0.74057E+06
        -0.21832E+07
        -0.10501E+07
        -0.16350E+07
        -0.51285E+06
        -0.48022E+07
        -0.26915E+07
        -0.18530E+07
        -0.16414E+07
        -0.39412E+06
        -0.74946E+06
         0.53762E+06
         0.11427E+07
        -0.10995E+07
        -0.78303E+06
        -0.40592E+06
        -0.15837E+07
        -0.11053E+07
        -0.78239E+06
        -0.98976E+06
        -0.17317E+07
        -0.15679E+07
        -0.18778E+07
        -0.13610E+07
        -0.69922E+06
        -0.42282E+06
        -0.47457E+06
         0.42293E+06
         0.90853E+06
         0.31100E+06
         0.52543E+06
        -0.31044E+07
        -0.63503E+06
        -0.18635E+07
         0.29421E+06
         0.21589E+07
         0.34652E+07
         0.28138E+07
         0.30475E+07
         0.23664E+07
         0.11682E+07
         0.12877E+06
        -0.72132E+06
        -0.14111E+07
        -0.32849E+06
        -0.20470E+07
        -0.33609E+07
        -0.29281E+07
        -0.24794E+07
        -0.13860E+07
         0.39415E+06
         0.37582E+06
        -0.22928E+06
        -0.12372E+07
        -0.17241E+07
        -0.11061E+07
        -0.14248E+06
         0.10103E+07
         0.39438E+06
         0.58350E+06
         0.64924E+06
         0.36174E+06
         0.78845E+06
        -0.60272E+06
        -0.11664E+07
         0.13382E+07
        -0.13963E+07
        -0.13272E+07
        -0.16497E+06
        -0.16844E+06
        -0.37347E+07
        -0.12264E+07
        -0.44667E+06
         0.56182E+05
         0.67251E+06
        -0.24488E+06
        -0.37234E+06
        -0.14468E+07
        -0.74783E+06
        -0.21912E+07
        -0.10576E+07
        -0.16412E+07
        -0.52100E+06
        -0.48058E+07
        -0.26930E+07
        -0.18610E+07
        -0.16461E+07
        -0.40430E+06
        -0.75714E+06
         0.53506E+06
         0.11421E+07
        -0.11118E+07
        -0.79036E+06
        -0.41263E+06
        -0.16021E+07
        -0.11176E+07
        -0.79122E+06
        -0.99524E+06
        -0.17372E+07
        -0.15757E+07
        -0.18848E+07
        -0.13677E+07
        -0.70703E+06
        -0.43026E+06
        -0.48252E+06
         0.41560E+06
         0.90223E+06
         0.30424E+06
         0.52240E+06
        -0.31275E+07
        -0.65426E+06
        -0.18777E+07
         0.28937E+06
         0.21527E+07
         0.34424E+07
         0.27809E+07
         0.30211E+07
         0.23488E+07
         0.11498E+07
         0.11731E+06
        -0.73509E+06
        -0.14310E+07
        -0.34196E+06
        -0.20612E+07
        -0.33774E+07
        -0.29389E+07
        -0.24922E+07
        -0.14017E+07
         0.37651E+06
         0.35577E+06
        -0.25014E+06
        -0.12520E+07
        -0.17382E+07
        -0.11239E+07
        -0.16132E+06
         0.10165E+07
         0.39765E+06
         0.58637E+06
         0.65472E+06
         0.37002E+06
         0.79611E+06
        -0.59889E+06
        -0.11541E+07
         0.13441E+07
        -0.13893E+07
        -0.13171E+07
        -0.15527E+06
        -0.16547E+06
        -0.37169E+07
        -0.12051E+07
        -0.43901E+06
         0.60514E+05
         0.68051E+06
        -0.23623E+06
        -0.36282E+06
        -0.14348E+07
        -0.73543E+06
        -0.21812E+07
        -0.10498E+07
        -0.16362E+07
        -0.51422E+06
        -0.47919E+07
        -0.26826E+07
        -0.18540E+07
        -0.16328E+07
        -0.39569E+06
        -0.75130E+06
         0.54632E+06
         0.11511E+07
        -0.11026E+07
        -0.78280E+06
        -0.40828E+06
        -0.15901E+07
        -0.11060E+07
        -0.77591E+06
        -0.98033E+06
        -0.17265E+07
        -0.15638E+07
        -0.18763E+07
        -0.13606E+07
        -0.70042E+06
        -0.42307E+06
        -0.47450E+06
         0.42441E+06
         0.91100E+06
         0.31265E+06
         0.53132E+06
        -0.30982E+07
        -0.62249E+06
        -0.18477E+07
         0.30398E+06
         0.21480E+07
         0.34440E+07
         0.28044E+07
         0.30471E+07
         0.23665E+07
         0.11765E+07
         0.14268E+06
        -0.72303E+06
        -0.14096E+07
        -0.32019E+06
        -0.20415E+07
        -0.33622E+07
        -0.29286E+07
        -0.24793E+07
        -0.13894E+07
         0.39553E+06
         0.37834E+06
        -0.22847E+06
        -0.12331E+07
        -0.17222E+07
        -0.11003E+07
        -0.13384E+06
         0.10119E+07
         0.39106E+06
         0.58072E+06
         0.64965E+06
         0.36315E+06
         0.78962E+06
        -0.60842E+06
        -0.11611E+07
         0.13380E+07
        -0.14008E+07
        -0.13266E+07
        -0.16964E+06
        -0.18064E+06
        -0.37250E+07
        -0.12141E+07
        -0.44771E+06
         0.52714E+05
         0.67390E+06
        -0.24565E+06
        -0.36923E+06
        -0.14476E+07
        -0.74859E+06
        -0.21948E+07
        -0.10585E+07
        -0.16479E+07
        -0.52140E+06
        -0.48051E+07
        -0.26924E+07
        -0.18676E+07
        -0.16410E+07
        -0.40524E+06
        -0.75855E+06
         0.53848E+06
         0.11451E+07
        -0.11144E+07
        -0.79144E+06
        -0.41946E+06
        -0.16101E+07
        -0.11254E+07
        -0.79261E+06
        -0.99867E+06
        -0.17439E+07
        -0.15770E+07
        -0.18910E+07
        -0.13731E+07
        -0.71182E+06
        -0.43378E+06
        -0.48685E+06
         0.41489E+06
         0.90390E+06
         0.30359E+06
         0.52316E+06
        -0.31210E+07
        -0.64219E+06
        -0.18702E+07
         0.27793E+06
         0.21177E+07
         0.34149E+07
         0.27867E+07
         0.30242E+07
         0.23366E+07
         0.11468E+07
         0.10652E+06
        -0.75875E+06
        -0.14333E+07
        -0.34476E+06
        -0.20628E+07
        -0.33865E+07
        -0.29660E+07
        -0.25128E+07
        -0.14062E+07
         0.37222E+06
         0.35443E+06
        -0.24075E+06
        -0.12413E+07
        -0.17397E+07
        -0.11244E+07
        -0.15783E+06
         0.10109E+07
         0.38883E+06
         0.57902E+06
         0.64874E+06
         0.36288E+06
         0.78824E+06
        -0.61194E+06
        -0.11607E+07
         0.13389E+07
        -0.14009E+07
        -0.13277E+07
        -0.17169E+06
        -0.18326E+06
        -0.37216E+07
        -0.12131E+07
        -0.44994E+06
         0.52943E+05
         0.67352E+06
        -0.24652E+06
        -0.36882E+06
        -0.14501E+07
        -0.75056E+06
        -0.21978E+07
        -0.10602E+07
        -0.16499E+07
        -0.52365E+06
        -0.48023E+07
        -0.26925E+07
        -0.18744E+07
        -0.16429E+07
        -0.41074E+06
        -0.76145E+06
         0.53659E+06
         0.11445E+07
        -0.11174E+07
        -0.79393E+06
        -0.42268E+06
        -0.16199E+07
        -0.11367E+07
        -0.79969E+06
        -0.10007E+07
        -0.17458E+07
        -0.15789E+07
        -0.18931E+07
        -0.13750E+07
        -0.71446E+06
        -0.43709E+06
        -0.49181E+06
         0.41128E+06
         0.90244E+06
         0.30202E+06
         0.52140E+06
        -0.31216E+07
        -0.64168E+06
        -0.18762E+07
         0.26788E+06
         0.21172E+07
         0.34144E+07
         0.27794E+07
         0.30050E+07
         0.23150E+07
         0.11350E+07
         0.10535E+06
        -0.76224E+06
        -0.14392E+07
        -0.35430E+06
        -0.20739E+07
        -0.33944E+07
        -0.29710E+07
        -0.25173E+07
        -0.14108E+07
         0.36381E+06
         0.34392E+06
        -0.24749E+06
        -0.12418E+07
        -0.17419E+07
        -0.11351E+07
        -0.16759E+06
         0.10307E+07
         0.40918E+06
         0.59599E+06
         0.66155E+06
         0.38597E+06
         0.80507E+06
        -0.59379E+06
        -0.11360E+07
         0.13536E+07
        -0.13822E+07
        -0.13042E+07
        -0.14079E+06
        -0.15664E+06
        -0.36931E+07
        -0.11815E+07
        -0.43255E+06
         0.68112E+05
         0.68733E+06
        -0.22763E+06
        -0.35026E+06
        -0.14238E+07
        -0.72610E+06
        -0.21732E+07
        -0.10433E+07
        -0.16297E+07
        -0.50822E+06
        -0.47747E+07
        -0.26675E+07
        -0.18565E+07
        -0.16183E+07
        -0.39245E+06
        -0.74490E+06
         0.55281E+06
         0.11562E+07
        -0.10921E+07
        -0.77269E+06
        -0.40063E+06
        -0.16007E+07
        -0.11132E+07
        -0.77435E+06
        -0.97577E+06
        -0.17211E+07
        -0.15567E+07
        -0.18677E+07
        -0.13496E+07
        -0.68855E+06
        -0.41452E+06
        -0.47116E+06
         0.42891E+06
         0.91825E+06
         0.31939E+06
         0.53674E+06
        -0.30684E+07
        -0.58865E+06
        -0.18315E+07
         0.30018E+06
         0.21567E+07
         0.34644E+07
         0.28213E+07
         0.30367E+07
         0.23509E+07
         0.11741E+07
         0.14062E+06
        -0.72090E+06
        -0.14065E+07
        -0.31788E+06
        -0.20325E+07
        -0.33513E+07
        -0.29222E+07
        -0.24648E+07
        -0.13657E+07
         0.41085E+06
         0.38410E+06
        -0.21763E+06
        -0.12087E+07
        -0.17026E+07
        -0.10926E+07
        -0.12468E+06
         0.10223E+07
         0.40324E+06
         0.59074E+06
         0.65507E+06
         0.37718E+06
         0.79837E+06
        -0.60252E+06
        -0.11453E+07
         0.13446E+07
        -0.13967E+07
        -0.13136E+07
        -0.15185E+06
        -0.16347E+06
        -0.37018E+07
        -0.11946E+07
        -0.44355E+06
         0.58308E+05
         0.68214E+06
        -0.24010E+06
        -0.35841E+06
        -0.14323E+07
        -0.73810E+06
        -0.21816E+07
        -0.10537E+07
        -0.16432E+07
        -0.51827E+06
        -0.47865E+07
        -0.26739E+07
        -0.18628E+07
        -0.16241E+07
        -0.39966E+06
        -0.75312E+06
         0.54809E+06
         0.11489E+07
        -0.11072E+07
        -0.78047E+06
        -0.40596E+06
        -0.16233E+07
        -0.11291E+07
        -0.78202E+06
        -0.98732E+06
        -0.17347E+07
        -0.15719E+07
        -0.18785E+07
        -0.13604E+07
        -0.69927E+06
        -0.42338E+06
        -0.47816E+06
         0.42096E+06
         0.90759E+06
         0.30850E+06
         0.52836E+06
        -0.31021E+07
        -0.61710E+06
        -0.18575E+07
         0.28642E+06
         0.21521E+07
         0.34515E+07
         0.27927E+07
         0.30023E+07
         0.23178E+07
         0.11446E+07
         0.10576E+06
        -0.76080E+06
        -0.14347E+07
        -0.33190E+06
        -0.20391E+07
        -0.33555E+07
        -0.29358E+07
        -0.24885E+07
        -0.13832E+07
         0.38989E+06
         0.36496E+06
        -0.23921E+06
        -0.12317E+07
        -0.17171E+07
        -0.11062E+07
        -0.14737E+06
         0.10082E+07
         0.38822E+06
         0.57634E+06
         0.64607E+06
         0.36273E+06
         0.78511E+06
        -0.61556E+06
        -0.11567E+07
         0.13315E+07
        -0.14228E+07
        -0.13251E+07
        -0.16970E+06
        -0.17830E+06
        -0.37108E+07
        -0.12113E+07
        -0.45688E+06
         0.43408E+05
         0.67593E+06
        -0.25032E+06
        -0.36174E+06
        -0.14429E+07
        -0.75215E+06
        -0.21918E+07
        -0.10626E+07
        -0.16666E+07
        -0.52814E+06
        -0.48137E+07
        -0.26851E+07
        -0.18410E+07
        -0.16066E+07
        -0.41198E+06
        -0.76464E+06
         0.54343E+06
         0.11440E+07
        -0.11241E+07
        -0.79358E+06
        -0.41911E+06
        -0.16565E+07
        -0.11447E+07
        -0.75867E+06
        -0.98834E+06
        -0.17493E+07
        -0.15923E+07
        -0.18902E+07
        -0.13743E+07
        -0.71650E+06
        -0.43901E+06
        -0.49052E+06
         0.41173E+06
         0.89902E+06
         0.29889E+06
         0.51801E+06
        -0.31246E+07
        -0.63778E+06
        -0.18751E+07
         0.27093E+06
         0.21305E+07
         0.34162E+07
         0.27525E+07
         0.29639E+07
         0.22844E+07
         0.11369E+07
         0.44919E+05
        -0.85647E+06
        -0.14744E+07
        -0.35391E+06
        -0.20589E+07
        -0.33732E+07
        -0.29575E+07
        -0.25134E+07
        -0.14121E+07
         0.35711E+06
         0.34298E+06
        -0.25983E+06
        -0.12551E+07
        -0.17345E+07
        -0.11331E+07
        -0.17758E+06
         0.10271E+07
         0.40692E+06
         0.59477E+06
         0.66146E+06
         0.38722E+06
         0.80324E+06
        -0.59984E+06
        -0.11323E+07
         0.13418E+07
        -0.14267E+07
        -0.13040E+07
        -0.14664E+06
        -0.15864E+06
        -0.36837E+07
        -0.11830E+07
        -0.43930E+06
         0.53823E+05
         0.68895E+06
        -0.22852E+06
        -0.33200E+06
        -0.14210E+07
        -0.73077E+06
        -0.21720E+07
        -0.10444E+07
        -0.16623E+07
        -0.51133E+06
        -0.48181E+07
        -0.26690E+07
        -0.17639E+07
        -0.15299E+07
        -0.39650E+06
        -0.74783E+06
         0.55931E+06
         0.11594E+07
        -0.10970E+07
        -0.76996E+06
        -0.39827E+06
        -0.16551E+07
        -0.11177E+07
        -0.66914E+06
        -0.94031E+06
        -0.17243E+07
        -0.15793E+07
        -0.18683E+07
        -0.13494E+07
        -0.68770E+06
        -0.41548E+06
        -0.47164E+06
         0.43104E+06
         0.92053E+06
         0.32197E+06
         0.53615E+06
        -0.30698E+07
        -0.58390E+06
        -0.18200E+07
         0.30941E+06
         0.21552E+07
         0.34446E+07
         0.27917E+07
         0.30035E+07
         0.23282E+07
         0.12221E+07
         0.25199E+05
        -0.93346E+06
        -0.14715E+07
        -0.32372E+06
        -0.20337E+07
        -0.33521E+07
        -0.29311E+07
        -0.24694E+07
        -0.13582E+07
         0.40745E+06
         0.38656E+06
        -0.21496E+06
        -0.12044E+07
        -0.16876E+07
        -0.10951E+07
        -0.13784E+06
         0.95617E+06
         0.33781E+06
         0.52838E+06
         0.60398E+06
         0.30298E+06
         0.72695E+06
        -0.66712E+06
        -0.12141E+07
         0.12689E+07
        -0.15288E+07
        -0.13839E+07
        -0.25681E+06
        -0.26079E+06
        -0.37720E+07
        -0.12949E+07
        -0.50880E+06
        -0.16381E+05
         0.63705E+06
        -0.30155E+06
        -0.39003E+06
        -0.15160E+07
        -0.82405E+06
        -0.22641E+07
        -0.11093E+07
        -0.17555E+07
        -0.56868E+06
        -0.49255E+07
        -0.27392E+07
        -0.18006E+07
        -0.15823E+07
        -0.46433E+06
        -0.80932E+06
         0.50024E+06
         0.10975E+07
        -0.11979E+07
        -0.85493E+06
        -0.48944E+06
        -0.17841E+07
        -0.12187E+07
        -0.72860E+06
        -0.10344E+07
        -0.18259E+07
        -0.16811E+07
        -0.19570E+07
        -0.14415E+07
        -0.79534E+06
        -0.50599E+06
        -0.55269E+06
         0.35412E+06
         0.83527E+06
         0.21958E+06
         0.44926E+06
        -0.32605E+07
        -0.76892E+06
        -0.20124E+07
         0.11338E+06
         0.19598E+07
         0.32564E+07
         0.26003E+07
         0.27981E+07
         0.21356E+07
         0.10466E+07
        -0.21923E+06
        -0.11994E+07
        -0.16598E+07
        -0.47997E+06
        -0.21976E+07
        -0.35225E+07
        -0.31069E+07
        -0.26662E+07
        -0.15603E+07
         0.21361E+06
         0.20688E+06
        -0.38703E+06
        -0.13804E+07
        -0.18685E+07
        -0.12690E+07
        -0.31057E+06
         0.99657E+06
         0.34250E+06
         0.54078E+06
         0.62712E+06
         0.33204E+06
         0.75267E+06
        -0.66007E+06
        -0.11627E+07
         0.13172E+07
        -0.14547E+07
        -0.13616E+07
        -0.25483E+06
        -0.28704E+06
        -0.37110E+07
        -0.12439E+07
        -0.45590E+06
         0.29197E+05
         0.66710E+06
        -0.26206E+06
        -0.35394E+06
        -0.14725E+07
        -0.79193E+06
        -0.21980E+07
        -0.10609E+07
        -0.16758E+07
        -0.52695E+06
        -0.48336E+07
        -0.26557E+07
        -0.17370E+07
        -0.15048E+07
        -0.42398E+06
        -0.78231E+06
         0.51966E+06
         0.10891E+07
        -0.11829E+07
        -0.86105E+06
        -0.51516E+06
        -0.17250E+07
        -0.11477E+07
        -0.66670E+06
        -0.99193E+06
        -0.17688E+07
        -0.16203E+07
        -0.18961E+07
        -0.14075E+07
        -0.77875E+06
        -0.49214E+06
        -0.51836E+06
         0.38012E+06
         0.83676E+06
         0.22632E+06
         0.45120E+06
        -0.31871E+07
        -0.67343E+06
        -0.19882E+07
         0.71076E+05
         0.18722E+07
         0.32029E+07
         0.26879E+07
         0.28880E+07
         0.22073E+07
         0.10892E+07
        -0.20731E+06
        -0.11630E+07
        -0.15886E+07
        -0.44472E+06
        -0.21233E+07
        -0.34162E+07
        -0.30162E+07
        -0.25968E+07
        -0.15302E+07
         0.21011E+06
         0.24690E+06
        -0.32986E+06
        -0.12895E+07
        -0.17583E+07
        -0.11822E+07
        -0.22076E+06
         0.27880E+09
         0.27467E+09
         0.27104E+09
         0.23435E+09
         0.33402E+09
         0.30107E+09
         0.27624E+09
         0.31643E+09
         0.26129E+09
         0.31641E+09
         0.32128E+09
         0.42187E+09
         0.37281E+09
         0.34622E+09
         0.43452E+09
         0.25812E+09
         0.25667E+09
         0.20352E+09
         0.27662E+09
         0.26759E+09
         0.34210E+09
         0.34410E+09
         0.32561E+09
         0.25214E+09
         0.30421E+09
         0.22054E+09
         0.34131E+09
         0.28400E+09
         0.30211E+09
         0.31645E+09
         0.25607E+09
         0.24619E+09
         0.23480E+09
         0.24330E+09
         0.37789E+09
         0.32435E+09
         0.33283E+09
         0.40798E+09
         0.38748E+09
         0.37960E+09
         0.39870E+09
         0.37380E+09
         0.35429E+09
         0.31288E+09
         0.32414E+09
         0.38240E+09
         0.33550E+09
         0.30735E+09
         0.29377E+09
         0.31145E+09
         0.36004E+09
         0.31730E+09
         0.69669E+09
         0.68257E+09
         0.69529E+09
         0.67345E+09
         0.69520E+09
         0.72970E+09
         0.73278E+09
         0.72462E+09
         0.73022E+09
         0.75032E+09
         0.72691E+09
         0.68478E+09
         0.60703E+09
         0.57295E+09
         0.58142E+09
         0.59505E+09
         0.60310E+09
         0.65753E+09
         0.70482E+09
         0.70825E+09
         0.64938E+09
         0.62620E+09
         0.64845E+09
         0.64110E+09
         0.63643E+09
         0.63776E+09
         0.32239E+10
         0.33775E+10
         0.33287E+10
         0.30370E+10
         0.37397E+10
         0.35123E+10
         0.36544E+10
         0.36828E+10
         0.31527E+10
         0.36809E+10
         0.40136E+10
         0.44975E+10
         0.40767E+10
         0.41302E+10
         0.46548E+10
         0.30891E+10
         0.33206E+10
         0.28973E+10
         0.34296E+10
         0.36087E+10
         0.37328E+10
         0.38147E+10
         0.35830E+10
         0.32982E+10
         0.37241E+10
         0.31824E+10
         0.41152E+10
         0.40457E+10
         0.40640E+10
         0.38560E+10
         0.31224E+10
         0.32839E+10
         0.30612E+10
         0.32016E+10
         0.40948E+10
         0.37571E+10
         0.37693E+10
         0.45074E+10
         0.43921E+10
         0.43395E+10
         0.44155E+10
         0.41928E+10
         0.39646E+10
         0.34980E+10
         0.36429E+10
         0.40932E+10
         0.37851E+10
         0.35589E+10
         0.34884E+10
         0.36170E+10
         0.39270E+10
         0.36275E+10
         0.64965E+10
         0.63283E+10
         0.64609E+10
         0.62574E+10
         0.64444E+10
         0.67768E+10
         0.68874E+10
         0.68737E+10
         0.69230E+10
         0.70816E+10
         0.68751E+10
         0.64607E+10
         0.57894E+10
         0.54703E+10
         0.54844E+10
         0.55543E+10
         0.56083E+10
         0.60842E+10
         0.65237E+10
         0.65501E+10
         0.60601E+10
         0.58720E+10
         0.60667E+10
         0.60232E+10
         0.59538E+10
         0.59371E+10
  
SCALARS                      stress_yy  double 1
LOOKUP_TABLE default
         0.93595E+12
         0.92369E+12
         0.93147E+12
         0.94541E+12
        -0.16510E+03
        -0.18514E+03
        -0.17727E+03
        -0.16105E+03
         0.92326E+12
         0.92742E+12
        -0.16648E+03
        -0.16111E+03
         0.90591E+12
         0.90526E+12
        -0.19782E+03
        -0.18600E+03
         0.94337E+12
         0.90622E+12
        -0.14617E+03
        -0.16212E+03
         0.89255E+12
         0.88192E+12
         0.89882E+12
        -0.19606E+03
        -0.17122E+03
        -0.17681E+03
         0.88234E+12
         0.86681E+12
        -0.18809E+03
        -0.15862E+03
         0.94270E+12
         0.92655E+12
         0.95834E+12
        -0.16051E+03
        -0.14922E+03
        -0.14508E+03
         0.93335E+12
         0.91276E+12
        -0.16981E+03
        -0.15495E+03
         0.92520E+12
         0.90931E+12
        -0.14677E+03
        -0.12993E+03
         0.93864E+12
         0.94461E+12
        -0.16084E+03
        -0.17971E+03
         0.89655E+12
        -0.15712E+03
         0.94344E+12
        -0.18462E+03
         0.87786E+12
        -0.16593E+03
         0.87298E+12
        -0.15916E+03
         0.87306E+12
         0.89040E+12
        -0.16216E+03
        -0.15793E+03
         0.94237E+12
         0.93616E+12
        -0.16261E+03
        -0.18383E+03
         0.94624E+12
        -0.15690E+03
         0.93887E+12
        -0.17124E+03
         0.91944E+12
         0.91749E+12
        -0.16484E+03
        -0.17272E+03
         0.91310E+12
        -0.17417E+03
         0.86129E+12
        -0.13761E+03
         0.85857E+12
        -0.13357E+03
         0.85992E+12
        -0.14083E+03
         0.86744E+12
         0.87524E+12
        -0.13418E+03
        -0.13989E+03
         0.89095E+12
        -0.13029E+03
         0.93833E+12
        -0.17086E+03
         0.93095E+12
        -0.17487E+03
         0.92489E+12
         0.92156E+12
        -0.16793E+03
        -0.16989E+03
         0.92566E+12
        -0.15431E+03
         0.92858E+12
        -0.15211E+03
         0.92594E+12
        -0.16284E+03
         0.92501E+12
         0.92768E+12
        -0.15968E+03
        -0.16437E+03
         0.91038E+12
         0.91740E+12
        -0.12398E+03
        -0.11661E+03
         0.90905E+12
        -0.11838E+03
         0.91715E+12
        -0.11351E+03
         0.90915E+12
        -0.11193E+03
         0.89144E+12
        -0.10577E+03
         0.87425E+12
        -0.93969E+02
         0.86395E+12
        -0.84614E+02
         0.86289E+12
        -0.84026E+02
         0.86322E+12
        -0.91122E+02
         0.87440E+12
        -0.95766E+02
         0.89526E+12
        -0.87444E+02
         0.91814E+12
        -0.78822E+02
         0.93153E+12
        -0.78732E+02
         0.94474E+12
        -0.88003E+02
         0.95347E+12
        -0.10034E+03
         0.95315E+12
        -0.10780E+03
         0.93195E+12
        -0.11642E+03
         0.91715E+12
        -0.12473E+03
         0.91207E+12
        -0.11426E+03
         0.92000E+12
        -0.10024E+03
         0.92414E+12
        -0.99928E+02
         0.91720E+12
        -0.10933E+03
         0.91731E+12
        -0.11656E+03
         0.92254E+12
        -0.11061E+03
         0.92936E+12
        -0.10694E+03
        -0.31267E+11
        -0.30933E+11
        -0.30980E+11
        -0.31400E+11
        -0.30579E+11
        -0.31020E+11
        -0.30467E+11
        -0.30765E+11
        -0.31338E+11
        -0.30992E+11
        -0.30125E+11
        -0.30017E+11
        -0.30302E+11
        -0.30321E+11
        -0.30139E+11
        -0.31382E+11
        -0.31307E+11
        -0.31511E+11
        -0.30895E+11
        -0.31017E+11
        -0.30842E+11
        -0.30958E+11
        -0.30740E+11
        -0.30798E+11
        -0.31007E+11
        -0.30992E+11
        -0.30628E+11
        -0.30662E+11
        -0.30372E+11
        -0.30803E+11
        -0.31345E+11
        -0.30928E+11
        -0.31342E+11
        -0.31075E+11
        -0.29941E+11
        -0.30335E+11
        -0.30512E+11
        -0.30303E+11
        -0.30275E+11
        -0.29912E+11
        -0.29634E+11
        -0.30291E+11
        -0.30849E+11
        -0.30777E+11
        -0.30495E+11
        -0.29956E+11
        -0.30419E+11
        -0.30872E+11
        -0.30842E+11
        -0.30493E+11
        -0.30109E+11
        -0.30620E+11
        -0.28910E+11
        -0.29460E+11
        -0.29372E+11
        -0.29496E+11
        -0.29464E+11
        -0.29173E+11
        -0.28861E+11
        -0.28757E+11
        -0.28802E+11
        -0.28770E+11
        -0.28633E+11
        -0.29437E+11
        -0.29718E+11
        -0.29823E+11
        -0.29999E+11
        -0.30128E+11
        -0.30122E+11
        -0.29900E+11
        -0.29098E+11
        -0.29297E+11
        -0.29576E+11
        -0.29573E+11
        -0.29525E+11
        -0.29256E+11
        -0.29649E+11
        -0.29789E+11
         0.45985E+06
        -0.22247E+06
         0.74613E+04
         0.11723E+07
         0.49105E+06
         0.13758E+07
        -0.61715E+06
        -0.16029E+07
         0.90960E+06
        -0.16827E+07
        -0.18432E+07
        -0.11463E+07
        -0.25230E+06
        -0.28311E+07
        -0.19794E+07
         0.22599E+06
         0.73315E+06
         0.89129E+06
        -0.60246E+06
         0.10377E+06
        -0.25856E+06
         0.46931E+06
        -0.70288E+06
        -0.30875E+06
        -0.18229E+07
        -0.19921E+06
        -0.37926E+07
        -0.24695E+07
        -0.13048E+07
        -0.15885E+07
         0.66240E+05
        -0.72233E+05
         0.82395E+06
         0.13519E+07
         0.66801E+05
        -0.52129E+05
         0.35279E+05
        -0.19856E+07
        -0.19727E+07
        -0.13821E+07
        -0.17093E+06
        -0.30364E+06
        -0.20889E+06
        -0.79303E+06
        -0.87849E+06
        -0.13310E+07
        -0.59037E+06
        -0.77387E+05
        -0.15088E+06
         0.22143E+06
         0.69081E+06
         0.15665E+07
        -0.16302E+07
         0.73585E+06
        -0.11516E+07
         0.41873E+06
         0.15656E+07
         0.23144E+07
         0.15727E+07
         0.19738E+07
         0.13990E+07
         0.56504E+06
         0.91234E+06
         0.94878E+06
         0.23085E+06
         0.12008E+07
        -0.44474E+06
        -0.17361E+07
        -0.18419E+07
        -0.20528E+07
        -0.21630E+07
        -0.75840E+06
        -0.59492E+06
        -0.11399E+07
        -0.18468E+07
        -0.12919E+07
         0.17853E+06
         0.11552E+07
         0.38425E+06
        -0.29582E+06
        -0.64342E+05
         0.11130E+07
         0.40008E+06
         0.12944E+07
        -0.68492E+06
        -0.16915E+07
         0.83368E+06
        -0.17795E+07
        -0.19287E+07
        -0.12645E+07
        -0.35428E+06
        -0.29226E+07
        -0.20979E+07
         0.14715E+06
         0.65820E+06
         0.83812E+06
        -0.68525E+06
         0.30293E+05
        -0.36042E+06
         0.37050E+06
        -0.80700E+06
        -0.38619E+06
        -0.19232E+07
        -0.26749E+06
        -0.38813E+07
        -0.25440E+07
        -0.13835E+07
        -0.16916E+07
        -0.80438E+04
        -0.13966E+06
         0.76066E+06
         0.12940E+07
        -0.36428E+05
        -0.13892E+06
        -0.54020E+05
        -0.21044E+07
        -0.20829E+07
        -0.14896E+07
        -0.28777E+06
        -0.41734E+06
        -0.31735E+06
        -0.89296E+06
        -0.97248E+06
        -0.14356E+07
        -0.68425E+06
        -0.16407E+06
        -0.22827E+06
         0.14206E+06
         0.59537E+06
         0.14814E+07
        -0.18213E+07
         0.54931E+06
        -0.13354E+07
         0.24293E+06
         0.13796E+07
         0.21074E+07
         0.13660E+07
         0.17648E+07
         0.11875E+07
         0.34889E+06
         0.69731E+06
         0.74987E+06
         0.64820E+05
         0.10456E+07
        -0.60721E+06
        -0.19097E+07
        -0.20194E+07
        -0.22381E+07
        -0.23492E+07
        -0.95507E+06
        -0.78068E+06
        -0.13077E+07
        -0.20150E+07
        -0.14637E+07
         0.49299E+04
         0.97855E+06
         0.40214E+06
        -0.28140E+06
        -0.49139E+05
         0.11285E+07
         0.42333E+06
         0.13157E+07
        -0.67127E+06
        -0.16734E+07
         0.84593E+06
        -0.17782E+07
        -0.19123E+07
        -0.12418E+07
        -0.33472E+06
        -0.28989E+07
        -0.20699E+07
         0.13146E+06
         0.65414E+06
         0.85267E+06
        -0.70594E+06
         0.16730E+05
        -0.37758E+06
         0.36403E+06
        -0.87530E+06
        -0.44201E+06
        -0.19680E+07
        -0.31516E+06
        -0.38641E+07
        -0.25541E+07
        -0.14146E+07
        -0.17641E+07
        -0.75812E+04
        -0.15474E+06
         0.77511E+06
         0.13131E+07
        -0.94174E+04
        -0.11731E+06
        -0.34317E+05
        -0.20845E+07
        -0.20660E+07
        -0.14837E+07
        -0.29086E+06
        -0.45861E+06
        -0.37583E+06
        -0.95998E+06
        -0.98875E+06
        -0.14213E+07
        -0.66737E+06
        -0.14396E+06
        -0.20666E+06
         0.16697E+06
         0.62240E+06
         0.15054E+07
        -0.17642E+07
         0.60032E+06
        -0.12790E+07
         0.28648E+06
         0.14118E+07
         0.21397E+07
         0.14072E+07
         0.18061E+07
         0.12291E+07
         0.39214E+06
         0.72281E+06
         0.74886E+06
         0.67512E+05
         0.10741E+07
        -0.58825E+06
        -0.19450E+07
        -0.20578E+07
        -0.22283E+07
        -0.22981E+07
        -0.89586E+06
        -0.72786E+06
        -0.12543E+07
        -0.19551E+07
        -0.14131E+07
         0.46207E+05
         0.10185E+07
         0.39151E+06
        -0.28761E+06
        -0.55195E+05
         0.11189E+07
         0.41434E+06
         0.13083E+07
        -0.67734E+06
        -0.16864E+07
         0.82375E+06
        -0.18212E+07
        -0.19218E+07
        -0.12539E+07
        -0.34279E+06
        -0.29089E+07
        -0.20854E+07
         0.68778E+05
         0.60982E+06
         0.84327E+06
        -0.77840E+06
        -0.45009E+05
        -0.45498E+06
         0.29576E+06
        -0.10343E+07
        -0.56693E+06
        -0.20866E+07
        -0.42417E+06
        -0.38883E+07
        -0.26146E+07
        -0.15112E+07
        -0.19360E+07
        -0.43418E+05
        -0.21530E+06
         0.76364E+06
         0.13037E+07
        -0.22668E+05
        -0.12623E+06
        -0.41506E+05
        -0.21069E+07
        -0.20936E+07
        -0.15326E+07
        -0.35718E+06
        -0.58734E+06
        -0.53411E+06
        -0.11177E+07
        -0.10667E+07
        -0.14635E+07
        -0.69767E+06
        -0.15969E+06
        -0.21953E+06
         0.15227E+06
         0.60798E+06
         0.14961E+07
        -0.17909E+07
         0.58188E+06
        -0.13082E+07
         0.26112E+06
         0.13946E+07
         0.21202E+07
         0.13744E+07
         0.17706E+07
         0.11945E+07
         0.35028E+06
         0.65658E+06
         0.64181E+06
        -0.33127E+05
         0.10264E+07
        -0.64187E+06
        -0.20926E+07
        -0.22144E+07
        -0.23017E+07
        -0.23331E+07
        -0.92898E+06
        -0.75322E+06
        -0.12842E+07
        -0.19865E+07
        -0.14341E+07
         0.30356E+05
         0.10027E+07
         0.37205E+06
        -0.30022E+06
        -0.65691E+05
         0.11089E+07
         0.40406E+06
         0.12982E+07
        -0.68662E+06
        -0.17068E+07
         0.79721E+06
        -0.18659E+07
        -0.19319E+07
        -0.12614E+07
        -0.35179E+06
        -0.29200E+07
        -0.20932E+07
         0.26452E+05
         0.57465E+06
         0.83457E+06
        -0.82628E+06
        -0.89310E+05
        -0.50496E+06
         0.24670E+06
        -0.11319E+07
        -0.64416E+06
        -0.21728E+07
        -0.49359E+06
        -0.39095E+07
        -0.26583E+07
        -0.15774E+07
        -0.20505E+07
        -0.80808E+05
        -0.25906E+06
         0.74316E+06
         0.12906E+07
        -0.36359E+05
        -0.13759E+06
        -0.52286E+05
        -0.21237E+07
        -0.21167E+07
        -0.15698E+07
        -0.40406E+06
        -0.67385E+06
        -0.63795E+06
        -0.12183E+07
        -0.11183E+07
        -0.14915E+07
        -0.72458E+06
        -0.18521E+06
        -0.24219E+06
         0.13034E+06
         0.58551E+06
         0.14810E+07
        -0.18148E+07
         0.56577E+06
        -0.13331E+07
         0.24139E+06
         0.13866E+07
         0.21145E+07
         0.13604E+07
         0.17472E+07
         0.11651E+07
         0.32437E+06
         0.61624E+06
         0.56771E+06
        -0.10174E+06
         0.98941E+06
        -0.67972E+06
        -0.21884E+07
        -0.23245E+07
        -0.23541E+07
        -0.23490E+07
        -0.95906E+06
        -0.78680E+06
        -0.13185E+07
        -0.20267E+07
        -0.14683E+07
         0.93094E+04
         0.98706E+06
         0.32472E+06
        -0.32438E+06
        -0.76079E+05
         0.11168E+07
         0.41587E+06
         0.13129E+07
        -0.69309E+06
        -0.17412E+07
         0.76011E+06
        -0.19253E+07
        -0.19255E+07
        -0.12348E+07
        -0.34149E+06
        -0.29152E+07
        -0.20609E+07
         0.34391E+05
         0.56624E+06
         0.84947E+06
        -0.81704E+06
        -0.82234E+05
        -0.49101E+06
         0.26386E+06
        -0.11299E+07
        -0.64539E+06
        -0.22111E+07
        -0.50259E+06
        -0.39145E+07
        -0.26635E+07
        -0.15722E+07
        -0.20556E+07
        -0.12557E+06
        -0.28182E+06
         0.71022E+06
         0.12874E+07
        -0.24430E+05
        -0.13664E+06
        -0.54338E+05
        -0.21036E+07
        -0.20996E+07
        -0.15501E+07
        -0.38160E+06
        -0.66006E+06
        -0.62696E+06
        -0.12252E+07
        -0.11254E+07
        -0.14963E+07
        -0.74795E+06
        -0.23713E+06
        -0.29826E+06
         0.10041E+06
         0.57811E+06
         0.14881E+07
        -0.17679E+07
         0.61408E+06
        -0.12939E+07
         0.26778E+06
         0.14142E+07
         0.21522E+07
         0.14032E+07
         0.17883E+07
         0.12120E+07
         0.38653E+06
         0.67058E+06
         0.60040E+06
        -0.65513E+05
         0.10271E+07
        -0.64324E+06
        -0.21594E+07
        -0.23038E+07
        -0.23333E+07
        -0.23239E+07
        -0.94158E+06
        -0.79072E+06
        -0.13424E+07
        -0.20426E+07
        -0.14601E+07
         0.33009E+05
         0.10210E+07
         0.25256E+06
        -0.36709E+06
        -0.10091E+06
         0.11106E+07
         0.40569E+06
         0.13116E+07
        -0.72058E+06
        -0.18070E+07
         0.69771E+06
        -0.20117E+07
        -0.19468E+07
        -0.12448E+07
        -0.35794E+06
        -0.29438E+07
        -0.20689E+07
         0.21803E+05
         0.53715E+06
         0.84694E+06
        -0.82583E+06
        -0.92078E+05
        -0.49838E+06
         0.25899E+06
        -0.11376E+07
        -0.65449E+06
        -0.22642E+07
        -0.51948E+06
        -0.39505E+07
        -0.26861E+07
        -0.15781E+07
        -0.20702E+07
        -0.18840E+06
        -0.31945E+06
         0.66102E+06
         0.12697E+07
        -0.40482E+05
        -0.15496E+06
        -0.75446E+05
        -0.21212E+07
        -0.21165E+07
        -0.15590E+07
        -0.38589E+06
        -0.66183E+06
        -0.62807E+06
        -0.12410E+07
        -0.11542E+07
        -0.15357E+07
        -0.80163E+06
        -0.31556E+06
        -0.37847E+06
         0.47842E+05
         0.54815E+06
         0.14778E+07
        -0.17874E+07
         0.59878E+06
        -0.13058E+07
         0.25446E+06
         0.13948E+07
         0.21293E+07
         0.13842E+07
         0.17721E+07
         0.11955E+07
         0.37421E+06
         0.66076E+06
         0.58837E+06
        -0.67621E+05
         0.10241E+07
        -0.65124E+06
        -0.21640E+07
        -0.23134E+07
        -0.23666E+07
        -0.23732E+07
        -0.99584E+06
        -0.85189E+06
        -0.14178E+07
        -0.21090E+07
        -0.14950E+07
         0.14368E+05
         0.10065E+07
         0.23158E+06
        -0.38286E+06
        -0.11118E+06
         0.11023E+07
         0.39480E+06
         0.13018E+07
        -0.73452E+06
        -0.18306E+07
         0.67907E+06
        -0.20393E+07
        -0.19622E+07
        -0.12589E+07
        -0.37413E+06
        -0.29592E+07
        -0.20819E+07
         0.10478E+05
         0.52514E+06
         0.84022E+06
        -0.83393E+06
        -0.99664E+05
        -0.50971E+06
         0.24762E+06
        -0.11478E+07
        -0.66138E+06
        -0.22848E+07
        -0.52873E+06
        -0.39660E+07
        -0.26982E+07
        -0.15892E+07
        -0.20841E+07
        -0.20861E+06
        -0.33393E+06
         0.64379E+06
         0.12597E+07
        -0.54037E+05
        -0.16500E+06
        -0.88370E+05
        -0.21433E+07
        -0.21360E+07
        -0.15778E+07
        -0.40577E+06
        -0.67718E+06
        -0.63807E+06
        -0.12552E+07
        -0.11717E+07
        -0.15543E+07
        -0.81966E+06
        -0.33495E+06
        -0.39818E+06
         0.29872E+05
         0.52962E+06
         0.14649E+07
        -0.18142E+07
         0.57231E+06
        -0.13240E+07
         0.23605E+06
         0.13724E+07
         0.21098E+07
         0.13643E+07
         0.17445E+07
         0.11586E+07
         0.33558E+06
         0.62578E+06
         0.57244E+06
        -0.80195E+05
         0.99718E+06
        -0.67939E+06
        -0.21910E+07
        -0.23487E+07
        -0.24002E+07
        -0.24014E+07
        -0.10185E+07
        -0.87061E+06
        -0.14431E+07
        -0.21424E+07
        -0.15257E+07
        -0.11492E+05
         0.98093E+06
         0.24506E+06
        -0.37200E+06
        -0.10350E+06
         0.11045E+07
         0.40568E+06
         0.13042E+07
        -0.72508E+06
        -0.18157E+07
         0.69052E+06
        -0.20258E+07
        -0.19530E+07
        -0.12444E+07
        -0.36361E+06
        -0.29415E+07
        -0.20601E+07
         0.25564E+05
         0.53585E+06
         0.84716E+06
        -0.82012E+06
        -0.88489E+05
        -0.49545E+06
         0.26135E+06
        -0.11330E+07
        -0.64829E+06
        -0.22746E+07
        -0.51676E+06
        -0.39442E+07
        -0.26847E+07
        -0.15778E+07
        -0.20727E+07
        -0.19610E+06
        -0.32457E+06
         0.64931E+06
         0.12631E+07
        -0.38553E+05
        -0.15397E+06
        -0.78520E+05
        -0.21285E+07
        -0.21245E+07
        -0.15671E+07
        -0.39266E+06
        -0.66250E+06
        -0.62328E+06
        -0.12425E+07
        -0.11612E+07
        -0.15428E+07
        -0.80857E+06
        -0.32125E+06
        -0.38482E+06
         0.40579E+05
         0.53751E+06
         0.14680E+07
        -0.17741E+07
         0.61157E+06
        -0.13007E+07
         0.24568E+06
         0.13919E+07
         0.21404E+07
         0.13984E+07
         0.17689E+07
         0.11679E+07
         0.34991E+06
         0.65159E+06
         0.60898E+06
        -0.48175E+05
         0.10179E+07
        -0.65981E+06
        -0.21685E+07
        -0.23260E+07
        -0.23720E+07
        -0.23745E+07
        -0.98686E+06
        -0.83812E+06
        -0.14140E+07
        -0.21182E+07
        -0.15039E+07
         0.10393E+05
         0.10047E+07
         0.24171E+06
        -0.37281E+06
        -0.10566E+06
         0.10988E+07
         0.40307E+06
         0.12987E+07
        -0.72683E+06
        -0.18229E+07
         0.68106E+06
        -0.20380E+07
        -0.19602E+07
        -0.12529E+07
        -0.36604E+06
        -0.29487E+07
        -0.20738E+07
         0.18623E+05
         0.52791E+06
         0.83995E+06
        -0.82689E+06
        -0.94272E+05
        -0.50152E+06
         0.25408E+06
        -0.11383E+07
        -0.65272E+06
        -0.22825E+07
        -0.52010E+06
        -0.39493E+07
        -0.26864E+07
        -0.15798E+07
        -0.20797E+07
        -0.20209E+06
        -0.32854E+06
         0.63902E+06
         0.12557E+07
        -0.43482E+05
        -0.15862E+06
        -0.81611E+05
        -0.21477E+07
        -0.21358E+07
        -0.15767E+07
        -0.40247E+06
        -0.66835E+06
        -0.63184E+06
        -0.12470E+07
        -0.11657E+07
        -0.15488E+07
        -0.81718E+06
        -0.33006E+06
        -0.39244E+06
         0.33793E+05
         0.53024E+06
         0.14606E+07
        -0.17856E+07
         0.60233E+06
        -0.13197E+07
         0.22972E+06
         0.13896E+07
         0.21292E+07
         0.13724E+07
         0.17399E+07
         0.11507E+07
         0.32421E+06
         0.62355E+06
         0.59491E+06
        -0.64703E+05
         0.10087E+07
        -0.66830E+06
        -0.21766E+07
        -0.23277E+07
        -0.23778E+07
        -0.23827E+07
        -0.10082E+07
        -0.86474E+06
        -0.14345E+07
        -0.21287E+07
        -0.15087E+07
        -0.10941E+04
         0.98843E+06
         0.23214E+06
        -0.38079E+06
        -0.11159E+06
         0.10955E+07
         0.39529E+06
         0.12950E+07
        -0.73262E+06
        -0.18331E+07
         0.67244E+06
        -0.20501E+07
        -0.19681E+07
        -0.12642E+07
        -0.37336E+06
        -0.29540E+07
        -0.20877E+07
         0.88818E+04
         0.52153E+06
         0.83588E+06
        -0.83509E+06
        -0.98502E+05
        -0.50923E+06
         0.24670E+06
        -0.11464E+07
        -0.65981E+06
        -0.22904E+07
        -0.52716E+06
        -0.39530E+07
        -0.26897E+07
        -0.15823E+07
        -0.20851E+07
        -0.21092E+06
        -0.33549E+06
         0.63230E+06
         0.12544E+07
        -0.55434E+05
        -0.16655E+06
        -0.88613E+05
        -0.21663E+07
        -0.21483E+07
        -0.15850E+07
        -0.40821E+06
        -0.67330E+06
        -0.63965E+06
        -0.12549E+07
        -0.11733E+07
        -0.15569E+07
        -0.82524E+06
        -0.33766E+06
        -0.39971E+06
         0.27893E+05
         0.52335E+06
         0.14573E+07
        -0.18088E+07
         0.58294E+06
        -0.13342E+07
         0.22487E+06
         0.13832E+07
         0.21066E+07
         0.13397E+07
         0.17137E+07
         0.11329E+07
         0.30572E+06
         0.61208E+06
         0.58101E+06
        -0.84551E+05
         0.99520E+06
        -0.68246E+06
        -0.21932E+07
        -0.23390E+07
        -0.23908E+07
        -0.23986E+07
        -0.10258E+07
        -0.88499E+06
        -0.14555E+07
        -0.21439E+07
        -0.15227E+07
        -0.18707E+05
         0.96991E+06
         0.23857E+06
        -0.37730E+06
        -0.10884E+06
         0.10997E+07
         0.40251E+06
         0.13016E+07
        -0.72653E+06
        -0.18231E+07
         0.67750E+06
        -0.20458E+07
        -0.19595E+07
        -0.12543E+07
        -0.37011E+06
        -0.29377E+07
        -0.20676E+07
         0.17405E+05
         0.52554E+06
         0.84279E+06
        -0.82697E+06
        -0.89455E+05
        -0.49792E+06
         0.25897E+06
        -0.11364E+07
        -0.65166E+06
        -0.22869E+07
        -0.51928E+06
        -0.39391E+07
        -0.26812E+07
        -0.15697E+07
        -0.20726E+07
        -0.20093E+06
        -0.32891E+06
         0.63939E+06
         0.12626E+07
        -0.45859E+05
        -0.15957E+06
        -0.84549E+05
        -0.21546E+07
        -0.21369E+07
        -0.15692E+07
        -0.39355E+06
        -0.66211E+06
        -0.62777E+06
        -0.12473E+07
        -0.11671E+07
        -0.15506E+07
        -0.81865E+06
        -0.32932E+06
        -0.39083E+06
         0.37075E+05
         0.53161E+06
         0.14659E+07
        -0.17794E+07
         0.61456E+06
        -0.13046E+07
         0.23946E+06
         0.13783E+07
         0.21083E+07
         0.13634E+07
         0.17400E+07
         0.11504E+07
         0.33240E+06
         0.63744E+06
         0.59295E+06
        -0.63144E+05
         0.10169E+07
        -0.66266E+06
        -0.21780E+07
        -0.23290E+07
        -0.23780E+07
        -0.23865E+07
        -0.10068E+07
        -0.86262E+06
        -0.14340E+07
        -0.21252E+07
        -0.15066E+07
         0.50274E+04
         0.99771E+06
         0.23418E+06
        -0.38367E+06
        -0.11461E+06
         0.10933E+07
         0.39457E+06
         0.12940E+07
        -0.73380E+06
        -0.18324E+07
         0.67049E+06
        -0.20601E+07
        -0.19704E+07
        -0.12684E+07
        -0.38500E+06
        -0.29472E+07
        -0.20777E+07
         0.95686E+04
         0.51741E+06
         0.83509E+06
        -0.83692E+06
        -0.96382E+05
        -0.51151E+06
         0.24569E+06
        -0.11501E+07
        -0.65990E+06
        -0.23001E+07
        -0.52536E+06
        -0.39524E+07
        -0.26928E+07
        -0.15778E+07
        -0.20814E+07
        -0.20912E+06
        -0.33543E+06
         0.62736E+06
         0.12560E+07
        -0.57273E+05
        -0.16879E+06
        -0.96008E+05
        -0.21748E+07
        -0.21565E+07
        -0.15855E+07
        -0.41214E+06
        -0.67893E+06
        -0.64103E+06
        -0.12628E+07
        -0.11805E+07
        -0.15623E+07
        -0.82998E+06
        -0.34132E+06
        -0.40028E+06
         0.30378E+05
         0.52241E+06
         0.14575E+07
        -0.18023E+07
         0.59470E+06
        -0.13274E+07
         0.21341E+06
         0.13479E+07
         0.20793E+07
         0.13457E+07
         0.17173E+07
         0.11204E+07
         0.30270E+06
         0.60126E+06
         0.55711E+06
        -0.86873E+05
         0.99223E+06
        -0.68381E+06
        -0.22024E+07
        -0.23668E+07
        -0.24118E+07
        -0.24034E+07
        -0.10300E+07
        -0.88674E+06
        -0.14464E+07
        -0.21338E+07
        -0.15240E+07
        -0.18811E+05
         0.97404E+06
         0.23351E+06
        -0.38570E+06
        -0.11643E+06
         0.10911E+07
         0.39326E+06
         0.12915E+07
        -0.73514E+06
        -0.18342E+07
         0.67053E+06
        -0.20628E+07
        -0.19730E+07
        -0.12702E+07
        -0.38732E+06
        -0.29452E+07
        -0.20779E+07
         0.82047E+04
         0.51729E+06
         0.83363E+06
        -0.83829E+06
        -0.96460E+05
        -0.51473E+06
         0.24359E+06
        -0.11532E+07
        -0.66120E+06
        -0.23038E+07
        -0.52652E+06
        -0.39497E+07
        -0.26946E+07
        -0.15791E+07
        -0.20841E+07
        -0.21326E+06
        -0.33760E+06
         0.62129E+06
         0.12546E+07
        -0.59924E+05
        -0.17187E+06
        -0.99504E+05
        -0.21849E+07
        -0.21680E+07
        -0.15921E+07
        -0.41445E+06
        -0.68030E+06
        -0.64292E+06
        -0.12659E+07
        -0.11834E+07
        -0.15652E+07
        -0.83392E+06
        -0.34594E+06
        -0.40382E+06
         0.29321E+05
         0.52070E+06
         0.14554E+07
        -0.18028E+07
         0.59505E+06
        -0.13337E+07
         0.20335E+06
         0.13472E+07
         0.20789E+07
         0.13386E+07
         0.16984E+07
         0.10987E+07
         0.29078E+06
         0.60008E+06
         0.55350E+06
        -0.92835E+05
         0.98261E+06
        -0.69484E+06
        -0.22103E+07
        -0.23723E+07
        -0.24164E+07
        -0.24083E+07
        -0.10384E+07
        -0.89746E+06
        -0.14532E+07
        -0.21346E+07
        -0.15260E+07
        -0.29319E+05
         0.96460E+06
         0.25357E+06
        -0.36513E+06
        -0.99579E+05
         0.11027E+07
         0.41528E+06
         0.13072E+07
        -0.71473E+06
        -0.18118E+07
         0.68429E+06
        -0.20468E+07
        -0.19509E+07
        -0.12391E+07
        -0.36042E+06
        -0.29181E+07
        -0.20474E+07
         0.26444E+05
         0.53210E+06
         0.84636E+06
        -0.81992E+06
        -0.78421E+05
        -0.48918E+06
         0.26794E+06
        -0.11286E+07
        -0.64390E+06
        -0.22850E+07
        -0.51001E+06
        -0.39222E+07
        -0.26714E+07
        -0.15556E+07
        -0.20601E+07
        -0.19360E+06
        -0.32034E+06
         0.63330E+06
         0.12656E+07
        -0.34331E+05
        -0.15121E+06
        -0.77728E+05
        -0.21659E+07
        -0.21447E+07
        -0.15663E+07
        -0.38975E+06
        -0.65510E+06
        -0.62073E+06
        -0.12413E+07
        -0.11590E+07
        -0.15396E+07
        -0.81195E+06
        -0.32498E+06
        -0.38612E+06
         0.45547E+05
         0.53790E+06
         0.14704E+07
        -0.17495E+07
         0.64794E+06
        -0.12893E+07
         0.23564E+06
         0.13865E+07
         0.21290E+07
         0.13806E+07
         0.17303E+07
         0.11343E+07
         0.32987E+06
         0.63534E+06
         0.59472E+06
        -0.60121E+05
         0.10189E+07
        -0.65335E+06
        -0.21672E+07
        -0.23239E+07
        -0.23641E+07
        -0.23633E+07
        -0.99134E+06
        -0.85747E+06
        -0.14234E+07
        -0.21018E+07
        -0.14866E+07
         0.13408E+05
         0.10078E+07
         0.24537E+06
        -0.37084E+06
        -0.10494E+06
         0.10949E+07
         0.40543E+06
         0.12994E+07
        -0.72123E+06
        -0.18234E+07
         0.67443E+06
        -0.20640E+07
        -0.19616E+07
        -0.12499E+07
        -0.36698E+06
        -0.29283E+07
        -0.20617E+07
         0.16309E+05
         0.52191E+06
         0.84011E+06
        -0.83291E+06
        -0.87063E+05
        -0.49840E+06
         0.25581E+06
        -0.11371E+07
        -0.65392E+06
        -0.23002E+07
        -0.51898E+06
        -0.39341E+07
        -0.26794E+07
        -0.15564E+07
        -0.20666E+07
        -0.19946E+06
        -0.32783E+06
         0.62440E+06
         0.12575E+07
        -0.49040E+05
        -0.15958E+06
        -0.83346E+05
        -0.21888E+07
        -0.21608E+07
        -0.15735E+07
        -0.40157E+06
        -0.66812E+06
        -0.63600E+06
        -0.12530E+07
        -0.11707E+07
        -0.15506E+07
        -0.82143E+06
        -0.33164E+06
        -0.39399E+06
         0.35286E+05
         0.52689E+06
         0.14618E+07
        -0.17833E+07
         0.61933E+06
        -0.13156E+07
         0.22187E+06
         0.13817E+07
         0.21161E+07
         0.13522E+07
         0.16962E+07
         0.11010E+07
         0.30030E+06
         0.60046E+06
         0.55470E+06
        -0.88367E+05
         0.10048E+07
        -0.65991E+06
        -0.21716E+07
        -0.23379E+07
        -0.23880E+07
        -0.23810E+07
        -0.10123E+07
        -0.87682E+06
        -0.14451E+07
        -0.21251E+07
        -0.15010E+07
        -0.61856E+02
         0.98546E+06
         0.23156E+06
        -0.38565E+06
        -0.11945E+06
         0.10846E+07
         0.38994E+06
         0.12850E+07
        -0.73205E+06
        -0.18370E+07
         0.66044E+06
        -0.20928E+07
        -0.19745E+07
        -0.12675E+07
        -0.38152E+06
        -0.29387E+07
        -0.20795E+07
         0.38302E+04
         0.50662E+06
         0.83285E+06
        -0.84364E+06
        -0.90926E+05
        -0.50971E+06
         0.24165E+06
        -0.11474E+07
        -0.66247E+06
        -0.23251E+07
        -0.52776E+06
        -0.39614E+07
        -0.26923E+07
        -0.15290E+07
        -0.20498E+07
        -0.21041E+06
        -0.33864E+06
         0.61554E+06
         0.12519E+07
        -0.65601E+05
        -0.17328E+06
        -0.96763E+05
        -0.22222E+07
        -0.21766E+07
        -0.15496E+07
        -0.40286E+06
        -0.68223E+06
        -0.65639E+06
        -0.12657E+07
        -0.11856E+07
        -0.15681E+07
        -0.83768E+06
        -0.34367E+06
        -0.40314E+06
         0.27133E+05
         0.51712E+06
         0.14511E+07
        -0.18058E+07
         0.59850E+06
        -0.13335E+07
         0.20637E+06
         0.13600E+07
         0.20810E+07
         0.13122E+07
         0.16581E+07
         0.10675E+07
         0.29254E+06
         0.53960E+06
         0.45891E+06
        -0.12807E+06
         0.98275E+06
        -0.67960E+06
        -0.21893E+07
        -0.23601E+07
        -0.24130E+07
        -0.24101E+07
        -0.10450E+07
        -0.89900E+06
        -0.14659E+07
        -0.21489E+07
        -0.15182E+07
        -0.26764E+05
         0.95557E+06
         0.25067E+06
        -0.36673E+06
        -0.10114E+06
         0.10986E+07
         0.41336E+06
         0.13020E+07
        -0.71411E+06
        -0.18149E+07
         0.66979E+06
        -0.20995E+07
        -0.19547E+07
        -0.12441E+07
        -0.36157E+06
        -0.29130E+07
        -0.20524E+07
         0.22271E+05
         0.51660E+06
         0.84482E+06
        -0.82233E+06
        -0.61690E+05
        -0.48851E+06
         0.26291E+06
        -0.11276E+07
        -0.64383E+06
        -0.23224E+07
        -0.50986E+06
        -0.39659E+07
        -0.26779E+07
        -0.14463E+07
        -0.19737E+07
        -0.19357E+06
        -0.32111E+06
         0.62722E+06
         0.12666E+07
        -0.38180E+05
        -0.15024E+06
        -0.76202E+05
        -0.22212E+07
        -0.21497E+07
        -0.14596E+07
        -0.35512E+06
        -0.65671E+06
        -0.64349E+06
        -0.12446E+07
        -0.11617E+07
        -0.15396E+07
        -0.81475E+06
        -0.32445E+06
        -0.38374E+06
         0.49052E+05
         0.54006E+06
         0.14689E+07
        -0.17510E+07
         0.65223E+06
        -0.12787E+07
         0.24483E+06
         0.13845E+07
         0.21095E+07
         0.13515E+07
         0.16980E+07
         0.11111E+07
         0.37771E+06
         0.51983E+06
         0.38182E+06
        -0.12519E+06
         0.10129E+07
        -0.65429E+06
        -0.21683E+07
        -0.23341E+07
        -0.23693E+07
        -0.23563E+07
        -0.99463E+06
        -0.85562E+06
        -0.14211E+07
        -0.20985E+07
        -0.14712E+07
         0.11386E+05
         0.99563E+06
         0.18002E+06
        -0.43562E+06
        -0.16766E+06
         0.10398E+07
         0.32806E+06
         0.12246E+07
        -0.77914E+06
        -0.18989E+07
         0.59598E+06
        -0.22043E+07
        -0.20358E+07
        -0.13541E+07
        -0.46345E+06
        -0.30027E+07
        -0.21654E+07
        -0.46376E+05
         0.44591E+06
         0.79186E+06
        -0.89587E+06
        -0.12028E+06
        -0.58428E+06
         0.16951E+06
        -0.12198E+07
        -0.70830E+06
        -0.24172E+07
        -0.56613E+06
        -0.40735E+07
        -0.27498E+07
        -0.14775E+07
        -0.20266E+07
        -0.26003E+06
        -0.38189E+06
         0.56394E+06
         0.12040E+07
        -0.13875E+06
        -0.23580E+06
        -0.16764E+06
        -0.23506E+07
        -0.22509E+07
        -0.15185E+07
        -0.44957E+06
        -0.75787E+06
        -0.74529E+06
        -0.13342E+07
        -0.12547E+07
        -0.16475E+07
        -0.90589E+06
        -0.40516E+06
        -0.46058E+06
        -0.35796E+05
         0.43752E+06
         0.13817E+07
        -0.19417E+07
         0.46705E+06
        -0.14715E+07
         0.48796E+05
         0.11890E+07
         0.19214E+07
         0.11603E+07
         0.14927E+07
         0.91833E+06
         0.20225E+06
         0.27533E+06
         0.11575E+06
        -0.31353E+06
         0.85652E+06
        -0.81809E+06
        -0.23387E+07
        -0.25104E+07
        -0.25662E+07
        -0.25586E+07
        -0.11884E+07
        -0.10355E+07
        -0.15933E+07
        -0.22748E+07
        -0.16520E+07
        -0.16230E+06
         0.82322E+06
         0.22066E+06
        -0.43072E+06
        -0.15539E+06
         0.10616E+07
         0.35606E+06
         0.12492E+07
        -0.76992E+06
        -0.18497E+07
         0.64335E+06
        -0.21329E+07
        -0.20148E+07
        -0.13518E+07
        -0.48942E+06
        -0.29432E+07
        -0.21155E+07
         0.73586E+04
         0.49100E+06
         0.82088E+06
        -0.85691E+06
        -0.84738E+05
        -0.54153E+06
         0.20152E+06
        -0.11537E+07
        -0.65953E+06
        -0.23391E+07
        -0.52336E+06
        -0.39818E+07
        -0.26679E+07
        -0.14083E+07
        -0.19496E+07
        -0.21834E+06
        -0.35420E+06
         0.57917E+06
         0.11948E+07
        -0.12346E+06
        -0.24248E+06
        -0.19362E+06
        -0.22918E+07
        -0.21800E+07
        -0.14561E+07
        -0.40740E+06
        -0.70024E+06
        -0.68458E+06
        -0.12742E+07
        -0.12216E+07
        -0.16312E+07
        -0.89263E+06
        -0.37047E+06
        -0.43450E+06
        -0.33899E+05
         0.44412E+06
         0.13833E+07
        -0.18682E+07
         0.56239E+06
        -0.14475E+07
         0.64885E+04
         0.11011E+07
         0.18679E+07
         0.12479E+07
         0.15829E+07
         0.98989E+06
         0.24478E+06
         0.28716E+06
         0.15209E+06
        -0.24231E+06
         0.89170E+06
        -0.74372E+06
        -0.22325E+07
        -0.24201E+07
        -0.24970E+07
        -0.25287E+07
        -0.11919E+07
        -0.99568E+06
        -0.15362E+07
        -0.21842E+07
        -0.15416E+07
        -0.75323E+05
         0.91335E+06
         0.27807E+09
         0.27401E+09
         0.27046E+09
         0.23469E+09
         0.33404E+09
         0.30150E+09
         0.27617E+09
         0.31580E+09
         0.26071E+09
         0.31579E+09
         0.32081E+09
         0.42082E+09
         0.37262E+09
         0.34685E+09
         0.43368E+09
         0.25854E+09
         0.25702E+09
         0.20365E+09
         0.27615E+09
         0.26778E+09
         0.34299E+09
         0.34504E+09
         0.32661E+09
         0.25243E+09
         0.30365E+09
         0.22055E+09
         0.34202E+09
         0.28399E+09
         0.30232E+09
         0.31608E+09
         0.25625E+09
         0.24649E+09
         0.23484E+09
         0.24338E+09
         0.37888E+09
         0.32489E+09
         0.33312E+09
         0.40744E+09
         0.38652E+09
         0.37888E+09
         0.39926E+09
         0.37481E+09
         0.35518E+09
         0.31346E+09
         0.32431E+09
         0.38160E+09
         0.33514E+09
         0.30748E+09
         0.29308E+09
         0.31070E+09
         0.36024E+09
         0.31812E+09
         0.69799E+09
         0.68379E+09
         0.69582E+09
         0.67339E+09
         0.69444E+09
         0.72837E+09
         0.73136E+09
         0.72334E+09
         0.72902E+09
         0.74949E+09
         0.72740E+09
         0.68608E+09
         0.60836E+09
         0.57427E+09
         0.58278E+09
         0.59623E+09
         0.60369E+09
         0.65763E+09
         0.70383E+09
         0.70687E+09
         0.64815E+09
         0.62501E+09
         0.64757E+09
         0.64132E+09
         0.63753E+09
         0.63888E+09
         0.32237E+10
         0.33774E+10
         0.33286E+10
         0.30370E+10
         0.37397E+10
         0.35124E+10
         0.36544E+10
         0.36826E+10
         0.31526E+10
         0.36807E+10
         0.40136E+10
         0.44971E+10
         0.40766E+10
         0.41303E+10
         0.46545E+10
         0.30891E+10
         0.33206E+10
         0.28973E+10
         0.34295E+10
         0.36087E+10
         0.37331E+10
         0.38150E+10
         0.35833E+10
         0.32983E+10
         0.37240E+10
         0.31824E+10
         0.41153E+10
         0.40457E+10
         0.40640E+10
         0.38559E+10
         0.31224E+10
         0.32839E+10
         0.30612E+10
         0.32016E+10
         0.40950E+10
         0.37571E+10
         0.37694E+10
         0.45072E+10
         0.43919E+10
         0.43393E+10
         0.44157E+10
         0.41931E+10
         0.39649E+10
         0.34982E+10
         0.36429E+10
         0.40930E+10
         0.37851E+10
         0.35589E+10
         0.34883E+10
         0.36169E+10
         0.39270E+10
         0.36277E+10
         0.64973E+10
         0.63291E+10
         0.64613E+10
         0.62573E+10
         0.64438E+10
         0.67759E+10
         0.68864E+10
         0.68729E+10
         0.69222E+10
         0.70811E+10
         0.68754E+10
         0.64615E+10
         0.57902E+10
         0.54711E+10
         0.54853E+10
         0.55552E+10
         0.56088E+10
         0.60843E+10
         0.65231E+10
         0.65492E+10
         0.60593E+10
         0.58712E+10
         0.60661E+10
         0.60233E+10
         0.59545E+10
         0.59379E+10
  
SCALARS                      stress_zz  double 1
LOOKUP_TABLE default
         0.93655E+12
         0.92428E+12
         0.93207E+12
         0.94600E+12
        -0.38524E+03
        -0.43198E+03
        -0.41364E+03
        -0.37577E+03
         0.92385E+12
         0.92801E+12
        -0.38846E+03
        -0.37593E+03
         0.90651E+12
         0.90585E+12
        -0.46157E+03
        -0.43400E+03
         0.94396E+12
         0.90681E+12
        -0.34105E+03
        -0.37828E+03
         0.89314E+12
         0.88251E+12
         0.89941E+12
        -0.45747E+03
        -0.39952E+03
        -0.41255E+03
         0.88293E+12
         0.86740E+12
        -0.43888E+03
        -0.37012E+03
         0.94329E+12
         0.92714E+12
         0.95894E+12
        -0.37452E+03
        -0.34817E+03
        -0.33851E+03
         0.93395E+12
         0.91335E+12
        -0.39623E+03
        -0.36156E+03
         0.92579E+12
         0.90990E+12
        -0.34245E+03
        -0.30317E+03
         0.93924E+12
         0.94520E+12
        -0.37528E+03
        -0.41932E+03
         0.89714E+12
        -0.36662E+03
         0.94403E+12
        -0.43079E+03
         0.87845E+12
        -0.38716E+03
         0.87357E+12
        -0.37137E+03
         0.87365E+12
         0.89099E+12
        -0.37838E+03
        -0.36850E+03
         0.94296E+12
         0.93675E+12
        -0.37942E+03
        -0.42893E+03
         0.94684E+12
        -0.36611E+03
         0.93946E+12
        -0.39956E+03
         0.92003E+12
         0.91809E+12
        -0.38462E+03
        -0.40301E+03
         0.91369E+12
        -0.40639E+03
         0.86188E+12
        -0.32108E+03
         0.85916E+12
        -0.31166E+03
         0.86051E+12
        -0.32861E+03
         0.86802E+12
         0.87583E+12
        -0.31309E+03
        -0.32642E+03
         0.89154E+12
        -0.30401E+03
         0.93892E+12
        -0.39867E+03
         0.93154E+12
        -0.40803E+03
         0.92548E+12
         0.92216E+12
        -0.39184E+03
        -0.39642E+03
         0.92626E+12
        -0.36006E+03
         0.92917E+12
        -0.35492E+03
         0.92654E+12
        -0.37995E+03
         0.92560E+12
         0.92827E+12
        -0.37260E+03
        -0.38353E+03
         0.91097E+12
         0.91799E+12
        -0.28929E+03
        -0.27209E+03
         0.90964E+12
        -0.27623E+03
         0.91774E+12
        -0.26486E+03
         0.90975E+12
        -0.26117E+03
         0.89203E+12
        -0.24681E+03
         0.87484E+12
        -0.21926E+03
         0.86453E+12
        -0.19743E+03
         0.86348E+12
        -0.19606E+03
         0.86381E+12
        -0.21262E+03
         0.87499E+12
        -0.22345E+03
         0.89585E+12
        -0.20404E+03
         0.91873E+12
        -0.18392E+03
         0.93212E+12
        -0.18371E+03
         0.94534E+12
        -0.20534E+03
         0.95406E+12
        -0.23414E+03
         0.95374E+12
        -0.25153E+03
         0.93254E+12
        -0.27165E+03
         0.91774E+12
        -0.29104E+03
         0.91266E+12
        -0.26661E+03
         0.92059E+12
        -0.23389E+03
         0.92473E+12
        -0.23317E+03
         0.91779E+12
        -0.25511E+03
         0.91790E+12
        -0.27197E+03
         0.92313E+12
        -0.25809E+03
         0.92995E+12
        -0.24952E+03
        -0.30845E+11
        -0.30511E+11
        -0.30558E+11
        -0.30979E+11
        -0.30157E+11
        -0.30597E+11
        -0.30044E+11
        -0.30342E+11
        -0.30916E+11
        -0.30570E+11
        -0.29702E+11
        -0.29594E+11
        -0.29879E+11
        -0.29898E+11
        -0.29716E+11
        -0.30960E+11
        -0.30885E+11
        -0.31089E+11
        -0.30473E+11
        -0.30594E+11
        -0.30419E+11
        -0.30536E+11
        -0.30318E+11
        -0.30375E+11
        -0.30584E+11
        -0.30570E+11
        -0.30205E+11
        -0.30239E+11
        -0.29949E+11
        -0.30381E+11
        -0.30923E+11
        -0.30506E+11
        -0.30921E+11
        -0.30653E+11
        -0.29517E+11
        -0.29912E+11
        -0.30089E+11
        -0.29880E+11
        -0.29852E+11
        -0.29488E+11
        -0.29210E+11
        -0.29868E+11
        -0.30427E+11
        -0.30355E+11
        -0.30072E+11
        -0.29532E+11
        -0.29996E+11
        -0.30449E+11
        -0.30419E+11
        -0.30070E+11
        -0.29685E+11
        -0.30198E+11
        -0.28486E+11
        -0.29037E+11
        -0.28949E+11
        -0.29073E+11
        -0.29042E+11
        -0.28750E+11
        -0.28438E+11
        -0.28334E+11
        -0.28379E+11
        -0.28347E+11
        -0.28209E+11
        -0.29014E+11
        -0.29295E+11
        -0.29401E+11
        -0.29576E+11
        -0.29706E+11
        -0.29701E+11
        -0.29477E+11
        -0.28674E+11
        -0.28874E+11
        -0.29153E+11
        -0.29150E+11
        -0.29102E+11
        -0.28833E+11
        -0.29226E+11
        -0.29367E+11
         0.27652E+07
         0.16772E+07
         0.19556E+07
         0.30030E+07
         0.22662E+07
         0.31397E+07
        -0.16637E+06
        -0.76332E+05
         0.33483E+07
        -0.24519E+06
        -0.14724E+07
         0.11284E+07
         0.15724E+07
        -0.31596E+07
         0.31529E+05
         0.15140E+07
         0.21405E+07
         0.24972E+07
         0.77431E+06
         0.70617E+06
         0.87615E+06
         0.17105E+07
         0.22809E+06
         0.10378E+06
        -0.94606E+06
        -0.38535E+05
        -0.47462E+07
        -0.56435E+07
        -0.25729E+07
        -0.62845E+06
         0.13978E+07
         0.46245E+06
         0.26282E+07
         0.38001E+07
         0.11564E+07
         0.10361E+07
         0.14821E+07
        -0.25472E+06
        -0.11536E+06
         0.44163E+06
         0.12328E+07
         0.75282E+06
         0.94422E+06
         0.27922E+06
         0.37972E+06
         0.64020E+06
         0.10915E+07
         0.13528E+07
         0.18592E+07
         0.24842E+07
         0.24434E+07
         0.30975E+07
        -0.27362E+06
         0.22880E+07
         0.67463E+06
         0.26556E+07
         0.42589E+07
         0.53662E+07
         0.46305E+07
         0.49536E+07
         0.42872E+07
         0.32285E+07
         0.28814E+07
         0.24799E+07
         0.16292E+07
         0.26554E+07
         0.90843E+06
        -0.33184E+06
        -0.11713E+06
        -0.31585E+05
         0.41347E+06
         0.21257E+07
         0.21724E+07
         0.15542E+07
         0.66179E+06
         0.65522E+06
         0.17573E+07
         0.27779E+07
         0.26648E+07
         0.15625E+07
         0.18407E+07
         0.28882E+07
         0.21473E+07
         0.30215E+07
        -0.31469E+06
        -0.19184E+06
         0.32310E+07
        -0.37143E+06
        -0.16237E+07
         0.99008E+06
         0.14479E+07
        -0.32961E+07
        -0.10488E+06
         0.13989E+07
         0.19900E+07
         0.23713E+07
         0.63332E+06
         0.53200E+06
         0.75310E+06
         0.15894E+07
         0.99749E+05
        -0.53281E+05
        -0.10951E+07
        -0.19880E+06
        -0.48765E+07
        -0.58184E+07
        -0.27549E+07
        -0.78175E+06
         0.12828E+07
         0.31581E+06
         0.25116E+07
         0.36787E+07
         0.10281E+07
         0.91393E+06
         0.13649E+07
        -0.39572E+06
        -0.25182E+06
         0.30518E+06
         0.10937E+07
         0.61500E+06
         0.81310E+06
         0.15232E+06
         0.25712E+06
         0.51239E+06
         0.96569E+06
         0.12304E+07
         0.17424E+07
         0.23712E+07
         0.23241E+07
         0.29812E+07
        -0.47661E+06
         0.20903E+07
         0.48047E+06
         0.24697E+07
         0.40628E+07
         0.51485E+07
         0.44127E+07
         0.47320E+07
         0.40629E+07
         0.30000E+07
         0.26538E+07
         0.22694E+07
         0.14515E+07
         0.24889E+07
         0.73506E+06
        -0.51624E+06
        -0.30519E+06
        -0.22719E+06
         0.21657E+06
         0.19179E+07
         0.19751E+07
         0.13755E+07
         0.48329E+06
         0.47221E+06
         0.15727E+07
         0.25899E+07
         0.26884E+07
         0.15852E+07
         0.18653E+07
         0.29187E+07
         0.21785E+07
         0.30535E+07
        -0.28149E+06
        -0.16530E+06
         0.32502E+07
        -0.36493E+06
        -0.15931E+07
         0.10165E+07
         0.14717E+07
        -0.32658E+07
        -0.71146E+05
         0.13759E+07
         0.19822E+07
         0.24034E+07
         0.59881E+06
         0.49767E+06
         0.73276E+06
         0.15816E+07
         0.15567E+05
        -0.16663E+06
        -0.11569E+07
        -0.31113E+06
        -0.48501E+07
        -0.58425E+07
        -0.28261E+07
        -0.88846E+06
         0.12832E+07
         0.28240E+06
         0.25432E+07
         0.37181E+07
         0.10616E+07
         0.94469E+06
         0.13909E+07
        -0.37094E+06
        -0.22905E+06
         0.31318E+06
         0.10903E+07
         0.56498E+06
         0.74250E+06
         0.67368E+05
         0.23608E+06
         0.52995E+06
         0.98851E+06
         0.12580E+07
         0.17741E+07
         0.24061E+07
         0.23580E+07
         0.30143E+07
        -0.41627E+06
         0.21444E+07
         0.54030E+06
         0.25158E+07
         0.40968E+07
         0.51823E+07
         0.44559E+07
         0.47756E+07
         0.41071E+07
         0.30456E+07
         0.26807E+07
         0.22684E+07
         0.14544E+07
         0.25196E+07
         0.75529E+06
        -0.55354E+06
        -0.34563E+06
        -0.21671E+06
         0.27060E+06
         0.19804E+07
         0.20313E+07
         0.14324E+07
         0.54686E+06
         0.52571E+06
         0.16162E+07
         0.26320E+07
         0.26742E+07
         0.15755E+07
         0.18558E+07
         0.29004E+07
         0.21673E+07
         0.30435E+07
        -0.29203E+06
        -0.18009E+06
         0.32162E+07
        -0.41834E+06
        -0.16086E+07
         0.10022E+07
         0.14618E+07
        -0.32842E+07
        -0.87908E+05
         0.12844E+07
         0.18939E+07
         0.23796E+07
         0.47573E+06
         0.35079E+06
         0.63941E+06
         0.14979E+07
        -0.18031E+06
        -0.42014E+06
        -0.13340E+07
        -0.56693E+06
        -0.48852E+07
        -0.59840E+07
        -0.30509E+07
        -0.11460E+07
         0.12275E+07
         0.15026E+06
         0.25254E+07
         0.36980E+07
         0.10451E+07
         0.93235E+06
         0.13815E+07
        -0.39668E+06
        -0.26201E+06
         0.25148E+06
         0.10116E+07
         0.40894E+06
         0.55102E+06
        -0.13286E+06
         0.13462E+06
         0.47848E+06
         0.94807E+06
         0.12353E+07
         0.17541E+07
         0.23847E+07
         0.23400E+07
         0.30017E+07
        -0.44472E+06
         0.21248E+07
         0.50957E+06
         0.24889E+07
         0.40788E+07
         0.51616E+07
         0.44211E+07
         0.47378E+07
         0.40704E+07
         0.30013E+07
         0.26106E+07
         0.21551E+07
         0.13467E+07
         0.24683E+07
         0.69809E+06
        -0.71031E+06
        -0.51145E+06
        -0.29396E+06
         0.23372E+06
         0.19454E+07
         0.20044E+07
         0.14006E+07
         0.51363E+06
         0.50302E+06
         0.15990E+07
         0.26149E+07
         0.26483E+07
         0.15559E+07
         0.18392E+07
         0.28816E+07
         0.21544E+07
         0.30296E+07
        -0.30978E+06
        -0.20481E+06
         0.31756E+07
        -0.47400E+06
        -0.16253E+07
         0.99331E+06
         0.14507E+07
        -0.33043E+07
        -0.95810E+05
         0.12226E+07
         0.18241E+07
         0.23575E+07
         0.39486E+06
         0.24450E+06
         0.57931E+06
         0.14378E+07
        -0.30065E+06
        -0.57726E+06
        -0.14604E+07
        -0.73079E+06
        -0.49158E+07
        -0.60859E+07
        -0.32051E+07
        -0.13167E+07
         0.11694E+07
         0.54283E+05
         0.24903E+07
         0.36702E+07
         0.10281E+07
         0.91657E+06
         0.13674E+07
        -0.41574E+06
        -0.28917E+06
         0.20484E+06
         0.95608E+06
         0.30407E+06
         0.42545E+06
        -0.26004E+06
         0.67749E+05
         0.44452E+06
         0.91220E+06
         0.11988E+07
         0.17193E+07
         0.23531E+07
         0.23119E+07
         0.29812E+07
        -0.47033E+06
         0.21077E+07
         0.48341E+06
         0.24681E+07
         0.40703E+07
         0.51555E+07
         0.44062E+07
         0.47127E+07
         0.40393E+07
         0.29739E+07
         0.25679E+07
         0.20768E+07
         0.12733E+07
         0.24287E+07
         0.65772E+06
        -0.81187E+06
        -0.62785E+06
        -0.34916E+06
         0.21694E+06
         0.19135E+07
         0.19688E+07
         0.13641E+07
         0.47088E+06
         0.46628E+06
         0.15763E+07
         0.25979E+07
         0.25854E+07
         0.15181E+07
         0.18228E+07
         0.28973E+07
         0.21705E+07
         0.30520E+07
        -0.32145E+06
        -0.24834E+06
         0.31187E+07
        -0.54955E+06
        -0.16122E+07
         0.10242E+07
         0.14632E+07
        -0.33014E+07
        -0.57150E+05
         0.12340E+07
         0.18080E+07
         0.23904E+07
         0.41179E+06
         0.25814E+06
         0.59674E+06
         0.14590E+07
        -0.29796E+06
        -0.58043E+06
        -0.15122E+07
        -0.75381E+06
        -0.49226E+07
        -0.60979E+07
        -0.31931E+07
        -0.13217E+07
         0.10999E+07
         0.36571E+04
         0.24313E+07
         0.36631E+07
         0.10429E+07
         0.91819E+06
         0.13648E+07
        -0.39062E+06
        -0.26600E+06
         0.23059E+06
         0.98331E+06
         0.32075E+06
         0.43889E+06
        -0.26809E+06
         0.59181E+05
         0.43889E+06
         0.88116E+06
         0.11253E+07
         0.16343E+07
         0.23101E+07
         0.23027E+07
         0.29911E+07
        -0.42074E+06
         0.21589E+07
         0.52505E+06
         0.24960E+07
         0.40995E+07
         0.51950E+07
         0.44511E+07
         0.47561E+07
         0.40890E+07
         0.30395E+07
         0.26253E+07
         0.21115E+07
         0.13121E+07
         0.24692E+07
         0.69666E+06
        -0.78083E+06
        -0.60544E+06
        -0.32695E+06
         0.24362E+06
         0.19319E+07
         0.19646E+07
         0.13386E+07
         0.45403E+06
         0.47462E+06
         0.16012E+07
         0.26336E+07
         0.24897E+07
         0.14512E+07
         0.17833E+07
         0.28858E+07
         0.21578E+07
         0.30509E+07
        -0.37976E+06
        -0.33358E+06
         0.30229E+07
        -0.66152E+06
        -0.16482E+07
         0.10124E+07
         0.14431E+07
        -0.33469E+07
        -0.65256E+05
         0.12156E+07
         0.17509E+07
         0.23826E+07
         0.39790E+06
         0.23232E+06
         0.58832E+06
         0.14531E+07
        -0.30743E+06
        -0.59950E+06
        -0.15871E+07
        -0.79529E+06
        -0.49750E+07
        -0.61503E+07
        -0.32069E+07
        -0.13412E+07
         0.10026E+07
        -0.79477E+05
         0.23412E+07
         0.36260E+07
         0.10229E+07
         0.89263E+06
         0.13372E+07
        -0.41063E+06
        -0.28543E+06
         0.21998E+06
         0.97865E+06
         0.31857E+06
         0.43769E+06
        -0.28747E+06
         0.22178E+05
         0.39087E+06
         0.80961E+06
         0.10149E+07
         0.15131E+07
         0.22349E+07
         0.22652E+07
         0.29772E+07
        -0.44162E+06
         0.21427E+07
         0.51262E+06
         0.24819E+07
         0.40791E+07
         0.51707E+07
         0.44309E+07
         0.47388E+07
         0.40715E+07
         0.30264E+07
         0.26149E+07
         0.20988E+07
         0.13098E+07
         0.24660E+07
         0.68814E+06
        -0.78556E+06
        -0.61525E+06
        -0.36190E+06
         0.19145E+06
         0.18746E+07
         0.18997E+07
         0.12583E+07
         0.38359E+06
         0.43721E+06
         0.15810E+07
         0.26178E+07
         0.24618E+07
         0.14264E+07
         0.17672E+07
         0.28703E+07
         0.21441E+07
         0.30373E+07
        -0.40833E+06
        -0.36280E+06
         0.29946E+07
        -0.69437E+06
        -0.16737E+07
         0.99577E+06
         0.14233E+07
        -0.33732E+07
        -0.79174E+05
         0.11990E+07
         0.17280E+07
         0.23651E+07
         0.38517E+06
         0.21185E+06
         0.57509E+06
         0.14392E+07
        -0.31991E+06
        -0.61409E+06
        -0.16115E+07
        -0.81893E+06
        -0.49970E+07
        -0.61782E+07
        -0.32327E+07
        -0.13596E+07
         0.97108E+06
        -0.11259E+06
         0.23122E+07
         0.36051E+07
         0.10061E+07
         0.87878E+06
         0.13203E+07
        -0.43594E+06
        -0.30800E+06
         0.19678E+06
         0.95541E+06
         0.29995E+06
         0.42573E+06
        -0.30480E+06
         0.68800E+02
         0.36841E+06
         0.78597E+06
         0.98743E+06
         0.14829E+07
         0.22088E+07
         0.22420E+07
         0.29598E+07
        -0.47025E+06
         0.21146E+07
         0.49361E+06
         0.24624E+07
         0.40555E+07
         0.51501E+07
         0.44096E+07
         0.47093E+07
         0.40325E+07
         0.29855E+07
         0.25778E+07
         0.20821E+07
         0.12963E+07
         0.24371E+07
         0.65811E+06
        -0.81400E+06
        -0.65220E+06
        -0.39715E+06
         0.16171E+06
         0.18505E+07
         0.18799E+07
         0.12314E+07
         0.34811E+06
         0.40413E+06
         0.15532E+07
         0.25903E+07
         0.24796E+07
         0.14432E+07
         0.17798E+07
         0.28752E+07
         0.21590E+07
         0.30417E+07
        -0.38550E+06
        -0.34085E+06
         0.30127E+07
        -0.67188E+06
        -0.16552E+07
         0.10125E+07
         0.14361E+07
        -0.33513E+07
        -0.52684E+05
         0.12209E+07
         0.17502E+07
         0.23794E+07
         0.40991E+06
         0.23512E+06
         0.59290E+06
         0.14561E+07
        -0.30155E+06
        -0.58816E+06
        -0.15881E+07
        -0.79306E+06
        -0.49641E+07
        -0.61462E+07
        -0.32059E+07
        -0.13398E+07
         0.98991E+06
        -0.93952E+05
         0.23269E+07
         0.36119E+07
         0.10253E+07
         0.89465E+06
         0.13334E+07
        -0.41716E+06
        -0.29199E+06
         0.21106E+06
         0.97150E+06
         0.31771E+06
         0.44377E+06
        -0.28782E+06
         0.14437E+05
         0.38278E+06
         0.80139E+06
         0.10065E+07
         0.15025E+07
         0.22235E+07
         0.22519E+07
         0.29642E+07
        -0.42792E+06
         0.21562E+07
         0.51836E+06
         0.24726E+07
         0.40761E+07
         0.51822E+07
         0.44454E+07
         0.47350E+07
         0.40423E+07
         0.30005E+07
         0.26051E+07
         0.21208E+07
         0.13306E+07
         0.24594E+07
         0.67903E+06
        -0.78988E+06
        -0.62782E+06
        -0.36716E+06
         0.19017E+06
         0.18840E+07
         0.19145E+07
         0.12624E+07
         0.37380E+06
         0.42697E+06
         0.15761E+07
         0.26152E+07
         0.24751E+07
         0.14418E+07
         0.17766E+07
         0.28649E+07
         0.21562E+07
         0.30345E+07
        -0.38727E+06
        -0.34838E+06
         0.29987E+07
        -0.68394E+06
        -0.16658E+07
         0.10025E+07
         0.14331E+07
        -0.33657E+07
        -0.67319E+05
         0.12107E+07
         0.17355E+07
         0.23607E+07
         0.39945E+06
         0.21885E+06
         0.58605E+06
         0.14473E+07
        -0.30800E+06
        -0.59772E+06
        -0.15929E+07
        -0.80288E+06
        -0.49707E+07
        -0.61496E+07
        -0.32103E+07
        -0.13479E+07
         0.98026E+06
        -0.10425E+06
         0.23113E+07
         0.35965E+07
         0.10191E+07
         0.88841E+06
         0.13295E+07
        -0.43899E+06
        -0.30430E+06
         0.19960E+06
         0.96026E+06
         0.31061E+06
         0.43355E+06
        -0.29271E+06
         0.92737E+04
         0.37562E+06
         0.79040E+06
         0.99402E+06
         0.14905E+07
         0.22133E+07
         0.22428E+07
         0.29542E+07
        -0.44033E+06
         0.21465E+07
         0.49849E+06
         0.24558E+07
         0.40737E+07
         0.51703E+07
         0.44178E+07
         0.47041E+07
         0.40241E+07
         0.29733E+07
         0.25753E+07
         0.21060E+07
         0.13129E+07
         0.24496E+07
         0.66998E+06
        -0.79830E+06
        -0.62914E+06
        -0.37307E+06
         0.18163E+06
         0.18613E+07
         0.18863E+07
         0.12406E+07
         0.36264E+06
         0.42147E+06
         0.15636E+07
         0.25976E+07
         0.24623E+07
         0.14291E+07
         0.17674E+07
         0.28590E+07
         0.21465E+07
         0.30300E+07
        -0.39775E+06
        -0.35973E+06
         0.29859E+07
        -0.69594E+06
        -0.16778E+07
         0.98909E+06
         0.14242E+07
        -0.33774E+07
        -0.82293E+05
         0.11965E+07
         0.17240E+07
         0.23494E+07
         0.38655E+06
         0.20617E+06
         0.57723E+06
         0.14383E+07
        -0.31781E+06
        -0.61266E+06
        -0.15976E+07
        -0.82137E+06
        -0.49753E+07
        -0.61568E+07
        -0.32158E+07
        -0.13535E+07
         0.96626E+06
        -0.12100E+06
         0.23025E+07
         0.35935E+07
         0.10043E+07
         0.87753E+06
         0.13204E+07
        -0.46009E+06
        -0.31815E+06
         0.18963E+06
         0.95388E+06
         0.30458E+06
         0.42424E+06
        -0.30199E+06
         0.87529E+02
         0.36599E+06
         0.78014E+06
         0.98319E+06
         0.14790E+07
         0.22043E+07
         0.22342E+07
         0.29499E+07
        -0.46505E+06
         0.21259E+07
         0.48335E+06
         0.24506E+07
         0.40670E+07
         0.51463E+07
         0.43831E+07
         0.46761E+07
         0.40053E+07
         0.29537E+07
         0.25632E+07
         0.20914E+07
         0.12917E+07
         0.24351E+07
         0.65490E+06
        -0.81570E+06
        -0.64069E+06
        -0.38663E+06
         0.16482E+06
         0.18427E+07
         0.18648E+07
         0.12183E+07
         0.34656E+06
         0.40620E+06
         0.15446E+07
         0.25776E+07
         0.24708E+07
         0.14344E+07
         0.17720E+07
         0.28678E+07
         0.21566E+07
         0.30405E+07
        -0.38239E+06
        -0.34434E+06
         0.29942E+07
        -0.68588E+06
        -0.16602E+07
         0.10006E+07
         0.14281E+07
        -0.33575E+07
        -0.57732E+05
         0.12088E+07
         0.17329E+07
         0.23636E+07
         0.40156E+06
         0.22454E+06
         0.59145E+06
         0.14534E+07
        -0.30539E+06
        -0.59668E+06
        -0.15849E+07
        -0.80497E+06
        -0.49539E+07
        -0.61364E+07
        -0.31860E+07
        -0.13320E+07
         0.98119E+06
        -0.10838E+06
         0.23203E+07
         0.36105E+07
         0.10161E+07
         0.88770E+06
         0.13259E+07
        -0.44495E+06
        -0.30224E+06
         0.21032E+06
         0.97179E+06
         0.31812E+06
         0.43876E+06
        -0.29159E+06
         0.87919E+04
         0.37398E+06
         0.78952E+06
         0.99478E+06
         0.14918E+07
         0.22168E+07
         0.22445E+07
         0.29620E+07
        -0.43413E+06
         0.21594E+07
         0.51482E+06
         0.24661E+07
         0.40619E+07
         0.51479E+07
         0.44079E+07
         0.47037E+07
         0.40239E+07
         0.29818E+07
         0.25899E+07
         0.21041E+07
         0.13146E+07
         0.24585E+07
         0.67604E+06
        -0.79940E+06
        -0.62974E+06
        -0.37292E+06
         0.17771E+06
         0.18628E+07
         0.18887E+07
         0.12413E+07
         0.36633E+06
         0.42298E+06
         0.15694E+07
         0.26067E+07
         0.24649E+07
         0.14243E+07
         0.17631E+07
         0.28562E+07
         0.21468E+07
         0.30302E+07
        -0.39616E+06
        -0.35457E+06
         0.29840E+07
        -0.70086E+06
        -0.16776E+07
         0.98393E+06
         0.14099E+07
        -0.33754E+07
        -0.68312E+05
         0.11973E+07
         0.17180E+07
         0.23438E+07
         0.38567E+06
         0.20563E+06
         0.57550E+06
         0.14372E+07
        -0.32219E+06
        -0.61394E+06
        -0.15980E+07
        -0.82119E+06
        -0.49727E+07
        -0.61630E+07
        -0.32044E+07
        -0.13428E+07
         0.96817E+06
        -0.12423E+06
         0.23012E+07
         0.35965E+07
         0.10020E+07
         0.87501E+06
         0.13110E+07
        -0.46796E+06
        -0.32491E+06
         0.19039E+06
         0.95011E+06
         0.29773E+06
         0.42285E+06
        -0.31056E+06
        -0.80551E+04
         0.35994E+06
         0.77489E+06
         0.97777E+06
         0.14770E+07
         0.22067E+07
         0.22330E+07
         0.29505E+07
        -0.45855E+06
         0.21383E+07
         0.49087E+06
         0.24385E+07
         0.40298E+07
         0.51174E+07
         0.43891E+07
         0.46795E+07
         0.39920E+07
         0.29503E+07
         0.25516E+07
         0.20663E+07
         0.12892E+07
         0.24320E+07
         0.65350E+06
        -0.82509E+06
        -0.66944E+06
        -0.40835E+06
         0.15989E+06
         0.18381E+07
         0.18631E+07
         0.12281E+07
         0.35726E+06
         0.40413E+06
         0.15438E+07
         0.25812E+07
         0.24639E+07
         0.14209E+07
         0.17605E+07
         0.28526E+07
         0.21457E+07
         0.30274E+07
        -0.39687E+06
        -0.35495E+06
         0.29845E+07
        -0.70032E+06
        -0.16799E+07
         0.98168E+06
         0.14070E+07
        -0.33763E+07
        -0.67303E+05
         0.11952E+07
         0.17189E+07
         0.23386E+07
         0.38444E+06
         0.20274E+06
         0.57211E+06
         0.14347E+07
        -0.32588E+06
        -0.61714E+06
        -0.15964E+07
        -0.82590E+06
        -0.49680E+07
        -0.61666E+07
        -0.32068E+07
        -0.13443E+07
         0.96139E+06
        -0.13062E+06
         0.22937E+07
         0.35935E+07
         0.99866E+06
         0.87098E+06
         0.13065E+07
        -0.47884E+06
        -0.33753E+06
         0.18267E+06
         0.94781E+06
         0.29606E+06
         0.42070E+06
        -0.31371E+06
        -0.11147E+05
         0.35662E+06
         0.77018E+06
         0.97114E+06
         0.14711E+07
         0.22047E+07
         0.22309E+07
         0.29479E+07
        -0.45929E+06
         0.21387E+07
         0.48437E+06
         0.24279E+07
         0.40291E+07
         0.51168E+07
         0.43815E+07
         0.46593E+07
         0.39690E+07
         0.29376E+07
         0.25503E+07
         0.20626E+07
         0.12828E+07
         0.24217E+07
         0.64175E+06
        -0.83332E+06
        -0.67482E+06
        -0.41299E+06
         0.15481E+06
         0.18292E+07
         0.18518E+07
         0.12209E+07
         0.35636E+06
         0.40161E+06
         0.15323E+07
         0.25709E+07
         0.24903E+07
         0.14529E+07
         0.17877E+07
         0.28754E+07
         0.21753E+07
         0.30513E+07
        -0.35056E+06
        -0.32303E+06
         0.30062E+07
        -0.67469E+06
        -0.16383E+07
         0.10179E+07
         0.14398E+07
        -0.33406E+07
        -0.30815E+05
         0.12216E+07
         0.17490E+07
         0.23664E+07
         0.41690E+06
         0.24209E+06
         0.60361E+06
         0.14646E+07
        -0.29552E+06
        -0.58260E+06
        -0.15604E+07
        -0.78936E+06
        -0.49265E+07
        -0.61118E+07
        -0.31512E+07
        -0.13057E+07
         0.99116E+06
        -0.94718E+05
         0.23211E+07
         0.36161E+07
         0.10304E+07
         0.90047E+06
         0.13352E+07
        -0.45517E+06
        -0.30679E+06
         0.21604E+06
         0.97768E+06
         0.32654E+06
         0.44770E+06
        -0.28165E+06
         0.21507E+05
         0.38822E+06
         0.80018E+06
         0.10005E+07
         0.14972E+07
         0.22272E+07
         0.22525E+07
         0.29688E+07
        -0.40300E+06
         0.21948E+07
         0.53148E+06
         0.24621E+07
         0.40706E+07
         0.51693E+07
         0.44255E+07
         0.46929E+07
         0.40068E+07
         0.29789E+07
         0.25876E+07
         0.21063E+07
         0.13178E+07
         0.24608E+07
         0.68603E+06
        -0.78732E+06
        -0.62311E+06
        -0.35755E+06
         0.20244E+06
         0.18790E+07
         0.18944E+07
         0.12526E+07
         0.39119E+06
         0.44318E+06
         0.15774E+07
         0.26164E+07
         0.24794E+07
         0.14438E+07
         0.17794E+07
         0.28612E+07
         0.21629E+07
         0.30407E+07
        -0.36262E+06
        -0.33641E+06
         0.29915E+07
        -0.69361E+06
        -0.16554E+07
         0.10052E+07
         0.14318E+07
        -0.33595E+07
        -0.46133E+05
         0.12068E+07
         0.17302E+07
         0.23500E+07
         0.39584E+06
         0.21924E+06
         0.59295E+06
         0.14499E+07
        -0.30586E+06
        -0.60343E+06
        -0.15765E+07
        -0.81226E+06
        -0.49432E+07
        -0.61298E+07
        -0.31522E+07
        -0.13130E+07
         0.98174E+06
        -0.11267E+06
         0.23080E+07
         0.35992E+07
         0.10121E+07
         0.88897E+06
         0.13280E+07
        -0.48126E+06
        -0.32511E+06
         0.20755E+06
         0.96407E+06
         0.31077E+06
         0.42936E+06
        -0.29577E+06
         0.68405E+04
         0.37501E+06
         0.78802E+06
         0.99097E+06
         0.14848E+07
         0.22120E+07
         0.22387E+07
         0.29571E+07
        -0.43901E+06
         0.21644E+07
         0.50382E+06
         0.24475E+07
         0.40656E+07
         0.51557E+07
         0.43954E+07
         0.46565E+07
         0.39715E+07
         0.29475E+07
         0.25506E+07
         0.20640E+07
         0.12875E+07
         0.24457E+07
         0.67905E+06
        -0.79173E+06
        -0.63755E+06
        -0.38256E+06
         0.18376E+06
         0.18568E+07
         0.18739E+07
         0.12295E+07
         0.36646E+06
         0.42745E+06
         0.15627E+07
         0.25923E+07
         0.24610E+07
         0.14205E+07
         0.17565E+07
         0.28421E+07
         0.21431E+07
         0.30204E+07
        -0.38389E+06
        -0.35238E+06
         0.29706E+07
        -0.72797E+06
        -0.16761E+07
         0.98445E+06
         0.14140E+07
        -0.33788E+07
        -0.65617E+05
         0.11887E+07
         0.17015E+07
         0.23313E+07
         0.37864E+06
         0.20754E+06
         0.57977E+06
         0.14325E+07
        -0.31836E+06
        -0.62128E+06
        -0.16076E+07
        -0.83474E+06
        -0.49827E+07
        -0.61594E+07
        -0.30875E+07
        -0.12852E+07
         0.96449E+06
        -0.13783E+06
         0.22951E+07
         0.35875E+07
         0.99159E+06
         0.86994E+06
         0.13105E+07
        -0.51998E+06
        -0.34313E+06
         0.23837E+06
         0.96299E+06
         0.29367E+06
         0.40482E+06
        -0.31106E+06
        -0.11841E+05
         0.35385E+06
         0.76680E+06
         0.97394E+06
         0.14704E+07
         0.21998E+07
         0.22264E+07
         0.29426E+07
        -0.46305E+06
         0.21423E+07
         0.48499E+06
         0.24311E+07
         0.40428E+07
         0.51186E+07
         0.43530E+07
         0.46159E+07
         0.39360E+07
         0.29392E+07
         0.24862E+07
         0.19627E+07
         0.12451E+07
         0.24220E+07
         0.65806E+06
        -0.81040E+06
        -0.66063E+06
        -0.40880E+06
         0.15308E+06
         0.18222E+07
         0.18504E+07
         0.12075E+07
         0.34125E+06
         0.40875E+06
         0.15340E+07
         0.25602E+07
         0.24862E+07
         0.14499E+07
         0.17860E+07
         0.28698E+07
         0.21746E+07
         0.30463E+07
        -0.34316E+06
        -0.32095E+06
         0.29855E+07
        -0.73280E+06
        -0.16387E+07
         0.10115E+07
         0.14383E+07
        -0.33451E+07
        -0.32989E+05
         0.12153E+07
         0.17222E+07
         0.23573E+07
         0.41608E+06
         0.27321E+06
         0.60598E+06
         0.14587E+07
        -0.29393E+06
        -0.58403E+06
        -0.15963E+07
        -0.79491E+06
        -0.49888E+07
        -0.61250E+07
        -0.28936E+07
        -0.11684E+07
         0.98992E+06
        -0.10131E+06
         0.23219E+07
         0.36176E+07
         0.10256E+07
         0.90282E+06
         0.13376E+07
        -0.51757E+06
        -0.30802E+06
         0.35294E+06
         0.10203E+07
         0.32453E+06
         0.42057E+06
        -0.28354E+06
         0.20095E+05
         0.38897E+06
         0.79808E+06
         0.10008E+07
         0.14991E+07
         0.22305E+07
         0.22552E+07
         0.29674E+07
        -0.40510E+06
         0.21993E+07
         0.54311E+06
         0.24718E+07
         0.40686E+07
         0.51484E+07
         0.43942E+07
         0.46580E+07
         0.39823E+07
         0.30292E+07
         0.24652E+07
         0.18812E+07
         0.12481E+07
         0.24544E+07
         0.68509E+06
        -0.78781E+06
        -0.63267E+06
        -0.36239E+06
         0.21001E+06
         0.18753E+07
         0.18966E+07
         0.12552E+07
         0.39480E+06
         0.45843E+06
         0.15742E+07
         0.26024E+07
         0.23927E+07
         0.13420E+07
         0.16801E+07
         0.27579E+07
         0.20629E+07
         0.29335E+07
        -0.48109E+06
        -0.43045E+06
         0.28731E+07
        -0.86882E+06
        -0.17809E+07
         0.88301E+06
         0.13142E+07
        -0.34811E+07
        -0.16267E+06
         0.11157E+07
         0.15859E+07
         0.22319E+07
         0.29182E+06
         0.13399E+06
         0.49044E+06
         0.13442E+07
        -0.40740E+06
        -0.71529E+06
        -0.17340E+07
        -0.92819E+06
        -0.51472E+07
        -0.62922E+07
        -0.29653E+07
        -0.12460E+07
         0.88752E+06
        -0.23544E+06
         0.22033E+07
         0.34881E+07
         0.90086E+06
         0.78228E+06
         0.12175E+07
        -0.67046E+06
        -0.43221E+06
         0.27885E+06
         0.90831E+06
         0.20207E+06
         0.29753E+06
        -0.39670E+06
        -0.10065E+06
         0.25730E+06
         0.67645E+06
         0.88728E+06
         0.13824E+07
         0.21088E+07
         0.21267E+07
         0.28473E+07
        -0.60771E+06
         0.20030E+07
         0.33944E+06
         0.22644E+07
         0.38625E+07
         0.49505E+07
         0.41925E+07
         0.44404E+07
         0.37778E+07
         0.28436E+07
         0.22065E+07
         0.15997E+07
         0.10466E+07
         0.22866E+07
         0.51034E+06
        -0.96867E+06
        -0.81921E+06
        -0.57013E+06
        -0.39891E+04
         0.16705E+07
         0.17055E+07
         0.10718E+07
         0.20752E+06
         0.26567E+06
         0.13894E+07
         0.24189E+07
         0.24464E+07
         0.13495E+07
         0.17000E+07
         0.28004E+07
         0.21004E+07
         0.29704E+07
        -0.45894E+06
        -0.36312E+06
         0.29462E+07
        -0.76922E+06
        -0.17412E+07
         0.88547E+06
         0.12825E+07
        -0.33978E+07
        -0.10377E+06
         0.11936E+07
         0.16750E+07
         0.22978E+07
         0.35938E+06
         0.21451E+06
         0.54278E+06
         0.13835E+07
        -0.32585E+06
        -0.61684E+06
        -0.16078E+07
        -0.83025E+06
        -0.50115E+07
        -0.61004E+07
        -0.28028E+07
        -0.11282E+07
         0.95108E+06
        -0.17668E+06
         0.22370E+07
         0.34691E+07
         0.91984E+06
         0.77315E+06
         0.11835E+07
        -0.59923E+06
        -0.34237E+06
         0.35833E+06
         0.95895E+06
         0.27176E+06
         0.37115E+06
        -0.31966E+06
        -0.56738E+05
         0.27750E+06
         0.69478E+06
         0.93587E+06
         0.14212E+07
         0.21109E+07
         0.21349E+07
         0.28497E+07
        -0.52996E+06
         0.21040E+07
         0.36492E+06
         0.22197E+07
         0.37699E+07
         0.48942E+07
         0.42847E+07
         0.45357E+07
         0.38537E+07
         0.28884E+07
         0.22190E+07
         0.16382E+07
         0.11228E+07
         0.23244E+07
         0.58972E+06
        -0.85561E+06
        -0.72308E+06
        -0.49682E+06
         0.27740E+05
         0.16668E+07
         0.17479E+07
         0.11326E+07
         0.30372E+06
         0.38274E+06
         0.14815E+07
         0.25143E+07
         0.36567E+09
         0.41112E+09
         0.41176E+09
         0.40334E+09
         0.43514E+09
         0.42943E+09
         0.48335E+09
         0.41513E+09
         0.38607E+09
         0.41723E+09
         0.50853E+09
         0.49196E+09
         0.45280E+09
         0.49026E+09
         0.50247E+09
         0.36697E+09
         0.43853E+09
         0.42661E+09
         0.43687E+09
         0.50050E+09
         0.41468E+09
         0.42167E+09
         0.40105E+09
         0.44070E+09
         0.44381E+09
         0.46476E+09
         0.48456E+09
         0.56625E+09
         0.53626E+09
         0.45661E+09
         0.38028E+09
         0.44491E+09
         0.40735E+09
         0.43114E+09
         0.46685E+09
         0.44759E+09
         0.43323E+09
         0.48439E+09
         0.47820E+09
         0.47607E+09
         0.47412E+09
         0.45193E+09
         0.42862E+09
         0.39631E+09
         0.41957E+09
         0.46534E+09
         0.44321E+09
         0.42306E+09
         0.42760E+09
         0.43354E+09
         0.44901E+09
         0.43088E+09
         0.74180E+09
         0.72583E+09
         0.73715E+09
         0.71402E+09
         0.73452E+09
         0.76823E+09
         0.77288E+09
         0.76851E+09
         0.77547E+09
         0.79433E+09
         0.77095E+09
         0.72721E+09
         0.65174E+09
         0.61720E+09
         0.62274E+09
         0.63467E+09
         0.64165E+09
         0.69609E+09
         0.74698E+09
         0.74943E+09
         0.69103E+09
         0.66829E+09
         0.68996E+09
         0.68379E+09
         0.67820E+09
         0.67991E+09
         0.35322E+10
         0.37069E+10
         0.36586E+10
         0.33684E+10
         0.40599E+10
         0.38407E+10
         0.39942E+10
         0.40018E+10
         0.34773E+10
         0.40009E+10
         0.43547E+10
         0.47964E+10
         0.43843E+10
         0.44668E+10
         0.49515E+10
         0.34081E+10
         0.36558E+10
         0.32314E+10
         0.37634E+10
         0.39495E+10
         0.40304E+10
         0.41181E+10
         0.38831E+10
         0.36338E+10
         0.40568E+10
         0.35200E+10
         0.44515E+10
         0.43915E+10
         0.44083E+10
         0.41898E+10
         0.34468E+10
         0.36201E+10
         0.33933E+10
         0.35363E+10
         0.44095E+10
         0.40860E+10
         0.40894E+10
         0.48139E+10
         0.47105E+10
         0.46612E+10
         0.47200E+10
         0.44990E+10
         0.42656E+10
         0.38053E+10
         0.39595E+10
         0.44037E+10
         0.41089E+10
         0.38841E+10
         0.38181E+10
         0.39446E+10
         0.42409E+10
         0.39522E+10
         0.67433E+10
         0.65681E+10
         0.66972E+10
         0.64893E+10
         0.66725E+10
         0.70030E+10
         0.71201E+10
         0.71200E+10
         0.71738E+10
         0.73282E+10
         0.71198E+10
         0.66979E+10
         0.60338E+10
         0.57125E+10
         0.57163E+10
         0.57802E+10
         0.58310E+10
         0.63081E+10
         0.67634E+10
         0.67867E+10
         0.62976E+10
         0.61109E+10
         0.63034E+10
         0.62625E+10
         0.61882E+10
         0.61726E+10
  
SCALARS                      stress_yz  double 1
LOOKUP_TABLE default
         0.37245E+06
        -0.12389E+06
        -0.32188E+06
        -0.16555E+06
        -0.85145E+01
        -0.23468E+01
        -0.10552E+02
        -0.80484E+01
        -0.12065E+07
         0.79353E+06
        -0.15703E+02
        -0.13825E+02
        -0.10584E+07
        -0.53819E+05
         0.11238E+02
        -0.72053E+00
         0.36386E+06
         0.13563E+07
         0.16534E+00
         0.16918E+01
        -0.70381E+06
        -0.26493E+07
        -0.27540E+07
         0.25762E+02
         0.44490E+02
         0.37188E+02
        -0.26113E+06
        -0.26860E+07
         0.18531E+02
         0.35950E+02
         0.41584E+06
         0.36249E+06
        -0.30787E+06
         0.96069E+01
         0.98070E+01
        -0.20360E+00
         0.12359E+07
         0.11910E+07
         0.17678E+02
         0.13754E+02
         0.12149E+07
         0.77335E+06
         0.13360E+02
         0.12210E+02
         0.11018E+07
         0.37985E+06
        -0.44319E+00
         0.68552E+01
         0.10231E+07
         0.32276E+01
         0.10082E+06
        -0.26141E+00
         0.60277E+05
         0.12485E+02
        -0.39948E+06
         0.72627E+01
        -0.13029E+07
         0.23134E+06
         0.19703E+00
        -0.39990E+00
         0.50429E+06
         0.18400E+07
        -0.26845E+01
        -0.10041E+02
         0.30451E+06
        -0.54187E+01
         0.13073E+07
        -0.66013E+01
        -0.10618E+07
        -0.56243E+06
        -0.81579E+00
         0.10771E+02
        -0.19665E+07
         0.23652E+02
        -0.34095E+07
         0.22901E+02
        -0.34408E+07
         0.17385E+02
        -0.28344E+07
         0.14571E+02
        -0.41570E+07
        -0.31905E+07
         0.93475E+01
        -0.20725E+01
        -0.44619E+06
        -0.23190E+00
         0.17218E+07
        -0.14527E+02
         0.40695E+07
        -0.25431E+02
         0.56868E+07
         0.35250E+07
        -0.37719E+02
        -0.30530E+02
         0.24792E+07
        -0.23700E+02
         0.22245E+07
        -0.24246E+02
         0.21647E+07
        -0.26070E+02
         0.36022E+07
         0.29936E+07
        -0.24244E+02
        -0.11616E+02
        -0.24165E+07
         0.91470E+06
         0.85245E+01
        -0.10593E+02
        -0.59409E+07
         0.28359E+02
        -0.85045E+07
         0.41482E+02
        -0.10412E+08
         0.51231E+02
        -0.12212E+08
         0.50817E+02
        -0.14377E+08
         0.40215E+02
        -0.14696E+08
         0.31121E+02
        -0.13838E+08
         0.28946E+02
        -0.12314E+08
         0.27540E+02
        -0.89802E+07
         0.17600E+02
        -0.60646E+07
         0.58107E+01
        -0.30423E+07
         0.37547E+01
         0.21884E+06
         0.56436E+01
         0.29027E+07
         0.29148E+01
         0.52073E+07
        -0.88150E+01
         0.80588E+07
        -0.24882E+02
         0.90681E+07
        -0.38853E+02
         0.99193E+07
        -0.50936E+02
         0.12672E+08
        -0.50892E+02
         0.13126E+08
        -0.44427E+02
         0.12129E+08
        -0.43298E+02
         0.98651E+07
        -0.43567E+02
         0.67070E+07
        -0.34452E+02
         0.47505E+07
        -0.20373E+02
         0.34161E+07
        -0.15752E+02
         0.28458E+07
         0.14717E+07
         0.12848E+07
         0.39913E+06
         0.13157E+07
         0.13997E+07
         0.14749E+06
         0.22675E+07
         0.19472E+07
         0.28552E+07
        -0.14897E+07
        -0.63547E+07
        -0.43429E+07
        -0.50372E+06
        -0.64203E+07
        -0.75397E+06
         0.66790E+06
        -0.43020E+06
        -0.56096E+06
         0.42410E+06
        -0.38931E+06
        -0.32106E+06
         0.10784E+07
        -0.90905E+05
         0.19494E+07
        -0.28819E+06
        -0.14914E+05
        -0.26077E+06
        -0.31631E+06
         0.15276E+07
        -0.73590E+06
         0.79767E+06
        -0.53517E+06
         0.13028E+06
        -0.21468E+06
        -0.11643E+07
        -0.26116E+07
        -0.56434E+07
        -0.51563E+07
        -0.43548E+07
        -0.40990E+07
        -0.10191E+07
         0.83466E+06
         0.22890E+07
         0.37799E+07
         0.61680E+07
         0.40507E+07
         0.29079E+07
         0.31022E+07
         0.32931E+07
         0.38599E+07
         0.17658E+07
        -0.33175E+07
         0.39896E+07
        -0.10804E+08
        -0.14928E+08
        -0.19029E+08
        -0.22588E+08
        -0.22707E+08
        -0.20557E+08
        -0.19562E+08
        -0.18488E+08
        -0.11943E+08
        -0.52464E+07
        -0.23094E+07
        -0.10183E+07
         0.15597E+07
         0.61668E+07
         0.11333E+08
         0.14785E+08
         0.17882E+08
         0.20506E+08
         0.19322E+08
         0.18266E+08
         0.16993E+08
         0.11816E+08
         0.69039E+07
         0.60625E+07
        -0.16918E+09
        -0.17201E+09
        -0.16820E+09
        -0.57094E+08
        -0.12381E+09
        -0.78624E+08
        -0.13555E+09
        -0.16239E+09
        -0.16509E+09
        -0.16144E+09
         0.16790E+09
         0.18584E+09
         0.14186E+09
         0.38845E+08
         0.17548E+09
         0.86485E+08
        -0.49921E+08
         0.58157E+08
         0.16382E+09
         0.50679E+08
         0.48587E+08
         0.36590E+08
        -0.21739E+08
         0.65013E+08
        -0.16397E+09
         0.78479E+08
         0.88026E+07
         0.36610E+08
        -0.58477E+08
        -0.15150E+09
         0.10810E+09
         0.51900E+08
         0.10548E+09
         0.10519E+09
        -0.14078E+08
         0.69201E+08
         0.10384E+09
         0.16087E+09
         0.18076E+09
         0.17025E+09
         0.90440E+08
        -0.24464E+08
        -0.50082E+08
        -0.79272E+08
        -0.11339E+09
        -0.17325E+09
        -0.14916E+09
        -0.11477E+09
        -0.17287E+09
        -0.17458E+09
        -0.11444E+09
        -0.12181E+08
         0.36872E+08
        -0.51624E+08
         0.11541E+09
         0.15013E+09
         0.18286E+09
         0.20575E+09
         0.20921E+09
         0.20321E+09
         0.19936E+09
         0.18548E+09
         0.11862E+09
         0.39584E+08
         0.18745E+08
         0.16818E+08
        -0.71521E+07
        -0.57006E+08
        -0.11043E+09
        -0.14190E+09
        -0.19129E+09
        -0.20704E+09
        -0.19995E+09
        -0.19813E+09
        -0.18634E+09
        -0.13393E+09
        -0.67790E+08
        -0.64683E+08
        -0.16916E+09
        -0.17200E+09
        -0.16820E+09
        -0.57434E+08
        -0.12388E+09
        -0.78729E+08
        -0.13532E+09
        -0.16252E+09
        -0.16511E+09
        -0.16160E+09
         0.16800E+09
         0.18583E+09
         0.14184E+09
         0.38932E+08
         0.17554E+09
         0.86425E+08
        -0.50241E+08
         0.58070E+08
         0.16384E+09
         0.50397E+08
         0.48703E+08
         0.36627E+08
        -0.21745E+08
         0.64983E+08
        -0.16405E+09
         0.78336E+08
         0.89036E+07
         0.36814E+08
        -0.58092E+08
        -0.15157E+09
         0.10802E+09
         0.51803E+08
         0.10588E+09
         0.10527E+09
        -0.13940E+08
         0.69264E+08
         0.10386E+09
         0.16088E+09
         0.18077E+09
         0.17023E+09
         0.90454E+08
        -0.24386E+08
        -0.50128E+08
        -0.79314E+08
        -0.11341E+09
        -0.17326E+09
        -0.14918E+09
        -0.11471E+09
        -0.17287E+09
        -0.17457E+09
        -0.11445E+09
        -0.12014E+08
         0.36849E+08
        -0.51638E+08
         0.11543E+09
         0.15013E+09
         0.18287E+09
         0.20575E+09
         0.20920E+09
         0.20320E+09
         0.19936E+09
         0.18547E+09
         0.11861E+09
         0.39601E+08
         0.18746E+08
         0.16853E+08
        -0.70931E+07
        -0.57024E+08
        -0.11045E+09
        -0.14190E+09
        -0.19130E+09
        -0.20704E+09
        -0.19995E+09
        -0.19814E+09
        -0.18635E+09
        -0.13391E+09
        -0.67750E+08
        -0.64629E+08
        -0.16915E+09
        -0.17200E+09
        -0.16819E+09
        -0.57778E+08
        -0.12395E+09
        -0.78834E+08
        -0.13510E+09
        -0.16264E+09
        -0.16514E+09
        -0.16175E+09
         0.16811E+09
         0.18581E+09
         0.14183E+09
         0.39014E+08
         0.17559E+09
         0.86364E+08
        -0.50561E+08
         0.57982E+08
         0.16386E+09
         0.50109E+08
         0.48820E+08
         0.36664E+08
        -0.21754E+08
         0.64947E+08
        -0.16412E+09
         0.78174E+08
         0.90117E+07
         0.37032E+08
        -0.57671E+08
        -0.15164E+09
         0.10793E+09
         0.51682E+08
         0.10629E+09
         0.10535E+09
        -0.13801E+08
         0.69329E+08
         0.10387E+09
         0.16090E+09
         0.18079E+09
         0.17021E+09
         0.90471E+08
        -0.24302E+08
        -0.50170E+08
        -0.79363E+08
        -0.11344E+09
        -0.17327E+09
        -0.14919E+09
        -0.11465E+09
        -0.17287E+09
        -0.17456E+09
        -0.11446E+09
        -0.11847E+08
         0.36827E+08
        -0.51652E+08
         0.11545E+09
         0.15013E+09
         0.18287E+09
         0.20574E+09
         0.20919E+09
         0.20319E+09
         0.19937E+09
         0.18547E+09
         0.11860E+09
         0.39619E+08
         0.18746E+08
         0.16889E+08
        -0.70337E+07
        -0.57042E+08
        -0.11048E+09
        -0.14191E+09
        -0.19130E+09
        -0.20704E+09
        -0.19996E+09
        -0.19814E+09
        -0.18636E+09
        -0.13390E+09
        -0.67710E+08
        -0.64575E+08
        -0.16914E+09
        -0.17199E+09
        -0.16818E+09
        -0.58122E+08
        -0.12401E+09
        -0.78940E+08
        -0.13488E+09
        -0.16277E+09
        -0.16517E+09
        -0.16191E+09
         0.16820E+09
         0.18580E+09
         0.14181E+09
         0.39101E+08
         0.17565E+09
         0.86299E+08
        -0.50882E+08
         0.57892E+08
         0.16388E+09
         0.49804E+08
         0.48939E+08
         0.36696E+08
        -0.21773E+08
         0.64889E+08
        -0.16418E+09
         0.77960E+08
         0.91238E+07
         0.37320E+08
        -0.57148E+08
        -0.15170E+09
         0.10784E+09
         0.51508E+08
         0.10670E+09
         0.10543E+09
        -0.13663E+08
         0.69392E+08
         0.10389E+09
         0.16092E+09
         0.18080E+09
         0.17019E+09
         0.90496E+08
        -0.24197E+08
        -0.50201E+08
        -0.79433E+08
        -0.11349E+09
        -0.17328E+09
        -0.14920E+09
        -0.11459E+09
        -0.17287E+09
        -0.17455E+09
        -0.11447E+09
        -0.11680E+08
         0.36805E+08
        -0.51666E+08
         0.11547E+09
         0.15013E+09
         0.18288E+09
         0.20573E+09
         0.20918E+09
         0.20317E+09
         0.19937E+09
         0.18547E+09
         0.11860E+09
         0.39641E+08
         0.18747E+08
         0.16923E+08
        -0.69739E+07
        -0.57060E+08
        -0.11051E+09
        -0.14192E+09
        -0.19131E+09
        -0.20704E+09
        -0.19996E+09
        -0.19814E+09
        -0.18637E+09
        -0.13388E+09
        -0.67671E+08
        -0.64521E+08
        -0.16912E+09
        -0.17199E+09
        -0.16818E+09
        -0.58463E+08
        -0.12408E+09
        -0.79046E+08
        -0.13466E+09
        -0.16290E+09
        -0.16520E+09
        -0.16207E+09
         0.16830E+09
         0.18579E+09
         0.14179E+09
         0.39190E+08
         0.17571E+09
         0.86229E+08
        -0.51204E+08
         0.57801E+08
         0.16391E+09
         0.49483E+08
         0.49057E+08
         0.36724E+08
        -0.21800E+08
         0.64807E+08
        -0.16423E+09
         0.77690E+08
         0.92491E+07
         0.37673E+08
        -0.56521E+08
        -0.15175E+09
         0.10773E+09
         0.51276E+08
         0.10710E+09
         0.10551E+09
        -0.13524E+08
         0.69456E+08
         0.10391E+09
         0.16094E+09
         0.18082E+09
         0.17017E+09
         0.90528E+08
        -0.24071E+08
        -0.50221E+08
        -0.79524E+08
        -0.11355E+09
        -0.17330E+09
        -0.14922E+09
        -0.11452E+09
        -0.17287E+09
        -0.17454E+09
        -0.11448E+09
        -0.11512E+08
         0.36782E+08
        -0.51681E+08
         0.11549E+09
         0.15013E+09
         0.18289E+09
         0.20573E+09
         0.20917E+09
         0.20316E+09
         0.19937E+09
         0.18547E+09
         0.11860E+09
         0.39666E+08
         0.18750E+08
         0.16957E+08
        -0.69138E+07
        -0.57080E+08
        -0.11054E+09
        -0.14193E+09
        -0.19132E+09
        -0.20704E+09
        -0.19997E+09
        -0.19815E+09
        -0.18638E+09
        -0.13387E+09
        -0.67631E+08
        -0.64467E+08
        -0.16911E+09
        -0.17198E+09
        -0.16817E+09
        -0.58808E+08
        -0.12415E+09
        -0.79151E+08
        -0.13443E+09
        -0.16302E+09
        -0.16524E+09
        -0.16223E+09
         0.16840E+09
         0.18578E+09
         0.14178E+09
         0.39283E+08
         0.17577E+09
         0.86160E+08
        -0.51532E+08
         0.57712E+08
         0.16393E+09
         0.49155E+08
         0.49175E+08
         0.36751E+08
        -0.21831E+08
         0.64717E+08
        -0.16428E+09
         0.77404E+08
         0.93840E+07
         0.38062E+08
        -0.55850E+08
        -0.15179E+09
         0.10762E+09
         0.51019E+08
         0.10752E+09
         0.10560E+09
        -0.13385E+08
         0.69521E+08
         0.10392E+09
         0.16096E+09
         0.18083E+09
         0.17016E+09
         0.90562E+08
        -0.23938E+08
        -0.50235E+08
        -0.79621E+08
        -0.11361E+09
        -0.17331E+09
        -0.14924E+09
        -0.11447E+09
        -0.17287E+09
        -0.17453E+09
        -0.11449E+09
        -0.11342E+08
         0.36760E+08
        -0.51695E+08
         0.11552E+09
         0.15013E+09
         0.18289E+09
         0.20572E+09
         0.20916E+09
         0.20315E+09
         0.19938E+09
         0.18547E+09
         0.11860E+09
         0.39693E+08
         0.18753E+08
         0.16991E+08
        -0.68538E+07
        -0.57100E+08
        -0.11058E+09
        -0.14194E+09
        -0.19133E+09
        -0.20703E+09
        -0.19997E+09
        -0.19815E+09
        -0.18639E+09
        -0.13385E+09
        -0.67591E+08
        -0.64413E+08
        -0.16910E+09
        -0.17197E+09
        -0.16817E+09
        -0.59163E+08
        -0.12421E+09
        -0.79257E+08
        -0.13418E+09
        -0.16314E+09
        -0.16527E+09
        -0.16238E+09
         0.16850E+09
         0.18577E+09
         0.14177E+09
         0.39400E+08
         0.17582E+09
         0.86094E+08
        -0.51873E+08
         0.57623E+08
         0.16395E+09
         0.48827E+08
         0.49294E+08
         0.36777E+08
        -0.21862E+08
         0.64627E+08
        -0.16433E+09
         0.77115E+08
         0.95430E+07
         0.38477E+08
        -0.55167E+08
        -0.15183E+09
         0.10752E+09
         0.50753E+08
         0.10794E+09
         0.10569E+09
        -0.13245E+08
         0.69586E+08
         0.10394E+09
         0.16098E+09
         0.18085E+09
         0.17014E+09
         0.90598E+08
        -0.23802E+08
        -0.50248E+08
        -0.79717E+08
        -0.11368E+09
        -0.17332E+09
        -0.14927E+09
        -0.11444E+09
        -0.17288E+09
        -0.17452E+09
        -0.11449E+09
        -0.11170E+08
         0.36737E+08
        -0.51708E+08
         0.11554E+09
         0.15013E+09
         0.18290E+09
         0.20571E+09
         0.20915E+09
         0.20314E+09
         0.19938E+09
         0.18547E+09
         0.11859E+09
         0.39720E+08
         0.18756E+08
         0.17024E+08
        -0.67937E+07
        -0.57120E+08
        -0.11062E+09
        -0.14196E+09
        -0.19133E+09
        -0.20703E+09
        -0.19998E+09
        -0.19815E+09
        -0.18640E+09
        -0.13383E+09
        -0.67551E+08
        -0.64358E+08
        -0.16909E+09
        -0.17196E+09
        -0.16817E+09
        -0.59522E+08
        -0.12428E+09
        -0.79363E+08
        -0.13392E+09
        -0.16326E+09
        -0.16530E+09
        -0.16252E+09
         0.16859E+09
         0.18576E+09
         0.14176E+09
         0.39522E+08
         0.17588E+09
         0.86030E+08
        -0.52220E+08
         0.57531E+08
         0.16398E+09
         0.48499E+08
         0.49413E+08
         0.36805E+08
        -0.21893E+08
         0.64540E+08
        -0.16439E+09
         0.76827E+08
         0.97081E+07
         0.38902E+08
        -0.54481E+08
        -0.15187E+09
         0.10741E+09
         0.50480E+08
         0.10838E+09
         0.10580E+09
        -0.13104E+08
         0.69653E+08
         0.10396E+09
         0.16100E+09
         0.18086E+09
         0.17012E+09
         0.90633E+08
        -0.23666E+08
        -0.50261E+08
        -0.79813E+08
        -0.11375E+09
        -0.17334E+09
        -0.14930E+09
        -0.11441E+09
        -0.17289E+09
        -0.17451E+09
        -0.11450E+09
        -0.10997E+08
         0.36715E+08
        -0.51722E+08
         0.11556E+09
         0.15013E+09
         0.18290E+09
         0.20570E+09
         0.20914E+09
         0.20312E+09
         0.19939E+09
         0.18547E+09
         0.11859E+09
         0.39747E+08
         0.18760E+08
         0.17059E+08
        -0.67336E+07
        -0.57140E+08
        -0.11065E+09
        -0.14197E+09
        -0.19134E+09
        -0.20703E+09
        -0.19999E+09
        -0.19816E+09
        -0.18641E+09
        -0.13382E+09
        -0.67511E+08
        -0.64304E+08
        -0.16907E+09
        -0.17195E+09
        -0.16817E+09
        -0.59881E+08
        -0.12434E+09
        -0.79469E+08
        -0.13366E+09
        -0.16338E+09
        -0.16533E+09
        -0.16266E+09
         0.16868E+09
         0.18575E+09
         0.14174E+09
         0.39649E+08
         0.17594E+09
         0.85967E+08
        -0.52567E+08
         0.57439E+08
         0.16400E+09
         0.48168E+08
         0.49531E+08
         0.36832E+08
        -0.21923E+08
         0.64452E+08
        -0.16444E+09
         0.76542E+08
         0.98773E+07
         0.39323E+08
        -0.53797E+08
        -0.15191E+09
         0.10731E+09
         0.50209E+08
         0.10881E+09
         0.10590E+09
        -0.12962E+08
         0.69718E+08
         0.10398E+09
         0.16102E+09
         0.18088E+09
         0.17011E+09
         0.90669E+08
        -0.23532E+08
        -0.50273E+08
        -0.79908E+08
        -0.11382E+09
        -0.17335E+09
        -0.14934E+09
        -0.11439E+09
        -0.17290E+09
        -0.17450E+09
        -0.11450E+09
        -0.10823E+08
         0.36692E+08
        -0.51736E+08
         0.11558E+09
         0.15013E+09
         0.18291E+09
         0.20570E+09
         0.20914E+09
         0.20311E+09
         0.19939E+09
         0.18547E+09
         0.11859E+09
         0.39773E+08
         0.18764E+08
         0.17094E+08
        -0.66736E+07
        -0.57160E+08
        -0.11069E+09
        -0.14198E+09
        -0.19134E+09
        -0.20703E+09
        -0.19999E+09
        -0.19816E+09
        -0.18642E+09
        -0.13380E+09
        -0.67471E+08
        -0.64250E+08
        -0.16906E+09
        -0.17194E+09
        -0.16817E+09
        -0.60235E+08
        -0.12441E+09
        -0.79574E+08
        -0.13340E+09
        -0.16349E+09
        -0.16536E+09
        -0.16281E+09
         0.16878E+09
         0.18574E+09
         0.14173E+09
         0.39771E+08
         0.17600E+09
         0.85904E+08
        -0.52914E+08
         0.57347E+08
         0.16402E+09
         0.47835E+08
         0.49649E+08
         0.36859E+08
        -0.21952E+08
         0.64364E+08
        -0.16449E+09
         0.76257E+08
         0.10042E+08
         0.39739E+08
        -0.53115E+08
        -0.15194E+09
         0.10720E+09
         0.49937E+08
         0.10923E+09
         0.10601E+09
        -0.12820E+08
         0.69785E+08
         0.10400E+09
         0.16104E+09
         0.18089E+09
         0.17009E+09
         0.90704E+08
        -0.23397E+08
        -0.50286E+08
        -0.80003E+08
        -0.11388E+09
        -0.17336E+09
        -0.14937E+09
        -0.11437E+09
        -0.17290E+09
        -0.17449E+09
        -0.11451E+09
        -0.10649E+08
         0.36669E+08
        -0.51750E+08
         0.11560E+09
         0.15013E+09
         0.18291E+09
         0.20569E+09
         0.20913E+09
         0.20310E+09
         0.19939E+09
         0.18547E+09
         0.11859E+09
         0.39800E+08
         0.18767E+08
         0.17128E+08
        -0.66138E+07
        -0.57180E+08
        -0.11072E+09
        -0.14200E+09
        -0.19135E+09
        -0.20703E+09
        -0.20000E+09
        -0.19817E+09
        -0.18643E+09
        -0.13378E+09
        -0.67432E+08
        -0.64195E+08
        -0.16905E+09
        -0.17193E+09
        -0.16817E+09
        -0.60589E+08
        -0.12447E+09
        -0.79679E+08
        -0.13315E+09
        -0.16361E+09
        -0.16540E+09
        -0.16294E+09
         0.16886E+09
         0.18573E+09
         0.14172E+09
         0.39897E+08
         0.17605E+09
         0.85841E+08
        -0.53259E+08
         0.57256E+08
         0.16404E+09
         0.47501E+08
         0.49768E+08
         0.36885E+08
        -0.21983E+08
         0.64277E+08
        -0.16455E+09
         0.75972E+08
         0.10209E+08
         0.40150E+08
        -0.52434E+08
        -0.15198E+09
         0.10710E+09
         0.49666E+08
         0.10967E+09
         0.10611E+09
        -0.12678E+08
         0.69851E+08
         0.10403E+09
         0.16107E+09
         0.18091E+09
         0.17007E+09
         0.90739E+08
        -0.23263E+08
        -0.50298E+08
        -0.80098E+08
        -0.11395E+09
        -0.17338E+09
        -0.14941E+09
        -0.11434E+09
        -0.17291E+09
        -0.17448E+09
        -0.11451E+09
        -0.10474E+08
         0.36646E+08
        -0.51763E+08
         0.11562E+09
         0.15013E+09
         0.18292E+09
         0.20568E+09
         0.20912E+09
         0.20309E+09
         0.19940E+09
         0.18547E+09
         0.11859E+09
         0.39826E+08
         0.18771E+08
         0.17162E+08
        -0.65537E+07
        -0.57200E+08
        -0.11076E+09
        -0.14201E+09
        -0.19136E+09
        -0.20702E+09
        -0.20001E+09
        -0.19817E+09
        -0.18644E+09
        -0.13376E+09
        -0.67392E+08
        -0.64140E+08
        -0.16904E+09
        -0.17191E+09
        -0.16817E+09
        -0.60944E+08
        -0.12454E+09
        -0.79785E+08
        -0.13289E+09
        -0.16372E+09
        -0.16543E+09
        -0.16308E+09
         0.16895E+09
         0.18572E+09
         0.14171E+09
         0.40023E+08
         0.17611E+09
         0.85779E+08
        -0.53603E+08
         0.57162E+08
         0.16407E+09
         0.47169E+08
         0.49886E+08
         0.36912E+08
        -0.22013E+08
         0.64190E+08
        -0.16460E+09
         0.75689E+08
         0.10372E+08
         0.40558E+08
        -0.51752E+08
        -0.15202E+09
         0.10699E+09
         0.49393E+08
         0.11010E+09
         0.10622E+09
        -0.12535E+08
         0.69917E+08
         0.10405E+09
         0.16109E+09
         0.18093E+09
         0.17006E+09
         0.90774E+08
        -0.23130E+08
        -0.50310E+08
        -0.80192E+08
        -0.11402E+09
        -0.17339E+09
        -0.14944E+09
        -0.11432E+09
        -0.17292E+09
        -0.17446E+09
        -0.11451E+09
        -0.10299E+08
         0.36624E+08
        -0.51777E+08
         0.11564E+09
         0.15014E+09
         0.18292E+09
         0.20568E+09
         0.20911E+09
         0.20308E+09
         0.19940E+09
         0.18547E+09
         0.11859E+09
         0.39853E+08
         0.18774E+08
         0.17197E+08
        -0.64935E+07
        -0.57220E+08
        -0.11079E+09
        -0.14202E+09
        -0.19136E+09
        -0.20702E+09
        -0.20001E+09
        -0.19817E+09
        -0.18645E+09
        -0.13375E+09
        -0.67353E+08
        -0.64086E+08
        -0.16903E+09
        -0.17190E+09
        -0.16817E+09
        -0.61300E+08
        -0.12460E+09
        -0.79891E+08
        -0.13264E+09
        -0.16384E+09
        -0.16546E+09
        -0.16322E+09
         0.16904E+09
         0.18571E+09
         0.14170E+09
         0.40145E+08
         0.17617E+09
         0.85715E+08
        -0.53946E+08
         0.57068E+08
         0.16409E+09
         0.46838E+08
         0.50005E+08
         0.36938E+08
        -0.22043E+08
         0.64103E+08
        -0.16465E+09
         0.75403E+08
         0.10540E+08
         0.40961E+08
        -0.51072E+08
        -0.15205E+09
         0.10689E+09
         0.49118E+08
         0.11053E+09
         0.10632E+09
        -0.12393E+08
         0.69984E+08
         0.10407E+09
         0.16111E+09
         0.18094E+09
         0.17004E+09
         0.90809E+08
        -0.22996E+08
        -0.50323E+08
        -0.80287E+08
        -0.11409E+09
        -0.17340E+09
        -0.14948E+09
        -0.11430E+09
        -0.17293E+09
        -0.17445E+09
        -0.11452E+09
        -0.10124E+08
         0.36601E+08
        -0.51790E+08
         0.11566E+09
         0.15014E+09
         0.18293E+09
         0.20567E+09
         0.20910E+09
         0.20306E+09
         0.19941E+09
         0.18546E+09
         0.11858E+09
         0.39879E+08
         0.18778E+08
         0.17231E+08
        -0.64334E+07
        -0.57239E+08
        -0.11083E+09
        -0.14203E+09
        -0.19137E+09
        -0.20702E+09
        -0.20002E+09
        -0.19818E+09
        -0.18646E+09
        -0.13373E+09
        -0.67314E+08
        -0.64031E+08
        -0.16902E+09
        -0.17189E+09
        -0.16817E+09
        -0.61655E+08
        -0.12466E+09
        -0.79997E+08
        -0.13239E+09
        -0.16395E+09
        -0.16549E+09
        -0.16336E+09
         0.16912E+09
         0.18570E+09
         0.14168E+09
         0.40272E+08
         0.17623E+09
         0.85653E+08
        -0.54288E+08
         0.56975E+08
         0.16411E+09
         0.46508E+08
         0.50123E+08
         0.36964E+08
        -0.22073E+08
         0.64017E+08
        -0.16471E+09
         0.75117E+08
         0.10704E+08
         0.41360E+08
        -0.50395E+08
        -0.15209E+09
         0.10679E+09
         0.48844E+08
         0.11096E+09
         0.10643E+09
        -0.12250E+08
         0.70050E+08
         0.10408E+09
         0.16114E+09
         0.18096E+09
         0.17002E+09
         0.90844E+08
        -0.22862E+08
        -0.50335E+08
        -0.80381E+08
        -0.11415E+09
        -0.17342E+09
        -0.14951E+09
        -0.11428E+09
        -0.17294E+09
        -0.17444E+09
        -0.11452E+09
        -0.99498E+07
         0.36578E+08
        -0.51804E+08
         0.11569E+09
         0.15014E+09
         0.18293E+09
         0.20566E+09
         0.20909E+09
         0.20305E+09
         0.19941E+09
         0.18546E+09
         0.11858E+09
         0.39905E+08
         0.18781E+08
         0.17266E+08
        -0.63736E+07
        -0.57259E+08
        -0.11086E+09
        -0.14205E+09
        -0.19138E+09
        -0.20702E+09
        -0.20003E+09
        -0.19818E+09
        -0.18647E+09
        -0.13371E+09
        -0.67275E+08
        -0.63977E+08
        -0.16900E+09
        -0.17188E+09
        -0.16817E+09
        -0.62007E+08
        -0.12473E+09
        -0.80102E+08
        -0.13214E+09
        -0.16406E+09
        -0.16553E+09
        -0.16349E+09
         0.16920E+09
         0.18569E+09
         0.14167E+09
         0.40393E+08
         0.17628E+09
         0.85591E+08
        -0.54630E+08
         0.56883E+08
         0.16413E+09
         0.46174E+08
         0.50241E+08
         0.36990E+08
        -0.22103E+08
         0.63933E+08
        -0.16476E+09
         0.74832E+08
         0.10870E+08
         0.41751E+08
        -0.49721E+08
        -0.15213E+09
         0.10668E+09
         0.48569E+08
         0.11139E+09
         0.10653E+09
        -0.12107E+08
         0.70116E+08
         0.10410E+09
         0.16116E+09
         0.18097E+09
         0.17001E+09
         0.90879E+08
        -0.22729E+08
        -0.50348E+08
        -0.80475E+08
        -0.11422E+09
        -0.17343E+09
        -0.14954E+09
        -0.11425E+09
        -0.17294E+09
        -0.17443E+09
        -0.11453E+09
        -0.97737E+07
         0.36555E+08
        -0.51817E+08
         0.11571E+09
         0.15014E+09
         0.18294E+09
         0.20566E+09
         0.20908E+09
         0.20304E+09
         0.19942E+09
         0.18546E+09
         0.11858E+09
         0.39932E+08
         0.18785E+08
         0.17300E+08
        -0.63137E+07
        -0.57279E+08
        -0.11090E+09
        -0.14206E+09
        -0.19138E+09
        -0.20702E+09
        -0.20003E+09
        -0.19818E+09
        -0.18648E+09
        -0.13370E+09
        -0.67236E+08
        -0.63922E+08
        -0.16899E+09
        -0.17187E+09
        -0.16817E+09
        -0.62357E+08
        -0.12479E+09
        -0.80207E+08
        -0.13189E+09
        -0.16418E+09
        -0.16556E+09
        -0.16363E+09
         0.16928E+09
         0.18568E+09
         0.14166E+09
         0.40520E+08
         0.17634E+09
         0.85528E+08
        -0.54973E+08
         0.56789E+08
         0.16415E+09
         0.45843E+08
         0.50360E+08
         0.37014E+08
        -0.22132E+08
         0.63849E+08
        -0.16481E+09
         0.74546E+08
         0.11032E+08
         0.42138E+08
        -0.49049E+08
        -0.15216E+09
         0.10658E+09
         0.48295E+08
         0.11182E+09
         0.10664E+09
        -0.11963E+08
         0.70181E+08
         0.10412E+09
         0.16118E+09
         0.18099E+09
         0.16999E+09
         0.90915E+08
        -0.22596E+08
        -0.50361E+08
        -0.80569E+08
        -0.11429E+09
        -0.17345E+09
        -0.14958E+09
        -0.11423E+09
        -0.17295E+09
        -0.17442E+09
        -0.11453E+09
        -0.95970E+07
         0.36532E+08
        -0.51830E+08
         0.11573E+09
         0.15014E+09
         0.18294E+09
         0.20565E+09
         0.20907E+09
         0.20303E+09
         0.19942E+09
         0.18546E+09
         0.11858E+09
         0.39958E+08
         0.18788E+08
         0.17334E+08
        -0.62537E+07
        -0.57298E+08
        -0.11094E+09
        -0.14207E+09
        -0.19139E+09
        -0.20701E+09
        -0.20004E+09
        -0.19819E+09
        -0.18649E+09
        -0.13368E+09
        -0.67198E+08
        -0.63867E+08
        -0.16898E+09
        -0.17186E+09
        -0.16817E+09
        -0.62707E+08
        -0.12486E+09
        -0.80313E+08
        -0.13164E+09
        -0.16429E+09
        -0.16559E+09
        -0.16376E+09
         0.16935E+09
         0.18567E+09
         0.14165E+09
         0.40642E+08
         0.17640E+09
         0.85466E+08
        -0.55316E+08
         0.56694E+08
         0.16418E+09
         0.45515E+08
         0.50477E+08
         0.37039E+08
        -0.22162E+08
         0.63763E+08
        -0.16487E+09
         0.74259E+08
         0.11199E+08
         0.42520E+08
        -0.48376E+08
        -0.15220E+09
         0.10647E+09
         0.48018E+08
         0.11225E+09
         0.10674E+09
        -0.11819E+08
         0.70247E+08
         0.10414E+09
         0.16121E+09
         0.18100E+09
         0.16997E+09
         0.90951E+08
        -0.22465E+08
        -0.50374E+08
        -0.80663E+08
        -0.11436E+09
        -0.17346E+09
        -0.14961E+09
        -0.11421E+09
        -0.17296E+09
        -0.17441E+09
        -0.11453E+09
        -0.94212E+07
         0.36508E+08
        -0.51843E+08
         0.11575E+09
         0.15014E+09
         0.18295E+09
         0.20564E+09
         0.20906E+09
         0.20301E+09
         0.19942E+09
         0.18546E+09
         0.11858E+09
         0.39985E+08
         0.18791E+08
         0.17368E+08
        -0.61941E+07
        -0.57317E+08
        -0.11097E+09
        -0.14208E+09
        -0.19140E+09
        -0.20701E+09
        -0.20005E+09
        -0.19819E+09
        -0.18649E+09
        -0.13366E+09
        -0.67159E+08
        -0.63812E+08
        -0.16897E+09
        -0.17184E+09
        -0.16817E+09
        -0.63058E+08
        -0.12492E+09
        -0.80418E+08
        -0.13139E+09
        -0.16440E+09
        -0.16563E+09
        -0.16390E+09
         0.16943E+09
         0.18566E+09
         0.14164E+09
         0.40769E+08
         0.17645E+09
         0.85404E+08
        -0.55662E+08
         0.56598E+08
         0.16420E+09
         0.45201E+08
         0.50595E+08
         0.37062E+08
        -0.22192E+08
         0.63678E+08
        -0.16492E+09
         0.73975E+08
         0.11364E+08
         0.42900E+08
        -0.47705E+08
        -0.15223E+09
         0.10637E+09
         0.47739E+08
         0.11268E+09
         0.10685E+09
        -0.11675E+08
         0.70314E+08
         0.10416E+09
         0.16124E+09
         0.18102E+09
         0.16995E+09
         0.90988E+08
        -0.22333E+08
        -0.50390E+08
        -0.80756E+08
        -0.11443E+09
        -0.17347E+09
        -0.14965E+09
        -0.11419E+09
        -0.17297E+09
        -0.17440E+09
        -0.11454E+09
        -0.92449E+07
         0.36485E+08
        -0.51856E+08
         0.11577E+09
         0.15014E+09
         0.18295E+09
         0.20563E+09
         0.20905E+09
         0.20300E+09
         0.19943E+09
         0.18545E+09
         0.11858E+09
         0.40011E+08
         0.18792E+08
         0.17402E+08
        -0.61345E+07
        -0.57337E+08
        -0.11101E+09
        -0.14210E+09
        -0.19140E+09
        -0.20701E+09
        -0.20006E+09
        -0.19820E+09
        -0.18650E+09
        -0.13365E+09
        -0.67121E+08
        -0.63757E+08
        -0.16896E+09
        -0.17183E+09
        -0.16817E+09
        -0.63408E+08
        -0.12499E+09
        -0.80523E+08
        -0.13114E+09
        -0.16451E+09
        -0.16566E+09
        -0.16404E+09
         0.16950E+09
         0.18565E+09
         0.14163E+09
         0.40897E+08
         0.17651E+09
         0.85342E+08
        -0.56014E+08
         0.56502E+08
         0.16422E+09
         0.44902E+08
         0.50713E+08
         0.37086E+08
        -0.22222E+08
         0.63595E+08
        -0.16498E+09
         0.73687E+08
         0.11538E+08
         0.43275E+08
        -0.47036E+08
        -0.15226E+09
         0.10626E+09
         0.47462E+08
         0.11311E+09
         0.10695E+09
        -0.11530E+08
         0.70380E+08
         0.10418E+09
         0.16126E+09
         0.18103E+09
         0.16993E+09
         0.91028E+08
        -0.22203E+08
        -0.50408E+08
        -0.80849E+08
        -0.11449E+09
        -0.17349E+09
        -0.14968E+09
        -0.11416E+09
        -0.17297E+09
        -0.17438E+09
        -0.11454E+09
        -0.90667E+07
         0.36462E+08
        -0.51869E+08
         0.11579E+09
         0.15014E+09
         0.18296E+09
         0.20563E+09
         0.20904E+09
         0.20299E+09
         0.19943E+09
         0.18545E+09
         0.11858E+09
         0.40036E+08
         0.18791E+08
         0.17436E+08
        -0.60746E+07
        -0.57356E+08
        -0.11104E+09
        -0.14211E+09
        -0.19141E+09
        -0.20701E+09
        -0.20006E+09
        -0.19820E+09
        -0.18651E+09
        -0.13363E+09
        -0.67084E+08
        -0.63702E+08
        -0.16894E+09
        -0.17182E+09
        -0.16817E+09
        -0.63754E+08
        -0.12505E+09
        -0.80628E+08
        -0.13090E+09
        -0.16462E+09
        -0.16570E+09
        -0.16417E+09
         0.16957E+09
         0.18564E+09
         0.14162E+09
         0.41021E+08
         0.17657E+09
         0.85281E+08
        -0.56366E+08
         0.56407E+08
         0.16424E+09
         0.44610E+08
         0.50831E+08
         0.37109E+08
        -0.22250E+08
         0.63516E+08
        -0.16504E+09
         0.73410E+08
         0.11707E+08
         0.43635E+08
        -0.46375E+08
        -0.15228E+09
         0.10616E+09
         0.47191E+08
         0.11354E+09
         0.10706E+09
        -0.11387E+08
         0.70443E+08
         0.10420E+09
         0.16129E+09
         0.18104E+09
         0.16991E+09
         0.91068E+08
        -0.22076E+08
        -0.50428E+08
        -0.80941E+08
        -0.11456E+09
        -0.17350E+09
        -0.14972E+09
        -0.11414E+09
        -0.17298E+09
        -0.17437E+09
        -0.11455E+09
        -0.88890E+07
         0.36438E+08
        -0.51882E+08
         0.11581E+09
         0.15014E+09
         0.18296E+09
         0.20562E+09
         0.20903E+09
         0.20298E+09
         0.19943E+09
         0.18545E+09
         0.11858E+09
         0.40060E+08
         0.18789E+08
         0.17469E+08
        -0.60148E+07
        -0.57375E+08
        -0.11108E+09
        -0.14212E+09
        -0.19142E+09
        -0.20701E+09
        -0.20007E+09
        -0.19820E+09
        -0.18652E+09
        -0.13361E+09
        -0.67046E+08
        -0.63647E+08
        -0.16265E+09
        -0.15421E+09
        -0.14967E+09
        -0.53193E+08
        -0.11884E+09
        -0.73698E+08
        -0.94787E+08
        -0.15675E+09
        -0.15178E+09
        -0.15596E+09
         0.13398E+09
         0.18165E+09
         0.13748E+09
         0.36572E+08
         0.17313E+09
         0.79997E+08
        -0.45338E+08
         0.49028E+08
         0.13996E+09
         0.32441E+08
         0.49752E+08
         0.36125E+08
        -0.21689E+08
         0.49560E+08
        -0.14755E+09
         0.64285E+08
         0.10559E+08
         0.35601E+08
        -0.30607E+08
        -0.13611E+09
         0.97275E+08
         0.35241E+08
         0.93552E+08
         0.83749E+08
        -0.10849E+08
         0.64954E+08
         0.99070E+08
         0.15713E+09
         0.17403E+09
         0.16232E+09
         0.88830E+08
        -0.21380E+08
        -0.49222E+08
        -0.78353E+08
        -0.10954E+09
        -0.16800E+09
        -0.14103E+09
        -0.10623E+09
        -0.15618E+09
        -0.16072E+09
        -0.11030E+09
        -0.81448E+07
         0.36174E+08
        -0.51598E+08
         0.11519E+09
         0.14936E+09
         0.18208E+09
         0.20466E+09
         0.20795E+09
         0.20167E+09
         0.19807E+09
         0.18428E+09
         0.11786E+09
         0.39853E+08
         0.18659E+08
         0.17386E+08
        -0.59256E+07
        -0.57106E+08
        -0.11059E+09
        -0.14148E+09
        -0.19031E+09
        -0.20586E+09
        -0.19891E+09
        -0.19701E+09
        -0.18546E+09
        -0.13280E+09
        -0.66642E+08
        -0.63239E+08
        -0.81111E+08
        -0.51858E+08
        -0.48931E+08
        -0.14664E+08
        -0.52911E+08
        -0.26508E+08
        -0.21574E+08
        -0.70705E+08
        -0.55366E+08
        -0.69111E+08
         0.33802E+08
         0.10877E+09
         0.74456E+08
         0.11872E+08
         0.10631E+09
         0.32917E+08
        -0.11731E+08
         0.10211E+08
         0.40535E+08
         0.65644E+07
         0.29003E+08
         0.20066E+08
        -0.12215E+08
         0.12252E+08
        -0.48881E+08
         0.12300E+08
         0.34692E+07
         0.60085E+07
        -0.61905E+07
        -0.45079E+08
         0.35529E+08
         0.82662E+07
         0.25155E+08
         0.20859E+08
        -0.53584E+07
         0.24276E+08
         0.44351E+08
         0.88504E+08
         0.85349E+08
         0.75686E+08
         0.50820E+08
        -0.11858E+08
        -0.28298E+08
        -0.40665E+08
        -0.50965E+08
        -0.88060E+08
        -0.59240E+08
        -0.41751E+08
        -0.53583E+08
        -0.60179E+08
        -0.54897E+08
        -0.32303E+07
         0.28893E+08
        -0.42013E+08
         0.94742E+08
         0.12397E+09
         0.15272E+09
         0.17293E+09
         0.17325E+09
         0.16208E+09
         0.15711E+09
         0.14829E+09
         0.95270E+08
         0.32768E+08
         0.14920E+08
         0.13964E+08
        -0.48589E+07
        -0.47851E+08
        -0.93387E+08
        -0.11953E+09
        -0.15490E+09
        -0.16901E+09
        -0.16222E+09
        -0.15978E+09
        -0.15165E+09
        -0.10789E+09
        -0.54853E+08
        -0.51865E+08
  
SCALARS                      stress_xz  double 1
LOOKUP_TABLE default
         0.61460E+05
        -0.43346E+06
        -0.14309E+07
         0.98298E+05
        -0.88129E+01
         0.31248E+01
         0.10449E+02
         0.20868E+01
        -0.40263E+07
        -0.26900E+07
         0.31253E+02
         0.28151E+02
         0.17168E+06
        -0.70052E+06
        -0.38545E+01
        -0.18057E+02
        -0.14372E+06
        -0.67226E+06
        -0.13043E+02
        -0.19425E+02
        -0.98523E+06
        -0.16601E+07
        -0.15721E+07
        -0.12971E+02
        -0.59814E+01
         0.10450E+02
        -0.17536E+07
        -0.14239E+07
        -0.24281E+02
        -0.19261E+02
         0.33628E+06
        -0.74702E+06
         0.71487E+05
         0.24721E+01
        -0.95531E+01
        -0.58854E+01
         0.99773E+06
         0.48092E+06
        -0.14183E+02
        -0.15101E+02
         0.19887E+07
         0.28178E+07
        -0.31993E+02
        -0.23594E+02
         0.21277E+07
         0.11331E+07
        -0.35134E+02
        -0.16911E+02
        -0.61078E+06
        -0.10615E+02
         0.14545E+07
        -0.29548E+01
        -0.63714E+06
        -0.20742E+02
         0.47596E+06
        -0.54867E+01
         0.20824E+07
         0.57127E+06
        -0.47002E+01
        -0.11361E+02
        -0.35908E+05
         0.99060E+06
         0.94008E+01
         0.64465E+01
        -0.25727E+06
        -0.94560E+00
        -0.86121E+06
         0.62197E+01
        -0.56662E+07
        -0.38828E+07
         0.38875E+02
         0.28195E+02
        -0.24973E+07
         0.20530E+02
         0.58860E+06
        -0.14201E+02
         0.18419E+07
        -0.27872E+01
         0.39048E+07
        -0.43242E+01
         0.51665E+07
         0.36688E+07
        -0.15847E+02
        -0.18124E+02
         0.32406E+07
        -0.19492E+02
         0.25802E+07
        -0.28063E+02
         0.16069E+07
        -0.17899E+02
         0.25295E+07
         0.18604E+07
        -0.76392E+01
         0.10476E+02
        -0.42527E+06
         0.12288E+02
        -0.11674E+07
         0.51596E+01
        -0.28029E+07
         0.12741E+02
        -0.41434E+07
        -0.28436E+07
         0.29378E+02
         0.30656E+02
        -0.10148E+08
        -0.11237E+08
         0.54284E+02
         0.53496E+02
        -0.10051E+08
         0.46375E+02
        -0.91601E+07
         0.34657E+02
        -0.65718E+07
         0.19045E+02
        -0.47751E+07
         0.20366E+01
        -0.17718E+07
        -0.72537E+01
         0.22827E+07
        -0.58034E+01
         0.54476E+07
        -0.57041E+01
         0.80942E+07
        -0.12863E+02
         0.10888E+08
        -0.24472E+02
         0.13230E+08
        -0.29203E+02
         0.14064E+08
        -0.27554E+02
         0.13395E+08
        -0.29963E+02
         0.12276E+08
        -0.38887E+02
         0.11040E+08
        -0.45856E+02
         0.97374E+07
        -0.42627E+02
         0.77437E+07
        -0.34644E+02
         0.45436E+07
        -0.16355E+02
         0.38952E+06
         0.31230E+01
        -0.25410E+07
         0.75821E+01
        -0.39769E+07
         0.12398E+02
        -0.59813E+07
         0.24264E+02
        -0.78862E+07
         0.39816E+02
        -0.10365E+08
         0.47837E+02
        -0.11908E+08
         0.48928E+02
         0.88130E+06
        -0.45876E+06
        -0.53821E+06
         0.10841E+07
        -0.41950E+07
        -0.32453E+07
        -0.48993E+06
         0.71969E+06
         0.37139E+06
         0.66069E+06
        -0.36263E+06
        -0.15701E+07
        -0.32795E+07
         0.10491E+07
         0.12621E+07
        -0.14427E+07
        -0.12105E+07
         0.56143E+06
         0.87301E+06
         0.93916E+06
         0.51335E+07
         0.54660E+07
         0.49365E+07
         0.15342E+07
        -0.61519E+06
         0.45843E+06
         0.14726E+07
         0.16513E+06
         0.16896E+07
         0.11618E+07
        -0.12879E+07
        -0.25269E+06
         0.60690E+06
         0.19620E+06
        -0.62049E+07
        -0.39531E+07
        -0.35775E+07
         0.25042E+07
         0.14265E+07
         0.30517E+07
         0.62800E+07
         0.58524E+07
         0.57788E+07
         0.42478E+07
         0.30469E+07
         0.23838E+07
        -0.44768E+06
        -0.18701E+07
        -0.54079E+06
        -0.17142E+07
        -0.45791E+07
        -0.38570E+07
        -0.18125E+08
        -0.19023E+08
        -0.17003E+08
        -0.14464E+08
        -0.10770E+08
        -0.54862E+07
         0.32555E+06
         0.39089E+07
         0.59558E+07
         0.10225E+08
         0.16668E+08
         0.20277E+08
         0.18575E+08
         0.17815E+08
         0.18818E+08
         0.18813E+08
         0.17090E+08
         0.14964E+08
         0.75822E+07
        -0.11985E+07
        -0.46060E+07
        -0.51346E+07
        -0.86948E+07
        -0.13886E+08
        -0.18012E+08
        -0.18930E+08
        -0.57445E+08
         0.19010E+08
        -0.38244E+08
        -0.15935E+09
         0.12945E+09
         0.15620E+09
         0.98937E+08
        -0.74015E+08
        -0.52721E+08
        -0.74376E+08
        -0.29557E+08
         0.27579E+08
         0.11690E+09
        -0.17083E+09
        -0.69072E+08
         0.15213E+09
         0.16132E+09
        -0.11790E+09
        -0.49587E+08
        -0.13934E+09
        -0.17780E+09
        -0.17973E+09
        -0.18175E+09
        -0.15576E+09
         0.55203E+08
         0.71924E+08
        -0.17435E+09
         0.51790E+08
        -0.13054E+09
        -0.85209E+08
         0.13555E+09
         0.15988E+09
        -0.13273E+09
        -0.13157E+09
         0.18194E+09
         0.16193E+09
         0.14598E+09
        -0.92393E+08
        -0.19711E+08
        -0.61077E+08
        -0.16225E+09
        -0.18270E+09
        -0.17750E+09
        -0.16263E+09
        -0.13911E+09
        -0.60885E+08
         0.97361E+08
         0.13374E+09
        -0.21186E+08
         0.21822E+08
         0.14151E+09
         0.17684E+09
         0.20318E+09
         0.20041E+09
         0.17282E+09
         0.14349E+09
         0.10104E+09
         0.43635E+08
        -0.11246E+08
        -0.40529E+08
        -0.54656E+08
        -0.94211E+08
        -0.17042E+09
        -0.20356E+09
        -0.20287E+09
        -0.20209E+09
        -0.20443E+09
        -0.19781E+09
        -0.17458E+09
        -0.15247E+09
        -0.80468E+08
         0.20414E+08
         0.49654E+08
         0.52727E+08
         0.88430E+08
         0.15629E+09
         0.19492E+09
         0.19580E+09
        -0.57513E+08
         0.19076E+08
        -0.38295E+08
        -0.15924E+09
         0.12938E+09
         0.15614E+09
         0.99277E+08
        -0.73762E+08
        -0.52693E+08
        -0.74114E+08
        -0.28959E+08
         0.27647E+08
         0.11693E+09
        -0.17078E+09
        -0.68969E+08
         0.15218E+09
         0.16124E+09
        -0.11758E+09
        -0.49535E+08
        -0.13910E+09
        -0.17777E+09
        -0.17972E+09
        -0.18175E+09
        -0.15578E+09
         0.55104E+08
         0.72044E+08
        -0.17435E+09
         0.50817E+08
        -0.13146E+09
        -0.85122E+08
         0.13563E+09
         0.15991E+09
        -0.13239E+09
        -0.13151E+09
         0.18195E+09
         0.16190E+09
         0.14597E+09
        -0.92409E+08
        -0.19858E+08
        -0.61191E+08
        -0.16226E+09
        -0.18272E+09
        -0.17749E+09
        -0.16261E+09
        -0.13909E+09
        -0.60856E+08
         0.97341E+08
         0.13379E+09
        -0.21060E+08
         0.21775E+08
         0.14149E+09
         0.17683E+09
         0.20318E+09
         0.20040E+09
         0.17281E+09
         0.14349E+09
         0.10103E+09
         0.43635E+08
        -0.11263E+08
        -0.40564E+08
        -0.54622E+08
        -0.94199E+08
        -0.17042E+09
        -0.20356E+09
        -0.20287E+09
        -0.20209E+09
        -0.20443E+09
        -0.19781E+09
        -0.17457E+09
        -0.15247E+09
        -0.80450E+08
         0.20425E+08
         0.49622E+08
         0.52709E+08
         0.88392E+08
         0.15629E+09
         0.19492E+09
         0.19581E+09
        -0.57581E+08
         0.19141E+08
        -0.38346E+08
        -0.15913E+09
         0.12931E+09
         0.15608E+09
         0.99617E+08
        -0.73508E+08
        -0.52661E+08
        -0.73851E+08
        -0.28363E+08
         0.27715E+08
         0.11696E+09
        -0.17074E+09
        -0.68868E+08
         0.15222E+09
         0.16116E+09
        -0.11725E+09
        -0.49483E+08
        -0.13886E+09
        -0.17774E+09
        -0.17971E+09
        -0.18175E+09
        -0.15579E+09
         0.55016E+08
         0.72173E+08
        -0.17434E+09
         0.49855E+08
        -0.13238E+09
        -0.85040E+08
         0.13571E+09
         0.15994E+09
        -0.13204E+09
        -0.13146E+09
         0.18197E+09
         0.16187E+09
         0.14595E+09
        -0.92424E+08
        -0.20005E+08
        -0.61306E+08
        -0.16226E+09
        -0.18274E+09
        -0.17748E+09
        -0.16258E+09
        -0.13906E+09
        -0.60828E+08
         0.97322E+08
         0.13385E+09
        -0.20929E+08
         0.21726E+08
         0.14148E+09
         0.17682E+09
         0.20317E+09
         0.20040E+09
         0.17280E+09
         0.14349E+09
         0.10101E+09
         0.43635E+08
        -0.11280E+08
        -0.40599E+08
        -0.54589E+08
        -0.94188E+08
        -0.17042E+09
        -0.20355E+09
        -0.20287E+09
        -0.20208E+09
        -0.20444E+09
        -0.19781E+09
        -0.17456E+09
        -0.15247E+09
        -0.80432E+08
         0.20435E+08
         0.49591E+08
         0.52691E+08
         0.88355E+08
         0.15628E+09
         0.19493E+09
         0.19582E+09
        -0.57649E+08
         0.19209E+08
        -0.38396E+08
        -0.15902E+09
         0.12924E+09
         0.15602E+09
         0.99945E+08
        -0.73255E+08
        -0.52624E+08
        -0.73583E+08
        -0.27767E+08
         0.27784E+08
         0.11699E+09
        -0.17069E+09
        -0.68765E+08
         0.15227E+09
         0.16108E+09
        -0.11691E+09
        -0.49431E+08
        -0.13861E+09
        -0.17771E+09
        -0.17971E+09
        -0.18175E+09
        -0.15581E+09
         0.54957E+08
         0.72333E+08
        -0.17434E+09
         0.48924E+08
        -0.13330E+09
        -0.84966E+08
         0.13580E+09
         0.16000E+09
        -0.13170E+09
        -0.13140E+09
         0.18199E+09
         0.16184E+09
         0.14594E+09
        -0.92438E+08
        -0.20150E+08
        -0.61414E+08
        -0.16226E+09
        -0.18276E+09
        -0.17747E+09
        -0.16255E+09
        -0.13902E+09
        -0.60796E+08
         0.97301E+08
         0.13390E+09
        -0.20797E+08
         0.21677E+08
         0.14146E+09
         0.17682E+09
         0.20317E+09
         0.20039E+09
         0.17278E+09
         0.14349E+09
         0.10099E+09
         0.43635E+08
        -0.11297E+08
        -0.40634E+08
        -0.54555E+08
        -0.94176E+08
        -0.17042E+09
        -0.20355E+09
        -0.20287E+09
        -0.20208E+09
        -0.20444E+09
        -0.19781E+09
        -0.17455E+09
        -0.15247E+09
        -0.80413E+08
         0.20446E+08
         0.49559E+08
         0.52674E+08
         0.88317E+08
         0.15628E+09
         0.19493E+09
         0.19582E+09
        -0.57717E+08
         0.19277E+08
        -0.38447E+08
        -0.15890E+09
         0.12916E+09
         0.15596E+09
         0.10028E+09
        -0.73002E+08
        -0.52580E+08
        -0.73309E+08
        -0.27170E+08
         0.27852E+08
         0.11702E+09
        -0.17065E+09
        -0.68663E+08
         0.15232E+09
         0.16101E+09
        -0.11658E+09
        -0.49374E+08
        -0.13836E+09
        -0.17768E+09
        -0.17970E+09
        -0.18175E+09
        -0.15585E+09
         0.54929E+08
         0.72516E+08
        -0.17434E+09
         0.48021E+08
        -0.13422E+09
        -0.84903E+08
         0.13589E+09
         0.16007E+09
        -0.13135E+09
        -0.13135E+09
         0.18200E+09
         0.16181E+09
         0.14592E+09
        -0.92452E+08
        -0.20293E+08
        -0.61521E+08
        -0.16225E+09
        -0.18279E+09
        -0.17747E+09
        -0.16251E+09
        -0.13897E+09
        -0.60759E+08
         0.97279E+08
         0.13395E+09
        -0.20666E+08
         0.21629E+08
         0.14144E+09
         0.17681E+09
         0.20317E+09
         0.20038E+09
         0.17277E+09
         0.14349E+09
         0.10098E+09
         0.43636E+08
        -0.11314E+08
        -0.40669E+08
        -0.54522E+08
        -0.94164E+08
        -0.17042E+09
        -0.20355E+09
        -0.20287E+09
        -0.20208E+09
        -0.20445E+09
        -0.19781E+09
        -0.17454E+09
        -0.15246E+09
        -0.80394E+08
         0.20456E+08
         0.49528E+08
         0.52656E+08
         0.88279E+08
         0.15628E+09
         0.19493E+09
         0.19583E+09
        -0.57782E+08
         0.19352E+08
        -0.38490E+08
        -0.15879E+09
         0.12909E+09
         0.15590E+09
         0.10062E+09
        -0.72750E+08
        -0.52534E+08
        -0.73040E+08
        -0.26570E+08
         0.27920E+08
         0.11704E+09
        -0.17060E+09
        -0.68561E+08
         0.15237E+09
         0.16093E+09
        -0.11625E+09
        -0.49315E+08
        -0.13813E+09
        -0.17765E+09
        -0.17969E+09
        -0.18174E+09
        -0.15588E+09
         0.54905E+08
         0.72705E+08
        -0.17433E+09
         0.47125E+08
        -0.13514E+09
        -0.84851E+08
         0.13599E+09
         0.16015E+09
        -0.13099E+09
        -0.13129E+09
         0.18202E+09
         0.16178E+09
         0.14590E+09
        -0.92464E+08
        -0.20434E+08
        -0.61625E+08
        -0.16225E+09
        -0.18281E+09
        -0.17747E+09
        -0.16247E+09
        -0.13892E+09
        -0.60723E+08
         0.97252E+08
         0.13400E+09
        -0.20529E+08
         0.21587E+08
         0.14142E+09
         0.17680E+09
         0.20317E+09
         0.20037E+09
         0.17275E+09
         0.14349E+09
         0.10096E+09
         0.43636E+08
        -0.11331E+08
        -0.40704E+08
        -0.54488E+08
        -0.94153E+08
        -0.17042E+09
        -0.20354E+09
        -0.20286E+09
        -0.20207E+09
        -0.20445E+09
        -0.19781E+09
        -0.17452E+09
        -0.15246E+09
        -0.80376E+08
         0.20465E+08
         0.49496E+08
         0.52638E+08
         0.88242E+08
         0.15628E+09
         0.19493E+09
         0.19584E+09
        -0.57842E+08
         0.19444E+08
        -0.38519E+08
        -0.15867E+09
         0.12902E+09
         0.15584E+09
         0.10098E+09
        -0.72503E+08
        -0.52489E+08
        -0.72784E+08
        -0.25963E+08
         0.27987E+08
         0.11707E+09
        -0.17055E+09
        -0.68458E+08
         0.15242E+09
         0.16084E+09
        -0.11592E+09
        -0.49261E+08
        -0.13789E+09
        -0.17762E+09
        -0.17969E+09
        -0.18174E+09
        -0.15592E+09
         0.54867E+08
         0.72871E+08
        -0.17433E+09
         0.46207E+08
        -0.13607E+09
        -0.84807E+08
         0.13609E+09
         0.16023E+09
        -0.13063E+09
        -0.13122E+09
         0.18204E+09
         0.16175E+09
         0.14589E+09
        -0.92474E+08
        -0.20577E+08
        -0.61732E+08
        -0.16224E+09
        -0.18284E+09
        -0.17747E+09
        -0.16242E+09
        -0.13886E+09
        -0.60688E+08
         0.97211E+08
         0.13403E+09
        -0.20373E+08
         0.21559E+08
         0.14141E+09
         0.17680E+09
         0.20316E+09
         0.20036E+09
         0.17274E+09
         0.14349E+09
         0.10095E+09
         0.43636E+08
        -0.11348E+08
        -0.40739E+08
        -0.54455E+08
        -0.94141E+08
        -0.17041E+09
        -0.20354E+09
        -0.20286E+09
        -0.20207E+09
        -0.20446E+09
        -0.19781E+09
        -0.17451E+09
        -0.15245E+09
        -0.80357E+08
         0.20474E+08
         0.49461E+08
         0.52620E+08
         0.88206E+08
         0.15627E+09
         0.19494E+09
         0.19585E+09
        -0.57899E+08
         0.19543E+08
        -0.38543E+08
        -0.15854E+09
         0.12895E+09
         0.15578E+09
         0.10136E+09
        -0.72259E+08
        -0.52445E+08
        -0.72537E+08
        -0.25354E+08
         0.28055E+08
         0.11709E+09
        -0.17049E+09
        -0.68354E+08
         0.15247E+09
         0.16075E+09
        -0.11558E+09
        -0.49204E+08
        -0.13767E+09
        -0.17759E+09
        -0.17968E+09
        -0.18174E+09
        -0.15595E+09
         0.54822E+08
         0.73027E+08
        -0.17432E+09
         0.45285E+08
        -0.13701E+09
        -0.84769E+08
         0.13618E+09
         0.16031E+09
        -0.13025E+09
        -0.13114E+09
         0.18205E+09
         0.16171E+09
         0.14587E+09
        -0.92483E+08
        -0.20718E+08
        -0.61838E+08
        -0.16223E+09
        -0.18287E+09
        -0.17747E+09
        -0.16238E+09
        -0.13881E+09
        -0.60657E+08
         0.97163E+08
         0.13405E+09
        -0.20210E+08
         0.21537E+08
         0.14140E+09
         0.17679E+09
         0.20316E+09
         0.20035E+09
         0.17272E+09
         0.14349E+09
         0.10093E+09
         0.43636E+08
        -0.11365E+08
        -0.40774E+08
        -0.54421E+08
        -0.94130E+08
        -0.17041E+09
        -0.20354E+09
        -0.20286E+09
        -0.20207E+09
        -0.20446E+09
        -0.19782E+09
        -0.17449E+09
        -0.15245E+09
        -0.80339E+08
         0.20481E+08
         0.49427E+08
         0.52602E+08
         0.88171E+08
         0.15627E+09
         0.19494E+09
         0.19585E+09
        -0.57956E+08
         0.19642E+08
        -0.38565E+08
        -0.15842E+09
         0.12888E+09
         0.15571E+09
         0.10173E+09
        -0.72015E+08
        -0.52401E+08
        -0.72292E+08
        -0.24747E+08
         0.28122E+08
         0.11712E+09
        -0.17044E+09
        -0.68250E+08
         0.15252E+09
         0.16066E+09
        -0.11524E+09
        -0.49147E+08
        -0.13744E+09
        -0.17755E+09
        -0.17968E+09
        -0.18174E+09
        -0.15599E+09
         0.54777E+08
         0.73181E+08
        -0.17431E+09
         0.44363E+08
        -0.13796E+09
        -0.84731E+08
         0.13628E+09
         0.16040E+09
        -0.12987E+09
        -0.13106E+09
         0.18207E+09
         0.16168E+09
         0.14585E+09
        -0.92492E+08
        -0.20860E+08
        -0.61943E+08
        -0.16223E+09
        -0.18289E+09
        -0.17747E+09
        -0.16234E+09
        -0.13876E+09
        -0.60625E+08
         0.97117E+08
         0.13407E+09
        -0.20047E+08
         0.21517E+08
         0.14139E+09
         0.17678E+09
         0.20316E+09
         0.20035E+09
         0.17271E+09
         0.14349E+09
         0.10091E+09
         0.43636E+08
        -0.11382E+08
        -0.40808E+08
        -0.54387E+08
        -0.94120E+08
        -0.17041E+09
        -0.20353E+09
        -0.20286E+09
        -0.20206E+09
        -0.20447E+09
        -0.19782E+09
        -0.17448E+09
        -0.15244E+09
        -0.80320E+08
         0.20489E+08
         0.49392E+08
         0.52584E+08
         0.88136E+08
         0.15627E+09
         0.19494E+09
         0.19586E+09
        -0.58013E+08
         0.19743E+08
        -0.38588E+08
        -0.15830E+09
         0.12881E+09
         0.15565E+09
         0.10210E+09
        -0.71772E+08
        -0.52357E+08
        -0.72048E+08
        -0.24140E+08
         0.28189E+08
         0.11714E+09
        -0.17038E+09
        -0.68147E+08
         0.15257E+09
         0.16057E+09
        -0.11491E+09
        -0.49090E+08
        -0.13722E+09
        -0.17752E+09
        -0.17967E+09
        -0.18173E+09
        -0.15603E+09
         0.54733E+08
         0.73336E+08
        -0.17431E+09
         0.43447E+08
        -0.13890E+09
        -0.84692E+08
         0.13637E+09
         0.16048E+09
        -0.12950E+09
        -0.13099E+09
         0.18209E+09
         0.16165E+09
         0.14584E+09
        -0.92500E+08
        -0.21001E+08
        -0.62050E+08
        -0.16222E+09
        -0.18292E+09
        -0.17747E+09
        -0.16230E+09
        -0.13870E+09
        -0.60591E+08
         0.97069E+08
         0.13409E+09
        -0.19884E+08
         0.21494E+08
         0.14138E+09
         0.17678E+09
         0.20315E+09
         0.20034E+09
         0.17269E+09
         0.14349E+09
         0.10090E+09
         0.43636E+08
        -0.11399E+08
        -0.40843E+08
        -0.54354E+08
        -0.94109E+08
        -0.17041E+09
        -0.20353E+09
        -0.20286E+09
        -0.20206E+09
        -0.20447E+09
        -0.19782E+09
        -0.17446E+09
        -0.15244E+09
        -0.80301E+08
         0.20496E+08
         0.49357E+08
         0.52566E+08
         0.88101E+08
         0.15627E+09
         0.19494E+09
         0.19587E+09
        -0.58070E+08
         0.19843E+08
        -0.38612E+08
        -0.15818E+09
         0.12874E+09
         0.15559E+09
         0.10246E+09
        -0.71529E+08
        -0.52313E+08
        -0.71806E+08
        -0.23531E+08
         0.28258E+08
         0.11717E+09
        -0.17033E+09
        -0.68043E+08
         0.15261E+09
         0.16048E+09
        -0.11458E+09
        -0.49038E+08
        -0.13699E+09
        -0.17749E+09
        -0.17967E+09
        -0.18173E+09
        -0.15606E+09
         0.54688E+08
         0.73488E+08
        -0.17430E+09
         0.42530E+08
        -0.13984E+09
        -0.84652E+08
         0.13646E+09
         0.16056E+09
        -0.12912E+09
        -0.13091E+09
         0.18210E+09
         0.16162E+09
         0.14582E+09
        -0.92508E+08
        -0.21141E+08
        -0.62155E+08
        -0.16221E+09
        -0.18294E+09
        -0.17747E+09
        -0.16225E+09
        -0.13865E+09
        -0.60560E+08
         0.97021E+08
         0.13412E+09
        -0.19720E+08
         0.21472E+08
         0.14137E+09
         0.17677E+09
         0.20315E+09
         0.20033E+09
         0.17268E+09
         0.14349E+09
         0.10088E+09
         0.43636E+08
        -0.11415E+08
        -0.40877E+08
        -0.54320E+08
        -0.94097E+08
        -0.17040E+09
        -0.20352E+09
        -0.20286E+09
        -0.20206E+09
        -0.20448E+09
        -0.19782E+09
        -0.17445E+09
        -0.15243E+09
        -0.80283E+08
         0.20504E+08
         0.49322E+08
         0.52548E+08
         0.88066E+08
         0.15627E+09
         0.19495E+09
         0.19587E+09
        -0.58127E+08
         0.19942E+08
        -0.38633E+08
        -0.15805E+09
         0.12867E+09
         0.15553E+09
         0.10282E+09
        -0.71286E+08
        -0.52269E+08
        -0.71565E+08
        -0.22925E+08
         0.28326E+08
         0.11719E+09
        -0.17027E+09
        -0.67940E+08
         0.15266E+09
         0.16039E+09
        -0.11424E+09
        -0.48982E+08
        -0.13677E+09
        -0.17746E+09
        -0.17966E+09
        -0.18173E+09
        -0.15610E+09
         0.54643E+08
         0.73646E+08
        -0.17429E+09
         0.41618E+08
        -0.14077E+09
        -0.84615E+08
         0.13656E+09
         0.16064E+09
        -0.12873E+09
        -0.13083E+09
         0.18212E+09
         0.16159E+09
         0.14580E+09
        -0.92516E+08
        -0.21282E+08
        -0.62262E+08
        -0.16221E+09
        -0.18297E+09
        -0.17747E+09
        -0.16221E+09
        -0.13860E+09
        -0.60529E+08
         0.96975E+08
         0.13414E+09
        -0.19554E+08
         0.21452E+08
         0.14136E+09
         0.17676E+09
         0.20315E+09
         0.20032E+09
         0.17266E+09
         0.14349E+09
         0.10086E+09
         0.43637E+08
        -0.11432E+08
        -0.40912E+08
        -0.54287E+08
        -0.94087E+08
        -0.17040E+09
        -0.20352E+09
        -0.20286E+09
        -0.20205E+09
        -0.20448E+09
        -0.19782E+09
        -0.17443E+09
        -0.15243E+09
        -0.80264E+08
         0.20511E+08
         0.49287E+08
         0.52529E+08
         0.88031E+08
         0.15626E+09
         0.19495E+09
         0.19588E+09
        -0.58185E+08
         0.20043E+08
        -0.38655E+08
        -0.15793E+09
         0.12860E+09
         0.15547E+09
         0.10318E+09
        -0.71043E+08
        -0.52224E+08
        -0.71324E+08
        -0.22320E+08
         0.28393E+08
         0.11721E+09
        -0.17022E+09
        -0.67836E+08
         0.15271E+09
         0.16030E+09
        -0.11391E+09
        -0.48927E+08
        -0.13655E+09
        -0.17743E+09
        -0.17966E+09
        -0.18173E+09
        -0.15613E+09
         0.54597E+08
         0.73799E+08
        -0.17429E+09
         0.40703E+08
        -0.14170E+09
        -0.84577E+08
         0.13665E+09
         0.16072E+09
        -0.12834E+09
        -0.13075E+09
         0.18214E+09
         0.16156E+09
         0.14579E+09
        -0.92523E+08
        -0.21422E+08
        -0.62367E+08
        -0.16220E+09
        -0.18300E+09
        -0.17747E+09
        -0.16217E+09
        -0.13854E+09
        -0.60496E+08
         0.96927E+08
         0.13416E+09
        -0.19388E+08
         0.21430E+08
         0.14134E+09
         0.17676E+09
         0.20314E+09
         0.20031E+09
         0.17265E+09
         0.14349E+09
         0.10085E+09
         0.43637E+08
        -0.11449E+08
        -0.40946E+08
        -0.54253E+08
        -0.94076E+08
        -0.17040E+09
        -0.20352E+09
        -0.20286E+09
        -0.20205E+09
        -0.20449E+09
        -0.19782E+09
        -0.17442E+09
        -0.15242E+09
        -0.80246E+08
         0.20519E+08
         0.49252E+08
         0.52512E+08
         0.87996E+08
         0.15626E+09
         0.19495E+09
         0.19589E+09
        -0.58243E+08
         0.20141E+08
        -0.38676E+08
        -0.15780E+09
         0.12853E+09
         0.15541E+09
         0.10353E+09
        -0.70802E+08
        -0.52179E+08
        -0.71085E+08
        -0.21716E+08
         0.28460E+08
         0.11724E+09
        -0.17016E+09
        -0.67733E+08
         0.15276E+09
         0.16020E+09
        -0.11358E+09
        -0.48877E+08
        -0.13632E+09
        -0.17740E+09
        -0.17965E+09
        -0.18173E+09
        -0.15617E+09
         0.54552E+08
         0.73953E+08
        -0.17428E+09
         0.39795E+08
        -0.14264E+09
        -0.84538E+08
         0.13674E+09
         0.16079E+09
        -0.12795E+09
        -0.13068E+09
         0.18215E+09
         0.16153E+09
         0.14577E+09
        -0.92528E+08
        -0.21562E+08
        -0.62475E+08
        -0.16219E+09
        -0.18302E+09
        -0.17747E+09
        -0.16212E+09
        -0.13849E+09
        -0.60464E+08
         0.96878E+08
         0.13418E+09
        -0.19222E+08
         0.21408E+08
         0.14133E+09
         0.17675E+09
         0.20314E+09
         0.20031E+09
         0.17264E+09
         0.14348E+09
         0.10083E+09
         0.43637E+08
        -0.11466E+08
        -0.40980E+08
        -0.54219E+08
        -0.94065E+08
        -0.17040E+09
        -0.20351E+09
        -0.20286E+09
        -0.20205E+09
        -0.20449E+09
        -0.19782E+09
        -0.17440E+09
        -0.15241E+09
        -0.80227E+08
         0.20526E+08
         0.49218E+08
         0.52494E+08
         0.87961E+08
         0.15626E+09
         0.19495E+09
         0.19590E+09
        -0.58300E+08
         0.20239E+08
        -0.38697E+08
        -0.15767E+09
         0.12846E+09
         0.15535E+09
         0.10388E+09
        -0.70560E+08
        -0.52134E+08
        -0.70848E+08
        -0.21113E+08
         0.28529E+08
         0.11726E+09
        -0.17011E+09
        -0.67629E+08
         0.15280E+09
         0.16011E+09
        -0.11324E+09
        -0.48822E+08
        -0.13610E+09
        -0.17737E+09
        -0.17965E+09
        -0.18172E+09
        -0.15620E+09
         0.54505E+08
         0.74106E+08
        -0.17427E+09
         0.38886E+08
        -0.14357E+09
        -0.84498E+08
         0.13684E+09
         0.16087E+09
        -0.12756E+09
        -0.13060E+09
         0.18217E+09
         0.16150E+09
         0.14576E+09
        -0.92533E+08
        -0.21701E+08
        -0.62581E+08
        -0.16219E+09
        -0.18305E+09
        -0.17747E+09
        -0.16208E+09
        -0.13843E+09
        -0.60433E+08
         0.96832E+08
         0.13420E+09
        -0.19053E+08
         0.21387E+08
         0.14132E+09
         0.17674E+09
         0.20314E+09
         0.20030E+09
         0.17262E+09
         0.14348E+09
         0.10082E+09
         0.43637E+08
        -0.11482E+08
        -0.41014E+08
        -0.54185E+08
        -0.94055E+08
        -0.17039E+09
        -0.20351E+09
        -0.20286E+09
        -0.20204E+09
        -0.20450E+09
        -0.19782E+09
        -0.17439E+09
        -0.15241E+09
        -0.80208E+08
         0.20533E+08
         0.49183E+08
         0.52476E+08
         0.87926E+08
         0.15626E+09
         0.19495E+09
         0.19590E+09
        -0.58358E+08
         0.20341E+08
        -0.38719E+08
        -0.15755E+09
         0.12839E+09
         0.15529E+09
         0.10423E+09
        -0.70318E+08
        -0.52089E+08
        -0.70611E+08
        -0.20510E+08
         0.28596E+08
         0.11729E+09
        -0.17005E+09
        -0.67526E+08
         0.15285E+09
         0.16002E+09
        -0.11291E+09
        -0.48767E+08
        -0.13587E+09
        -0.17734E+09
        -0.17964E+09
        -0.18172E+09
        -0.15623E+09
         0.54457E+08
         0.74259E+08
        -0.17427E+09
         0.37978E+08
        -0.14451E+09
        -0.84459E+08
         0.13693E+09
         0.16095E+09
        -0.12717E+09
        -0.13052E+09
         0.18219E+09
         0.16147E+09
         0.14574E+09
        -0.92538E+08
        -0.21840E+08
        -0.62687E+08
        -0.16218E+09
        -0.18307E+09
        -0.17747E+09
        -0.16204E+09
        -0.13838E+09
        -0.60399E+08
         0.96783E+08
         0.13423E+09
        -0.18885E+08
         0.21364E+08
         0.14131E+09
         0.17673E+09
         0.20314E+09
         0.20029E+09
         0.17261E+09
         0.14348E+09
         0.10080E+09
         0.43637E+08
        -0.11498E+08
        -0.41048E+08
        -0.54152E+08
        -0.94044E+08
        -0.17039E+09
        -0.20350E+09
        -0.20285E+09
        -0.20204E+09
        -0.20450E+09
        -0.19782E+09
        -0.17437E+09
        -0.15240E+09
        -0.80190E+08
         0.20540E+08
         0.49147E+08
         0.52458E+08
         0.87891E+08
         0.15625E+09
         0.19496E+09
         0.19591E+09
        -0.58416E+08
         0.20440E+08
        -0.38741E+08
        -0.15742E+09
         0.12832E+09
         0.15523E+09
         0.10457E+09
        -0.70077E+08
        -0.52043E+08
        -0.70372E+08
        -0.19908E+08
         0.28664E+08
         0.11731E+09
        -0.17000E+09
        -0.67421E+08
         0.15290E+09
         0.15992E+09
        -0.11258E+09
        -0.48714E+08
        -0.13565E+09
        -0.17731E+09
        -0.17963E+09
        -0.18172E+09
        -0.15627E+09
         0.54408E+08
         0.74412E+08
        -0.17426E+09
         0.37062E+08
        -0.14543E+09
        -0.84422E+08
         0.13702E+09
         0.16103E+09
        -0.12677E+09
        -0.13045E+09
         0.18220E+09
         0.16144E+09
         0.14572E+09
        -0.92541E+08
        -0.21981E+08
        -0.62795E+08
        -0.16217E+09
        -0.18310E+09
        -0.17747E+09
        -0.16200E+09
        -0.13832E+09
        -0.60368E+08
         0.96736E+08
         0.13425E+09
        -0.18717E+08
         0.21342E+08
         0.14130E+09
         0.17672E+09
         0.20313E+09
         0.20028E+09
         0.17259E+09
         0.14348E+09
         0.10078E+09
         0.43637E+08
        -0.11515E+08
        -0.41082E+08
        -0.54118E+08
        -0.94034E+08
        -0.17039E+09
        -0.20350E+09
        -0.20285E+09
        -0.20204E+09
        -0.20450E+09
        -0.19782E+09
        -0.17436E+09
        -0.15240E+09
        -0.80171E+08
         0.20547E+08
         0.49113E+08
         0.52440E+08
         0.87856E+08
         0.15625E+09
         0.19496E+09
         0.19592E+09
        -0.58473E+08
         0.20539E+08
        -0.38762E+08
        -0.15729E+09
         0.12825E+09
         0.15517E+09
         0.10492E+09
        -0.69837E+08
        -0.51992E+08
        -0.70128E+08
        -0.19306E+08
         0.28732E+08
         0.11733E+09
        -0.16994E+09
        -0.67317E+08
         0.15294E+09
         0.15983E+09
        -0.11225E+09
        -0.48667E+08
        -0.13543E+09
        -0.17728E+09
        -0.17963E+09
        -0.18172E+09
        -0.15630E+09
         0.54351E+08
         0.74570E+08
        -0.17425E+09
         0.36122E+08
        -0.14637E+09
        -0.84393E+08
         0.13711E+09
         0.16111E+09
        -0.12637E+09
        -0.13037E+09
         0.18222E+09
         0.16141E+09
         0.14571E+09
        -0.92541E+08
        -0.22127E+08
        -0.62902E+08
        -0.16217E+09
        -0.18312E+09
        -0.17747E+09
        -0.16195E+09
        -0.13827E+09
        -0.60335E+08
         0.96689E+08
         0.13427E+09
        -0.18550E+08
         0.21319E+08
         0.14129E+09
         0.17672E+09
         0.20313E+09
         0.20027E+09
         0.17258E+09
         0.14348E+09
         0.10077E+09
         0.43637E+08
        -0.11531E+08
        -0.41116E+08
        -0.54085E+08
        -0.94024E+08
        -0.17038E+09
        -0.20350E+09
        -0.20285E+09
        -0.20203E+09
        -0.20451E+09
        -0.19783E+09
        -0.17434E+09
        -0.15239E+09
        -0.80152E+08
         0.20554E+08
         0.49078E+08
         0.52422E+08
         0.87821E+08
         0.15625E+09
         0.19496E+09
         0.19592E+09
        -0.58531E+08
         0.20637E+08
        -0.38782E+08
        -0.15716E+09
         0.12818E+09
         0.15510E+09
         0.10526E+09
        -0.69596E+08
        -0.51938E+08
        -0.69877E+08
        -0.18707E+08
         0.28800E+08
         0.11736E+09
        -0.16988E+09
        -0.67211E+08
         0.15299E+09
         0.15973E+09
        -0.11192E+09
        -0.48614E+08
        -0.13520E+09
        -0.17725E+09
        -0.17962E+09
        -0.18172E+09
        -0.15634E+09
         0.54285E+08
         0.74722E+08
        -0.17424E+09
         0.35155E+08
        -0.14730E+09
        -0.84367E+08
         0.13721E+09
         0.16119E+09
        -0.12596E+09
        -0.13029E+09
         0.18223E+09
         0.16138E+09
         0.14569E+09
        -0.92537E+08
        -0.22277E+08
        -0.63012E+08
        -0.16215E+09
        -0.18314E+09
        -0.17747E+09
        -0.16191E+09
        -0.13822E+09
        -0.60303E+08
         0.96641E+08
         0.13429E+09
        -0.18380E+08
         0.21298E+08
         0.14127E+09
         0.17671E+09
         0.20313E+09
         0.20026E+09
         0.17256E+09
         0.14348E+09
         0.10075E+09
         0.43638E+08
        -0.11547E+08
        -0.41149E+08
        -0.54053E+08
        -0.94014E+08
        -0.17038E+09
        -0.20349E+09
        -0.20285E+09
        -0.20203E+09
        -0.20451E+09
        -0.19783E+09
        -0.17433E+09
        -0.15238E+09
        -0.80134E+08
         0.20561E+08
         0.49043E+08
         0.52404E+08
         0.87786E+08
         0.15625E+09
         0.19496E+09
         0.19593E+09
        -0.58588E+08
         0.20736E+08
        -0.38803E+08
        -0.15704E+09
         0.12811E+09
         0.15504E+09
         0.10559E+09
        -0.69357E+08
        -0.51881E+08
        -0.69626E+08
        -0.18112E+08
         0.28867E+08
         0.11738E+09
        -0.16983E+09
        -0.67106E+08
         0.15304E+09
         0.15963E+09
        -0.11159E+09
        -0.48560E+08
        -0.13499E+09
        -0.17721E+09
        -0.17962E+09
        -0.18171E+09
        -0.15637E+09
         0.54217E+08
         0.74873E+08
        -0.17423E+09
         0.34184E+08
        -0.14822E+09
        -0.84342E+08
         0.13730E+09
         0.16126E+09
        -0.12556E+09
        -0.13021E+09
         0.18225E+09
         0.16135E+09
         0.14568E+09
        -0.92532E+08
        -0.22429E+08
        -0.63120E+08
        -0.16214E+09
        -0.18316E+09
        -0.17747E+09
        -0.16187E+09
        -0.13816E+09
        -0.60272E+08
         0.96595E+08
         0.13432E+09
        -0.18212E+08
         0.21274E+08
         0.14126E+09
         0.17670E+09
         0.20312E+09
         0.20026E+09
         0.17255E+09
         0.14348E+09
         0.10073E+09
         0.43637E+08
        -0.11563E+08
        -0.41182E+08
        -0.54021E+08
        -0.94004E+08
        -0.17037E+09
        -0.20349E+09
        -0.20285E+09
        -0.20203E+09
        -0.20452E+09
        -0.19783E+09
        -0.17431E+09
        -0.15238E+09
        -0.80115E+08
         0.20569E+08
         0.49009E+08
         0.52386E+08
         0.87752E+08
         0.15625E+09
         0.19496E+09
         0.19594E+09
        -0.56460E+08
         0.18679E+08
        -0.34549E+08
        -0.13023E+09
         0.12160E+09
         0.14148E+09
         0.76771E+08
        -0.65800E+08
        -0.47459E+08
        -0.65885E+08
        -0.13897E+08
         0.28298E+08
         0.11398E+09
        -0.15095E+09
        -0.65687E+08
         0.14366E+09
         0.12757E+09
        -0.96885E+08
        -0.41321E+08
        -0.98553E+08
        -0.17303E+09
        -0.17473E+09
        -0.17703E+09
        -0.12209E+09
         0.48391E+08
         0.65845E+08
        -0.15511E+09
         0.26980E+08
        -0.99524E+08
        -0.75329E+08
         0.12597E+09
         0.12093E+09
        -0.10278E+09
        -0.10171E+09
         0.17563E+09
         0.14867E+09
         0.13849E+09
        -0.90131E+08
        -0.21690E+08
        -0.60397E+08
        -0.15810E+09
        -0.17821E+09
        -0.17310E+09
        -0.15654E+09
        -0.13201E+09
        -0.58328E+08
         0.90957E+08
         0.12510E+09
        -0.16310E+08
         0.19586E+08
         0.13601E+09
         0.16516E+09
         0.20181E+09
         0.19907E+09
         0.17160E+09
         0.14274E+09
         0.10023E+09
         0.43428E+08
        -0.11523E+08
        -0.40944E+08
        -0.53619E+08
        -0.93400E+08
        -0.16933E+09
        -0.20236E+09
        -0.20152E+09
        -0.20071E+09
        -0.20341E+09
        -0.19686E+09
        -0.17349E+09
        -0.15167E+09
        -0.79631E+08
         0.20467E+08
         0.48699E+08
         0.52054E+08
         0.87222E+08
         0.15532E+09
         0.19389E+09
         0.19484E+09
        -0.28170E+08
         0.63012E+07
        -0.11295E+08
        -0.35720E+08
         0.54077E+08
         0.50804E+08
         0.17514E+08
        -0.29626E+08
        -0.17293E+08
        -0.29149E+08
        -0.34549E+07
         0.16950E+08
         0.61726E+08
        -0.48912E+08
        -0.40302E+08
         0.59128E+08
         0.32824E+08
        -0.20174E+08
        -0.11961E+08
        -0.19982E+08
        -0.10068E+09
        -0.97007E+08
        -0.99739E+08
        -0.30183E+08
         0.16007E+08
         0.12611E+08
        -0.50481E+08
         0.44642E+07
        -0.20310E+08
        -0.24926E+08
         0.46039E+08
         0.28394E+08
        -0.27503E+08
        -0.25308E+08
         0.87892E+08
         0.55542E+08
         0.61999E+08
        -0.50791E+08
        -0.10675E+08
        -0.28186E+08
        -0.90431E+08
        -0.99016E+08
        -0.99426E+08
        -0.81216E+08
        -0.61407E+08
        -0.30569E+08
         0.38197E+08
         0.49230E+08
        -0.55641E+07
         0.73301E+07
         0.67674E+08
         0.66469E+08
         0.16131E+09
         0.16202E+09
         0.14112E+09
         0.11848E+09
         0.84058E+08
         0.36685E+08
        -0.96142E+07
        -0.32915E+08
        -0.42509E+08
        -0.75144E+08
        -0.13687E+09
        -0.16638E+09
        -0.16122E+09
        -0.16102E+09
        -0.16787E+09
        -0.16494E+09
        -0.14648E+09
        -0.12814E+09
        -0.64804E+08
         0.16815E+08
         0.39711E+08
         0.42209E+08
         0.71309E+08
         0.12620E+09
         0.15965E+09
         0.15988E+09
  
SCALARS                      stress_xy  double 1
LOOKUP_TABLE default
        -0.73632E+00
        -0.17282E+01
        -0.14818E+02
         0.52324E+00
        -0.12445E-08
         0.12163E-09
         0.18286E-08
         0.27856E-09
        -0.15634E+03
         0.68687E+02
         0.81398E-08
         0.64548E-08
         0.58519E+01
        -0.12142E+01
         0.71847E-09
        -0.21579E-09
         0.16816E+01
         0.29364E+02
         0.35768E-10
         0.54506E-09
        -0.22344E+02
        -0.14178E+03
        -0.13947E+03
         0.55423E-08
         0.44137E-08
        -0.64453E-08
        -0.14761E+02
        -0.12337E+03
         0.74626E-08
         0.11484E-07
        -0.44969E+01
         0.87135E+01
         0.70728E+00
        -0.39389E-09
         0.15539E-08
        -0.19874E-10
        -0.39667E+02
        -0.18441E+02
         0.41586E-08
         0.34450E-08
        -0.77748E+02
        -0.70171E+02
         0.70893E-08
         0.47778E-08
        -0.75396E+02
        -0.13840E+02
        -0.25826E-09
         0.19227E-08
         0.20133E+02
         0.56824E-09
        -0.47156E+01
        -0.12811E-10
         0.12383E+01
         0.42950E-08
         0.61317E+01
         0.66091E-09
         0.87494E+02
        -0.42590E+01
         0.15360E-10
        -0.75352E-10
         0.58231E+00
        -0.58631E+02
         0.41856E-09
         0.10736E-08
         0.25189E+01
        -0.84984E-10
         0.36212E+02
         0.68097E-09
        -0.19365E+03
        -0.70297E+02
         0.52600E-09
        -0.50370E-08
        -0.15811E+03
        -0.80536E-08
         0.64747E+02
         0.53942E-08
         0.20450E+03
         0.80365E-09
         0.35710E+03
         0.10451E-08
         0.69275E+03
         0.37743E+03
         0.24569E-08
        -0.62299E-09
         0.46595E+02
        -0.74969E-10
        -0.14289E+03
        -0.67615E-08
        -0.21038E+03
        -0.75498E-08
        -0.46290E+03
        -0.21106E+03
        -0.47791E-08
         0.53048E-08
         0.33928E+02
         0.48302E-08
         0.83554E+02
         0.20749E-08
         0.19525E+03
         0.55092E-08
         0.48030E+03
         0.27390E+03
         0.11813E-07
         0.59064E-08
        -0.78958E+03
         0.33083E+03
        -0.76750E-08
         0.93990E-08
        -0.19226E+04
        -0.21813E-07
        -0.25075E+04
        -0.23844E-07
        -0.22033E+04
        -0.16183E-07
        -0.18789E+04
        -0.17165E-08
        -0.82132E+03
         0.48381E-08
         0.10821E+04
         0.29955E-08
         0.24318E+04
         0.27384E-08
         0.32151E+04
         0.58754E-08
         0.31526E+04
         0.71435E-08
         0.25848E+04
         0.28144E-08
         0.13771E+04
         0.17159E-08
        -0.94297E+02
         0.28046E-08
        -0.11457E+04
         0.18800E-08
        -0.18477E+04
        -0.67042E-08
        -0.25221E+04
        -0.17591E-07
        -0.22589E+04
        -0.22325E-07
        -0.14507E+04
        -0.13817E-07
        -0.15891E+03
         0.26360E-08
         0.10734E+04
         0.55868E-08
         0.15522E+04
         0.89036E-08
         0.18993E+04
         0.17533E-07
         0.17025E+04
         0.22751E-07
         0.15846E+04
         0.16164E-07
         0.13087E+04
         0.12783E-07
        -0.82459E+02
         0.22380E+02
         0.22901E+02
        -0.14155E+02
         0.18373E+03
         0.15034E+03
         0.24073E+01
        -0.54222E+02
        -0.23717E+02
        -0.62460E+02
        -0.18026E+02
        -0.33304E+03
        -0.47492E+03
         0.17620E+02
         0.27037E+03
        -0.35606E+02
         0.26544E+02
         0.78574E+01
         0.16243E+02
        -0.13183E+02
         0.66341E+02
         0.58146E+02
        -0.17695E+03
         0.46323E+01
         0.39700E+02
         0.43745E+01
         0.73079E+00
         0.14324E+01
         0.17815E+02
        -0.58943E+02
        -0.31072E+02
         0.66822E+01
         0.10649E+02
        -0.84488E+00
        -0.44469E+02
        -0.15345E+03
        -0.31116E+03
         0.47124E+03
         0.24530E+03
         0.44369E+03
         0.85980E+03
         0.19889E+03
        -0.16009E+03
        -0.32303E+03
        -0.38364E+03
        -0.49084E+03
         0.60432E+02
         0.18043E+03
         0.55690E+02
         0.18804E+03
         0.58981E+03
         0.22663E+03
        -0.20091E+04
         0.25353E+04
        -0.61369E+04
        -0.72131E+04
        -0.68460E+04
        -0.41404E+04
         0.24701E+03
         0.26851E+04
         0.38930E+04
         0.63165E+04
         0.66521E+04
         0.35538E+04
         0.14326E+04
         0.60573E+03
        -0.97973E+03
        -0.38711E+04
        -0.64630E+04
        -0.73867E+04
        -0.45302E+04
         0.82105E+03
         0.29726E+04
         0.31327E+04
         0.49353E+04
         0.54818E+04
         0.41532E+04
         0.38323E+04
        -0.29967E+06
         0.86869E+05
        -0.16648E+06
        -0.18819E+06
         0.49736E+06
         0.34897E+06
         0.23479E+06
        -0.36952E+06
        -0.23368E+06
        -0.36494E+06
         0.11363E+06
        -0.16719E+06
        -0.53446E+06
         0.19034E+06
         0.39588E+06
        -0.37531E+06
         0.15989E+06
         0.11373E+06
         0.19494E+06
         0.11713E+06
         0.27900E+06
         0.21153E+06
        -0.12684E+06
         0.19933E+06
         0.23999E+06
        -0.93618E+05
         0.43190E+05
        -0.31446E+05
        -0.12660E+06
        -0.35381E+06
        -0.39463E+06
        -0.15065E+06
         0.29672E+06
         0.26260E+06
         0.81955E+05
        -0.32925E+06
        -0.47049E+06
         0.48207E+06
         0.11351E+06
         0.32879E+06
         0.47630E+06
        -0.14436E+06
        -0.28723E+06
        -0.40778E+06
        -0.49152E+06
        -0.33966E+06
         0.44420E+06
         0.45255E+06
        -0.10165E+06
         0.11152E+06
         0.51657E+06
         0.64898E+05
        -0.24745E+06
         0.34178E+06
        -0.65903E+06
        -0.71177E+06
        -0.61070E+06
        -0.29685E+06
         0.77777E+05
         0.27209E+06
         0.35992E+06
         0.57741E+06
         0.66792E+06
         0.26621E+06
         0.12550E+06
         0.11213E+06
        -0.48264E+05
        -0.37239E+06
        -0.63679E+06
        -0.71498E+06
        -0.50857E+06
         0.13967E+06
         0.32787E+06
         0.34491E+06
         0.54423E+06
         0.69123E+06
         0.43643E+06
         0.41829E+06
        -0.30004E+06
         0.87179E+05
        -0.16674E+06
        -0.18937E+06
         0.49731E+06
         0.34923E+06
         0.23585E+06
        -0.36861E+06
        -0.23376E+06
        -0.36423E+06
         0.11140E+06
        -0.16759E+06
        -0.53454E+06
         0.19057E+06
         0.39543E+06
        -0.37526E+06
         0.16119E+06
         0.11324E+06
         0.19483E+06
         0.11627E+06
         0.27962E+06
         0.21173E+06
        -0.12688E+06
         0.19925E+06
         0.24011E+06
        -0.93603E+05
         0.43689E+05
        -0.31027E+05
        -0.12665E+06
        -0.35385E+06
        -0.39471E+06
        -0.15035E+06
         0.29675E+06
         0.26289E+06
         0.81162E+05
        -0.32947E+06
        -0.47050E+06
         0.48224E+06
         0.11439E+06
         0.32941E+06
         0.47640E+06
        -0.14392E+06
        -0.28748E+06
        -0.40795E+06
        -0.49153E+06
        -0.33952E+06
         0.44415E+06
         0.45248E+06
        -0.10099E+06
         0.11123E+06
         0.51653E+06
         0.63983E+05
        -0.24729E+06
         0.34186E+06
        -0.65910E+06
        -0.71177E+06
        -0.61062E+06
        -0.29684E+06
         0.77890E+05
         0.27231E+06
         0.35971E+06
         0.57734E+06
         0.66788E+06
         0.26632E+06
         0.12550E+06
         0.11236E+06
        -0.47867E+05
        -0.37251E+06
        -0.63690E+06
        -0.71501E+06
        -0.50848E+06
         0.13974E+06
         0.32767E+06
         0.34479E+06
         0.54403E+06
         0.69113E+06
         0.43618E+06
         0.41796E+06
        -0.30041E+06
         0.87483E+05
        -0.16701E+06
        -0.19057E+06
         0.49727E+06
         0.34950E+06
         0.23691E+06
        -0.36770E+06
        -0.23383E+06
        -0.36351E+06
         0.10917E+06
        -0.16799E+06
        -0.53462E+06
         0.19078E+06
         0.39499E+06
        -0.37520E+06
         0.16249E+06
         0.11275E+06
         0.19471E+06
         0.11541E+06
         0.28025E+06
         0.21193E+06
        -0.12693E+06
         0.19915E+06
         0.24027E+06
        -0.93577E+05
         0.44224E+05
        -0.30620E+05
        -0.12662E+06
        -0.35389E+06
        -0.39479E+06
        -0.14999E+06
         0.29676E+06
         0.26317E+06
         0.80365E+05
        -0.32969E+06
        -0.47050E+06
         0.48241E+06
         0.11527E+06
         0.33004E+06
         0.47651E+06
        -0.14345E+06
        -0.28771E+06
        -0.40814E+06
        -0.49155E+06
        -0.33938E+06
         0.44411E+06
         0.45240E+06
        -0.10031E+06
         0.11093E+06
         0.51648E+06
         0.63070E+05
        -0.24714E+06
         0.34194E+06
        -0.65917E+06
        -0.71177E+06
        -0.61054E+06
        -0.29683E+06
         0.78005E+05
         0.27253E+06
         0.35949E+06
         0.57726E+06
         0.66785E+06
         0.26644E+06
         0.12550E+06
         0.11259E+06
        -0.47467E+05
        -0.37262E+06
        -0.63701E+06
        -0.71504E+06
        -0.50838E+06
         0.13981E+06
         0.32748E+06
         0.34469E+06
         0.54383E+06
         0.69104E+06
         0.43593E+06
         0.41762E+06
        -0.30078E+06
         0.87798E+05
        -0.16726E+06
        -0.19177E+06
         0.49722E+06
         0.34977E+06
         0.23796E+06
        -0.36678E+06
        -0.23387E+06
        -0.36275E+06
         0.10694E+06
        -0.16840E+06
        -0.53470E+06
         0.19101E+06
         0.39454E+06
        -0.37514E+06
         0.16382E+06
         0.11226E+06
         0.19461E+06
         0.11450E+06
         0.28088E+06
         0.21211E+06
        -0.12704E+06
         0.19898E+06
         0.24053E+06
        -0.93528E+05
         0.44778E+05
        -0.30281E+05
        -0.12634E+06
        -0.35393E+06
        -0.39487E+06
        -0.14951E+06
         0.29675E+06
         0.26345E+06
         0.79574E+05
        -0.32990E+06
        -0.47051E+06
         0.48257E+06
         0.11614E+06
         0.33064E+06
         0.47665E+06
        -0.14285E+06
        -0.28788E+06
        -0.40842E+06
        -0.49160E+06
        -0.33922E+06
         0.44406E+06
         0.45232E+06
        -0.99629E+05
         0.11063E+06
         0.51643E+06
         0.62157E+05
        -0.24699E+06
         0.34201E+06
        -0.65924E+06
        -0.71177E+06
        -0.61046E+06
        -0.29682E+06
         0.78121E+05
         0.27274E+06
         0.35928E+06
         0.57719E+06
         0.66782E+06
         0.26658E+06
         0.12551E+06
         0.11282E+06
        -0.47064E+05
        -0.37275E+06
        -0.63714E+06
        -0.71507E+06
        -0.50828E+06
         0.13988E+06
         0.32728E+06
         0.34458E+06
         0.54362E+06
         0.69094E+06
         0.43568E+06
         0.41728E+06
        -0.30115E+06
         0.88114E+05
        -0.16752E+06
        -0.19296E+06
         0.49718E+06
         0.35004E+06
         0.23901E+06
        -0.36586E+06
        -0.23388E+06
        -0.36196E+06
         0.10470E+06
        -0.16881E+06
        -0.53479E+06
         0.19125E+06
         0.39409E+06
        -0.37508E+06
         0.16516E+06
         0.11177E+06
         0.19448E+06
         0.11356E+06
         0.28152E+06
         0.21227E+06
        -0.12720E+06
         0.19875E+06
         0.24089E+06
        -0.93440E+05
         0.45395E+05
        -0.30004E+05
        -0.12582E+06
        -0.35397E+06
        -0.39493E+06
        -0.14887E+06
         0.29674E+06
         0.26374E+06
         0.78776E+05
        -0.33012E+06
        -0.47052E+06
         0.48273E+06
         0.11700E+06
         0.33124E+06
         0.47682E+06
        -0.14213E+06
        -0.28799E+06
        -0.40880E+06
        -0.49169E+06
        -0.33904E+06
         0.44402E+06
         0.45226E+06
        -0.98951E+05
         0.11034E+06
         0.51639E+06
         0.61236E+05
        -0.24683E+06
         0.34209E+06
        -0.65931E+06
        -0.71177E+06
        -0.61038E+06
        -0.29681E+06
         0.78235E+05
         0.27296E+06
         0.35906E+06
         0.57711E+06
         0.66780E+06
         0.26675E+06
         0.12553E+06
         0.11304E+06
        -0.46660E+05
        -0.37288E+06
        -0.63729E+06
        -0.71511E+06
        -0.50818E+06
         0.13995E+06
         0.32708E+06
         0.34447E+06
         0.54342E+06
         0.69084E+06
         0.43542E+06
         0.41695E+06
        -0.30150E+06
         0.88458E+05
        -0.16775E+06
        -0.19416E+06
         0.49713E+06
         0.35030E+06
         0.24005E+06
        -0.36493E+06
        -0.23389E+06
        -0.36118E+06
         0.10245E+06
        -0.16921E+06
        -0.53487E+06
         0.19151E+06
         0.39364E+06
        -0.37502E+06
         0.16652E+06
         0.11128E+06
         0.19435E+06
         0.11261E+06
         0.28215E+06
         0.21241E+06
        -0.12738E+06
         0.19850E+06
         0.24126E+06
        -0.93338E+05
         0.46060E+05
        -0.29748E+05
        -0.12518E+06
        -0.35404E+06
        -0.39498E+06
        -0.14816E+06
         0.29672E+06
         0.26403E+06
         0.77972E+05
        -0.33034E+06
        -0.47054E+06
         0.48289E+06
         0.11785E+06
         0.33183E+06
         0.47700E+06
        -0.14137E+06
        -0.28808E+06
        -0.40920E+06
        -0.49179E+06
        -0.33887E+06
         0.44397E+06
         0.45220E+06
        -0.98245E+05
         0.11007E+06
         0.51634E+06
         0.60312E+05
        -0.24667E+06
         0.34217E+06
        -0.65938E+06
        -0.71178E+06
        -0.61030E+06
        -0.29680E+06
         0.78348E+05
         0.27318E+06
         0.35885E+06
         0.57704E+06
         0.66778E+06
         0.26692E+06
         0.12555E+06
         0.11327E+06
        -0.46256E+05
        -0.37301E+06
        -0.63744E+06
        -0.71515E+06
        -0.50808E+06
         0.14001E+06
         0.32688E+06
         0.34435E+06
         0.54322E+06
         0.69074E+06
         0.43517E+06
         0.41661E+06
        -0.30183E+06
         0.88878E+05
        -0.16791E+06
        -0.19539E+06
         0.49709E+06
         0.35057E+06
         0.24107E+06
        -0.36401E+06
        -0.23390E+06
        -0.36042E+06
         0.10019E+06
        -0.16961E+06
        -0.53495E+06
         0.19188E+06
         0.39319E+06
        -0.37498E+06
         0.16791E+06
         0.11078E+06
         0.19423E+06
         0.11167E+06
         0.28278E+06
         0.21256E+06
        -0.12756E+06
         0.19825E+06
         0.24155E+06
        -0.93202E+05
         0.46843E+05
        -0.29487E+05
        -0.12450E+06
        -0.35413E+06
        -0.39503E+06
        -0.14740E+06
         0.29669E+06
         0.26432E+06
         0.77167E+05
        -0.33058E+06
        -0.47056E+06
         0.48304E+06
         0.11871E+06
         0.33244E+06
         0.47718E+06
        -0.14059E+06
        -0.28816E+06
        -0.40960E+06
        -0.49189E+06
        -0.33871E+06
         0.44388E+06
         0.45219E+06
        -0.97464E+05
         0.10988E+06
         0.51629E+06
         0.59374E+05
        -0.24652E+06
         0.34225E+06
        -0.65944E+06
        -0.71178E+06
        -0.61022E+06
        -0.29679E+06
         0.78461E+05
         0.27340E+06
         0.35864E+06
         0.57697E+06
         0.66776E+06
         0.26710E+06
         0.12557E+06
         0.11349E+06
        -0.45852E+05
        -0.37315E+06
        -0.63760E+06
        -0.71519E+06
        -0.50798E+06
         0.14006E+06
         0.32666E+06
         0.34424E+06
         0.54303E+06
         0.69065E+06
         0.43492E+06
         0.41628E+06
        -0.30214E+06
         0.89322E+05
        -0.16805E+06
        -0.19663E+06
         0.49705E+06
         0.35084E+06
         0.24208E+06
        -0.36309E+06
        -0.23392E+06
        -0.35969E+06
         0.97913E+05
        -0.17001E+06
        -0.53503E+06
         0.19227E+06
         0.39273E+06
        -0.37494E+06
         0.16932E+06
         0.11029E+06
         0.19411E+06
         0.11074E+06
         0.28342E+06
         0.21271E+06
        -0.12773E+06
         0.19800E+06
         0.24180E+06
        -0.93053E+05
         0.47656E+05
        -0.29217E+05
        -0.12380E+06
        -0.35423E+06
        -0.39506E+06
        -0.14661E+06
         0.29665E+06
         0.26462E+06
         0.76354E+05
        -0.33082E+06
        -0.47059E+06
         0.48318E+06
         0.11956E+06
         0.33303E+06
         0.47737E+06
        -0.13981E+06
        -0.28823E+06
        -0.40999E+06
        -0.49200E+06
        -0.33856E+06
         0.44379E+06
         0.45219E+06
        -0.96651E+05
         0.10973E+06
         0.51624E+06
         0.58434E+05
        -0.24636E+06
         0.34233E+06
        -0.65951E+06
        -0.71178E+06
        -0.61014E+06
        -0.29678E+06
         0.78574E+05
         0.27361E+06
         0.35842E+06
         0.57689E+06
         0.66774E+06
         0.26728E+06
         0.12559E+06
         0.11372E+06
        -0.45447E+05
        -0.37328E+06
        -0.63775E+06
        -0.71523E+06
        -0.50788E+06
         0.14011E+06
         0.32644E+06
         0.34413E+06
         0.54284E+06
         0.69055E+06
         0.43466E+06
         0.41594E+06
        -0.30245E+06
         0.89770E+05
        -0.16819E+06
        -0.19787E+06
         0.49700E+06
         0.35110E+06
         0.24308E+06
        -0.36217E+06
        -0.23394E+06
        -0.35897E+06
         0.95642E+05
        -0.17040E+06
        -0.53511E+06
         0.19268E+06
         0.39228E+06
        -0.37490E+06
         0.17073E+06
         0.10979E+06
         0.19398E+06
         0.10980E+06
         0.28405E+06
         0.21287E+06
        -0.12791E+06
         0.19776E+06
         0.24205E+06
        -0.92903E+05
         0.48490E+05
        -0.28932E+05
        -0.12309E+06
        -0.35433E+06
        -0.39510E+06
        -0.14582E+06
         0.29660E+06
         0.26491E+06
         0.75537E+05
        -0.33105E+06
        -0.47061E+06
         0.48333E+06
         0.12042E+06
         0.33363E+06
         0.47755E+06
        -0.13904E+06
        -0.28831E+06
        -0.41039E+06
        -0.49211E+06
        -0.33841E+06
         0.44370E+06
         0.45219E+06
        -0.95835E+05
         0.10958E+06
         0.51620E+06
         0.57487E+05
        -0.24621E+06
         0.34240E+06
        -0.65958E+06
        -0.71178E+06
        -0.61006E+06
        -0.29677E+06
         0.78687E+05
         0.27383E+06
         0.35821E+06
         0.57682E+06
         0.66772E+06
         0.26745E+06
         0.12561E+06
         0.11395E+06
        -0.45043E+05
        -0.37341E+06
        -0.63790E+06
        -0.71527E+06
        -0.50778E+06
         0.14017E+06
         0.32622E+06
         0.34402E+06
         0.54265E+06
         0.69045E+06
         0.43441E+06
         0.41560E+06
        -0.30276E+06
         0.90223E+05
        -0.16833E+06
        -0.19909E+06
         0.49696E+06
         0.35136E+06
         0.24408E+06
        -0.36124E+06
        -0.23395E+06
        -0.35824E+06
         0.93366E+05
        -0.17080E+06
        -0.53519E+06
         0.19307E+06
         0.39182E+06
        -0.37486E+06
         0.17214E+06
         0.10930E+06
         0.19385E+06
         0.10887E+06
         0.28468E+06
         0.21302E+06
        -0.12808E+06
         0.19752E+06
         0.24230E+06
        -0.92752E+05
         0.49300E+05
        -0.28635E+05
        -0.12236E+06
        -0.35443E+06
        -0.39513E+06
        -0.14503E+06
         0.29653E+06
         0.26520E+06
         0.74723E+05
        -0.33129E+06
        -0.47064E+06
         0.48347E+06
         0.12127E+06
         0.33423E+06
         0.47773E+06
        -0.13827E+06
        -0.28839E+06
        -0.41078E+06
        -0.49222E+06
        -0.33826E+06
         0.44360E+06
         0.45220E+06
        -0.95026E+05
         0.10941E+06
         0.51615E+06
         0.56543E+05
        -0.24605E+06
         0.34248E+06
        -0.65964E+06
        -0.71178E+06
        -0.60998E+06
        -0.29676E+06
         0.78799E+05
         0.27404E+06
         0.35799E+06
         0.57675E+06
         0.66770E+06
         0.26762E+06
         0.12564E+06
         0.11418E+06
        -0.44641E+05
        -0.37354E+06
        -0.63805E+06
        -0.71531E+06
        -0.50768E+06
         0.14022E+06
         0.32601E+06
         0.34391E+06
         0.54246E+06
         0.69035E+06
         0.43416E+06
         0.41526E+06
        -0.30307E+06
         0.90673E+05
        -0.16847E+06
        -0.20031E+06
         0.49691E+06
         0.35162E+06
         0.24507E+06
        -0.36032E+06
        -0.23397E+06
        -0.35752E+06
         0.91083E+05
        -0.17121E+06
        -0.53528E+06
         0.19347E+06
         0.39136E+06
        -0.37482E+06
         0.17355E+06
         0.10881E+06
         0.19374E+06
         0.10793E+06
         0.28532E+06
         0.21316E+06
        -0.12826E+06
         0.19729E+06
         0.24254E+06
        -0.92598E+05
         0.50123E+05
        -0.28320E+05
        -0.12161E+06
        -0.35453E+06
        -0.39516E+06
        -0.14424E+06
         0.29646E+06
         0.26550E+06
         0.73904E+05
        -0.33153E+06
        -0.47067E+06
         0.48361E+06
         0.12212E+06
         0.33482E+06
         0.47792E+06
        -0.13750E+06
        -0.28846E+06
        -0.41117E+06
        -0.49232E+06
        -0.33812E+06
         0.44351E+06
         0.45219E+06
        -0.94206E+05
         0.10926E+06
         0.51610E+06
         0.55592E+05
        -0.24589E+06
         0.34255E+06
        -0.65971E+06
        -0.71178E+06
        -0.60990E+06
        -0.29675E+06
         0.78909E+05
         0.27426E+06
         0.35778E+06
         0.57668E+06
         0.66767E+06
         0.26779E+06
         0.12566E+06
         0.11440E+06
        -0.44237E+05
        -0.37368E+06
        -0.63821E+06
        -0.71535E+06
        -0.50758E+06
         0.14026E+06
         0.32579E+06
         0.34379E+06
         0.54227E+06
         0.69025E+06
         0.43391E+06
         0.41492E+06
        -0.30338E+06
         0.91121E+05
        -0.16861E+06
        -0.20154E+06
         0.49687E+06
         0.35189E+06
         0.24605E+06
        -0.35939E+06
        -0.23398E+06
        -0.35679E+06
         0.88802E+05
        -0.17161E+06
        -0.53536E+06
         0.19387E+06
         0.39091E+06
        -0.37478E+06
         0.17496E+06
         0.10831E+06
         0.19362E+06
         0.10700E+06
         0.28595E+06
         0.21330E+06
        -0.12844E+06
         0.19705E+06
         0.24278E+06
        -0.92451E+05
         0.50929E+05
        -0.27994E+05
        -0.12082E+06
        -0.35464E+06
        -0.39519E+06
        -0.14344E+06
         0.29637E+06
         0.26579E+06
         0.73082E+05
        -0.33177E+06
        -0.47070E+06
         0.48375E+06
         0.12296E+06
         0.33542E+06
         0.47810E+06
        -0.13674E+06
        -0.28854E+06
        -0.41156E+06
        -0.49243E+06
        -0.33797E+06
         0.44342E+06
         0.45220E+06
        -0.93384E+05
         0.10911E+06
         0.51606E+06
         0.54642E+05
        -0.24574E+06
         0.34263E+06
        -0.65977E+06
        -0.71178E+06
        -0.60981E+06
        -0.29674E+06
         0.79021E+05
         0.27447E+06
         0.35756E+06
         0.57661E+06
         0.66765E+06
         0.26797E+06
         0.12568E+06
         0.11463E+06
        -0.43831E+05
        -0.37381E+06
        -0.63836E+06
        -0.71538E+06
        -0.50748E+06
         0.14031E+06
         0.32557E+06
         0.34368E+06
         0.54208E+06
         0.69015E+06
         0.43366E+06
         0.41458E+06
        -0.30369E+06
         0.91574E+05
        -0.16874E+06
        -0.20277E+06
         0.49682E+06
         0.35215E+06
         0.24702E+06
        -0.35846E+06
        -0.23399E+06
        -0.35606E+06
         0.86525E+05
        -0.17201E+06
        -0.53544E+06
         0.19425E+06
         0.39044E+06
        -0.37473E+06
         0.17636E+06
         0.10782E+06
         0.19350E+06
         0.10607E+06
         0.28658E+06
         0.21345E+06
        -0.12861E+06
         0.19682E+06
         0.24301E+06
        -0.92294E+05
         0.51757E+05
        -0.27651E+05
        -0.12003E+06
        -0.35473E+06
        -0.39522E+06
        -0.14264E+06
         0.29627E+06
         0.26608E+06
         0.72261E+05
        -0.33201E+06
        -0.47073E+06
         0.48389E+06
         0.12381E+06
         0.33601E+06
         0.47828E+06
        -0.13597E+06
        -0.28861E+06
        -0.41195E+06
        -0.49254E+06
        -0.33781E+06
         0.44332E+06
         0.45220E+06
        -0.92557E+05
         0.10895E+06
         0.51601E+06
         0.53693E+05
        -0.24558E+06
         0.34270E+06
        -0.65984E+06
        -0.71178E+06
        -0.60973E+06
        -0.29673E+06
         0.79134E+05
         0.27469E+06
         0.35735E+06
         0.57653E+06
         0.66763E+06
         0.26814E+06
         0.12571E+06
         0.11486E+06
        -0.43427E+05
        -0.37394E+06
        -0.63851E+06
        -0.71542E+06
        -0.50737E+06
         0.14036E+06
         0.32535E+06
         0.34357E+06
         0.54189E+06
         0.69005E+06
         0.43341E+06
         0.41424E+06
        -0.30400E+06
         0.92018E+05
        -0.16887E+06
        -0.20399E+06
         0.49678E+06
         0.35241E+06
         0.24798E+06
        -0.35753E+06
        -0.23400E+06
        -0.35533E+06
         0.84249E+05
        -0.17240E+06
        -0.53552E+06
         0.19465E+06
         0.38999E+06
        -0.37469E+06
         0.17777E+06
         0.10733E+06
         0.19340E+06
         0.10516E+06
         0.28721E+06
         0.21359E+06
        -0.12878E+06
         0.19659E+06
         0.24324E+06
        -0.92135E+05
         0.52563E+05
        -0.27297E+05
        -0.11922E+06
        -0.35483E+06
        -0.39525E+06
        -0.14184E+06
         0.29615E+06
         0.26638E+06
         0.71436E+05
        -0.33224E+06
        -0.47075E+06
         0.48402E+06
         0.12465E+06
         0.33661E+06
         0.47846E+06
        -0.13521E+06
        -0.28869E+06
        -0.41234E+06
        -0.49265E+06
        -0.33767E+06
         0.44322E+06
         0.45220E+06
        -0.91732E+05
         0.10879E+06
         0.51596E+06
         0.52746E+05
        -0.24542E+06
         0.34278E+06
        -0.65990E+06
        -0.71178E+06
        -0.60965E+06
        -0.29672E+06
         0.79247E+05
         0.27490E+06
         0.35713E+06
         0.57646E+06
         0.66761E+06
         0.26831E+06
         0.12573E+06
         0.11509E+06
        -0.43024E+05
        -0.37407E+06
        -0.63866E+06
        -0.71546E+06
        -0.50727E+06
         0.14041E+06
         0.32513E+06
         0.34346E+06
         0.54170E+06
         0.68995E+06
         0.43317E+06
         0.41390E+06
        -0.30431E+06
         0.92460E+05
        -0.16900E+06
        -0.20520E+06
         0.49673E+06
         0.35267E+06
         0.24894E+06
        -0.35660E+06
        -0.23401E+06
        -0.35460E+06
         0.81970E+05
        -0.17281E+06
        -0.53560E+06
         0.19503E+06
         0.38952E+06
        -0.37465E+06
         0.17917E+06
         0.10684E+06
         0.19328E+06
         0.10423E+06
         0.28784E+06
         0.21374E+06
        -0.12896E+06
         0.19636E+06
         0.24346E+06
        -0.91975E+05
         0.53383E+05
        -0.26926E+05
        -0.11840E+06
        -0.35492E+06
        -0.39527E+06
        -0.14104E+06
         0.29603E+06
         0.26667E+06
         0.70613E+05
        -0.33248E+06
        -0.47078E+06
         0.48415E+06
         0.12549E+06
         0.33721E+06
         0.47865E+06
        -0.13444E+06
        -0.28876E+06
        -0.41273E+06
        -0.49276E+06
        -0.33752E+06
         0.44313E+06
         0.45221E+06
        -0.90891E+05
         0.10864E+06
         0.51592E+06
         0.51792E+05
        -0.24526E+06
         0.34285E+06
        -0.65997E+06
        -0.71178E+06
        -0.60957E+06
        -0.29671E+06
         0.79357E+05
         0.27511E+06
         0.35692E+06
         0.57639E+06
         0.66759E+06
         0.26849E+06
         0.12575E+06
         0.11531E+06
        -0.42620E+05
        -0.37420E+06
        -0.63882E+06
        -0.71550E+06
        -0.50717E+06
         0.14046E+06
         0.32491E+06
         0.34335E+06
         0.54151E+06
         0.68986E+06
         0.43292E+06
         0.41356E+06
        -0.30462E+06
         0.92915E+05
        -0.16914E+06
        -0.20641E+06
         0.49668E+06
         0.35293E+06
         0.24989E+06
        -0.35566E+06
        -0.23402E+06
        -0.35387E+06
         0.79687E+05
        -0.17321E+06
        -0.53569E+06
         0.19542E+06
         0.38906E+06
        -0.37461E+06
         0.18058E+06
         0.10635E+06
         0.19316E+06
         0.10331E+06
         0.28847E+06
         0.21387E+06
        -0.12913E+06
         0.19613E+06
         0.24367E+06
        -0.91814E+05
         0.54181E+05
        -0.26541E+05
        -0.11756E+06
        -0.35502E+06
        -0.39530E+06
        -0.14024E+06
         0.29589E+06
         0.26697E+06
         0.69782E+05
        -0.33272E+06
        -0.47081E+06
         0.48428E+06
         0.12634E+06
         0.33780E+06
         0.47883E+06
        -0.13368E+06
        -0.28884E+06
        -0.41311E+06
        -0.49286E+06
        -0.33737E+06
         0.44303E+06
         0.45221E+06
        -0.90059E+05
         0.10847E+06
         0.51587E+06
         0.50836E+05
        -0.24510E+06
         0.34292E+06
        -0.66003E+06
        -0.71178E+06
        -0.60949E+06
        -0.29670E+06
         0.79466E+05
         0.27532E+06
         0.35670E+06
         0.57632E+06
         0.66757E+06
         0.26866E+06
         0.12577E+06
         0.11554E+06
        -0.42217E+05
        -0.37433E+06
        -0.63897E+06
        -0.71554E+06
        -0.50707E+06
         0.14051E+06
         0.32469E+06
         0.34324E+06
         0.54132E+06
         0.68976E+06
         0.43267E+06
         0.41322E+06
        -0.30493E+06
         0.93361E+05
        -0.16927E+06
        -0.20762E+06
         0.49663E+06
         0.35319E+06
         0.25083E+06
        -0.35473E+06
        -0.23402E+06
        -0.35312E+06
         0.77403E+05
        -0.17361E+06
        -0.53577E+06
         0.19579E+06
         0.38860E+06
        -0.37456E+06
         0.18199E+06
         0.10587E+06
         0.19305E+06
         0.10240E+06
         0.28910E+06
         0.21401E+06
        -0.12930E+06
         0.19590E+06
         0.24387E+06
        -0.91647E+05
         0.55000E+05
        -0.26136E+05
        -0.11669E+06
        -0.35511E+06
        -0.39532E+06
        -0.13943E+06
         0.29574E+06
         0.26726E+06
         0.68951E+05
        -0.33295E+06
        -0.47083E+06
         0.48441E+06
         0.12719E+06
         0.33840E+06
         0.47901E+06
        -0.13292E+06
        -0.28892E+06
        -0.41350E+06
        -0.49297E+06
        -0.33722E+06
         0.44294E+06
         0.45222E+06
        -0.89228E+05
         0.10831E+06
         0.51582E+06
         0.49885E+05
        -0.24494E+06
         0.34299E+06
        -0.66009E+06
        -0.71178E+06
        -0.60941E+06
        -0.29669E+06
         0.79574E+05
         0.27553E+06
         0.35649E+06
         0.57625E+06
         0.66755E+06
         0.26883E+06
         0.12579E+06
         0.11576E+06
        -0.41815E+05
        -0.37446E+06
        -0.63912E+06
        -0.71558E+06
        -0.50697E+06
         0.14055E+06
         0.32447E+06
         0.34313E+06
         0.54113E+06
         0.68966E+06
         0.43243E+06
         0.41288E+06
        -0.30524E+06
         0.93806E+05
        -0.16940E+06
        -0.20883E+06
         0.49658E+06
         0.35344E+06
         0.25177E+06
        -0.35379E+06
        -0.23401E+06
        -0.35235E+06
         0.75120E+05
        -0.17402E+06
        -0.53585E+06
         0.19619E+06
         0.38813E+06
        -0.37452E+06
         0.18342E+06
         0.10537E+06
         0.19295E+06
         0.10153E+06
         0.28972E+06
         0.21414E+06
        -0.12948E+06
         0.19567E+06
         0.24404E+06
        -0.91491E+05
         0.55814E+05
        -0.25701E+05
        -0.11580E+06
        -0.35522E+06
        -0.39535E+06
        -0.13861E+06
         0.29557E+06
         0.26755E+06
         0.68121E+05
        -0.33319E+06
        -0.47086E+06
         0.48452E+06
         0.12807E+06
         0.33900E+06
         0.47920E+06
        -0.13217E+06
        -0.28902E+06
        -0.41388E+06
        -0.49308E+06
        -0.33707E+06
         0.44285E+06
         0.45222E+06
        -0.88399E+05
         0.10815E+06
         0.51578E+06
         0.48931E+05
        -0.24478E+06
         0.34306E+06
        -0.66015E+06
        -0.71178E+06
        -0.60933E+06
        -0.29668E+06
         0.79683E+05
         0.27574E+06
         0.35628E+06
         0.57618E+06
         0.66753E+06
         0.26900E+06
         0.12580E+06
         0.11598E+06
        -0.41414E+05
        -0.37459E+06
        -0.63927E+06
        -0.71561E+06
        -0.50687E+06
         0.14060E+06
         0.32425E+06
         0.34302E+06
         0.54094E+06
         0.68956E+06
         0.43219E+06
         0.41254E+06
        -0.30555E+06
         0.94248E+05
        -0.16953E+06
        -0.21003E+06
         0.49653E+06
         0.35370E+06
         0.25269E+06
        -0.35285E+06
        -0.23398E+06
        -0.35154E+06
         0.72841E+05
        -0.17442E+06
        -0.53593E+06
         0.19658E+06
         0.38766E+06
        -0.37448E+06
         0.18486E+06
         0.10489E+06
         0.19284E+06
         0.10069E+06
         0.29035E+06
         0.21427E+06
        -0.12965E+06
         0.19545E+06
         0.24416E+06
        -0.91321E+05
         0.56665E+05
        -0.25231E+05
        -0.11491E+06
        -0.35533E+06
        -0.39537E+06
        -0.13781E+06
         0.29539E+06
         0.26785E+06
         0.67285E+05
        -0.33343E+06
        -0.47088E+06
         0.48462E+06
         0.12897E+06
         0.33960E+06
         0.47939E+06
        -0.13142E+06
        -0.28912E+06
        -0.41426E+06
        -0.49319E+06
        -0.33692E+06
         0.44275E+06
         0.45222E+06
        -0.87558E+05
         0.10799E+06
         0.51573E+06
         0.47969E+05
        -0.24462E+06
         0.34314E+06
        -0.66022E+06
        -0.71178E+06
        -0.60925E+06
        -0.29668E+06
         0.79792E+05
         0.27595E+06
         0.35607E+06
         0.57611E+06
         0.66752E+06
         0.26917E+06
         0.12579E+06
         0.11621E+06
        -0.41011E+05
        -0.37472E+06
        -0.63943E+06
        -0.71565E+06
        -0.50677E+06
         0.14065E+06
         0.32403E+06
         0.34291E+06
         0.54075E+06
         0.68946E+06
         0.43195E+06
         0.41220E+06
        -0.30586E+06
         0.94694E+05
        -0.16966E+06
        -0.21123E+06
         0.49649E+06
         0.35395E+06
         0.25361E+06
        -0.35192E+06
        -0.23394E+06
        -0.35073E+06
         0.70575E+05
        -0.17481E+06
        -0.53601E+06
         0.19695E+06
         0.38719E+06
        -0.37444E+06
         0.18630E+06
         0.10440E+06
         0.19272E+06
         0.99874E+05
         0.29098E+06
         0.21439E+06
        -0.12981E+06
         0.19524E+06
         0.24427E+06
        -0.91163E+05
         0.57494E+05
        -0.24738E+05
        -0.11400E+06
        -0.35543E+06
        -0.39539E+06
        -0.13701E+06
         0.29521E+06
         0.26814E+06
         0.66456E+05
        -0.33365E+06
        -0.47090E+06
         0.48471E+06
         0.12989E+06
         0.34019E+06
         0.47958E+06
        -0.13068E+06
        -0.28923E+06
        -0.41464E+06
        -0.49329E+06
        -0.33677E+06
         0.44266E+06
         0.45223E+06
        -0.86726E+05
         0.10783E+06
         0.51568E+06
         0.47010E+05
        -0.24446E+06
         0.34321E+06
        -0.66028E+06
        -0.71178E+06
        -0.60917E+06
        -0.29666E+06
         0.79899E+05
         0.27615E+06
         0.35587E+06
         0.57604E+06
         0.66752E+06
         0.26933E+06
         0.12578E+06
         0.11643E+06
        -0.40607E+05
        -0.37484E+06
        -0.63958E+06
        -0.71569E+06
        -0.50666E+06
         0.14070E+06
         0.32381E+06
         0.34280E+06
         0.54056E+06
         0.68936E+06
         0.43171E+06
         0.41185E+06
        -0.28628E+06
         0.80401E+05
        -0.14220E+06
        -0.16646E+06
         0.45270E+06
         0.30512E+06
         0.17132E+06
        -0.32150E+06
        -0.20368E+06
        -0.31926E+06
         0.49047E+05
        -0.16801E+06
        -0.50704E+06
         0.16258E+06
         0.37226E+06
        -0.33741E+06
         0.14013E+06
         0.90130E+05
         0.15271E+06
         0.69600E+05
         0.27888E+06
         0.20375E+06
        -0.12372E+06
         0.14277E+06
         0.20434E+06
        -0.79752E+05
         0.48132E+05
        -0.19350E+05
        -0.70548E+05
        -0.29654E+06
        -0.34528E+06
        -0.96700E+05
         0.22875E+06
         0.19770E+06
         0.61322E+05
        -0.29061E+06
        -0.43011E+06
         0.46116E+06
         0.12141E+06
         0.31320E+06
         0.45727E+06
        -0.12353E+06
        -0.27618E+06
        -0.39039E+06
        -0.45476E+06
        -0.31680E+06
         0.39816E+06
         0.40056E+06
        -0.73049E+05
         0.93909E+05
         0.48075E+06
         0.41005E+05
        -0.24131E+06
         0.33956E+06
        -0.65358E+06
        -0.70488E+06
        -0.60358E+06
        -0.29406E+06
         0.79262E+05
         0.27299E+06
         0.35109E+06
         0.56918E+06
         0.65986E+06
         0.26664E+06
         0.12419E+06
         0.11521E+06
        -0.39816E+05
        -0.37150E+06
        -0.63417E+06
        -0.70961E+06
        -0.50107E+06
         0.13932E+06
         0.32013E+06
         0.33883E+06
         0.53463E+06
         0.68160E+06
         0.42705E+06
         0.40722E+06
        -0.75595E+05
         0.10813E+05
        -0.18286E+05
        -0.17312E+05
         0.94772E+05
         0.44578E+05
         0.12511E+05
        -0.69375E+05
        -0.31661E+05
        -0.66717E+05
         0.38697E+04
        -0.61163E+05
        -0.15235E+06
         0.19247E+05
         0.14217E+06
        -0.64355E+05
         0.12738E+05
         0.68044E+04
         0.16044E+05
         0.43424E+04
         0.96741E+05
         0.64496E+05
        -0.40347E+05
         0.12233E+05
         0.25913E+05
        -0.51289E+04
         0.58045E+04
        -0.88884E+03
        -0.41666E+04
        -0.37223E+05
        -0.54088E+05
        -0.77635E+04
         0.22869E+05
         0.17457E+05
         0.15611E+05
        -0.44659E+05
        -0.91083E+05
         0.14912E+06
         0.30215E+05
         0.70742E+05
         0.15243E+06
        -0.38929E+05
        -0.93253E+05
        -0.10935E+06
        -0.10364E+06
        -0.89233E+05
         0.74955E+05
         0.68049E+05
        -0.98682E+04
         0.14606E+05
         0.12311E+06
         0.71098E+04
        -0.15492E+06
         0.22623E+06
        -0.44440E+06
        -0.48814E+06
        -0.42669E+06
        -0.21090E+06
         0.55375E+05
         0.17737E+06
         0.22204E+06
         0.37050E+06
         0.43352E+06
         0.18121E+06
         0.79920E+05
         0.74683E+05
        -0.27094E+05
        -0.26219E+06
        -0.45445E+06
        -0.50897E+06
        -0.33367E+06
         0.94464E+05
         0.21407E+06
         0.22408E+06
         0.35935E+06
         0.45245E+06
         0.29098E+06
         0.27554E+06
  
SCALARS                      strain_xx  double 1
LOOKUP_TABLE default
         0.62699E-05
         0.29763E-03
         0.33411E-02
         0.16618E-04
        -0.42828E-19
        -0.53845E-20
        -0.60204E-19
        -0.24013E-20
         0.25615E-01
         0.11623E-01
        -0.53861E-18
        -0.43699E-18
         0.43563E-04
         0.72347E-03
        -0.81930E-20
        -0.17979E-18
         0.35254E-04
         0.66876E-03
        -0.93811E-19
        -0.20808E-18
         0.13602E-02
         0.36975E-02
         0.35501E-02
        -0.92781E-19
        -0.19729E-19
        -0.60217E-19
         0.41337E-02
         0.25550E-02
        -0.32510E-18
        -0.20457E-18
         0.19252E-03
         0.89370E-03
         0.92184E-05
        -0.33699E-20
        -0.50325E-19
        -0.19101E-19
         0.16360E-02
         0.35115E-03
        -0.11093E-18
        -0.12576E-18
         0.62996E-02
         0.11889E-01
        -0.56444E-18
        -0.30696E-18
         0.75883E-02
         0.22013E-02
        -0.68070E-18
        -0.15770E-18
         0.53123E-03
        -0.62136E-19
         0.36113E-02
        -0.48146E-20
         0.53583E-03
        -0.23724E-18
         0.29304E-03
        -0.16601E-19
         0.56100E-02
         0.45338E-03
        -0.12182E-19
        -0.71175E-19
         0.21923E-05
         0.16297E-02
        -0.48733E-19
        -0.22917E-19
         0.11418E-03
        -0.49307E-21
         0.12445E-02
        -0.21332E-19
         0.49947E-01
         0.23300E-01
        -0.83337E-18
        -0.43837E-18
         0.94772E-02
        -0.23241E-18
         0.42651E-03
        -0.11122E-18
         0.41281E-02
        -0.42839E-20
         0.18655E-01
        -0.10311E-19
         0.33681E-01
         0.17558E-01
        -0.13849E-18
        -0.18114E-18
         0.14615E-01
        -0.20950E-18
         0.11144E-01
        -0.43428E-18
         0.42010E-02
        -0.17667E-18
         0.10162E-01
         0.54334E-02
        -0.32181E-19
        -0.60520E-19
         0.28858E-03
        -0.83268E-19
         0.21988E-02
        -0.14680E-19
         0.12545E-01
        -0.89522E-19
         0.27291E-01
         0.12995E-01
        -0.47594E-18
        -0.51825E-18
         0.15410E+00
         0.19396E+00
        -0.16250E-17
        -0.15781E-17
         0.15017E+00
        -0.11860E-17
         0.12858E+00
        -0.66233E-18
         0.64183E-01
        -0.20002E-18
         0.31567E-01
        -0.22872E-20
         0.40471E-02
        -0.29015E-19
         0.64348E-02
        -0.18572E-19
         0.36486E-01
        -0.17942E-19
         0.80674E-01
        -0.91240E-19
         0.15299E+00
        -0.33025E-18
         0.24560E+00
        -0.47028E-18
         0.30347E+00
        -0.41866E-18
         0.29006E+00
        -0.49506E-18
         0.25620E+00
        -0.83388E-18
         0.21409E+00
        -0.11595E-17
         0.16624E+00
        -0.10020E-17
         0.97286E-01
        -0.66183E-18
         0.31697E-01
        -0.14750E-18
         0.22794E-03
        -0.53782E-20
         0.99914E-02
        -0.31701E-19
         0.24885E-01
        -0.84768E-19
         0.54899E-01
        -0.32467E-18
         0.95601E-01
        -0.87421E-18
         0.16830E+00
        -0.12619E-17
         0.22769E+00
        -0.13201E-17
        -0.21704E-05
        -0.57388E-06
        -0.79260E-06
        -0.33153E-05
        -0.46758E-04
        -0.28904E-04
        -0.63226E-06
        -0.13950E-05
        -0.38739E-06
        -0.11956E-05
        -0.33765E-06
        -0.62824E-05
        -0.27995E-04
        -0.28677E-05
        -0.40967E-05
        -0.58637E-05
        -0.41062E-05
        -0.89630E-06
        -0.20724E-05
        -0.24198E-05
        -0.71403E-04
        -0.81652E-04
        -0.65533E-04
        -0.63548E-05
        -0.10376E-05
        -0.57551E-06
        -0.57813E-05
        -0.72876E-07
        -0.74672E-05
        -0.36454E-05
        -0.46610E-05
        -0.17404E-06
        -0.10347E-05
        -0.10606E-06
        -0.97538E-04
        -0.40768E-04
        -0.33835E-04
        -0.16327E-04
        -0.52860E-05
        -0.23539E-04
        -0.97633E-04
        -0.89086E-04
        -0.90539E-04
        -0.48655E-04
        -0.24514E-04
        -0.14414E-04
        -0.52618E-06
        -0.94940E-05
        -0.79216E-06
        -0.77570E-05
        -0.53798E-04
        -0.39648E-04
        -0.77223E-03
        -0.88822E-03
        -0.70509E-03
        -0.51538E-03
        -0.28523E-03
        -0.72431E-04
        -0.24885E-06
        -0.35544E-04
        -0.82783E-04
        -0.24349E-03
        -0.63986E-03
        -0.10083E-02
        -0.86345E-03
        -0.80021E-03
        -0.90534E-03
        -0.91424E-03
        -0.75444E-03
        -0.56893E-03
        -0.13722E-03
        -0.34837E-05
        -0.52550E-04
        -0.65257E-04
        -0.18645E-03
        -0.46563E-03
        -0.80784E-03
        -0.90223E-03
        -0.17863E-04
        -0.75273E-06
        -0.27282E-05
        -0.23130E-04
        -0.97321E-04
        -0.71073E-04
        -0.60330E-05
        -0.28750E-04
        -0.60699E-05
        -0.25985E-04
        -0.10605E-05
        -0.14116E-04
        -0.15277E-03
        -0.89842E-04
        -0.96390E-04
        -0.68947E-04
        -0.21368E-04
        -0.76656E-05
        -0.34717E-05
        -0.10707E-04
        -0.37695E-03
        -0.34237E-03
        -0.33339E-03
        -0.19504E-04
        -0.62920E-05
        -0.28526E-05
        -0.83892E-04
        -0.14790E-05
        -0.93964E-05
        -0.17474E-04
        -0.40697E-04
        -0.17040E-04
        -0.17120E-04
        -0.12752E-04
        -0.30953E-03
        -0.94288E-04
        -0.12406E-03
        -0.11854E-03
        -0.33229E-05
        -0.27932E-04
        -0.37700E-03
        -0.39891E-03
        -0.38115E-03
        -0.19926E-03
        -0.11817E-03
        -0.40455E-04
        -0.47254E-04
        -0.65859E-04
        -0.11508E-05
        -0.16683E-05
        -0.17528E-03
        -0.13602E-03
        -0.54085E-02
        -0.54926E-02
        -0.44259E-02
        -0.30109E-02
        -0.16763E-02
        -0.35556E-03
        -0.21919E-04
        -0.23013E-03
        -0.39937E-03
        -0.13419E-02
        -0.42336E-02
        -0.58919E-02
        -0.41436E-02
        -0.37506E-02
        -0.45520E-02
        -0.48278E-02
        -0.40217E-02
        -0.35982E-02
        -0.93411E-03
        -0.63104E-04
        -0.30870E-03
        -0.31686E-03
        -0.10016E-02
        -0.30025E-02
        -0.49191E-02
        -0.48882E-02
        -0.17931E-04
        -0.75833E-06
        -0.27385E-05
        -0.23161E-04
        -0.97133E-04
        -0.70942E-04
        -0.61099E-05
        -0.28605E-04
        -0.60832E-05
        -0.25944E-04
        -0.10180E-05
        -0.14185E-04
        -0.15296E-03
        -0.89399E-04
        -0.96287E-04
        -0.69090E-04
        -0.21462E-04
        -0.76233E-05
        -0.34683E-05
        -0.10669E-04
        -0.37688E-03
        -0.34230E-03
        -0.33335E-03
        -0.19506E-04
        -0.63204E-05
        -0.28621E-05
        -0.83943E-04
        -0.14240E-05
        -0.95290E-05
        -0.17496E-04
        -0.40816E-04
        -0.17036E-04
        -0.16977E-04
        -0.12763E-04
        -0.30984E-03
        -0.94202E-04
        -0.12398E-03
        -0.11892E-03
        -0.33868E-05
        -0.28108E-04
        -0.37747E-03
        -0.39938E-03
        -0.38118E-03
        -0.19921E-03
        -0.11808E-03
        -0.40414E-04
        -0.47235E-04
        -0.65903E-04
        -0.11341E-05
        -0.16569E-05
        -0.17506E-03
        -0.13561E-03
        -0.54048E-02
        -0.54897E-02
        -0.44251E-02
        -0.30109E-02
        -0.16752E-02
        -0.35534E-03
        -0.21968E-04
        -0.23041E-03
        -0.39869E-03
        -0.13408E-02
        -0.42323E-02
        -0.58921E-02
        -0.41428E-02
        -0.37501E-02
        -0.45531E-02
        -0.48298E-02
        -0.40231E-02
        -0.35996E-02
        -0.93360E-03
        -0.63161E-04
        -0.30824E-03
        -0.31661E-03
        -0.10001E-02
        -0.29989E-02
        -0.49142E-02
        -0.48838E-02
        -0.17999E-04
        -0.76386E-06
        -0.27488E-05
        -0.23192E-04
        -0.96941E-04
        -0.70814E-04
        -0.61877E-05
        -0.28459E-04
        -0.60957E-05
        -0.25900E-04
        -0.97643E-06
        -0.14254E-04
        -0.15314E-03
        -0.88959E-04
        -0.96185E-04
        -0.69237E-04
        -0.21558E-04
        -0.75806E-05
        -0.34648E-05
        -0.10633E-04
        -0.37682E-03
        -0.34222E-03
        -0.33330E-03
        -0.19508E-04
        -0.63508E-05
        -0.28725E-05
        -0.83992E-04
        -0.13706E-05
        -0.96633E-05
        -0.17518E-04
        -0.40938E-04
        -0.17033E-04
        -0.16835E-04
        -0.12775E-04
        -0.31016E-03
        -0.94121E-04
        -0.12390E-03
        -0.11930E-03
        -0.34514E-05
        -0.28287E-04
        -0.37795E-03
        -0.39985E-03
        -0.38124E-03
        -0.19916E-03
        -0.11800E-03
        -0.40374E-04
        -0.47218E-04
        -0.65946E-04
        -0.11170E-05
        -0.16452E-05
        -0.17484E-03
        -0.13522E-03
        -0.54011E-02
        -0.54869E-02
        -0.44243E-02
        -0.30109E-02
        -0.16742E-02
        -0.35513E-03
        -0.22019E-04
        -0.23070E-03
        -0.39802E-03
        -0.13398E-02
        -0.42310E-02
        -0.58923E-02
        -0.41421E-02
        -0.37497E-02
        -0.45543E-02
        -0.48320E-02
        -0.40246E-02
        -0.36010E-02
        -0.93308E-03
        -0.63219E-04
        -0.30779E-03
        -0.31636E-03
        -0.99860E-03
        -0.29952E-02
        -0.49094E-02
        -0.48795E-02
        -0.18067E-04
        -0.76961E-06
        -0.27589E-05
        -0.23222E-04
        -0.96750E-04
        -0.70683E-04
        -0.62651E-05
        -0.28314E-04
        -0.61067E-05
        -0.25849E-04
        -0.93585E-06
        -0.14324E-04
        -0.15333E-03
        -0.88520E-04
        -0.96082E-04
        -0.69397E-04
        -0.21658E-04
        -0.75379E-05
        -0.34618E-05
        -0.10595E-04
        -0.37677E-03
        -0.34217E-03
        -0.33331E-03
        -0.19510E-04
        -0.63870E-05
        -0.28852E-05
        -0.84032E-04
        -0.13198E-05
        -0.97981E-05
        -0.17539E-04
        -0.41070E-04
        -0.17037E-04
        -0.16692E-04
        -0.12786E-04
        -0.31046E-03
        -0.94037E-04
        -0.12382E-03
        -0.11968E-03
        -0.35164E-05
        -0.28464E-04
        -0.37845E-03
        -0.40035E-03
        -0.38134E-03
        -0.19912E-03
        -0.11791E-03
        -0.40331E-04
        -0.47205E-04
        -0.65992E-04
        -0.11001E-05
        -0.16336E-05
        -0.17461E-03
        -0.13482E-03
        -0.53974E-02
        -0.54841E-02
        -0.44235E-02
        -0.30110E-02
        -0.16732E-02
        -0.35491E-03
        -0.22069E-04
        -0.23098E-03
        -0.39735E-03
        -0.13387E-02
        -0.42297E-02
        -0.58927E-02
        -0.41415E-02
        -0.37494E-02
        -0.45556E-02
        -0.48345E-02
        -0.40262E-02
        -0.36024E-02
        -0.93255E-03
        -0.63276E-04
        -0.30734E-03
        -0.31611E-03
        -0.99713E-03
        -0.29915E-02
        -0.49045E-02
        -0.48751E-02
        -0.18134E-04
        -0.77537E-06
        -0.27692E-05
        -0.23253E-04
        -0.96564E-04
        -0.70552E-04
        -0.63440E-05
        -0.28168E-04
        -0.61162E-05
        -0.25790E-04
        -0.89605E-06
        -0.14394E-04
        -0.15352E-03
        -0.88081E-04
        -0.95979E-04
        -0.69569E-04
        -0.21763E-04
        -0.74951E-05
        -0.34580E-05
        -0.10557E-04
        -0.37675E-03
        -0.34213E-03
        -0.33333E-03
        -0.19513E-04
        -0.64291E-05
        -0.28998E-05
        -0.84066E-04
        -0.12716E-05
        -0.99333E-05
        -0.17558E-04
        -0.41211E-04
        -0.17045E-04
        -0.16550E-04
        -0.12798E-04
        -0.31077E-03
        -0.93952E-04
        -0.12374E-03
        -0.12006E-03
        -0.35817E-05
        -0.28644E-04
        -0.37896E-03
        -0.40089E-03
        -0.38149E-03
        -0.19909E-03
        -0.11782E-03
        -0.40284E-04
        -0.47194E-04
        -0.66041E-04
        -0.10834E-05
        -0.16221E-05
        -0.17439E-03
        -0.13441E-03
        -0.53937E-02
        -0.54812E-02
        -0.44227E-02
        -0.30110E-02
        -0.16721E-02
        -0.35470E-03
        -0.22119E-04
        -0.23127E-03
        -0.39668E-03
        -0.13376E-02
        -0.42284E-02
        -0.58931E-02
        -0.41411E-02
        -0.37491E-02
        -0.45571E-02
        -0.48373E-02
        -0.40279E-02
        -0.36038E-02
        -0.93204E-03
        -0.63334E-04
        -0.30689E-03
        -0.31586E-03
        -0.99566E-03
        -0.29878E-02
        -0.48996E-02
        -0.48708E-02
        -0.18199E-04
        -0.78164E-06
        -0.27782E-05
        -0.23282E-04
        -0.96375E-04
        -0.70422E-04
        -0.64232E-05
        -0.28020E-04
        -0.61252E-05
        -0.25729E-04
        -0.85710E-06
        -0.14463E-04
        -0.15370E-03
        -0.87643E-04
        -0.95874E-04
        -0.69745E-04
        -0.21868E-04
        -0.74524E-05
        -0.34541E-05
        -0.10521E-04
        -0.37675E-03
        -0.34211E-03
        -0.33339E-03
        -0.19516E-04
        -0.64712E-05
        -0.29149E-05
        -0.84098E-04
        -0.12246E-05
        -0.10070E-04
        -0.17581E-04
        -0.41351E-04
        -0.17053E-04
        -0.16406E-04
        -0.12808E-04
        -0.31110E-03
        -0.93876E-04
        -0.12367E-03
        -0.12044E-03
        -0.36477E-05
        -0.28825E-04
        -0.37947E-03
        -0.40144E-03
        -0.38166E-03
        -0.19908E-03
        -0.11773E-03
        -0.40244E-04
        -0.47180E-04
        -0.66089E-04
        -0.10663E-05
        -0.16116E-05
        -0.17418E-03
        -0.13403E-03
        -0.53900E-02
        -0.54784E-02
        -0.44219E-02
        -0.30110E-02
        -0.16711E-02
        -0.35449E-03
        -0.22168E-04
        -0.23155E-03
        -0.39601E-03
        -0.13365E-02
        -0.42270E-02
        -0.58936E-02
        -0.41408E-02
        -0.37488E-02
        -0.45585E-02
        -0.48403E-02
        -0.40297E-02
        -0.36051E-02
        -0.93151E-03
        -0.63385E-04
        -0.30644E-03
        -0.31562E-03
        -0.99421E-03
        -0.29842E-02
        -0.48947E-02
        -0.48664E-02
        -0.18259E-04
        -0.78920E-06
        -0.27853E-05
        -0.23311E-04
        -0.96191E-04
        -0.70295E-04
        -0.65045E-05
        -0.27868E-04
        -0.61349E-05
        -0.25672E-04
        -0.81882E-06
        -0.14533E-04
        -0.15389E-03
        -0.87205E-04
        -0.95768E-04
        -0.69921E-04
        -0.21970E-04
        -0.74095E-05
        -0.34510E-05
        -0.10485E-04
        -0.37674E-03
        -0.34209E-03
        -0.33345E-03
        -0.19520E-04
        -0.65084E-05
        -0.29282E-05
        -0.84134E-04
        -0.11773E-05
        -0.10210E-04
        -0.17607E-04
        -0.41484E-04
        -0.17054E-04
        -0.16260E-04
        -0.12815E-04
        -0.31142E-03
        -0.93807E-04
        -0.12360E-03
        -0.12082E-03
        -0.37148E-05
        -0.29010E-04
        -0.38000E-03
        -0.40200E-03
        -0.38184E-03
        -0.19906E-03
        -0.11765E-03
        -0.40208E-04
        -0.47159E-04
        -0.66133E-04
        -0.10480E-05
        -0.16035E-05
        -0.17399E-03
        -0.13364E-03
        -0.53863E-02
        -0.54756E-02
        -0.44211E-02
        -0.30111E-02
        -0.16701E-02
        -0.35427E-03
        -0.22217E-04
        -0.23184E-03
        -0.39534E-03
        -0.13355E-02
        -0.42256E-02
        -0.58941E-02
        -0.41405E-02
        -0.37486E-02
        -0.45600E-02
        -0.48432E-02
        -0.40316E-02
        -0.36064E-02
        -0.93098E-03
        -0.63428E-04
        -0.30596E-03
        -0.31537E-03
        -0.99279E-03
        -0.29806E-02
        -0.48899E-02
        -0.48621E-02
        -0.18317E-04
        -0.79720E-06
        -0.27913E-05
        -0.23339E-04
        -0.96014E-04
        -0.70164E-04
        -0.65873E-05
        -0.27716E-04
        -0.61449E-05
        -0.25617E-04
        -0.78133E-06
        -0.14604E-04
        -0.15408E-03
        -0.86767E-04
        -0.95661E-04
        -0.70096E-04
        -0.22069E-04
        -0.73665E-05
        -0.34474E-05
        -0.10452E-04
        -0.37673E-03
        -0.34207E-03
        -0.33351E-03
        -0.19524E-04
        -0.65434E-05
        -0.29408E-05
        -0.84171E-04
        -0.11308E-05
        -0.10352E-04
        -0.17635E-04
        -0.41613E-04
        -0.17052E-04
        -0.16114E-04
        -0.12821E-04
        -0.31176E-03
        -0.93746E-04
        -0.12355E-03
        -0.12119E-03
        -0.37825E-05
        -0.29195E-04
        -0.38052E-03
        -0.40257E-03
        -0.38203E-03
        -0.19906E-03
        -0.11758E-03
        -0.40178E-04
        -0.47135E-04
        -0.66174E-04
        -0.10292E-05
        -0.15965E-05
        -0.17381E-03
        -0.13326E-03
        -0.53826E-02
        -0.54728E-02
        -0.44202E-02
        -0.30111E-02
        -0.16690E-02
        -0.35405E-03
        -0.22266E-04
        -0.23212E-03
        -0.39468E-03
        -0.13344E-02
        -0.42242E-02
        -0.58946E-02
        -0.41402E-02
        -0.37484E-02
        -0.45615E-02
        -0.48462E-02
        -0.40334E-02
        -0.36076E-02
        -0.93043E-03
        -0.63469E-04
        -0.30548E-03
        -0.31513E-03
        -0.99138E-03
        -0.29770E-02
        -0.48850E-02
        -0.48577E-02
        -0.18374E-04
        -0.80533E-06
        -0.27972E-05
        -0.23367E-04
        -0.95832E-04
        -0.70034E-04
        -0.66700E-05
        -0.27565E-04
        -0.61551E-05
        -0.25563E-04
        -0.74485E-06
        -0.14674E-04
        -0.15428E-03
        -0.86334E-04
        -0.95554E-04
        -0.70271E-04
        -0.22169E-04
        -0.73238E-05
        -0.34436E-05
        -0.10417E-04
        -0.37671E-03
        -0.34205E-03
        -0.33357E-03
        -0.19530E-04
        -0.65782E-05
        -0.29532E-05
        -0.84210E-04
        -0.10852E-05
        -0.10495E-04
        -0.17663E-04
        -0.41743E-04
        -0.17050E-04
        -0.15968E-04
        -0.12827E-04
        -0.31211E-03
        -0.93679E-04
        -0.12349E-03
        -0.12157E-03
        -0.38511E-05
        -0.29380E-04
        -0.38105E-03
        -0.40314E-03
        -0.38222E-03
        -0.19907E-03
        -0.11752E-03
        -0.40148E-04
        -0.47110E-04
        -0.66216E-04
        -0.10106E-05
        -0.15898E-05
        -0.17363E-03
        -0.13287E-03
        -0.53788E-02
        -0.54700E-02
        -0.44194E-02
        -0.30111E-02
        -0.16680E-02
        -0.35383E-03
        -0.22315E-04
        -0.23240E-03
        -0.39401E-03
        -0.13334E-02
        -0.42229E-02
        -0.58950E-02
        -0.41399E-02
        -0.37481E-02
        -0.45629E-02
        -0.48492E-02
        -0.40352E-02
        -0.36089E-02
        -0.92988E-03
        -0.63510E-04
        -0.30500E-03
        -0.31489E-03
        -0.98996E-03
        -0.29734E-02
        -0.48802E-02
        -0.48534E-02
        -0.18431E-04
        -0.81359E-06
        -0.28032E-05
        -0.23396E-04
        -0.95652E-04
        -0.69904E-04
        -0.67538E-05
        -0.27414E-04
        -0.61652E-05
        -0.25509E-04
        -0.70922E-06
        -0.14744E-04
        -0.15447E-03
        -0.85902E-04
        -0.95448E-04
        -0.70445E-04
        -0.22269E-04
        -0.72817E-05
        -0.34399E-05
        -0.10384E-04
        -0.37671E-03
        -0.34203E-03
        -0.33362E-03
        -0.19535E-04
        -0.66133E-05
        -0.29657E-05
        -0.84249E-04
        -0.10409E-05
        -0.10638E-04
        -0.17691E-04
        -0.41872E-04
        -0.17047E-04
        -0.15823E-04
        -0.12834E-04
        -0.31244E-03
        -0.93619E-04
        -0.12343E-03
        -0.12195E-03
        -0.39203E-05
        -0.29567E-04
        -0.38158E-03
        -0.40370E-03
        -0.38240E-03
        -0.19907E-03
        -0.11745E-03
        -0.40115E-04
        -0.47086E-04
        -0.66259E-04
        -0.99231E-06
        -0.15826E-05
        -0.17345E-03
        -0.13249E-03
        -0.53751E-02
        -0.54673E-02
        -0.44185E-02
        -0.30111E-02
        -0.16670E-02
        -0.35361E-03
        -0.22364E-04
        -0.23268E-03
        -0.39334E-03
        -0.13323E-02
        -0.42215E-02
        -0.58955E-02
        -0.41395E-02
        -0.37479E-02
        -0.45644E-02
        -0.48522E-02
        -0.40371E-02
        -0.36101E-02
        -0.92934E-03
        -0.63549E-04
        -0.30452E-03
        -0.31464E-03
        -0.98855E-03
        -0.29698E-02
        -0.48754E-02
        -0.48491E-02
        -0.18489E-04
        -0.82181E-06
        -0.28094E-05
        -0.23424E-04
        -0.95476E-04
        -0.69778E-04
        -0.68373E-05
        -0.27263E-04
        -0.61753E-05
        -0.25455E-04
        -0.67442E-06
        -0.14816E-04
        -0.15467E-03
        -0.85472E-04
        -0.95340E-04
        -0.70620E-04
        -0.22369E-04
        -0.72397E-05
        -0.34369E-05
        -0.10349E-04
        -0.37669E-03
        -0.34201E-03
        -0.33368E-03
        -0.19540E-04
        -0.66480E-05
        -0.29781E-05
        -0.84290E-04
        -0.99742E-06
        -0.10783E-04
        -0.17718E-04
        -0.42002E-04
        -0.17045E-04
        -0.15678E-04
        -0.12840E-04
        -0.31278E-03
        -0.93555E-04
        -0.12337E-03
        -0.12233E-03
        -0.39903E-05
        -0.29753E-04
        -0.38210E-03
        -0.40427E-03
        -0.38258E-03
        -0.19906E-03
        -0.11738E-03
        -0.40086E-04
        -0.47061E-04
        -0.66301E-04
        -0.97400E-06
        -0.15756E-05
        -0.17327E-03
        -0.13211E-03
        -0.53714E-02
        -0.54644E-02
        -0.44177E-02
        -0.30111E-02
        -0.16659E-02
        -0.35340E-03
        -0.22411E-04
        -0.23296E-03
        -0.39268E-03
        -0.13313E-02
        -0.42201E-02
        -0.58960E-02
        -0.41392E-02
        -0.37476E-02
        -0.45659E-02
        -0.48551E-02
        -0.40389E-02
        -0.36114E-02
        -0.92880E-03
        -0.63587E-04
        -0.30404E-03
        -0.31440E-03
        -0.98714E-03
        -0.29662E-02
        -0.48706E-02
        -0.48448E-02
        -0.18546E-04
        -0.83005E-06
        -0.28152E-05
        -0.23452E-04
        -0.95296E-04
        -0.69648E-04
        -0.69219E-05
        -0.27112E-04
        -0.61853E-05
        -0.25401E-04
        -0.64059E-06
        -0.14887E-04
        -0.15486E-03
        -0.85044E-04
        -0.95232E-04
        -0.70794E-04
        -0.22469E-04
        -0.71974E-05
        -0.34334E-05
        -0.10316E-04
        -0.37668E-03
        -0.34198E-03
        -0.33374E-03
        -0.19546E-04
        -0.66827E-05
        -0.29909E-05
        -0.84329E-04
        -0.95507E-06
        -0.10927E-04
        -0.17747E-04
        -0.42132E-04
        -0.17042E-04
        -0.15534E-04
        -0.12846E-04
        -0.31313E-03
        -0.93491E-04
        -0.12331E-03
        -0.12271E-03
        -0.40611E-05
        -0.29943E-04
        -0.38263E-03
        -0.40483E-03
        -0.38277E-03
        -0.19906E-03
        -0.11731E-03
        -0.40057E-04
        -0.47037E-04
        -0.66344E-04
        -0.95583E-06
        -0.15690E-05
        -0.17309E-03
        -0.13173E-03
        -0.53677E-02
        -0.54617E-02
        -0.44168E-02
        -0.30111E-02
        -0.16649E-02
        -0.35319E-03
        -0.22459E-04
        -0.23324E-03
        -0.39202E-03
        -0.13302E-02
        -0.42187E-02
        -0.58965E-02
        -0.41389E-02
        -0.37474E-02
        -0.45673E-02
        -0.48581E-02
        -0.40407E-02
        -0.36126E-02
        -0.92826E-03
        -0.63626E-04
        -0.30356E-03
        -0.31415E-03
        -0.98573E-03
        -0.29626E-02
        -0.48658E-02
        -0.48405E-02
        -0.18604E-04
        -0.83843E-06
        -0.28210E-05
        -0.23479E-04
        -0.95117E-04
        -0.69519E-04
        -0.70067E-05
        -0.26962E-04
        -0.61951E-05
        -0.25346E-04
        -0.60771E-06
        -0.14958E-04
        -0.15505E-03
        -0.84616E-04
        -0.95124E-04
        -0.70969E-04
        -0.22569E-04
        -0.71553E-05
        -0.34300E-05
        -0.10281E-04
        -0.37667E-03
        -0.34197E-03
        -0.33380E-03
        -0.19552E-04
        -0.67169E-05
        -0.30033E-05
        -0.84367E-04
        -0.91356E-06
        -0.11073E-04
        -0.17774E-04
        -0.42262E-04
        -0.17040E-04
        -0.15390E-04
        -0.12853E-04
        -0.31346E-03
        -0.93433E-04
        -0.12325E-03
        -0.12308E-03
        -0.41327E-05
        -0.30131E-04
        -0.38317E-03
        -0.40539E-03
        -0.38295E-03
        -0.19906E-03
        -0.11724E-03
        -0.40023E-04
        -0.47012E-04
        -0.66386E-04
        -0.93776E-06
        -0.15620E-05
        -0.17290E-03
        -0.13134E-03
        -0.53640E-02
        -0.54589E-02
        -0.44160E-02
        -0.30111E-02
        -0.16639E-02
        -0.35297E-03
        -0.22508E-04
        -0.23352E-03
        -0.39135E-03
        -0.13291E-02
        -0.42174E-02
        -0.58969E-02
        -0.41385E-02
        -0.37471E-02
        -0.45688E-02
        -0.48611E-02
        -0.40426E-02
        -0.36139E-02
        -0.92772E-03
        -0.63665E-04
        -0.30308E-03
        -0.31391E-03
        -0.98432E-03
        -0.29590E-02
        -0.48610E-02
        -0.48362E-02
        -0.18662E-04
        -0.84671E-06
        -0.28268E-05
        -0.23507E-04
        -0.94943E-04
        -0.69389E-04
        -0.70911E-05
        -0.26813E-04
        -0.62049E-05
        -0.25292E-04
        -0.57576E-06
        -0.15029E-04
        -0.15525E-03
        -0.84190E-04
        -0.95015E-04
        -0.71144E-04
        -0.22670E-04
        -0.71135E-05
        -0.34272E-05
        -0.10248E-04
        -0.37665E-03
        -0.34194E-03
        -0.33386E-03
        -0.19558E-04
        -0.67513E-05
        -0.30158E-05
        -0.84404E-04
        -0.87322E-06
        -0.11219E-04
        -0.17801E-04
        -0.42392E-04
        -0.17037E-04
        -0.15247E-04
        -0.12859E-04
        -0.31381E-03
        -0.93370E-04
        -0.12319E-03
        -0.12346E-03
        -0.42049E-05
        -0.30321E-04
        -0.38369E-03
        -0.40595E-03
        -0.38313E-03
        -0.19906E-03
        -0.11717E-03
        -0.39993E-04
        -0.46987E-04
        -0.66428E-04
        -0.91991E-06
        -0.15550E-05
        -0.17273E-03
        -0.13097E-03
        -0.53602E-02
        -0.54561E-02
        -0.44151E-02
        -0.30111E-02
        -0.16628E-02
        -0.35275E-03
        -0.22557E-04
        -0.23379E-03
        -0.39068E-03
        -0.13281E-02
        -0.42160E-02
        -0.58974E-02
        -0.41382E-02
        -0.37469E-02
        -0.45703E-02
        -0.48640E-02
        -0.40444E-02
        -0.36151E-02
        -0.92717E-03
        -0.63702E-04
        -0.30261E-03
        -0.31368E-03
        -0.98291E-03
        -0.29554E-02
        -0.48562E-02
        -0.48318E-02
        -0.18721E-04
        -0.85497E-06
        -0.28326E-05
        -0.23534E-04
        -0.94764E-04
        -0.69260E-04
        -0.71768E-05
        -0.26663E-04
        -0.62149E-05
        -0.25238E-04
        -0.54468E-06
        -0.15102E-04
        -0.15544E-03
        -0.83766E-04
        -0.94905E-04
        -0.71318E-04
        -0.22770E-04
        -0.70719E-05
        -0.34237E-05
        -0.10214E-04
        -0.37664E-03
        -0.34192E-03
        -0.33391E-03
        -0.19563E-04
        -0.67856E-05
        -0.30283E-05
        -0.84441E-04
        -0.83381E-06
        -0.11367E-04
        -0.17828E-04
        -0.42522E-04
        -0.17034E-04
        -0.15104E-04
        -0.12865E-04
        -0.31414E-03
        -0.93312E-04
        -0.12314E-03
        -0.12383E-03
        -0.42778E-05
        -0.30512E-04
        -0.38422E-03
        -0.40651E-03
        -0.38332E-03
        -0.19906E-03
        -0.11710E-03
        -0.39965E-04
        -0.46962E-04
        -0.66470E-04
        -0.90196E-06
        -0.15483E-05
        -0.17254E-03
        -0.13059E-03
        -0.53565E-02
        -0.54534E-02
        -0.44143E-02
        -0.30111E-02
        -0.16618E-02
        -0.35253E-03
        -0.22604E-04
        -0.23406E-03
        -0.39002E-03
        -0.13270E-02
        -0.42146E-02
        -0.58979E-02
        -0.41379E-02
        -0.37466E-02
        -0.45718E-02
        -0.48670E-02
        -0.40463E-02
        -0.36164E-02
        -0.92663E-03
        -0.63739E-04
        -0.30213E-03
        -0.31344E-03
        -0.98151E-03
        -0.29518E-02
        -0.48514E-02
        -0.48275E-02
        -0.18779E-04
        -0.86349E-06
        -0.28385E-05
        -0.23562E-04
        -0.94585E-04
        -0.69135E-04
        -0.72624E-05
        -0.26514E-04
        -0.62247E-05
        -0.25184E-04
        -0.51445E-06
        -0.15174E-04
        -0.15564E-03
        -0.83343E-04
        -0.94794E-04
        -0.71494E-04
        -0.22871E-04
        -0.70309E-05
        -0.34203E-05
        -0.10181E-04
        -0.37663E-03
        -0.34190E-03
        -0.33397E-03
        -0.19569E-04
        -0.68193E-05
        -0.30409E-05
        -0.84479E-04
        -0.79532E-06
        -0.11515E-04
        -0.17855E-04
        -0.42652E-04
        -0.17032E-04
        -0.14962E-04
        -0.12871E-04
        -0.31449E-03
        -0.93249E-04
        -0.12308E-03
        -0.12420E-03
        -0.43518E-05
        -0.30701E-04
        -0.38475E-03
        -0.40707E-03
        -0.38350E-03
        -0.19905E-03
        -0.11704E-03
        -0.39932E-04
        -0.46937E-04
        -0.66512E-04
        -0.88438E-06
        -0.15413E-05
        -0.17237E-03
        -0.13020E-03
        -0.53528E-02
        -0.54506E-02
        -0.44134E-02
        -0.30111E-02
        -0.16608E-02
        -0.35231E-03
        -0.22651E-04
        -0.23433E-03
        -0.38936E-03
        -0.13260E-02
        -0.42133E-02
        -0.58984E-02
        -0.41375E-02
        -0.37464E-02
        -0.45732E-02
        -0.48700E-02
        -0.40481E-02
        -0.36176E-02
        -0.92609E-03
        -0.63776E-04
        -0.30165E-03
        -0.31320E-03
        -0.98010E-03
        -0.29482E-02
        -0.48466E-02
        -0.48232E-02
        -0.18837E-04
        -0.87192E-06
        -0.28445E-05
        -0.23589E-04
        -0.94411E-04
        -0.69006E-04
        -0.73489E-05
        -0.26366E-04
        -0.62342E-05
        -0.25127E-04
        -0.48510E-06
        -0.15246E-04
        -0.15583E-03
        -0.82921E-04
        -0.94682E-04
        -0.71670E-04
        -0.22972E-04
        -0.69898E-05
        -0.34172E-05
        -0.10147E-04
        -0.37662E-03
        -0.34187E-03
        -0.33403E-03
        -0.19576E-04
        -0.68524E-05
        -0.30534E-05
        -0.84512E-04
        -0.75741E-06
        -0.11663E-04
        -0.17882E-04
        -0.42783E-04
        -0.17030E-04
        -0.14821E-04
        -0.12878E-04
        -0.31484E-03
        -0.93186E-04
        -0.12302E-03
        -0.12457E-03
        -0.44271E-05
        -0.30895E-04
        -0.38526E-03
        -0.40763E-03
        -0.38367E-03
        -0.19906E-03
        -0.11697E-03
        -0.39903E-04
        -0.46913E-04
        -0.66556E-04
        -0.86703E-06
        -0.15343E-05
        -0.17218E-03
        -0.12983E-03
        -0.53491E-02
        -0.54479E-02
        -0.44126E-02
        -0.30111E-02
        -0.16597E-02
        -0.35210E-03
        -0.22696E-04
        -0.23460E-03
        -0.38871E-03
        -0.13249E-02
        -0.42119E-02
        -0.58990E-02
        -0.41373E-02
        -0.37461E-02
        -0.45747E-02
        -0.48729E-02
        -0.40499E-02
        -0.36188E-02
        -0.92554E-03
        -0.63813E-04
        -0.30117E-03
        -0.31295E-03
        -0.97870E-03
        -0.29446E-02
        -0.48418E-02
        -0.48189E-02
        -0.18895E-04
        -0.88036E-06
        -0.28501E-05
        -0.23616E-04
        -0.94234E-04
        -0.68877E-04
        -0.74353E-05
        -0.26218E-04
        -0.62428E-05
        -0.25064E-04
        -0.45665E-06
        -0.15319E-04
        -0.15602E-03
        -0.82498E-04
        -0.94568E-04
        -0.71845E-04
        -0.23072E-04
        -0.69486E-05
        -0.34149E-05
        -0.10114E-04
        -0.37661E-03
        -0.34185E-03
        -0.33409E-03
        -0.19581E-04
        -0.68836E-05
        -0.30664E-05
        -0.84532E-04
        -0.71950E-06
        -0.11813E-04
        -0.17911E-04
        -0.42914E-04
        -0.17026E-04
        -0.14680E-04
        -0.12884E-04
        -0.31518E-03
        -0.93129E-04
        -0.12296E-03
        -0.12494E-03
        -0.45052E-05
        -0.31085E-04
        -0.38573E-03
        -0.40813E-03
        -0.38383E-03
        -0.19906E-03
        -0.11690E-03
        -0.39870E-04
        -0.46889E-04
        -0.66599E-04
        -0.84990E-06
        -0.15274E-05
        -0.17201E-03
        -0.12945E-03
        -0.53454E-02
        -0.54451E-02
        -0.44117E-02
        -0.30111E-02
        -0.16587E-02
        -0.35189E-03
        -0.22743E-04
        -0.23487E-03
        -0.38806E-03
        -0.13238E-02
        -0.42105E-02
        -0.58999E-02
        -0.41371E-02
        -0.37459E-02
        -0.45761E-02
        -0.48759E-02
        -0.40518E-02
        -0.36200E-02
        -0.92501E-03
        -0.63850E-04
        -0.30070E-03
        -0.31271E-03
        -0.97730E-03
        -0.29410E-02
        -0.48370E-02
        -0.48146E-02
        -0.18954E-04
        -0.88881E-06
        -0.28558E-05
        -0.23643E-04
        -0.94056E-04
        -0.68748E-04
        -0.75226E-05
        -0.26069E-04
        -0.62505E-05
        -0.24996E-04
        -0.42914E-06
        -0.15392E-04
        -0.15622E-03
        -0.82072E-04
        -0.94450E-04
        -0.72020E-04
        -0.23172E-04
        -0.69077E-05
        -0.34117E-05
        -0.10080E-04
        -0.37660E-03
        -0.34181E-03
        -0.33415E-03
        -0.19587E-04
        -0.69122E-05
        -0.30789E-05
        -0.84539E-04
        -0.68147E-06
        -0.11964E-04
        -0.17938E-04
        -0.43045E-04
        -0.17024E-04
        -0.14540E-04
        -0.12890E-04
        -0.31553E-03
        -0.93067E-04
        -0.12291E-03
        -0.12529E-03
        -0.45861E-05
        -0.31276E-04
        -0.38617E-03
        -0.40860E-03
        -0.38396E-03
        -0.19906E-03
        -0.11683E-03
        -0.39841E-04
        -0.46864E-04
        -0.66642E-04
        -0.83274E-06
        -0.15207E-05
        -0.17182E-03
        -0.12907E-03
        -0.53417E-02
        -0.54424E-02
        -0.44108E-02
        -0.30111E-02
        -0.16577E-02
        -0.35167E-03
        -0.22789E-04
        -0.23514E-03
        -0.38741E-03
        -0.13227E-02
        -0.42090E-02
        -0.59011E-02
        -0.41372E-02
        -0.37457E-02
        -0.45776E-02
        -0.48788E-02
        -0.40536E-02
        -0.36212E-02
        -0.92446E-03
        -0.63886E-04
        -0.30023E-03
        -0.31247E-03
        -0.97590E-03
        -0.29375E-02
        -0.48322E-02
        -0.48103E-02
        -0.19013E-04
        -0.89735E-06
        -0.28617E-05
        -0.23671E-04
        -0.93883E-04
        -0.68624E-04
        -0.76093E-05
        -0.25923E-04
        -0.62577E-05
        -0.24926E-04
        -0.40267E-06
        -0.15463E-04
        -0.15641E-03
        -0.81648E-04
        -0.94333E-04
        -0.72195E-04
        -0.23272E-04
        -0.68672E-05
        -0.34085E-05
        -0.10048E-04
        -0.37658E-03
        -0.34178E-03
        -0.33420E-03
        -0.19593E-04
        -0.69401E-05
        -0.30914E-05
        -0.84543E-04
        -0.64434E-06
        -0.12114E-04
        -0.17965E-04
        -0.43177E-04
        -0.17021E-04
        -0.14401E-04
        -0.12897E-04
        -0.31588E-03
        -0.93010E-04
        -0.12285E-03
        -0.12564E-03
        -0.46686E-05
        -0.31463E-04
        -0.38659E-03
        -0.40904E-03
        -0.38409E-03
        -0.19906E-03
        -0.11676E-03
        -0.39812E-04
        -0.46842E-04
        -0.66688E-04
        -0.81595E-06
        -0.15136E-05
        -0.17165E-03
        -0.12869E-03
        -0.53380E-02
        -0.54397E-02
        -0.44100E-02
        -0.30111E-02
        -0.16567E-02
        -0.35144E-03
        -0.22834E-04
        -0.23540E-03
        -0.38677E-03
        -0.13215E-02
        -0.42076E-02
        -0.59024E-02
        -0.41373E-02
        -0.37455E-02
        -0.45791E-02
        -0.48818E-02
        -0.40554E-02
        -0.36225E-02
        -0.92392E-03
        -0.63927E-04
        -0.29976E-03
        -0.31223E-03
        -0.97451E-03
        -0.29339E-02
        -0.48275E-02
        -0.48060E-02
        -0.19255E-04
        -0.91303E-06
        -0.28962E-05
        -0.23922E-04
        -0.94622E-04
        -0.69167E-04
        -0.77630E-05
        -0.26052E-04
        -0.63241E-05
        -0.25119E-04
        -0.38422E-06
        -0.15677E-04
        -0.15813E-03
        -0.82105E-04
        -0.95235E-04
        -0.73047E-04
        -0.23594E-04
        -0.68945E-05
        -0.34368E-05
        -0.10110E-04
        -0.38015E-03
        -0.34507E-03
        -0.33738E-03
        -0.19786E-04
        -0.70348E-05
        -0.31322E-05
        -0.85437E-04
        -0.61684E-06
        -0.12378E-04
        -0.18170E-04
        -0.43715E-04
        -0.17180E-04
        -0.14412E-04
        -0.13030E-04
        -0.31937E-03
        -0.93868E-04
        -0.12399E-03
        -0.12731E-03
        -0.47937E-05
        -0.31961E-04
        -0.39100E-03
        -0.41366E-03
        -0.38804E-03
        -0.20091E-03
        -0.11781E-03
        -0.40167E-04
        -0.47282E-04
        -0.67392E-04
        -0.80899E-06
        -0.15213E-05
        -0.17319E-03
        -0.12959E-03
        -0.53977E-02
        -0.55001E-02
        -0.44613E-02
        -0.30460E-02
        -0.16753E-02
        -0.35541E-03
        -0.23175E-04
        -0.23849E-03
        -0.39095E-03
        -0.13370E-02
        -0.42584E-02
        -0.59735E-02
        -0.41829E-02
        -0.37851E-02
        -0.46288E-02
        -0.49361E-02
        -0.41002E-02
        -0.36642E-02
        -0.93434E-03
        -0.64756E-04
        -0.30278E-03
        -0.31544E-03
        -0.98426E-03
        -0.29637E-02
        -0.48768E-02
        -0.48553E-02
        -0.43572E-04
        -0.20958E-05
        -0.65319E-05
        -0.54251E-04
        -0.19876E-03
        -0.14790E-03
        -0.17748E-04
        -0.58315E-04
        -0.14215E-04
        -0.56036E-04
        -0.82172E-06
        -0.31950E-04
        -0.33118E-03
        -0.17883E-03
        -0.19607E-03
        -0.16544E-03
        -0.53227E-04
        -0.15562E-04
        -0.75818E-05
        -0.22425E-04
        -0.79343E-03
        -0.73919E-03
        -0.70753E-03
        -0.44316E-04
        -0.16016E-04
        -0.71374E-05
        -0.18940E-03
        -0.13572E-05
        -0.28568E-04
        -0.41288E-04
        -0.99122E-04
        -0.38746E-04
        -0.32533E-04
        -0.29581E-04
        -0.64800E-03
        -0.20078E-03
        -0.26547E-03
        -0.27438E-03
        -0.10690E-04
        -0.71371E-04
        -0.84787E-03
        -0.90918E-03
        -0.85050E-03
        -0.42722E-03
        -0.24902E-03
        -0.80315E-04
        -0.99345E-04
        -0.14526E-03
        -0.17365E-05
        -0.32722E-05
        -0.35581E-03
        -0.27558E-03
        -0.87216E-02
        -0.88488E-02
        -0.71900E-02
        -0.49323E-02
        -0.27107E-02
        -0.57870E-03
        -0.38743E-04
        -0.40444E-03
        -0.65973E-03
        -0.22329E-02
        -0.71239E-02
        -0.99367E-02
        -0.70869E-02
        -0.64420E-02
        -0.76785E-02
        -0.80067E-02
        -0.66119E-02
        -0.58592E-02
        -0.14948E-02
        -0.10404E-03
        -0.49451E-03
        -0.51925E-03
        -0.16100E-02
        -0.48810E-02
        -0.79796E-02
        -0.78866E-02
  
SCALARS                      strain_yy  double 1
LOOKUP_TABLE default
         0.23025E-03
         0.24314E-04
         0.16907E-03
         0.47132E-04
        -0.39977E-19
        -0.30370E-20
        -0.61400E-19
        -0.35721E-19
         0.23000E-02
         0.10114E-02
        -0.13598E-18
        -0.10540E-18
         0.16558E-02
         0.42703E-05
        -0.69647E-19
        -0.28629E-21
         0.22596E-03
         0.27220E-02
        -0.15075E-22
        -0.15783E-20
         0.69413E-03
         0.94166E-02
         0.10895E-01
        -0.36598E-18
        -0.10915E-17
        -0.76262E-18
         0.91666E-04
         0.90917E-02
        -0.18937E-18
        -0.71269E-18
         0.29439E-03
         0.21043E-03
         0.17097E-03
        -0.50893E-19
        -0.53036E-19
        -0.22860E-22
         0.25100E-02
         0.21536E-02
        -0.17234E-18
        -0.10432E-18
         0.23510E-02
         0.89554E-03
        -0.98430E-19
        -0.82205E-19
         0.20348E-02
         0.24738E-03
        -0.10831E-21
        -0.25914E-19
         0.14906E-02
        -0.57446E-20
         0.17352E-04
        -0.37684E-22
         0.47959E-05
        -0.85953E-19
         0.20644E-03
        -0.29086E-19
         0.21960E-02
         0.74354E-04
        -0.21407E-22
        -0.88186E-22
         0.43241E-03
         0.56230E-02
        -0.39740E-20
        -0.55601E-19
         0.15997E-03
        -0.16192E-19
         0.28679E-02
        -0.24030E-19
         0.17540E-02
         0.48888E-03
        -0.36699E-21
        -0.63979E-19
         0.58770E-02
        -0.30850E-18
         0.14311E-01
        -0.28922E-18
         0.14406E-01
        -0.16666E-18
         0.98288E-02
        -0.11708E-18
         0.21804E-01
         0.13279E-01
        -0.48183E-19
        -0.23686E-20
         0.27709E-03
        -0.29655E-22
         0.49626E-02
        -0.11637E-18
         0.26945E-01
        -0.35665E-18
         0.51362E-01
         0.19508E-01
        -0.78457E-18
        -0.51400E-18
         0.98074E-02
        -0.30973E-18
         0.79842E-02
        -0.32418E-18
         0.74827E-02
        -0.37478E-18
         0.20627E-01
         0.14402E-01
        -0.32411E-18
        -0.74411E-19
         0.87382E-02
         0.12853E-02
        -0.40072E-19
        -0.61881E-19
         0.52468E-01
        -0.44349E-18
         0.11084E+00
        -0.94890E-18
         0.16112E+00
        -0.14473E-17
         0.20647E+00
        -0.14240E-17
         0.26648E+00
        -0.89180E-18
         0.26671E+00
        -0.53409E-18
         0.23544E+00
        -0.46203E-18
         0.18671E+00
        -0.41823E-18
         0.10408E+00
        -0.17081E-18
         0.51605E-01
        -0.18619E-19
         0.14201E-01
        -0.77741E-20
         0.77418E-04
        -0.17563E-19
         0.14325E-01
        -0.46852E-20
         0.47627E-01
        -0.42849E-19
         0.11386E+00
        -0.34139E-18
         0.13341E+00
        -0.83244E-18
         0.15107E+00
        -0.14307E-17
         0.24125E+00
        -0.14282E-17
         0.26661E+00
        -0.10884E-17
         0.23148E+00
        -0.10338E-17
         0.14934E+00
        -0.10467E-17
         0.69149E-01
        -0.65452E-18
         0.35352E-01
        -0.22888E-18
         0.18738E-01
        -0.13683E-18
        -0.22631E-04
        -0.59059E-05
        -0.45164E-05
        -0.44941E-06
        -0.45998E-05
        -0.53772E-05
        -0.57298E-07
        -0.13848E-04
        -0.10649E-04
        -0.22327E-04
        -0.56984E-05
        -0.10290E-03
        -0.49093E-04
        -0.66113E-06
        -0.10601E-03
        -0.16016E-05
        -0.12501E-05
        -0.52627E-06
        -0.85562E-06
        -0.49345E-06
        -0.41065E-06
        -0.28171E-06
        -0.31275E-05
        -0.22310E-07
        -0.10418E-04
        -0.22744E-06
        -0.59296E-09
        -0.18174E-06
        -0.26171E-06
        -0.63029E-05
        -0.15217E-05
        -0.17343E-05
        -0.80458E-06
        -0.46760E-07
        -0.11676E-06
        -0.35363E-05
        -0.18031E-04
        -0.82914E-04
        -0.69066E-04
        -0.47933E-04
        -0.41595E-04
        -0.27014E-05
        -0.18888E-05
        -0.14129E-04
        -0.37727E-04
        -0.96499E-04
        -0.43077E-04
        -0.22955E-04
        -0.26068E-04
        -0.28628E-04
        -0.38225E-04
        -0.83097E-05
        -0.25872E-04
        -0.39069E-04
        -0.28468E-03
        -0.54897E-03
        -0.89038E-03
        -0.12279E-02
        -0.12107E-02
        -0.98311E-03
        -0.89309E-03
        -0.79602E-03
        -0.32852E-03
        -0.67503E-04
        -0.13346E-04
        -0.26144E-05
        -0.62197E-05
        -0.98236E-04
        -0.33178E-03
        -0.55542E-03
        -0.76323E-03
        -0.10199E-02
        -0.92472E-03
        -0.82584E-03
        -0.71215E-03
        -0.33712E-03
        -0.11869E-03
        -0.92536E-04
        -0.15493E-03
        -0.61630E-04
        -0.52775E-04
        -0.29691E-05
        -0.89026E-04
        -0.18008E-04
        -0.11324E-04
        -0.13839E-03
        -0.59515E-04
        -0.12242E-03
        -0.34219E-04
        -0.64093E-03
        -0.22495E-03
        -0.46455E-05
        -0.62214E-03
        -0.22281E-04
        -0.20463E-05
        -0.18651E-05
        -0.37891E-04
        -0.14163E-05
        -0.28150E-04
        -0.14190E-04
        -0.47692E-05
        -0.33977E-05
        -0.55513E-04
        -0.33963E-05
        -0.21385E-06
        -0.73904E-06
        -0.18857E-05
        -0.55240E-04
        -0.25879E-04
        -0.17957E-05
        -0.10812E-04
        -0.81512E-05
        -0.18532E-05
        -0.17220E-04
        -0.62773E-04
        -0.35935E-03
        -0.27945E-03
        -0.21703E-03
        -0.11713E-03
        -0.71520E-05
        -0.30343E-04
        -0.47345E-04
        -0.78503E-04
        -0.32758E-03
        -0.11092E-03
        -0.48504E-04
        -0.76617E-04
        -0.10678E-03
        -0.11464E-03
        -0.64538E-06
        -0.17811E-03
        -0.36444E-03
        -0.19736E-02
        -0.32961E-02
        -0.54903E-02
        -0.79055E-02
        -0.75852E-02
        -0.57852E-02
        -0.53133E-02
        -0.52009E-02
        -0.20509E-02
        -0.22279E-03
        -0.35377E-04
        -0.25975E-04
        -0.55716E-05
        -0.40093E-03
        -0.16091E-02
        -0.31166E-02
        -0.52790E-02
        -0.64908E-02
        -0.50056E-02
        -0.44742E-02
        -0.44472E-02
        -0.22048E-02
        -0.59498E-03
        -0.53344E-03
        -0.15512E-03
        -0.61652E-04
        -0.52827E-04
        -0.30128E-05
        -0.89046E-04
        -0.18036E-04
        -0.11352E-04
        -0.13886E-03
        -0.59729E-04
        -0.12334E-03
        -0.34260E-04
        -0.64082E-03
        -0.22507E-03
        -0.46457E-05
        -0.62373E-03
        -0.22284E-04
        -0.20837E-05
        -0.18596E-05
        -0.37943E-04
        -0.14006E-05
        -0.28289E-04
        -0.14217E-04
        -0.47715E-05
        -0.33945E-05
        -0.56017E-04
        -0.33840E-05
        -0.21892E-06
        -0.74733E-06
        -0.18609E-05
        -0.55474E-04
        -0.25888E-04
        -0.17879E-05
        -0.10860E-04
        -0.81779E-05
        -0.18185E-05
        -0.17242E-04
        -0.62768E-04
        -0.36046E-03
        -0.28066E-03
        -0.21754E-03
        -0.11731E-03
        -0.71135E-05
        -0.30406E-04
        -0.47393E-04
        -0.78508E-04
        -0.32758E-03
        -0.11094E-03
        -0.48446E-04
        -0.76412E-04
        -0.10649E-03
        -0.11454E-03
        -0.62598E-06
        -0.17778E-03
        -0.36448E-03
        -0.19743E-02
        -0.32961E-02
        -0.54890E-02
        -0.79002E-02
        -0.75788E-02
        -0.57817E-02
        -0.53110E-02
        -0.51981E-02
        -0.20501E-02
        -0.22300E-03
        -0.35372E-04
        -0.26082E-04
        -0.54812E-05
        -0.40136E-03
        -0.16105E-02
        -0.31180E-02
        -0.52788E-02
        -0.64900E-02
        -0.50049E-02
        -0.44738E-02
        -0.44450E-02
        -0.22017E-02
        -0.59367E-03
        -0.53204E-03
        -0.15532E-03
        -0.61676E-04
        -0.52880E-04
        -0.30574E-05
        -0.89067E-04
        -0.18066E-04
        -0.11380E-04
        -0.13933E-03
        -0.59944E-04
        -0.12425E-03
        -0.34301E-04
        -0.64071E-03
        -0.22518E-03
        -0.46448E-05
        -0.62531E-03
        -0.22287E-04
        -0.21218E-05
        -0.18539E-05
        -0.37995E-04
        -0.13846E-05
        -0.28430E-04
        -0.14244E-04
        -0.47752E-05
        -0.33903E-05
        -0.56518E-04
        -0.33699E-05
        -0.22441E-06
        -0.75619E-06
        -0.18340E-05
        -0.55700E-04
        -0.25897E-04
        -0.17784E-05
        -0.10908E-04
        -0.82042E-05
        -0.17840E-05
        -0.17266E-04
        -0.62759E-04
        -0.36157E-03
        -0.28187E-03
        -0.21804E-03
        -0.11750E-03
        -0.70712E-05
        -0.30464E-04
        -0.47454E-04
        -0.78527E-04
        -0.32760E-03
        -0.11096E-03
        -0.48385E-04
        -0.76210E-04
        -0.10621E-03
        -0.11445E-03
        -0.60696E-06
        -0.17745E-03
        -0.36453E-03
        -0.19750E-02
        -0.32962E-02
        -0.54877E-02
        -0.78948E-02
        -0.75725E-02
        -0.57783E-02
        -0.53088E-02
        -0.51952E-02
        -0.20492E-02
        -0.22322E-03
        -0.35368E-04
        -0.26190E-04
        -0.53911E-05
        -0.40179E-03
        -0.16120E-02
        -0.31195E-02
        -0.52786E-02
        -0.64892E-02
        -0.50042E-02
        -0.44735E-02
        -0.44427E-02
        -0.21985E-02
        -0.59237E-03
        -0.53064E-03
        -0.15551E-03
        -0.61699E-04
        -0.52934E-04
        -0.31024E-05
        -0.89087E-04
        -0.18095E-04
        -0.11411E-04
        -0.13979E-03
        -0.60161E-04
        -0.12516E-03
        -0.34341E-04
        -0.64060E-03
        -0.22530E-03
        -0.46450E-05
        -0.62691E-03
        -0.22291E-04
        -0.21610E-05
        -0.18482E-05
        -0.38051E-04
        -0.13678E-05
        -0.28575E-04
        -0.14268E-04
        -0.47834E-05
        -0.33836E-05
        -0.57004E-04
        -0.33515E-05
        -0.23014E-06
        -0.76800E-06
        -0.18009E-05
        -0.55905E-04
        -0.25900E-04
        -0.17657E-05
        -0.10956E-04
        -0.82308E-05
        -0.17500E-05
        -0.17288E-04
        -0.62751E-04
        -0.36269E-03
        -0.28311E-03
        -0.21859E-03
        -0.11772E-03
        -0.70175E-05
        -0.30512E-04
        -0.47547E-04
        -0.78573E-04
        -0.32764E-03
        -0.11100E-03
        -0.48327E-04
        -0.76007E-04
        -0.10592E-03
        -0.11434E-03
        -0.58827E-06
        -0.17712E-03
        -0.36457E-03
        -0.19758E-02
        -0.32962E-02
        -0.54864E-02
        -0.78895E-02
        -0.75661E-02
        -0.57748E-02
        -0.53066E-02
        -0.51923E-02
        -0.20485E-02
        -0.22349E-03
        -0.35369E-04
        -0.26295E-04
        -0.53010E-05
        -0.40227E-03
        -0.16138E-02
        -0.31212E-02
        -0.52785E-02
        -0.64884E-02
        -0.50035E-02
        -0.44731E-02
        -0.44405E-02
        -0.21954E-02
        -0.59107E-03
        -0.52924E-03
        -0.15570E-03
        -0.61721E-04
        -0.52987E-04
        -0.31475E-05
        -0.89109E-04
        -0.18124E-04
        -0.11439E-04
        -0.14025E-03
        -0.60378E-04
        -0.12605E-03
        -0.34383E-04
        -0.64049E-03
        -0.22541E-03
        -0.46455E-05
        -0.62851E-03
        -0.22295E-04
        -0.22011E-05
        -0.18424E-05
        -0.38109E-04
        -0.13502E-05
        -0.28721E-04
        -0.14289E-04
        -0.47960E-05
        -0.33742E-05
        -0.57473E-04
        -0.33284E-05
        -0.23661E-06
        -0.78258E-06
        -0.17616E-05
        -0.56089E-04
        -0.25901E-04
        -0.17490E-05
        -0.11004E-04
        -0.82575E-05
        -0.17160E-05
        -0.17311E-04
        -0.62745E-04
        -0.36382E-03
        -0.28437E-03
        -0.21917E-03
        -0.11797E-03
        -0.69520E-05
        -0.30549E-04
        -0.47675E-04
        -0.78651E-04
        -0.32771E-03
        -0.11105E-03
        -0.48275E-04
        -0.75808E-04
        -0.10563E-03
        -0.11425E-03
        -0.56977E-06
        -0.17679E-03
        -0.36461E-03
        -0.19765E-02
        -0.32963E-02
        -0.54850E-02
        -0.78841E-02
        -0.75597E-02
        -0.57713E-02
        -0.53044E-02
        -0.51894E-02
        -0.20478E-02
        -0.22380E-03
        -0.35376E-04
        -0.26399E-04
        -0.52115E-05
        -0.40278E-03
        -0.16158E-02
        -0.31231E-02
        -0.52783E-02
        -0.64876E-02
        -0.50028E-02
        -0.44727E-02
        -0.44382E-02
        -0.21923E-02
        -0.58978E-03
        -0.52785E-03
        -0.15588E-03
        -0.61736E-04
        -0.53039E-04
        -0.31935E-05
        -0.89129E-04
        -0.18153E-04
        -0.11464E-04
        -0.14070E-03
        -0.60597E-04
        -0.12693E-03
        -0.34430E-04
        -0.64039E-03
        -0.22553E-03
        -0.46471E-05
        -0.63010E-03
        -0.22300E-04
        -0.22425E-05
        -0.18367E-05
        -0.38168E-04
        -0.13324E-05
        -0.28869E-04
        -0.14309E-04
        -0.48105E-05
        -0.33638E-05
        -0.57934E-04
        -0.33039E-05
        -0.24367E-06
        -0.79886E-06
        -0.17201E-05
        -0.56263E-04
        -0.25898E-04
        -0.17306E-05
        -0.11053E-04
        -0.82856E-05
        -0.16822E-05
        -0.17336E-04
        -0.62744E-04
        -0.36496E-03
        -0.28565E-03
        -0.21977E-03
        -0.11823E-03
        -0.68830E-05
        -0.30581E-04
        -0.47813E-04
        -0.78748E-04
        -0.32782E-03
        -0.11110E-03
        -0.48232E-04
        -0.75620E-04
        -0.10535E-03
        -0.11415E-03
        -0.55156E-06
        -0.17645E-03
        -0.36465E-03
        -0.19772E-02
        -0.32963E-02
        -0.54837E-02
        -0.78787E-02
        -0.75533E-02
        -0.57678E-02
        -0.53022E-02
        -0.51865E-02
        -0.20471E-02
        -0.22413E-03
        -0.35386E-04
        -0.26503E-04
        -0.51228E-05
        -0.40330E-03
        -0.16178E-02
        -0.31250E-02
        -0.52782E-02
        -0.64867E-02
        -0.50021E-02
        -0.44724E-02
        -0.44359E-02
        -0.21891E-02
        -0.58848E-03
        -0.52645E-03
        -0.15605E-03
        -0.61732E-04
        -0.53091E-04
        -0.32411E-05
        -0.89152E-04
        -0.18183E-04
        -0.11484E-04
        -0.14110E-03
        -0.60820E-04
        -0.12777E-03
        -0.34486E-04
        -0.64033E-03
        -0.22568E-03
        -0.46543E-05
        -0.63173E-03
        -0.22308E-04
        -0.22852E-05
        -0.18310E-05
        -0.38227E-04
        -0.13147E-05
        -0.29018E-04
        -0.14331E-04
        -0.48252E-05
        -0.33536E-05
        -0.58386E-04
        -0.32792E-05
        -0.25212E-06
        -0.81636E-06
        -0.16782E-05
        -0.56433E-04
        -0.25893E-04
        -0.17110E-05
        -0.11104E-04
        -0.83149E-05
        -0.16486E-05
        -0.17363E-04
        -0.62747E-04
        -0.36612E-03
        -0.28695E-03
        -0.22037E-03
        -0.11850E-03
        -0.68127E-05
        -0.30611E-04
        -0.47952E-04
        -0.78851E-04
        -0.32795E-03
        -0.11119E-03
        -0.48216E-04
        -0.75462E-04
        -0.10508E-03
        -0.11405E-03
        -0.53344E-06
        -0.17612E-03
        -0.36469E-03
        -0.19779E-02
        -0.32964E-02
        -0.54824E-02
        -0.78734E-02
        -0.75468E-02
        -0.57643E-02
        -0.53000E-02
        -0.51836E-02
        -0.20465E-02
        -0.22446E-03
        -0.35395E-04
        -0.26608E-04
        -0.50348E-05
        -0.40383E-03
        -0.16199E-02
        -0.31269E-02
        -0.52779E-02
        -0.64859E-02
        -0.50016E-02
        -0.44722E-02
        -0.44336E-02
        -0.21860E-02
        -0.58719E-03
        -0.52506E-03
        -0.15621E-03
        -0.61724E-04
        -0.53142E-04
        -0.32896E-05
        -0.89176E-04
        -0.18212E-04
        -0.11499E-04
        -0.14148E-03
        -0.61046E-04
        -0.12860E-03
        -0.34548E-04
        -0.64026E-03
        -0.22583E-03
        -0.46626E-05
        -0.63334E-03
        -0.22316E-04
        -0.23289E-05
        -0.18252E-05
        -0.38286E-04
        -0.12971E-05
        -0.29167E-04
        -0.14352E-04
        -0.48395E-05
        -0.33438E-05
        -0.58834E-04
        -0.32548E-05
        -0.26106E-06
        -0.83451E-06
        -0.16367E-05
        -0.56602E-04
        -0.25888E-04
        -0.16907E-05
        -0.11156E-04
        -0.83455E-05
        -0.16151E-05
        -0.17391E-04
        -0.62757E-04
        -0.36729E-03
        -0.28825E-03
        -0.22097E-03
        -0.11876E-03
        -0.67428E-05
        -0.30641E-04
        -0.48092E-04
        -0.78959E-04
        -0.32810E-03
        -0.11130E-03
        -0.48208E-04
        -0.75317E-04
        -0.10482E-03
        -0.11396E-03
        -0.51563E-06
        -0.17579E-03
        -0.36473E-03
        -0.19786E-02
        -0.32964E-02
        -0.54810E-02
        -0.78680E-02
        -0.75404E-02
        -0.57608E-02
        -0.52978E-02
        -0.51807E-02
        -0.20458E-02
        -0.22479E-03
        -0.35405E-04
        -0.26715E-04
        -0.49473E-05
        -0.40436E-03
        -0.16219E-02
        -0.31288E-02
        -0.52776E-02
        -0.64850E-02
        -0.50011E-02
        -0.44720E-02
        -0.44313E-02
        -0.21829E-02
        -0.58590E-03
        -0.52366E-03
        -0.15637E-03
        -0.61716E-04
        -0.53193E-04
        -0.33385E-05
        -0.89199E-04
        -0.18241E-04
        -0.11515E-04
        -0.14187E-03
        -0.61273E-04
        -0.12942E-03
        -0.34607E-04
        -0.64020E-03
        -0.22598E-03
        -0.46722E-05
        -0.63499E-03
        -0.22325E-04
        -0.23733E-05
        -0.18194E-05
        -0.38345E-04
        -0.12794E-05
        -0.29316E-04
        -0.14374E-04
        -0.48540E-05
        -0.33340E-05
        -0.59283E-04
        -0.32307E-05
        -0.27038E-06
        -0.85265E-06
        -0.15959E-05
        -0.56771E-04
        -0.25882E-04
        -0.16707E-05
        -0.11207E-04
        -0.83757E-05
        -0.15817E-05
        -0.17418E-04
        -0.62764E-04
        -0.36847E-03
        -0.28956E-03
        -0.22157E-03
        -0.11903E-03
        -0.66736E-05
        -0.30671E-04
        -0.48233E-04
        -0.79069E-04
        -0.32825E-03
        -0.11139E-03
        -0.48202E-04
        -0.75175E-04
        -0.10456E-03
        -0.11387E-03
        -0.49803E-06
        -0.17546E-03
        -0.36477E-03
        -0.19793E-02
        -0.32965E-02
        -0.54797E-02
        -0.78626E-02
        -0.75339E-02
        -0.57573E-02
        -0.52956E-02
        -0.51777E-02
        -0.20452E-02
        -0.22512E-03
        -0.35417E-04
        -0.26823E-04
        -0.48609E-05
        -0.40488E-03
        -0.16240E-02
        -0.31307E-02
        -0.52773E-02
        -0.64842E-02
        -0.50007E-02
        -0.44718E-02
        -0.44289E-02
        -0.21797E-02
        -0.58462E-03
        -0.52228E-03
        -0.15653E-03
        -0.61706E-04
        -0.53243E-04
        -0.33875E-05
        -0.89220E-04
        -0.18269E-04
        -0.11530E-04
        -0.14225E-03
        -0.61500E-04
        -0.13025E-03
        -0.34669E-04
        -0.64013E-03
        -0.22614E-03
        -0.46804E-05
        -0.63661E-03
        -0.22333E-04
        -0.24183E-05
        -0.18136E-05
        -0.38403E-04
        -0.12618E-05
        -0.29465E-04
        -0.14394E-04
        -0.48678E-05
        -0.33243E-05
        -0.59734E-04
        -0.32067E-05
        -0.27961E-06
        -0.87080E-06
        -0.15557E-05
        -0.56941E-04
        -0.25876E-04
        -0.16507E-05
        -0.11259E-04
        -0.84062E-05
        -0.15488E-05
        -0.17447E-04
        -0.62774E-04
        -0.36965E-03
        -0.29088E-03
        -0.22217E-03
        -0.11930E-03
        -0.66050E-05
        -0.30701E-04
        -0.48373E-04
        -0.79177E-04
        -0.32840E-03
        -0.11150E-03
        -0.48199E-04
        -0.75030E-04
        -0.10429E-03
        -0.11378E-03
        -0.48082E-06
        -0.17512E-03
        -0.36480E-03
        -0.19800E-02
        -0.32965E-02
        -0.54784E-02
        -0.78572E-02
        -0.75274E-02
        -0.57538E-02
        -0.52934E-02
        -0.51747E-02
        -0.20445E-02
        -0.22544E-03
        -0.35429E-04
        -0.26931E-04
        -0.47755E-05
        -0.40541E-03
        -0.16261E-02
        -0.31325E-02
        -0.52770E-02
        -0.64833E-02
        -0.50002E-02
        -0.44716E-02
        -0.44266E-02
        -0.21766E-02
        -0.58335E-03
        -0.52089E-03
        -0.15669E-03
        -0.61696E-04
        -0.53294E-04
        -0.34368E-05
        -0.89243E-04
        -0.18298E-04
        -0.11547E-04
        -0.14263E-03
        -0.61729E-04
        -0.13108E-03
        -0.34731E-04
        -0.64007E-03
        -0.22629E-03
        -0.46895E-05
        -0.63826E-03
        -0.22342E-04
        -0.24638E-05
        -0.18078E-05
        -0.38462E-04
        -0.12442E-05
        -0.29615E-04
        -0.14415E-04
        -0.48824E-05
        -0.33148E-05
        -0.60185E-04
        -0.31827E-05
        -0.28915E-06
        -0.88887E-06
        -0.15160E-05
        -0.57110E-04
        -0.25870E-04
        -0.16310E-05
        -0.11310E-04
        -0.84367E-05
        -0.15160E-05
        -0.17474E-04
        -0.62784E-04
        -0.37083E-03
        -0.29219E-03
        -0.22277E-03
        -0.11956E-03
        -0.65367E-05
        -0.30731E-04
        -0.48511E-04
        -0.79285E-04
        -0.32855E-03
        -0.11160E-03
        -0.48193E-04
        -0.74888E-04
        -0.10403E-03
        -0.11369E-03
        -0.46385E-06
        -0.17479E-03
        -0.36484E-03
        -0.19806E-02
        -0.32966E-02
        -0.54771E-02
        -0.78518E-02
        -0.75209E-02
        -0.57503E-02
        -0.52913E-02
        -0.51718E-02
        -0.20438E-02
        -0.22577E-03
        -0.35440E-04
        -0.27038E-04
        -0.46905E-05
        -0.40594E-03
        -0.16281E-02
        -0.31344E-02
        -0.52767E-02
        -0.64825E-02
        -0.49997E-02
        -0.44714E-02
        -0.44242E-02
        -0.21735E-02
        -0.58208E-03
        -0.51950E-03
        -0.15685E-03
        -0.61687E-04
        -0.53344E-04
        -0.34869E-05
        -0.89266E-04
        -0.18327E-04
        -0.11563E-04
        -0.14301E-03
        -0.61958E-04
        -0.13191E-03
        -0.34793E-04
        -0.64000E-03
        -0.22644E-03
        -0.46986E-05
        -0.63988E-03
        -0.22351E-04
        -0.25097E-05
        -0.18019E-05
        -0.38520E-04
        -0.12269E-05
        -0.29766E-04
        -0.14435E-04
        -0.48969E-05
        -0.33053E-05
        -0.60637E-04
        -0.31591E-05
        -0.29864E-06
        -0.90703E-06
        -0.14769E-05
        -0.57279E-04
        -0.25864E-04
        -0.16113E-05
        -0.11362E-04
        -0.84677E-05
        -0.14834E-05
        -0.17502E-04
        -0.62791E-04
        -0.37202E-03
        -0.29351E-03
        -0.22337E-03
        -0.11983E-03
        -0.64694E-05
        -0.30760E-04
        -0.48651E-04
        -0.79394E-04
        -0.32870E-03
        -0.11170E-03
        -0.48190E-04
        -0.74746E-04
        -0.10377E-03
        -0.11359E-03
        -0.44722E-06
        -0.17446E-03
        -0.36487E-03
        -0.19813E-02
        -0.32966E-02
        -0.54757E-02
        -0.78465E-02
        -0.75144E-02
        -0.57468E-02
        -0.52891E-02
        -0.51688E-02
        -0.20431E-02
        -0.22610E-03
        -0.35451E-04
        -0.27145E-04
        -0.46059E-05
        -0.40646E-03
        -0.16302E-02
        -0.31363E-02
        -0.52764E-02
        -0.64816E-02
        -0.49992E-02
        -0.44712E-02
        -0.44219E-02
        -0.21704E-02
        -0.58081E-03
        -0.51812E-03
        -0.15700E-03
        -0.61677E-04
        -0.53396E-04
        -0.35376E-05
        -0.89289E-04
        -0.18357E-04
        -0.11578E-04
        -0.14339E-03
        -0.62188E-04
        -0.13274E-03
        -0.34855E-04
        -0.63994E-03
        -0.22659E-03
        -0.47065E-05
        -0.64153E-03
        -0.22359E-04
        -0.25562E-05
        -0.17959E-05
        -0.38579E-04
        -0.12098E-05
        -0.29917E-04
        -0.14456E-04
        -0.49111E-05
        -0.32959E-05
        -0.61090E-04
        -0.31353E-05
        -0.30857E-06
        -0.92517E-06
        -0.14383E-05
        -0.57447E-04
        -0.25858E-04
        -0.15916E-05
        -0.11414E-04
        -0.84982E-05
        -0.14512E-05
        -0.17531E-04
        -0.62800E-04
        -0.37320E-03
        -0.29484E-03
        -0.22398E-03
        -0.12010E-03
        -0.64018E-05
        -0.30790E-04
        -0.48793E-04
        -0.79505E-04
        -0.32884E-03
        -0.11181E-03
        -0.48185E-04
        -0.74604E-04
        -0.10351E-03
        -0.11350E-03
        -0.43093E-06
        -0.17412E-03
        -0.36491E-03
        -0.19820E-02
        -0.32967E-02
        -0.54744E-02
        -0.78411E-02
        -0.75079E-02
        -0.57432E-02
        -0.52869E-02
        -0.51657E-02
        -0.20425E-02
        -0.22642E-03
        -0.35461E-04
        -0.27253E-04
        -0.45223E-05
        -0.40699E-03
        -0.16323E-02
        -0.31382E-02
        -0.52762E-02
        -0.64808E-02
        -0.49988E-02
        -0.44710E-02
        -0.44195E-02
        -0.21672E-02
        -0.57955E-03
        -0.51674E-03
        -0.15716E-03
        -0.61669E-04
        -0.53446E-04
        -0.35885E-05
        -0.89312E-04
        -0.18386E-04
        -0.11596E-04
        -0.14377E-03
        -0.62418E-04
        -0.13357E-03
        -0.34918E-04
        -0.63988E-03
        -0.22674E-03
        -0.47155E-05
        -0.64317E-03
        -0.22368E-04
        -0.26032E-05
        -0.17901E-05
        -0.38637E-04
        -0.11928E-05
        -0.30068E-04
        -0.14476E-04
        -0.49256E-05
        -0.32865E-05
        -0.61545E-04
        -0.31115E-05
        -0.31839E-06
        -0.94327E-06
        -0.14004E-05
        -0.57616E-04
        -0.25851E-04
        -0.15721E-05
        -0.11466E-04
        -0.85293E-05
        -0.14192E-05
        -0.17559E-04
        -0.62806E-04
        -0.37441E-03
        -0.29617E-03
        -0.22457E-03
        -0.12037E-03
        -0.63346E-05
        -0.30820E-04
        -0.48932E-04
        -0.79615E-04
        -0.32899E-03
        -0.11191E-03
        -0.48180E-04
        -0.74460E-04
        -0.10325E-03
        -0.11341E-03
        -0.41503E-06
        -0.17379E-03
        -0.36494E-03
        -0.19826E-02
        -0.32967E-02
        -0.54731E-02
        -0.78357E-02
        -0.75014E-02
        -0.57397E-02
        -0.52847E-02
        -0.51626E-02
        -0.20418E-02
        -0.22675E-03
        -0.35472E-04
        -0.27361E-04
        -0.44399E-05
        -0.40751E-03
        -0.16343E-02
        -0.31400E-02
        -0.52759E-02
        -0.64800E-02
        -0.49983E-02
        -0.44708E-02
        -0.44172E-02
        -0.21641E-02
        -0.57830E-03
        -0.51536E-03
        -0.15731E-03
        -0.61660E-04
        -0.53497E-04
        -0.36397E-05
        -0.89334E-04
        -0.18414E-04
        -0.11612E-04
        -0.14415E-03
        -0.62649E-04
        -0.13440E-03
        -0.34980E-04
        -0.63982E-03
        -0.22689E-03
        -0.47232E-05
        -0.64482E-03
        -0.22376E-04
        -0.26509E-05
        -0.17843E-05
        -0.38696E-04
        -0.11757E-05
        -0.30219E-04
        -0.14496E-04
        -0.49397E-05
        -0.32774E-05
        -0.62002E-04
        -0.30880E-05
        -0.32853E-06
        -0.96119E-06
        -0.13632E-05
        -0.57786E-04
        -0.25845E-04
        -0.15526E-05
        -0.11517E-04
        -0.85602E-05
        -0.13876E-05
        -0.17588E-04
        -0.62815E-04
        -0.37561E-03
        -0.29751E-03
        -0.22517E-03
        -0.12064E-03
        -0.62679E-05
        -0.30850E-04
        -0.49072E-04
        -0.79724E-04
        -0.32914E-03
        -0.11201E-03
        -0.48177E-04
        -0.74317E-04
        -0.10299E-03
        -0.11332E-03
        -0.39934E-06
        -0.17346E-03
        -0.36497E-03
        -0.19833E-02
        -0.32968E-02
        -0.54718E-02
        -0.78303E-02
        -0.74948E-02
        -0.57361E-02
        -0.52826E-02
        -0.51596E-02
        -0.20411E-02
        -0.22708E-03
        -0.35482E-04
        -0.27470E-04
        -0.43580E-05
        -0.40804E-03
        -0.16364E-02
        -0.31419E-02
        -0.52756E-02
        -0.64791E-02
        -0.49979E-02
        -0.44706E-02
        -0.44148E-02
        -0.21610E-02
        -0.57705E-03
        -0.51398E-03
        -0.15747E-03
        -0.61648E-04
        -0.53547E-04
        -0.36911E-05
        -0.89356E-04
        -0.18443E-04
        -0.11628E-04
        -0.14453E-03
        -0.62882E-04
        -0.13523E-03
        -0.35042E-04
        -0.63975E-03
        -0.22705E-03
        -0.47320E-05
        -0.64646E-03
        -0.22385E-04
        -0.26993E-05
        -0.17784E-05
        -0.38755E-04
        -0.11589E-05
        -0.30372E-04
        -0.14516E-04
        -0.49540E-05
        -0.32683E-05
        -0.62461E-04
        -0.30644E-05
        -0.33857E-06
        -0.97908E-06
        -0.13266E-05
        -0.57955E-04
        -0.25839E-04
        -0.15335E-05
        -0.11569E-04
        -0.85917E-05
        -0.13560E-05
        -0.17616E-04
        -0.62823E-04
        -0.37682E-03
        -0.29884E-03
        -0.22576E-03
        -0.12090E-03
        -0.62017E-05
        -0.30880E-04
        -0.49210E-04
        -0.79836E-04
        -0.32929E-03
        -0.11211E-03
        -0.48172E-04
        -0.74177E-04
        -0.10273E-03
        -0.11323E-03
        -0.38394E-06
        -0.17312E-03
        -0.36500E-03
        -0.19839E-02
        -0.32969E-02
        -0.54705E-02
        -0.78249E-02
        -0.74882E-02
        -0.57326E-02
        -0.52804E-02
        -0.51565E-02
        -0.20405E-02
        -0.22741E-03
        -0.35492E-04
        -0.27577E-04
        -0.42768E-05
        -0.40856E-03
        -0.16385E-02
        -0.31438E-02
        -0.52753E-02
        -0.64783E-02
        -0.49974E-02
        -0.44704E-02
        -0.44124E-02
        -0.21579E-02
        -0.57580E-03
        -0.51260E-03
        -0.15762E-03
        -0.61638E-04
        -0.53598E-04
        -0.37430E-05
        -0.89380E-04
        -0.18472E-04
        -0.11645E-04
        -0.14491E-03
        -0.63116E-04
        -0.13607E-03
        -0.35105E-04
        -0.63969E-03
        -0.22720E-03
        -0.47394E-05
        -0.64812E-03
        -0.22394E-04
        -0.27484E-05
        -0.17725E-05
        -0.38813E-04
        -0.11424E-05
        -0.30524E-04
        -0.14534E-04
        -0.49682E-05
        -0.32593E-05
        -0.62920E-04
        -0.30408E-05
        -0.34903E-06
        -0.99693E-06
        -0.12905E-05
        -0.58121E-04
        -0.25832E-04
        -0.15143E-05
        -0.11621E-04
        -0.86229E-05
        -0.13248E-05
        -0.17644E-04
        -0.62829E-04
        -0.37803E-03
        -0.30018E-03
        -0.22635E-03
        -0.12117E-03
        -0.61365E-05
        -0.30911E-04
        -0.49352E-04
        -0.79947E-04
        -0.32945E-03
        -0.11222E-03
        -0.48169E-04
        -0.74036E-04
        -0.10247E-03
        -0.11313E-03
        -0.36897E-06
        -0.17279E-03
        -0.36503E-03
        -0.19846E-02
        -0.32969E-02
        -0.54691E-02
        -0.78194E-02
        -0.74816E-02
        -0.57290E-02
        -0.52782E-02
        -0.51534E-02
        -0.20398E-02
        -0.22774E-03
        -0.35500E-04
        -0.27683E-04
        -0.41967E-05
        -0.40908E-03
        -0.16406E-02
        -0.31457E-02
        -0.52751E-02
        -0.64774E-02
        -0.49969E-02
        -0.44702E-02
        -0.44100E-02
        -0.21548E-02
        -0.57457E-03
        -0.51123E-03
        -0.15778E-03
        -0.61629E-04
        -0.53649E-04
        -0.37956E-05
        -0.89402E-04
        -0.18501E-04
        -0.11661E-04
        -0.14529E-03
        -0.63352E-04
        -0.13691E-03
        -0.35168E-04
        -0.63963E-03
        -0.22735E-03
        -0.47478E-05
        -0.64976E-03
        -0.22402E-04
        -0.27984E-05
        -0.17665E-05
        -0.38872E-04
        -0.11267E-05
        -0.30676E-04
        -0.14553E-04
        -0.49828E-05
        -0.32500E-05
        -0.63382E-04
        -0.30176E-05
        -0.35955E-06
        -0.10148E-05
        -0.12549E-05
        -0.58277E-04
        -0.25826E-04
        -0.14949E-05
        -0.11673E-04
        -0.86544E-05
        -0.12939E-05
        -0.17673E-04
        -0.62838E-04
        -0.37927E-03
        -0.30151E-03
        -0.22691E-03
        -0.12143E-03
        -0.60707E-05
        -0.30943E-04
        -0.49493E-04
        -0.80058E-04
        -0.32960E-03
        -0.11232E-03
        -0.48165E-04
        -0.73893E-04
        -0.10221E-03
        -0.11305E-03
        -0.35428E-06
        -0.17245E-03
        -0.36506E-03
        -0.19852E-02
        -0.32969E-02
        -0.54678E-02
        -0.78140E-02
        -0.74751E-02
        -0.57255E-02
        -0.52760E-02
        -0.51501E-02
        -0.20392E-02
        -0.22807E-03
        -0.35503E-04
        -0.27790E-04
        -0.41175E-05
        -0.40960E-03
        -0.16426E-02
        -0.31476E-02
        -0.52748E-02
        -0.64765E-02
        -0.49965E-02
        -0.44700E-02
        -0.44076E-02
        -0.21517E-02
        -0.57334E-03
        -0.50985E-03
        -0.15793E-03
        -0.61620E-04
        -0.53700E-04
        -0.38485E-05
        -0.89423E-04
        -0.18529E-04
        -0.11678E-04
        -0.14566E-03
        -0.63591E-04
        -0.13775E-03
        -0.35230E-04
        -0.63957E-03
        -0.22751E-03
        -0.47563E-05
        -0.65142E-03
        -0.22411E-04
        -0.28497E-05
        -0.17605E-05
        -0.38931E-04
        -0.11118E-05
        -0.30829E-04
        -0.14570E-04
        -0.49971E-05
        -0.32412E-05
        -0.63845E-04
        -0.29942E-05
        -0.37068E-06
        -0.10327E-05
        -0.12200E-05
        -0.58424E-04
        -0.25819E-04
        -0.14760E-05
        -0.11724E-04
        -0.86858E-05
        -0.12632E-05
        -0.17701E-04
        -0.62846E-04
        -0.38051E-03
        -0.30284E-03
        -0.22746E-03
        -0.12169E-03
        -0.60055E-05
        -0.30977E-04
        -0.49633E-04
        -0.80171E-04
        -0.32975E-03
        -0.11242E-03
        -0.48159E-04
        -0.73753E-04
        -0.10195E-03
        -0.11295E-03
        -0.33978E-06
        -0.17212E-03
        -0.36508E-03
        -0.19859E-02
        -0.32970E-02
        -0.54665E-02
        -0.78086E-02
        -0.74685E-02
        -0.57220E-02
        -0.52738E-02
        -0.51466E-02
        -0.20387E-02
        -0.22841E-03
        -0.35501E-04
        -0.27898E-04
        -0.40386E-05
        -0.41012E-03
        -0.16447E-02
        -0.31494E-02
        -0.52745E-02
        -0.64757E-02
        -0.49960E-02
        -0.44698E-02
        -0.44052E-02
        -0.21486E-02
        -0.57212E-03
        -0.50848E-03
        -0.15809E-03
        -0.61611E-04
        -0.53754E-04
        -0.39015E-05
        -0.89450E-04
        -0.18558E-04
        -0.11695E-04
        -0.14604E-03
        -0.63832E-04
        -0.13859E-03
        -0.35293E-04
        -0.63951E-03
        -0.22766E-03
        -0.47636E-05
        -0.65307E-03
        -0.22420E-04
        -0.29018E-05
        -0.17546E-05
        -0.38991E-04
        -0.10974E-05
        -0.30982E-04
        -0.14588E-04
        -0.50105E-05
        -0.32329E-05
        -0.64310E-04
        -0.29717E-05
        -0.38169E-06
        -0.10499E-05
        -0.11859E-05
        -0.58568E-04
        -0.25813E-04
        -0.14576E-05
        -0.11776E-04
        -0.87179E-05
        -0.12331E-05
        -0.17728E-04
        -0.62850E-04
        -0.38177E-03
        -0.30417E-03
        -0.22798E-03
        -0.12195E-03
        -0.59419E-05
        -0.31013E-04
        -0.49771E-04
        -0.80279E-04
        -0.32990E-03
        -0.11253E-03
        -0.48156E-04
        -0.73613E-04
        -0.10169E-03
        -0.11287E-03
        -0.32568E-06
        -0.17178E-03
        -0.36512E-03
        -0.19865E-02
        -0.32970E-02
        -0.54652E-02
        -0.78032E-02
        -0.74619E-02
        -0.57185E-02
        -0.52715E-02
        -0.51431E-02
        -0.20382E-02
        -0.22874E-03
        -0.35493E-04
        -0.28005E-04
        -0.39605E-05
        -0.41063E-03
        -0.16468E-02
        -0.31513E-02
        -0.52743E-02
        -0.64748E-02
        -0.49955E-02
        -0.44695E-02
        -0.44028E-02
        -0.21455E-02
        -0.57090E-03
        -0.50712E-03
        -0.15979E-03
        -0.62230E-04
        -0.54355E-04
        -0.39911E-05
        -0.90384E-04
        -0.18769E-04
        -0.11834E-04
        -0.14785E-03
        -0.64681E-04
        -0.14076E-03
        -0.35712E-04
        -0.64602E-03
        -0.23007E-03
        -0.48197E-05
        -0.66155E-03
        -0.22650E-04
        -0.29802E-05
        -0.17655E-05
        -0.39432E-04
        -0.10955E-05
        -0.31429E-04
        -0.14749E-04
        -0.50643E-05
        -0.32605E-05
        -0.65405E-04
        -0.29856E-05
        -0.39592E-06
        -0.10740E-05
        -0.11706E-05
        -0.59318E-04
        -0.26068E-04
        -0.14589E-05
        -0.11941E-04
        -0.88346E-05
        -0.12186E-05
        -0.17917E-04
        -0.63452E-04
        -0.38691E-03
        -0.30858E-03
        -0.23085E-03
        -0.12344E-03
        -0.59540E-05
        -0.31375E-04
        -0.50336E-04
        -0.81113E-04
        -0.33322E-03
        -0.11368E-03
        -0.48588E-04
        -0.74178E-04
        -0.10244E-03
        -0.11390E-03
        -0.31515E-06
        -0.17343E-03
        -0.36950E-03
        -0.20104E-02
        -0.33351E-02
        -0.55285E-02
        -0.78934E-02
        -0.75482E-02
        -0.57861E-02
        -0.53351E-02
        -0.52050E-02
        -0.20630E-02
        -0.23168E-03
        -0.35860E-04
        -0.28402E-04
        -0.39284E-05
        -0.41538E-03
        -0.16660E-02
        -0.31883E-02
        -0.53366E-02
        -0.65510E-02
        -0.50512E-02
        -0.45184E-02
        -0.44500E-02
        -0.21667E-02
        -0.57612E-03
        -0.51147E-03
        -0.36123E-03
        -0.14195E-03
        -0.12258E-03
        -0.91428E-05
        -0.19028E-03
        -0.40263E-04
        -0.26931E-04
        -0.33215E-03
        -0.14572E-03
        -0.31501E-03
        -0.78654E-04
        -0.13157E-02
        -0.48187E-03
        -0.10536E-04
        -0.13644E-02
        -0.51275E-04
        -0.67984E-05
        -0.39867E-05
        -0.87081E-04
        -0.24202E-05
        -0.65837E-04
        -0.31628E-04
        -0.10612E-04
        -0.73023E-05
        -0.14935E-03
        -0.67904E-05
        -0.89450E-06
        -0.24586E-05
        -0.26540E-05
        -0.13504E-03
        -0.59032E-04
        -0.32839E-05
        -0.27216E-04
        -0.20095E-04
        -0.24086E-05
        -0.38357E-04
        -0.13585E-03
        -0.83312E-03
        -0.68343E-03
        -0.51460E-03
        -0.26777E-03
        -0.13039E-04
        -0.68896E-04
        -0.10711E-03
        -0.17153E-03
        -0.66651E-03
        -0.23895E-03
        -0.10447E-03
        -0.16104E-03
        -0.22056E-03
        -0.23414E-03
        -0.65086E-06
        -0.27979E-03
        -0.59502E-03
        -0.32406E-02
        -0.54003E-02
        -0.89477E-02
        -0.12860E-01
        -0.12580E-01
        -0.98070E-02
        -0.90115E-02
        -0.86955E-02
        -0.34513E-02
        -0.38544E-03
        -0.60694E-04
        -0.48448E-04
        -0.64328E-05
        -0.67384E-03
        -0.26874E-02
        -0.50986E-02
        -0.85411E-02
        -0.10511E-01
        -0.82523E-02
        -0.74404E-02
        -0.72815E-02
        -0.35676E-02
        -0.94202E-03
        -0.82991E-03
  
SCALARS                      strain_zz  double 1
LOOKUP_TABLE default
         0.14365E+02
         0.14177E+02
         0.14293E+02
         0.14511E+02
        -0.36596E-08
        -0.41036E-08
        -0.39293E-08
        -0.35697E-08
         0.14143E+02
         0.14222E+02
        -0.36902E-08
        -0.35712E-08
         0.13903E+02
         0.13894E+02
        -0.43847E-08
        -0.41227E-08
         0.14479E+02
         0.13906E+02
        -0.32398E-08
        -0.35935E-08
         0.13697E+02
         0.13523E+02
         0.13781E+02
        -0.43457E-08
        -0.37952E-08
        -0.39190E-08
         0.13538E+02
         0.13293E+02
        -0.41691E-08
        -0.35159E-08
         0.14468E+02
         0.14220E+02
         0.14709E+02
        -0.35577E-08
        -0.33075E-08
        -0.32157E-08
         0.14321E+02
         0.14007E+02
        -0.37639E-08
        -0.34346E-08
         0.14192E+02
         0.13944E+02
        -0.32531E-08
        -0.28799E-08
         0.14397E+02
         0.14496E+02
        -0.35650E-08
        -0.39833E-08
         0.13759E+02
        -0.34827E-08
         0.14477E+02
        -0.40923E-08
         0.13474E+02
        -0.36778E-08
         0.13399E+02
        -0.35278E-08
         0.13393E+02
         0.13666E+02
        -0.35944E-08
        -0.35005E-08
         0.14463E+02
         0.14361E+02
        -0.36042E-08
        -0.40746E-08
         0.14523E+02
        -0.34779E-08
         0.14406E+02
        -0.37956E-08
         0.14060E+02
         0.14058E+02
        -0.36537E-08
        -0.38284E-08
         0.13999E+02
        -0.38605E-08
         0.13205E+02
        -0.30501E-08
         0.13159E+02
        -0.29606E-08
         0.13170E+02
        -0.31216E-08
         0.13259E+02
         0.13403E+02
        -0.29742E-08
        -0.31008E-08
         0.13660E+02
        -0.28880E-08
         0.14386E+02
        -0.37872E-08
         0.14258E+02
        -0.38761E-08
         0.14134E+02
         0.14120E+02
        -0.37223E-08
        -0.37657E-08
         0.14198E+02
        -0.34204E-08
         0.14242E+02
        -0.33716E-08
         0.14192E+02
        -0.36093E-08
         0.14150E+02
         0.14211E+02
        -0.35395E-08
        -0.36433E-08
         0.13810E+02
         0.13885E+02
        -0.27481E-08
        -0.25847E-08
         0.13750E+02
        -0.26240E-08
         0.13837E+02
        -0.25160E-08
         0.13729E+02
        -0.24810E-08
         0.13444E+02
        -0.23445E-08
         0.13148E+02
        -0.20829E-08
         0.12987E+02
        -0.18755E-08
         0.12972E+02
        -0.18625E-08
         0.12982E+02
        -0.20197E-08
         0.13164E+02
        -0.21227E-08
         0.13444E+02
        -0.19382E-08
         0.13774E+02
        -0.17471E-08
         0.14007E+02
        -0.17451E-08
         0.14230E+02
        -0.19506E-08
         0.14373E+02
        -0.22242E-08
         0.14349E+02
        -0.23894E-08
         0.14073E+02
        -0.25806E-08
         0.13894E+02
        -0.27647E-08
         0.13757E+02
        -0.25326E-08
         0.13844E+02
        -0.22218E-08
         0.13928E+02
        -0.22149E-08
         0.13873E+02
        -0.24234E-08
         0.13915E+02
        -0.25835E-08
         0.13956E+02
        -0.24518E-08
         0.14018E+02
        -0.23703E-08
        -0.47762E+00
        -0.47251E+00
        -0.47324E+00
        -0.47968E+00
        -0.46703E+00
        -0.47381E+00
        -0.46536E+00
        -0.46992E+00
        -0.47872E+00
        -0.47340E+00
        -0.46011E+00
        -0.45835E+00
        -0.46275E+00
        -0.46311E+00
        -0.46022E+00
        -0.47939E+00
        -0.47826E+00
        -0.48138E+00
        -0.47193E+00
        -0.47380E+00
        -0.47104E+00
        -0.47282E+00
        -0.46949E+00
        -0.47044E+00
        -0.47363E+00
        -0.47342E+00
        -0.46782E+00
        -0.46836E+00
        -0.46390E+00
        -0.47051E+00
        -0.47884E+00
        -0.47244E+00
        -0.47880E+00
        -0.47469E+00
        -0.45719E+00
        -0.46328E+00
        -0.46600E+00
        -0.46274E+00
        -0.46234E+00
        -0.45677E+00
        -0.45243E+00
        -0.46256E+00
        -0.47114E+00
        -0.47006E+00
        -0.46573E+00
        -0.45740E+00
        -0.46458E+00
        -0.47154E+00
        -0.47108E+00
        -0.46572E+00
        -0.45977E+00
        -0.46767E+00
        -0.44066E+00
        -0.44898E+00
        -0.44756E+00
        -0.44940E+00
        -0.44880E+00
        -0.44420E+00
        -0.43951E+00
        -0.43811E+00
        -0.43884E+00
        -0.43828E+00
        -0.43625E+00
        -0.44848E+00
        -0.45299E+00
        -0.45468E+00
        -0.45727E+00
        -0.45916E+00
        -0.45899E+00
        -0.45553E+00
        -0.44345E+00
        -0.44638E+00
        -0.45071E+00
        -0.45075E+00
        -0.45001E+00
        -0.44598E+00
        -0.45188E+00
        -0.45396E+00
         0.19563E-03
         0.72657E-04
         0.69134E-04
         0.51110E-04
         0.20274E-03
         0.11657E-03
         0.10961E-04
         0.15364E-03
         0.95378E-04
         0.13313E-03
         0.12091E-04
         0.65473E-03
         0.38425E-03
         0.45303E-04
         0.70279E-03
         0.98999E-04
         0.39473E-04
         0.30530E-04
         0.42153E-04
         0.15368E-04
         0.40210E-03
         0.36502E-03
         0.32679E-03
         0.18257E-04
         0.41550E-04
         0.40974E-05
         0.16666E-04
        -0.52026E-04
        -0.16382E-04
         0.55449E-04
         0.73482E-04
         0.18339E-04
         0.49100E-04
         0.53565E-04
         0.31260E-03
         0.11305E-03
         0.19311E-03
         0.45915E-03
         0.26726E-03
         0.23717E-03
         0.49568E-03
         0.40139E-03
         0.40939E-03
         0.23666E-03
         0.18859E-03
         0.36203E-03
         0.15971E-03
         0.11978E-03
         0.89913E-04
         0.12791E-03
         0.30836E-03
         0.16374E-03
         0.55618E-02
         0.58699E-02
         0.63883E-02
         0.63252E-02
         0.72083E-02
         0.83190E-02
         0.76543E-02
         0.60676E-02
         0.57551E-02
         0.65694E-02
         0.63061E-02
         0.61303E-02
         0.41828E-02
         0.37956E-02
         0.45506E-02
         0.52032E-02
         0.56082E-02
         0.66931E-02
         0.61982E-02
         0.65642E-02
         0.53256E-02
         0.47935E-02
         0.54378E-02
         0.51964E-02
         0.55193E-02
         0.54419E-02
         0.19461E-03
         0.71348E-04
         0.67875E-04
         0.49997E-04
         0.20104E-03
         0.11503E-03
         0.96047E-05
         0.15248E-03
         0.94232E-04
         0.13238E-03
         0.10448E-04
         0.65276E-03
         0.38287E-03
         0.43233E-04
         0.70237E-03
         0.97745E-04
         0.38069E-04
         0.29300E-04
         0.40635E-04
         0.13675E-04
         0.40050E-03
         0.36334E-03
         0.32502E-03
         0.16659E-04
         0.40306E-04
         0.25730E-05
         0.15147E-04
        -0.53720E-04
        -0.18035E-04
         0.53872E-04
         0.72256E-04
         0.16886E-04
         0.47782E-04
         0.52392E-04
         0.31116E-03
         0.11148E-03
         0.19151E-03
         0.45870E-03
         0.26671E-03
         0.23605E-03
         0.49443E-03
         0.39995E-03
         0.40771E-03
         0.23498E-03
         0.18693E-03
         0.36027E-03
         0.15811E-03
         0.11825E-03
         0.88300E-04
         0.12622E-03
         0.30645E-03
         0.16185E-03
         0.55548E-02
         0.58642E-02
         0.63854E-02
         0.63225E-02
         0.72030E-02
         0.83102E-02
         0.76447E-02
         0.60611E-02
         0.57489E-02
         0.65621E-02
         0.63006E-02
         0.61276E-02
         0.41794E-02
         0.37928E-02
         0.45491E-02
         0.52029E-02
         0.56083E-02
         0.66930E-02
         0.61945E-02
         0.65604E-02
         0.53216E-02
         0.47903E-02
         0.54314E-02
         0.51869E-02
         0.55104E-02
         0.54334E-02
         0.19517E-03
         0.71641E-04
         0.68220E-04
         0.50393E-04
         0.20127E-03
         0.11532E-03
         0.10011E-04
         0.15313E-03
         0.94689E-04
         0.13332E-03
         0.10780E-04
         0.65309E-03
         0.38349E-03
         0.43195E-04
         0.70432E-03
         0.97613E-04
         0.38122E-04
         0.29570E-04
         0.40298E-04
         0.13312E-04
         0.40031E-03
         0.36319E-03
         0.32386E-03
         0.15505E-04
         0.40072E-04
         0.15033E-05
         0.15513E-04
        -0.53981E-04
        -0.18635E-04
         0.52839E-04
         0.72388E-04
         0.16547E-04
         0.48017E-04
         0.52829E-04
         0.31189E-03
         0.11180E-03
         0.19176E-03
         0.46053E-03
         0.26828E-03
         0.23683E-03
         0.49505E-03
         0.39970E-03
         0.40686E-03
         0.23388E-03
         0.18659E-03
         0.36048E-03
         0.15841E-03
         0.11857E-03
         0.88464E-04
         0.12635E-03
         0.30658E-03
         0.16185E-03
         0.55516E-02
         0.58622E-02
         0.63862E-02
         0.63233E-02
         0.72012E-02
         0.83052E-02
         0.76391E-02
         0.60586E-02
         0.57466E-02
         0.65589E-02
         0.62988E-02
         0.61281E-02
         0.41787E-02
         0.37929E-02
         0.45505E-02
         0.52050E-02
         0.56107E-02
         0.66961E-02
         0.61946E-02
         0.65606E-02
         0.53212E-02
         0.47905E-02
         0.54287E-02
         0.51808E-02
         0.55048E-02
         0.54282E-02
         0.19525E-03
         0.71556E-04
         0.68173E-04
         0.50282E-04
         0.20095E-03
         0.11510E-03
         0.99933E-05
         0.15326E-03
         0.94520E-04
         0.13347E-03
         0.10612E-04
         0.65286E-03
         0.38366E-03
         0.42566E-04
         0.70558E-03
         0.96663E-04
         0.37357E-04
         0.29310E-04
         0.38983E-04
         0.11877E-04
         0.39914E-03
         0.36203E-03
         0.32124E-03
         0.12925E-04
         0.38484E-04
        -0.93078E-06
         0.15131E-04
        -0.55353E-04
        -0.20697E-04
         0.49995E-04
         0.71865E-04
         0.15239E-04
         0.47734E-04
         0.52671E-04
         0.31193E-03
         0.11159E-03
         0.19155E-03
         0.46167E-03
         0.26913E-03
         0.23674E-03
         0.49468E-03
         0.39803E-03
         0.40442E-03
         0.23130E-03
         0.18523E-03
         0.35978E-03
         0.15792E-03
         0.11828E-03
         0.88009E-04
         0.12580E-03
         0.30601E-03
         0.16127E-03
         0.55472E-02
         0.58591E-02
         0.63857E-02
         0.63230E-02
         0.71986E-02
         0.82993E-02
         0.76322E-02
         0.60548E-02
         0.57432E-02
         0.65543E-02
         0.62957E-02
         0.61270E-02
         0.41765E-02
         0.37920E-02
         0.45509E-02
         0.52057E-02
         0.56116E-02
         0.66980E-02
         0.61934E-02
         0.65593E-02
         0.53197E-02
         0.47894E-02
         0.54244E-02
         0.51737E-02
         0.54984E-02
         0.54222E-02
         0.19518E-03
         0.71354E-04
         0.68044E-04
         0.50164E-04
         0.20062E-03
         0.11483E-03
         0.99049E-05
         0.15325E-03
         0.94271E-04
         0.13359E-03
         0.10433E-04
         0.65269E-03
         0.38381E-03
         0.41918E-04
         0.70696E-03
         0.96085E-04
         0.36786E-04
         0.29064E-04
         0.38137E-04
         0.10828E-04
         0.39845E-03
         0.36121E-03
         0.31967E-03
         0.11322E-04
         0.37477E-04
        -0.24934E-05
         0.14799E-04
        -0.56346E-04
        -0.22093E-04
         0.48158E-04
         0.71319E-04
         0.14288E-04
         0.47271E-04
         0.52436E-04
         0.31198E-03
         0.11133E-03
         0.19128E-03
         0.46291E-03
         0.27008E-03
         0.23687E-03
         0.49468E-03
         0.39708E-03
         0.40290E-03
         0.22973E-03
         0.18435E-03
         0.35935E-03
         0.15750E-03
         0.11783E-03
         0.87382E-04
         0.12511E-03
         0.30533E-03
         0.16059E-03
         0.55428E-02
         0.58561E-02
         0.63852E-02
         0.63227E-02
         0.71961E-02
         0.82937E-02
         0.76256E-02
         0.60513E-02
         0.57399E-02
         0.65499E-02
         0.62931E-02
         0.61266E-02
         0.41751E-02
         0.37912E-02
         0.45516E-02
         0.52075E-02
         0.56136E-02
         0.67004E-02
         0.61926E-02
         0.65581E-02
         0.53180E-02
         0.47883E-02
         0.54201E-02
         0.51664E-02
         0.54919E-02
         0.54162E-02
         0.19462E-03
         0.70934E-04
         0.67916E-04
         0.50406E-04
         0.20066E-03
         0.11500E-03
         0.98736E-05
         0.15298E-03
         0.93833E-04
         0.13342E-03
         0.10581E-04
         0.65309E-03
         0.38428E-03
         0.41551E-04
         0.70898E-03
         0.96401E-04
         0.36765E-04
         0.29342E-04
         0.38375E-04
         0.10919E-04
         0.39883E-03
         0.36149E-03
         0.31977E-03
         0.11284E-04
         0.37330E-04
        -0.27188E-05
         0.14752E-04
        -0.56482E-04
        -0.21911E-04
         0.48281E-04
         0.70636E-04
         0.13781E-04
         0.46558E-04
         0.52407E-04
         0.31247E-03
         0.11131E-03
         0.19118E-03
         0.46476E-03
         0.27173E-03
         0.23799E-03
         0.49582E-03
         0.39778E-03
         0.40329E-03
         0.22974E-03
         0.18425E-03
         0.35934E-03
         0.15714E-03
         0.11692E-03
         0.86167E-04
         0.12429E-03
         0.30490E-03
         0.16031E-03
         0.55394E-02
         0.58541E-02
         0.63858E-02
         0.63232E-02
         0.71942E-02
         0.82887E-02
         0.76199E-02
         0.60487E-02
         0.57377E-02
         0.65469E-02
         0.62919E-02
         0.61280E-02
         0.41754E-02
         0.37916E-02
         0.45536E-02
         0.52114E-02
         0.56178E-02
         0.67040E-02
         0.61923E-02
         0.65576E-02
         0.53169E-02
         0.47873E-02
         0.54161E-02
         0.51597E-02
         0.54861E-02
         0.54110E-02
         0.19362E-03
         0.70158E-04
         0.67519E-04
         0.50367E-04
         0.20034E-03
         0.11489E-03
         0.93843E-05
         0.15214E-03
         0.92942E-04
         0.13277E-03
         0.10205E-04
         0.65294E-03
         0.38435E-03
         0.40601E-04
         0.71038E-03
         0.96357E-04
         0.36320E-04
         0.29234E-04
         0.38273E-04
         0.10635E-04
         0.39885E-03
         0.36141E-03
         0.31972E-03
         0.11086E-04
         0.36900E-04
        -0.31209E-05
         0.14160E-04
        -0.57000E-04
        -0.21972E-04
         0.48233E-04
         0.69617E-04
         0.12949E-04
         0.45520E-04
         0.52077E-04
         0.31249E-03
         0.11095E-03
         0.19076E-03
         0.46601E-03
         0.27282E-03
         0.23862E-03
         0.49654E-03
         0.39824E-03
         0.40348E-03
         0.22961E-03
         0.18380E-03
         0.35879E-03
         0.15630E-03
         0.11558E-03
         0.84550E-04
         0.12309E-03
         0.30411E-03
         0.15973E-03
         0.55351E-02
         0.58511E-02
         0.63855E-02
         0.63231E-02
         0.71915E-02
         0.82827E-02
         0.76132E-02
         0.60452E-02
         0.57346E-02
         0.65427E-02
         0.62897E-02
         0.61286E-02
         0.41750E-02
         0.37915E-02
         0.45548E-02
         0.52149E-02
         0.56216E-02
         0.67067E-02
         0.61907E-02
         0.65559E-02
         0.53149E-02
         0.47857E-02
         0.54114E-02
         0.51524E-02
         0.54797E-02
         0.54051E-02
         0.19348E-03
         0.69869E-04
         0.67389E-04
         0.50286E-04
         0.20001E-03
         0.11462E-03
         0.91821E-05
         0.15199E-03
         0.92847E-04
         0.13310E-03
         0.99490E-05
         0.65271E-03
         0.38442E-03
         0.39888E-04
         0.71169E-03
         0.96336E-04
         0.36225E-04
         0.29032E-04
         0.38183E-04
         0.10405E-04
         0.39881E-03
         0.36123E-03
         0.31962E-03
         0.10933E-04
         0.37056E-04
        -0.33540E-05
         0.13935E-04
        -0.57286E-04
        -0.22145E-04
         0.48197E-04
         0.69366E-04
         0.12605E-04
         0.45121E-04
         0.51909E-04
         0.31257E-03
         0.11074E-03
         0.19049E-03
         0.46721E-03
         0.27388E-03
         0.23910E-03
         0.49702E-03
         0.39849E-03
         0.40353E-03
         0.22952E-03
         0.18355E-03
         0.35861E-03
         0.15608E-03
         0.11527E-03
         0.84030E-04
         0.12250E-03
         0.30353E-03
         0.15911E-03
         0.55306E-02
         0.58479E-02
         0.63850E-02
         0.63229E-02
         0.71888E-02
         0.82768E-02
         0.76065E-02
         0.60416E-02
         0.57312E-02
         0.65381E-02
         0.62871E-02
         0.61291E-02
         0.41745E-02
         0.37909E-02
         0.45558E-02
         0.52179E-02
         0.56249E-02
         0.67093E-02
         0.61894E-02
         0.65547E-02
         0.53137E-02
         0.47848E-02
         0.54071E-02
         0.51452E-02
         0.54731E-02
         0.53989E-02
         0.19392E-03
         0.70065E-04
         0.67589E-04
         0.50416E-04
         0.20004E-03
         0.11457E-03
         0.94825E-05
         0.15250E-03
         0.93299E-04
         0.13414E-03
         0.10168E-04
         0.65295E-03
         0.38494E-03
         0.39765E-04
         0.71359E-03
         0.96781E-04
         0.36594E-04
         0.29134E-04
         0.38509E-04
         0.10588E-04
         0.39919E-03
         0.36146E-03
         0.31994E-03
         0.11193E-04
         0.37773E-04
        -0.31166E-05
         0.14375E-04
        -0.57001E-04
        -0.21818E-04
         0.48615E-04
         0.69707E-04
         0.12770E-04
         0.45180E-04
         0.52018E-04
         0.31314E-03
         0.11090E-03
         0.19061E-03
         0.46901E-03
         0.27546E-03
         0.24006E-03
         0.49803E-03
         0.39922E-03
         0.40399E-03
         0.22989E-03
         0.18378E-03
         0.35892E-03
         0.15635E-03
         0.11554E-03
         0.84105E-04
         0.12241E-03
         0.30340E-03
         0.15877E-03
         0.55272E-02
         0.58458E-02
         0.63852E-02
         0.63231E-02
         0.71867E-02
         0.82717E-02
         0.76006E-02
         0.60387E-02
         0.57285E-02
         0.65343E-02
         0.62855E-02
         0.61305E-02
         0.41747E-02
         0.37911E-02
         0.45575E-02
         0.52218E-02
         0.56292E-02
         0.67129E-02
         0.61890E-02
         0.65544E-02
         0.53132E-02
         0.47849E-02
         0.54037E-02
         0.51388E-02
         0.54674E-02
         0.53936E-02
         0.19408E-03
         0.70047E-04
         0.67608E-04
         0.50390E-04
         0.19985E-03
         0.11438E-03
         0.95431E-05
         0.15263E-03
         0.93372E-04
         0.13474E-03
         0.10075E-04
         0.65281E-03
         0.38525E-03
         0.39201E-04
         0.71490E-03
         0.96836E-04
         0.36584E-04
         0.28922E-04
         0.38443E-04
         0.10397E-04
         0.39924E-03
         0.36134E-03
         0.31992E-03
         0.11092E-04
         0.38161E-04
        -0.32181E-05
         0.14338E-04
        -0.57052E-04
        -0.21786E-04
         0.48703E-04
         0.69713E-04
         0.12650E-04
         0.44922E-04
         0.51904E-04
         0.31335E-03
         0.11079E-03
         0.19051E-03
         0.47026E-03
         0.27666E-03
         0.24070E-03
         0.49866E-03
         0.39962E-03
         0.40406E-03
         0.22996E-03
         0.18375E-03
         0.35894E-03
         0.15628E-03
         0.11543E-03
         0.83802E-04
         0.12202E-03
         0.30300E-03
         0.15824E-03
         0.55230E-02
         0.58429E-02
         0.63848E-02
         0.63229E-02
         0.71843E-02
         0.82659E-02
         0.75938E-02
         0.60350E-02
         0.57253E-02
         0.65299E-02
         0.62830E-02
         0.61311E-02
         0.41741E-02
         0.37908E-02
         0.45587E-02
         0.52252E-02
         0.56331E-02
         0.67159E-02
         0.61880E-02
         0.65533E-02
         0.53119E-02
         0.47841E-02
         0.53998E-02
         0.51320E-02
         0.54611E-02
         0.53876E-02
         0.19413E-03
         0.69897E-04
         0.67557E-04
         0.50409E-04
         0.19957E-03
         0.11423E-03
         0.95197E-05
         0.15271E-03
         0.93462E-04
         0.13534E-03
         0.99675E-05
         0.65263E-03
         0.38547E-03
         0.38672E-04
         0.71622E-03
         0.96843E-04
         0.36606E-04
         0.28780E-04
         0.38352E-04
         0.10239E-04
         0.39925E-03
         0.36122E-03
         0.31986E-03
         0.10937E-04
         0.38551E-04
        -0.34020E-05
         0.14328E-04
        -0.57139E-04
        -0.21764E-04
         0.48819E-04
         0.69667E-04
         0.12468E-04
         0.44737E-04
         0.51916E-04
         0.31346E-03
         0.11062E-03
         0.19034E-03
         0.47153E-03
         0.27785E-03
         0.24134E-03
         0.49937E-03
         0.40003E-03
         0.40415E-03
         0.22997E-03
         0.18367E-03
         0.35893E-03
         0.15623E-03
         0.11533E-03
         0.83508E-04
         0.12164E-03
         0.30262E-03
         0.15779E-03
         0.55186E-02
         0.58398E-02
         0.63843E-02
         0.63228E-02
         0.71819E-02
         0.82599E-02
         0.75868E-02
         0.60314E-02
         0.57222E-02
         0.65256E-02
         0.62808E-02
         0.61317E-02
         0.41735E-02
         0.37904E-02
         0.45599E-02
         0.52284E-02
         0.56368E-02
         0.67188E-02
         0.61869E-02
         0.65522E-02
         0.53106E-02
         0.47833E-02
         0.53958E-02
         0.51250E-02
         0.54547E-02
         0.53816E-02
         0.19445E-03
         0.69958E-04
         0.67666E-04
         0.50581E-04
         0.19954E-03
         0.11426E-03
         0.97490E-05
         0.15314E-03
         0.93800E-04
         0.13623E-03
         0.10182E-04
         0.65280E-03
         0.38586E-03
         0.38529E-04
         0.71808E-03
         0.97172E-04
         0.36841E-04
         0.28881E-04
         0.38569E-04
         0.10378E-04
         0.39958E-03
         0.36141E-03
         0.32011E-03
         0.11096E-04
         0.39146E-04
        -0.32539E-05
         0.14628E-04
        -0.56962E-04
        -0.21406E-04
         0.49259E-04
         0.69963E-04
         0.12574E-04
         0.44829E-04
         0.52128E-04
         0.31393E-03
         0.11071E-03
         0.19036E-03
         0.47329E-03
         0.27944E-03
         0.24240E-03
         0.50040E-03
         0.40071E-03
         0.40456E-03
         0.23024E-03
         0.18382E-03
         0.35916E-03
         0.15642E-03
         0.11551E-03
         0.83504E-04
         0.12153E-03
         0.30248E-03
         0.15754E-03
         0.55150E-02
         0.58376E-02
         0.63846E-02
         0.63231E-02
         0.71794E-02
         0.82544E-02
         0.75808E-02
         0.60286E-02
         0.57197E-02
         0.65219E-02
         0.62791E-02
         0.61326E-02
         0.41735E-02
         0.37906E-02
         0.45616E-02
         0.52321E-02
         0.56408E-02
         0.67221E-02
         0.61863E-02
         0.65517E-02
         0.53100E-02
         0.47832E-02
         0.53923E-02
         0.51186E-02
         0.54490E-02
         0.53763E-02
         0.19459E-03
         0.69839E-04
         0.67619E-04
         0.50542E-04
         0.19926E-03
         0.11403E-03
         0.96931E-05
         0.15323E-03
         0.93920E-04
         0.13679E-03
         0.10017E-04
         0.65257E-03
         0.38597E-03
         0.37928E-04
         0.71947E-03
         0.97212E-04
         0.36829E-04
         0.28659E-04
         0.38444E-04
         0.10161E-04
         0.39950E-03
         0.36120E-03
         0.31995E-03
         0.10918E-04
         0.39438E-04
        -0.34161E-05
         0.14445E-04
        -0.57231E-04
        -0.21504E-04
         0.49312E-04
         0.69930E-04
         0.12400E-04
         0.44538E-04
         0.52029E-04
         0.31404E-03
         0.11053E-03
         0.19012E-03
         0.47453E-03
         0.28052E-03
         0.24292E-03
         0.50091E-03
         0.40092E-03
         0.40456E-03
         0.23014E-03
         0.18365E-03
         0.35907E-03
         0.15632E-03
         0.11534E-03
         0.83172E-04
         0.12114E-03
         0.30205E-03
         0.15700E-03
         0.55106E-02
         0.58345E-02
         0.63841E-02
         0.63228E-02
         0.71766E-02
         0.82483E-02
         0.75740E-02
         0.60249E-02
         0.57163E-02
         0.65173E-02
         0.62765E-02
         0.61329E-02
         0.41728E-02
         0.37901E-02
         0.45626E-02
         0.52352E-02
         0.56441E-02
         0.67248E-02
         0.61852E-02
         0.65505E-02
         0.53087E-02
         0.47826E-02
         0.53884E-02
         0.51116E-02
         0.54426E-02
         0.53703E-02
         0.19479E-03
         0.69800E-04
         0.67644E-04
         0.50586E-04
         0.19910E-03
         0.11390E-03
         0.97666E-05
         0.15345E-03
         0.94168E-04
         0.13756E-03
         0.10017E-04
         0.65255E-03
         0.38627E-03
         0.37534E-04
         0.72101E-03
         0.97366E-04
         0.36982E-04
         0.28575E-04
         0.38482E-04
         0.10098E-04
         0.39959E-03
         0.36116E-03
         0.31998E-03
         0.10883E-04
         0.39907E-04
        -0.34689E-05
         0.14543E-04
        -0.57282E-04
        -0.21448E-04
         0.49477E-04
         0.69969E-04
         0.12319E-04
         0.44367E-04
         0.52040E-04
         0.31431E-03
         0.11044E-03
         0.19001E-03
         0.47595E-03
         0.28175E-03
         0.24359E-03
         0.50167E-03
         0.40139E-03
         0.40474E-03
         0.23023E-03
         0.18364E-03
         0.35915E-03
         0.15634E-03
         0.11529E-03
         0.82943E-04
         0.12085E-03
         0.30176E-03
         0.15657E-03
         0.55065E-02
         0.58318E-02
         0.63838E-02
         0.63227E-02
         0.71743E-02
         0.82427E-02
         0.75674E-02
         0.60214E-02
         0.57132E-02
         0.65130E-02
         0.62744E-02
         0.61336E-02
         0.41724E-02
         0.37898E-02
         0.45639E-02
         0.52386E-02
         0.56480E-02
         0.67278E-02
         0.61843E-02
         0.65496E-02
         0.53076E-02
         0.47820E-02
         0.53846E-02
         0.51048E-02
         0.54364E-02
         0.53644E-02
         0.19534E-03
         0.70172E-04
         0.68013E-04
         0.50906E-04
         0.19932E-03
         0.11409E-03
         0.10302E-04
         0.15409E-03
         0.94665E-04
         0.13865E-03
         0.10494E-04
         0.65307E-03
         0.38705E-03
         0.37584E-04
         0.72306E-03
         0.97866E-04
         0.37438E-04
         0.28806E-04
         0.38894E-04
         0.10435E-04
         0.40017E-03
         0.36156E-03
         0.32045E-03
         0.11231E-04
         0.40782E-04
        -0.31297E-05
         0.15085E-04
        -0.56776E-04
        -0.20842E-04
         0.50120E-04
         0.70439E-04
         0.12653E-04
         0.44561E-04
         0.52310E-04
         0.31504E-03
         0.11078E-03
         0.19033E-03
         0.47784E-03
         0.28355E-03
         0.24481E-03
         0.50287E-03
         0.40230E-03
         0.40532E-03
         0.23079E-03
         0.18411E-03
         0.35970E-03
         0.15679E-03
         0.11569E-03
         0.83096E-04
         0.12086E-03
         0.30177E-03
         0.15644E-03
         0.55033E-02
         0.58299E-02
         0.63843E-02
         0.63232E-02
         0.71726E-02
         0.82379E-02
         0.75616E-02
         0.60186E-02
         0.57109E-02
         0.65095E-02
         0.62730E-02
         0.61351E-02
         0.41726E-02
         0.37903E-02
         0.45659E-02
         0.52428E-02
         0.56527E-02
         0.67318E-02
         0.61842E-02
         0.65495E-02
         0.53073E-02
         0.47821E-02
         0.53814E-02
         0.50987E-02
         0.54310E-02
         0.53594E-02
         0.19541E-03
         0.70062E-04
         0.67973E-04
         0.50839E-04
         0.19901E-03
         0.11386E-03
         0.10265E-04
         0.15414E-03
         0.94737E-04
         0.13917E-03
         0.10337E-04
         0.65290E-03
         0.38730E-03
         0.36977E-04
         0.72436E-03
         0.97867E-04
         0.37388E-04
         0.28616E-04
         0.38711E-04
         0.10182E-04
         0.40016E-03
         0.36136E-03
         0.32039E-03
         0.11016E-04
         0.41045E-04
        -0.33551E-05
         0.14926E-04
        -0.56963E-04
        -0.20771E-04
         0.50216E-04
         0.70448E-04
         0.12460E-04
         0.44334E-04
         0.52181E-04
         0.31511E-03
         0.11060E-03
         0.19019E-03
         0.47906E-03
         0.28470E-03
         0.24547E-03
         0.50348E-03
         0.40257E-03
         0.40528E-03
         0.23073E-03
         0.18396E-03
         0.35963E-03
         0.15671E-03
         0.11561E-03
         0.82794E-04
         0.12041E-03
         0.30132E-03
         0.15589E-03
         0.54987E-02
         0.58267E-02
         0.63837E-02
         0.63231E-02
         0.71701E-02
         0.82320E-02
         0.75546E-02
         0.60148E-02
         0.57076E-02
         0.65049E-02
         0.62704E-02
         0.61353E-02
         0.41718E-02
         0.37899E-02
         0.45672E-02
         0.52462E-02
         0.56564E-02
         0.67345E-02
         0.61831E-02
         0.65483E-02
         0.53060E-02
         0.47813E-02
         0.53772E-02
         0.50918E-02
         0.54248E-02
         0.53534E-02
         0.19539E-03
         0.69789E-04
         0.67764E-04
         0.50722E-04
         0.19860E-03
         0.11352E-03
         0.10137E-04
         0.15416E-03
         0.94735E-04
         0.13949E-03
         0.10139E-04
         0.65262E-03
         0.38740E-03
         0.36365E-04
         0.72563E-03
         0.97826E-04
         0.37237E-04
         0.28404E-04
         0.38571E-04
         0.10035E-04
         0.40012E-03
         0.36112E-03
         0.32029E-03
         0.10833E-04
         0.41131E-04
        -0.35766E-05
         0.14490E-04
        -0.57257E-04
        -0.20077E-04
         0.50726E-04
         0.70365E-04
         0.12196E-04
         0.44110E-04
         0.52106E-04
         0.31515E-03
         0.11033E-03
         0.18991E-03
         0.48011E-03
         0.28586E-03
         0.24666E-03
         0.50424E-03
         0.40283E-03
         0.40515E-03
         0.23068E-03
         0.18376E-03
         0.35947E-03
         0.15652E-03
         0.11544E-03
         0.82469E-04
         0.11999E-03
         0.30088E-03
         0.15532E-03
         0.54943E-02
         0.58237E-02
         0.63832E-02
         0.63229E-02
         0.71674E-02
         0.82258E-02
         0.75474E-02
         0.60109E-02
         0.57042E-02
         0.65006E-02
         0.62674E-02
         0.61347E-02
         0.41709E-02
         0.37894E-02
         0.45682E-02
         0.52494E-02
         0.56599E-02
         0.67372E-02
         0.61818E-02
         0.65470E-02
         0.53047E-02
         0.47805E-02
         0.53731E-02
         0.50849E-02
         0.54183E-02
         0.53472E-02
         0.19593E-03
         0.70131E-04
         0.68160E-04
         0.51094E-04
         0.19885E-03
         0.11373E-03
         0.10620E-04
         0.15479E-03
         0.95156E-04
         0.14019E-03
         0.10574E-04
         0.65301E-03
         0.38807E-03
         0.36392E-04
         0.72761E-03
         0.98331E-04
         0.37598E-04
         0.28618E-04
         0.39040E-04
         0.10624E-04
         0.40061E-03
         0.36147E-03
         0.32069E-03
         0.11208E-04
         0.41718E-04
        -0.32055E-05
         0.14442E-04
        -0.56946E-04
        -0.18153E-04
         0.52290E-04
         0.70785E-04
         0.12536E-04
         0.44299E-04
         0.52452E-04
         0.31591E-03
         0.11071E-03
         0.19022E-03
         0.48173E-03
         0.28773E-03
         0.24891E-03
         0.50576E-03
         0.40368E-03
         0.40555E-03
         0.23118E-03
         0.18422E-03
         0.36007E-03
         0.15700E-03
         0.11581E-03
         0.82653E-04
         0.12011E-03
         0.30100E-03
         0.15524E-03
         0.54911E-02
         0.58218E-02
         0.63839E-02
         0.63235E-02
         0.71654E-02
         0.82207E-02
         0.75415E-02
         0.60083E-02
         0.57020E-02
         0.64976E-02
         0.62651E-02
         0.61348E-02
         0.41709E-02
         0.37898E-02
         0.45700E-02
         0.52532E-02
         0.56642E-02
         0.67410E-02
         0.61819E-02
         0.65470E-02
         0.53045E-02
         0.47808E-02
         0.53700E-02
         0.50789E-02
         0.54129E-02
         0.53422E-02
         0.19494E-03
         0.68873E-04
         0.66995E-04
         0.50007E-04
         0.19726E-03
         0.11226E-03
         0.93415E-05
         0.15361E-03
         0.94077E-04
         0.13920E-03
         0.90578E-05
         0.65123E-03
         0.38674E-03
         0.34369E-04
         0.72734E-03
         0.97298E-04
         0.36331E-04
         0.27394E-04
         0.37710E-04
         0.92673E-05
         0.39919E-03
         0.35991E-03
         0.31925E-03
         0.98726E-05
         0.40544E-04
        -0.44793E-05
         0.12551E-04
        -0.58548E-04
        -0.18752E-04
         0.51529E-04
         0.69698E-04
         0.11202E-04
         0.42978E-04
         0.51191E-04
         0.31456E-03
         0.10919E-03
         0.18862E-03
         0.48123E-03
         0.28747E-03
         0.24867E-03
         0.50492E-03
         0.40242E-03
         0.40405E-03
         0.22982E-03
         0.18270E-03
         0.35841E-03
         0.15553E-03
         0.11444E-03
         0.81113E-04
         0.11835E-03
         0.29902E-03
         0.15334E-03
         0.54841E-02
         0.58162E-02
         0.63806E-02
         0.63205E-02
         0.71600E-02
         0.82121E-02
         0.75319E-02
         0.60018E-02
         0.56961E-02
         0.64902E-02
         0.62593E-02
         0.61321E-02
         0.41679E-02
         0.37872E-02
         0.45688E-02
         0.52540E-02
         0.56654E-02
         0.67410E-02
         0.61779E-02
         0.65431E-02
         0.53007E-02
         0.47776E-02
         0.53635E-02
         0.50694E-02
         0.54041E-02
         0.53338E-02
         0.19584E-03
         0.68960E-04
         0.67282E-04
         0.50535E-04
         0.19760E-03
         0.11262E-03
         0.96427E-05
         0.15469E-03
         0.95188E-04
         0.14123E-03
         0.95186E-05
         0.65128E-03
         0.38665E-03
         0.34995E-04
         0.72969E-03
         0.98426E-04
         0.37402E-04
         0.27987E-04
         0.38514E-04
         0.99987E-05
         0.40004E-03
         0.36042E-03
         0.32040E-03
         0.10871E-04
         0.42490E-04
        -0.35561E-05
         0.14199E-04
        -0.56740E-04
        -0.17125E-04
         0.53093E-04
         0.70569E-04
         0.11761E-04
         0.43241E-04
         0.51042E-04
         0.31514E-03
         0.10905E-03
         0.18813E-03
         0.48380E-03
         0.29006E-03
         0.25042E-03
         0.50628E-03
         0.40375E-03
         0.40521E-03
         0.23098E-03
         0.18330E-03
         0.35881E-03
         0.15584E-03
         0.11508E-03
         0.81421E-04
         0.11811E-03
         0.29887E-03
         0.15298E-03
         0.54812E-02
         0.58150E-02
         0.63808E-02
         0.63199E-02
         0.71564E-02
         0.82056E-02
         0.75268E-02
         0.60000E-02
         0.56944E-02
         0.64862E-02
         0.62575E-02
         0.61343E-02
         0.41691E-02
         0.37877E-02
         0.45714E-02
         0.52592E-02
         0.56707E-02
         0.67452E-02
         0.61776E-02
         0.65423E-02
         0.53004E-02
         0.47780E-02
         0.53611E-02
         0.50645E-02
         0.53995E-02
         0.53296E-02
         0.48980E-02
         0.49726E-02
         0.49332E-02
         0.44902E-02
         0.58280E-02
         0.53667E-02
         0.53176E-02
         0.55312E-02
         0.47159E-02
         0.55339E-02
         0.59216E-02
         0.74886E-02
         0.65172E-02
         0.61397E-02
         0.77679E-02
         0.46155E-02
         0.48973E-02
         0.42735E-02
         0.51049E-02
         0.53098E-02
         0.60370E-02
         0.60417E-02
         0.57300E-02
         0.48582E-02
         0.54518E-02
         0.46396E-02
         0.60597E-02
         0.58034E-02
         0.58483E-02
         0.56485E-02
         0.46355E-02
         0.48145E-02
         0.45123E-02
         0.47166E-02
         0.65795E-02
         0.57222E-02
         0.58099E-02
         0.71629E-02
         0.67184E-02
         0.65777E-02
         0.70213E-02
         0.65605E-02
         0.62409E-02
         0.54822E-02
         0.56620E-02
         0.66615E-02
         0.58584E-02
         0.54248E-02
         0.52640E-02
         0.55039E-02
         0.62682E-02
         0.55841E-02
         0.16499E-01
         0.16571E-01
         0.17358E-01
         0.16923E-01
         0.18069E-01
         0.19637E-01
         0.19014E-01
         0.17362E-01
         0.17157E-01
         0.18277E-01
         0.17704E-01
         0.16937E-01
         0.13769E-01
         0.12839E-01
         0.13773E-01
         0.14691E-01
         0.15221E-01
         0.17140E-01
         0.17297E-01
         0.17688E-01
         0.15526E-01
         0.14652E-01
         0.15593E-01
         0.15188E-01
         0.15438E-01
         0.15375E-01
         0.51452E-01
         0.53657E-01
         0.52896E-01
         0.48363E-01
         0.59414E-01
         0.55766E-01
         0.57860E-01
         0.58535E-01
         0.50199E-01
         0.58491E-01
         0.63414E-01
         0.71890E-01
         0.64944E-01
         0.65291E-01
         0.74505E-01
         0.49252E-01
         0.52730E-01
         0.46188E-01
         0.54429E-01
         0.57144E-01
         0.59664E-01
         0.60862E-01
         0.57237E-01
         0.52381E-01
         0.59014E-01
         0.50576E-01
         0.65060E-01
         0.63855E-01
         0.64156E-01
         0.61054E-01
         0.49732E-01
         0.52154E-01
         0.48733E-01
         0.50891E-01
         0.65097E-01
         0.59575E-01
         0.59880E-01
         0.71842E-01
         0.69720E-01
         0.68821E-01
         0.70431E-01
         0.66829E-01
         0.63299E-01
         0.55785E-01
         0.57941E-01
         0.65146E-01
         0.60078E-01
         0.56526E-01
         0.55379E-01
         0.57402E-01
         0.62457E-01
         0.57603E-01
         0.10996E+00
         0.10778E+00
         0.11079E+00
         0.10754E+00
         0.11171E+00
         0.11858E+00
         0.11949E+00
         0.11695E+00
         0.11719E+00
         0.12086E+00
         0.11733E+00
         0.11068E+00
         0.97242E-01
         0.91677E-01
         0.93035E-01
         0.95073E-01
         0.96502E-01
         0.10547E+00
         0.11137E+00
         0.11233E+00
         0.10295E+00
         0.99285E-01
         0.10319E+00
         0.10210E+00
         0.10149E+00
         0.10103E+00
  
SCALARS                      strain_yz  double 1
LOOKUP_TABLE default
        -0.46969E-01
         0.15157E-01
         0.40138E-01
         0.21364E-01
        -0.28309E-09
        -0.78025E-10
        -0.35083E-09
        -0.26759E-09
         0.14715E+00
        -0.97898E-01
        -0.52211E-09
        -0.45966E-09
         0.12379E+00
         0.62847E-02
         0.37365E-09
        -0.23956E-10
        -0.46724E-01
        -0.15874E+00
         0.54973E-11
         0.56248E-10
         0.79528E-01
         0.29090E+00
         0.31601E+00
         0.85653E-09
         0.14792E-08
         0.12364E-08
         0.28723E-01
         0.28329E+00
         0.61612E-09
         0.11953E-08
        -0.53310E-01
        -0.44661E-01
         0.40983E-01
         0.31941E-09
         0.32606E-09
        -0.67694E-11
        -0.15482E+00
        -0.14174E+00
         0.58777E-09
         0.45731E-09
        -0.14910E+00
        -0.91163E-01
         0.44420E-09
         0.40594E-09
        -0.13977E+00
        -0.48916E-01
        -0.14735E-10
         0.22792E-09
        -0.11681E+00
         0.10731E-09
        -0.12946E-01
        -0.86915E-11
        -0.65539E-02
         0.41510E-09
         0.42874E-01
         0.24147E-09
         0.13978E+00
        -0.25998E-01
         0.65508E-11
        -0.13296E-10
        -0.64598E-01
        -0.23205E+00
        -0.89255E-10
        -0.33385E-09
        -0.39376E-01
        -0.18016E-09
        -0.16600E+00
        -0.21948E-09
         0.12805E+00
         0.67634E-01
        -0.27124E-10
         0.35813E-09
         0.23402E+00
         0.78640E-09
         0.35417E+00
         0.76143E-09
         0.35468E+00
         0.57800E-09
         0.29303E+00
         0.48447E-09
         0.43772E+00
         0.34370E+00
         0.31079E-09
        -0.68906E-10
         0.50162E-01
        -0.77102E-11
        -0.21816E+00
        -0.48300E-09
        -0.50579E+00
        -0.84555E-09
        -0.69472E+00
        -0.42821E+00
        -0.12541E-08
        -0.10151E-08
        -0.30459E+00
        -0.78797E-09
        -0.27528E+00
        -0.80614E-09
        -0.26594E+00
        -0.86677E-09
        -0.44063E+00
        -0.36916E+00
        -0.80605E-09
        -0.38622E-09
         0.28251E+00
        -0.10859E+00
         0.28342E-09
        -0.35221E-09
         0.69012E+00
         0.94288E-09
         0.10057E+01
         0.13792E-08
         0.12078E+01
         0.17033E-08
         0.13518E+01
         0.16896E-08
         0.15167E+01
         0.13371E-08
         0.15074E+01
         0.10347E-08
         0.14155E+01
         0.96239E-09
         0.12611E+01
         0.91564E-09
         0.94875E+00
         0.58516E-09
         0.67500E+00
         0.19320E-09
         0.35857E+00
         0.12484E-09
        -0.26728E-01
         0.18764E-09
        -0.36679E+00
         0.96913E-10
        -0.67250E+00
        -0.29308E-09
        -0.10386E+01
        -0.82726E-09
        -0.11136E+01
        -0.12918E-08
        -0.11780E+01
        -0.16935E-08
        -0.14791E+01
        -0.16921E-08
        -0.15591E+01
        -0.14771E-08
        -0.14580E+01
        -0.14396E-08
        -0.11698E+01
        -0.14485E-08
        -0.79788E+00
        -0.11455E-08
        -0.57097E+00
        -0.67736E-09
        -0.41633E+00
        -0.52374E-09
        -0.72605E-02
        -0.37065E-02
        -0.32416E-02
        -0.10234E-02
        -0.32687E-02
        -0.35373E-02
        -0.36474E-03
        -0.56736E-02
        -0.49811E-02
        -0.72076E-02
         0.36349E-02
         0.15443E-01
         0.10673E-01
         0.12386E-02
         0.15678E-01
         0.19319E-02
        -0.17065E-02
         0.11077E-02
         0.14107E-02
        -0.10716E-02
         0.97717E-03
         0.80954E-03
        -0.26962E-02
         0.22775E-03
        -0.49236E-02
         0.72745E-03
         0.37117E-04
         0.64985E-03
         0.77937E-03
        -0.38281E-02
         0.18830E-02
        -0.20086E-02
         0.13692E-02
        -0.32990E-03
         0.52010E-03
         0.28647E-02
         0.64709E-02
         0.13870E-01
         0.12658E-01
         0.10538E-01
         0.98106E-02
         0.25035E-02
        -0.20957E-02
        -0.57310E-02
        -0.93596E-02
        -0.14953E-01
        -0.99998E-02
        -0.73065E-02
        -0.77857E-02
        -0.81533E-02
        -0.94138E-02
        -0.43938E-02
         0.77250E-02
        -0.95032E-02
         0.25648E-01
         0.35624E-01
         0.45365E-01
         0.53241E-01
         0.52834E-01
         0.47603E-01
         0.45376E-01
         0.42835E-01
         0.27511E-01
         0.12490E-01
         0.55572E-02
         0.24601E-02
        -0.37958E-02
        -0.15089E-01
        -0.27729E-01
        -0.35861E-01
        -0.41973E-01
        -0.48538E-01
        -0.46244E-01
        -0.43702E-01
        -0.40578E-01
        -0.27905E-01
        -0.16570E-01
        -0.14635E-01
        -0.17622E-01
        -0.11115E-01
        -0.10285E-01
        -0.24396E-02
        -0.13358E-01
        -0.60082E-02
        -0.47644E-02
        -0.16655E-01
        -0.10922E-01
        -0.15665E-01
         0.82822E-02
         0.35839E-01
         0.21234E-01
         0.30516E-02
         0.35309E-01
         0.66831E-02
        -0.20253E-02
         0.19336E-02
         0.87153E-02
         0.16850E-02
         0.75112E-02
         0.53329E-02
        -0.30918E-02
         0.26098E-02
        -0.10549E-01
         0.26093E-02
         0.65474E-03
         0.12172E-02
        -0.19442E-02
        -0.10523E-01
         0.72025E-02
         0.18973E-02
         0.46554E-02
         0.40422E-02
        -0.19273E-02
         0.58752E-02
         0.11217E-01
         0.26836E-01
         0.23667E-01
         0.20857E-01
         0.15322E-01
        -0.37860E-02
        -0.77984E-02
        -0.97415E-02
        -0.12544E-01
        -0.25623E-01
        -0.14911E-01
        -0.98603E-02
        -0.12393E-01
        -0.14630E-01
        -0.15158E-01
        -0.11374E-02
         0.18870E-01
        -0.26989E-01
         0.62798E-01
         0.81158E-01
         0.10472E+00
         0.12563E+00
         0.12308E+00
         0.10753E+00
         0.10306E+00
         0.10194E+00
         0.64019E-01
         0.21101E-01
         0.84125E-02
         0.72092E-02
        -0.33382E-02
        -0.28313E-01
        -0.56715E-01
        -0.78909E-01
        -0.10271E+00
        -0.11388E+00
        -0.10004E+00
        -0.94592E-01
        -0.94291E-01
        -0.66395E-01
        -0.34488E-01
        -0.32657E-01
        -0.17633E-01
        -0.11117E-01
        -0.10291E-01
        -0.24575E-02
        -0.13360E-01
        -0.60129E-02
        -0.47704E-02
        -0.16683E-01
        -0.10942E-01
        -0.15723E-01
         0.82872E-02
         0.35835E-01
         0.21239E-01
         0.30517E-02
         0.35354E-01
         0.66835E-02
        -0.20438E-02
         0.19307E-02
         0.87212E-02
         0.16756E-02
         0.75297E-02
         0.53381E-02
        -0.30925E-02
         0.26086E-02
        -0.10597E-01
         0.26045E-02
         0.66246E-03
         0.12240E-02
        -0.19314E-02
        -0.10545E-01
         0.72038E-02
         0.18932E-02
         0.46658E-02
         0.40489E-02
        -0.19092E-02
         0.58790E-02
         0.11217E-01
         0.26878E-01
         0.23718E-01
         0.20881E-01
         0.15333E-01
        -0.37759E-02
        -0.78064E-02
        -0.97465E-02
        -0.12544E-01
        -0.25623E-01
        -0.14912E-01
        -0.98544E-02
        -0.12376E-01
        -0.14610E-01
        -0.15152E-01
        -0.11202E-02
         0.18852E-01
        -0.26991E-01
         0.62810E-01
         0.81159E-01
         0.10471E+00
         0.12558E+00
         0.12302E+00
         0.10750E+00
         0.10303E+00
         0.10191E+00
         0.64006E-01
         0.21111E-01
         0.84119E-02
         0.72240E-02
        -0.33110E-02
        -0.28328E-01
        -0.56740E-01
        -0.78927E-01
        -0.10271E+00
        -0.11387E+00
        -0.10003E+00
        -0.94588E-01
        -0.94267E-01
        -0.66348E-01
        -0.34450E-01
        -0.32614E-01
        -0.17644E-01
        -0.11119E-01
        -0.10296E-01
        -0.24756E-02
        -0.13361E-01
        -0.60178E-02
        -0.47763E-02
        -0.16712E-01
        -0.10962E-01
        -0.15782E-01
         0.82921E-02
         0.35832E-01
         0.21244E-01
         0.30514E-02
         0.35399E-01
         0.66839E-02
        -0.20624E-02
         0.19278E-02
         0.87272E-02
         0.16660E-02
         0.75485E-02
         0.53430E-02
        -0.30937E-02
         0.26070E-02
        -0.10644E-01
         0.25991E-02
         0.67070E-03
         0.12312E-02
        -0.19174E-02
        -0.10567E-01
         0.72049E-02
         0.18881E-02
         0.46761E-02
         0.40554E-02
        -0.18910E-02
         0.58830E-02
         0.11216E-01
         0.26919E-01
         0.23769E-01
         0.20906E-01
         0.15346E-01
        -0.37646E-02
        -0.78139E-02
        -0.97528E-02
        -0.12546E-01
        -0.25624E-01
        -0.14914E-01
        -0.98483E-02
        -0.12360E-01
        -0.14591E-01
        -0.15145E-01
        -0.11030E-02
         0.18834E-01
        -0.26993E-01
         0.62822E-01
         0.81159E-01
         0.10470E+00
         0.12554E+00
         0.12297E+00
         0.10746E+00
         0.10301E+00
         0.10188E+00
         0.63993E-01
         0.21121E-01
         0.84114E-02
         0.72389E-02
        -0.32837E-02
        -0.28343E-01
        -0.56767E-01
        -0.78946E-01
        -0.10271E+00
        -0.11387E+00
        -0.10002E+00
        -0.94584E-01
        -0.94243E-01
        -0.66301E-01
        -0.34412E-01
        -0.32571E-01
        -0.17655E-01
        -0.11121E-01
        -0.10301E-01
        -0.24938E-02
        -0.13363E-01
        -0.60227E-02
        -0.47827E-02
        -0.16739E-01
        -0.10982E-01
        -0.15839E-01
         0.82971E-02
         0.35829E-01
         0.21250E-01
         0.30514E-02
         0.35444E-01
         0.66845E-02
        -0.20813E-02
         0.19248E-02
         0.87337E-02
         0.16559E-02
         0.75677E-02
         0.53476E-02
        -0.30963E-02
         0.26044E-02
        -0.10690E-01
         0.25920E-02
         0.67922E-03
         0.12408E-02
        -0.19001E-02
        -0.10586E-01
         0.72055E-02
         0.18813E-02
         0.46864E-02
         0.40619E-02
        -0.18728E-02
         0.58868E-02
         0.11215E-01
         0.26961E-01
         0.23821E-01
         0.20932E-01
         0.15360E-01
        -0.37503E-02
        -0.78201E-02
        -0.97624E-02
        -0.12550E-01
        -0.25626E-01
        -0.14916E-01
        -0.98424E-02
        -0.12343E-01
        -0.14571E-01
        -0.15139E-01
        -0.10859E-02
         0.18817E-01
        -0.26994E-01
         0.62834E-01
         0.81160E-01
         0.10468E+00
         0.12550E+00
         0.12292E+00
         0.10743E+00
         0.10299E+00
         0.10186E+00
         0.63981E-01
         0.21134E-01
         0.84115E-02
         0.72535E-02
        -0.32561E-02
        -0.28360E-01
        -0.56798E-01
        -0.78967E-01
        -0.10271E+00
        -0.11386E+00
        -0.10002E+00
        -0.94580E-01
        -0.94220E-01
        -0.66254E-01
        -0.34375E-01
        -0.32528E-01
        -0.17666E-01
        -0.11123E-01
        -0.10306E-01
        -0.25119E-02
        -0.13365E-01
        -0.60274E-02
        -0.47885E-02
        -0.16767E-01
        -0.11001E-01
        -0.15896E-01
         0.83021E-02
         0.35826E-01
         0.21255E-01
         0.30516E-02
         0.35489E-01
         0.66851E-02
        -0.21006E-02
         0.19218E-02
         0.87403E-02
         0.16452E-02
         0.75871E-02
         0.53515E-02
        -0.31004E-02
         0.26007E-02
        -0.10734E-01
         0.25831E-02
         0.68870E-03
         0.12525E-02
        -0.18792E-02
        -0.10604E-01
         0.72055E-02
         0.18725E-02
         0.46966E-02
         0.40685E-02
        -0.18546E-02
         0.58907E-02
         0.11215E-01
         0.27003E-01
         0.23874E-01
         0.20959E-01
         0.15376E-01
        -0.37327E-02
        -0.78248E-02
        -0.97754E-02
        -0.12556E-01
        -0.25629E-01
        -0.14919E-01
        -0.98370E-02
        -0.12327E-01
        -0.14551E-01
        -0.15132E-01
        -0.10687E-02
         0.18799E-01
        -0.26996E-01
         0.62845E-01
         0.81160E-01
         0.10467E+00
         0.12546E+00
         0.12287E+00
         0.10740E+00
         0.10297E+00
         0.10183E+00
         0.63970E-01
         0.21149E-01
         0.84123E-02
         0.72678E-02
        -0.32285E-02
        -0.28378E-01
        -0.56832E-01
        -0.78991E-01
        -0.10271E+00
        -0.11385E+00
        -0.10001E+00
        -0.94577E-01
        -0.94196E-01
        -0.66207E-01
        -0.34337E-01
        -0.32485E-01
        -0.17677E-01
        -0.11124E-01
        -0.10311E-01
        -0.25302E-02
        -0.13366E-01
        -0.60322E-02
        -0.47938E-02
        -0.16794E-01
        -0.11021E-01
        -0.15951E-01
         0.83077E-02
         0.35824E-01
         0.21261E-01
         0.30521E-02
         0.35534E-01
         0.66859E-02
        -0.21202E-02
         0.19188E-02
         0.87470E-02
         0.16343E-02
         0.76066E-02
         0.53554E-02
        -0.31051E-02
         0.25967E-02
        -0.10777E-01
         0.25735E-02
         0.69890E-03
         0.12655E-02
        -0.18569E-02
        -0.10620E-01
         0.72051E-02
         0.18626E-02
         0.47071E-02
         0.40754E-02
        -0.18362E-02
         0.58950E-02
         0.11215E-01
         0.27045E-01
         0.23928E-01
         0.20988E-01
         0.15393E-01
        -0.37142E-02
        -0.78289E-02
        -0.97896E-02
        -0.12564E-01
        -0.25633E-01
        -0.14923E-01
        -0.98327E-02
        -0.12312E-01
        -0.14532E-01
        -0.15126E-01
        -0.10515E-02
         0.18781E-01
        -0.26997E-01
         0.62856E-01
         0.81161E-01
         0.10466E+00
         0.12541E+00
         0.12282E+00
         0.10737E+00
         0.10295E+00
         0.10180E+00
         0.63960E-01
         0.21164E-01
         0.84135E-02
         0.72821E-02
        -0.32009E-02
        -0.28397E-01
        -0.56869E-01
        -0.79016E-01
        -0.10270E+00
        -0.11385E+00
        -0.10000E+00
        -0.94573E-01
        -0.94172E-01
        -0.66160E-01
        -0.34300E-01
        -0.32442E-01
        -0.17686E-01
        -0.11124E-01
        -0.10316E-01
        -0.25489E-02
        -0.13368E-01
        -0.60372E-02
        -0.47979E-02
        -0.16818E-01
        -0.11042E-01
        -0.16004E-01
         0.83145E-02
         0.35822E-01
         0.21268E-01
         0.30545E-02
         0.35580E-01
         0.66871E-02
        -0.21403E-02
         0.19159E-02
         0.87538E-02
         0.16234E-02
         0.76262E-02
         0.53593E-02
        -0.31098E-02
         0.25928E-02
        -0.10818E-01
         0.25639E-02
         0.71092E-03
         0.12793E-02
        -0.18342E-02
        -0.10636E-01
         0.72045E-02
         0.18520E-02
         0.47179E-02
         0.40826E-02
        -0.18178E-02
         0.58995E-02
         0.11215E-01
         0.27088E-01
         0.23982E-01
         0.21017E-01
         0.15410E-01
        -0.36952E-02
        -0.78327E-02
        -0.98038E-02
        -0.12572E-01
        -0.25638E-01
        -0.14929E-01
        -0.98310E-02
        -0.12299E-01
        -0.14513E-01
        -0.15120E-01
        -0.10341E-02
         0.18764E-01
        -0.26999E-01
         0.62868E-01
         0.81162E-01
         0.10465E+00
         0.12537E+00
         0.12276E+00
         0.10733E+00
         0.10293E+00
         0.10177E+00
         0.63950E-01
         0.21180E-01
         0.84147E-02
         0.72965E-02
        -0.31733E-02
        -0.28415E-01
        -0.56905E-01
        -0.79040E-01
        -0.10270E+00
        -0.11384E+00
        -0.99999E-01
        -0.94571E-01
        -0.94147E-01
        -0.66113E-01
        -0.34262E-01
        -0.32399E-01
        -0.17695E-01
        -0.11123E-01
        -0.10321E-01
        -0.25679E-02
        -0.13370E-01
        -0.60420E-02
        -0.48011E-02
        -0.16840E-01
        -0.11062E-01
        -0.16055E-01
         0.83220E-02
         0.35820E-01
         0.21275E-01
         0.30572E-02
         0.35625E-01
         0.66883E-02
        -0.21607E-02
         0.19128E-02
         0.87606E-02
         0.16125E-02
         0.76457E-02
         0.53633E-02
        -0.31145E-02
         0.25890E-02
        -0.10860E-01
         0.25544E-02
         0.72341E-03
         0.12934E-02
        -0.18114E-02
        -0.10652E-01
         0.72037E-02
         0.18410E-02
         0.47289E-02
         0.40901E-02
        -0.17992E-02
         0.59044E-02
         0.11216E-01
         0.27131E-01
         0.24037E-01
         0.21046E-01
         0.15428E-01
        -0.36761E-02
        -0.78365E-02
        -0.98181E-02
        -0.12580E-01
        -0.25644E-01
        -0.14936E-01
        -0.98303E-02
        -0.12287E-01
        -0.14495E-01
        -0.15113E-01
        -0.10166E-02
         0.18746E-01
        -0.27000E-01
         0.62879E-01
         0.81162E-01
         0.10463E+00
         0.12533E+00
         0.12271E+00
         0.10730E+00
         0.10291E+00
         0.10174E+00
         0.63939E-01
         0.21195E-01
         0.84159E-02
         0.73111E-02
        -0.31456E-02
        -0.28434E-01
        -0.56941E-01
        -0.79063E-01
        -0.10270E+00
        -0.11383E+00
        -0.99994E-01
        -0.94569E-01
        -0.94123E-01
        -0.66065E-01
        -0.34224E-01
        -0.32356E-01
        -0.17704E-01
        -0.11123E-01
        -0.10326E-01
        -0.25870E-02
        -0.13371E-01
        -0.60468E-02
        -0.48044E-02
        -0.16863E-01
        -0.11083E-01
        -0.16107E-01
         0.83291E-02
         0.35818E-01
         0.21282E-01
         0.30604E-02
         0.35671E-01
         0.66896E-02
        -0.21812E-02
         0.19098E-02
         0.87673E-02
         0.16015E-02
         0.76653E-02
         0.53674E-02
        -0.31191E-02
         0.25852E-02
        -0.10901E-01
         0.25449E-02
         0.73621E-03
         0.13074E-02
        -0.17886E-02
        -0.10668E-01
         0.72029E-02
         0.18301E-02
         0.47399E-02
         0.40975E-02
        -0.17805E-02
         0.59088E-02
         0.11216E-01
         0.27175E-01
         0.24091E-01
         0.21074E-01
         0.15445E-01
        -0.36572E-02
        -0.78403E-02
        -0.98325E-02
        -0.12589E-01
        -0.25650E-01
        -0.14943E-01
        -0.98297E-02
        -0.12276E-01
        -0.14477E-01
        -0.15107E-01
        -0.99915E-03
         0.18728E-01
        -0.27002E-01
         0.62890E-01
         0.81163E-01
         0.10462E+00
         0.12529E+00
         0.12266E+00
         0.10727E+00
         0.10289E+00
         0.10171E+00
         0.63929E-01
         0.21211E-01
         0.84173E-02
         0.73259E-02
        -0.31180E-02
        -0.28452E-01
        -0.56977E-01
        -0.79087E-01
        -0.10270E+00
        -0.11382E+00
        -0.99989E-01
        -0.94567E-01
        -0.94098E-01
        -0.66018E-01
        -0.34187E-01
        -0.32313E-01
        -0.17713E-01
        -0.11122E-01
        -0.10331E-01
        -0.26059E-02
        -0.13373E-01
        -0.60516E-02
        -0.48076E-02
        -0.16886E-01
        -0.11103E-01
        -0.16158E-01
         0.83366E-02
         0.35816E-01
         0.21289E-01
         0.30630E-02
         0.35717E-01
         0.66909E-02
        -0.22017E-02
         0.19067E-02
         0.87740E-02
         0.15904E-02
         0.76848E-02
         0.53713E-02
        -0.31236E-02
         0.25815E-02
        -0.10943E-01
         0.25354E-02
         0.74866E-03
         0.13212E-02
        -0.17659E-02
        -0.10684E-01
         0.72020E-02
         0.18191E-02
         0.47507E-02
         0.41050E-02
        -0.17619E-02
         0.59137E-02
         0.11217E-01
         0.27218E-01
         0.24146E-01
         0.21103E-01
         0.15462E-01
        -0.36384E-02
        -0.78442E-02
        -0.98467E-02
        -0.12598E-01
        -0.25655E-01
        -0.14950E-01
        -0.98294E-02
        -0.12264E-01
        -0.14459E-01
        -0.15101E-01
        -0.98173E-03
         0.18711E-01
        -0.27003E-01
         0.62900E-01
         0.81163E-01
         0.10461E+00
         0.12524E+00
         0.12261E+00
         0.10724E+00
         0.10286E+00
         0.10168E+00
         0.63919E-01
         0.21226E-01
         0.84186E-02
         0.73406E-02
        -0.30905E-02
        -0.28471E-01
        -0.57013E-01
        -0.79111E-01
        -0.10269E+00
        -0.11382E+00
        -0.99985E-01
        -0.94565E-01
        -0.94073E-01
        -0.65970E-01
        -0.34150E-01
        -0.32270E-01
        -0.17722E-01
        -0.11121E-01
        -0.10336E-01
        -0.26248E-02
        -0.13375E-01
        -0.60564E-02
        -0.48112E-02
        -0.16909E-01
        -0.11124E-01
        -0.16209E-01
         0.83440E-02
         0.35815E-01
         0.21296E-01
         0.30660E-02
         0.35763E-01
         0.66922E-02
        -0.22224E-02
         0.19037E-02
         0.87807E-02
         0.15793E-02
         0.77043E-02
         0.53751E-02
        -0.31282E-02
         0.25778E-02
        -0.10984E-01
         0.25259E-02
         0.76134E-03
         0.13349E-02
        -0.17433E-02
        -0.10700E-01
         0.72013E-02
         0.18082E-02
         0.47616E-02
         0.41124E-02
        -0.17432E-02
         0.59184E-02
         0.11218E-01
         0.27262E-01
         0.24200E-01
         0.21131E-01
         0.15480E-01
        -0.36195E-02
        -0.78481E-02
        -0.98608E-02
        -0.12606E-01
        -0.25661E-01
        -0.14957E-01
        -0.98287E-02
        -0.12252E-01
        -0.14441E-01
        -0.15095E-01
        -0.96425E-03
         0.18693E-01
        -0.27004E-01
         0.62911E-01
         0.81164E-01
         0.10460E+00
         0.12520E+00
         0.12255E+00
         0.10720E+00
         0.10284E+00
         0.10165E+00
         0.63908E-01
         0.21241E-01
         0.84199E-02
         0.73551E-02
        -0.30629E-02
        -0.28489E-01
        -0.57049E-01
        -0.79134E-01
        -0.10269E+00
        -0.11381E+00
        -0.99980E-01
        -0.94563E-01
        -0.94048E-01
        -0.65923E-01
        -0.34113E-01
        -0.32227E-01
        -0.17731E-01
        -0.11120E-01
        -0.10341E-01
        -0.26438E-02
        -0.13376E-01
        -0.60612E-02
        -0.48144E-02
        -0.16931E-01
        -0.11144E-01
        -0.16261E-01
         0.83514E-02
         0.35813E-01
         0.21303E-01
         0.30690E-02
         0.35809E-01
         0.66935E-02
        -0.22430E-02
         0.19006E-02
         0.87874E-02
         0.15683E-02
         0.77238E-02
         0.53788E-02
        -0.31329E-02
         0.25741E-02
        -0.11025E-01
         0.25165E-02
         0.77373E-03
         0.13484E-02
        -0.17206E-02
        -0.10715E-01
         0.72004E-02
         0.17972E-02
         0.47725E-02
         0.41200E-02
        -0.17243E-02
         0.59232E-02
         0.11219E-01
         0.27305E-01
         0.24255E-01
         0.21160E-01
         0.15497E-01
        -0.36009E-02
        -0.78518E-02
        -0.98750E-02
        -0.12615E-01
        -0.25667E-01
        -0.14963E-01
        -0.98284E-02
        -0.12241E-01
        -0.14423E-01
        -0.15089E-01
        -0.94680E-03
         0.18675E-01
        -0.27006E-01
         0.62922E-01
         0.81165E-01
         0.10458E+00
         0.12516E+00
         0.12250E+00
         0.10717E+00
         0.10282E+00
         0.10163E+00
         0.63898E-01
         0.21257E-01
         0.84212E-02
         0.73697E-02
        -0.30351E-02
        -0.28507E-01
        -0.57085E-01
        -0.79158E-01
        -0.10269E+00
        -0.11380E+00
        -0.99975E-01
        -0.94561E-01
        -0.94023E-01
        -0.65876E-01
        -0.34076E-01
        -0.32185E-01
        -0.17740E-01
        -0.11119E-01
        -0.10346E-01
        -0.26630E-02
        -0.13378E-01
        -0.60660E-02
        -0.48177E-02
        -0.16954E-01
        -0.11165E-01
        -0.16312E-01
         0.83589E-02
         0.35811E-01
         0.21311E-01
         0.30716E-02
         0.35855E-01
         0.66948E-02
        -0.22636E-02
         0.18974E-02
         0.87940E-02
         0.15573E-02
         0.77434E-02
         0.53827E-02
        -0.31374E-02
         0.25704E-02
        -0.11066E-01
         0.25070E-02
         0.78648E-03
         0.13619E-02
        -0.16980E-02
        -0.10731E-01
         0.71995E-02
         0.17862E-02
         0.47833E-02
         0.41274E-02
        -0.17055E-02
         0.59281E-02
         0.11220E-01
         0.27349E-01
         0.24310E-01
         0.21188E-01
         0.15514E-01
        -0.35820E-02
        -0.78556E-02
        -0.98894E-02
        -0.12624E-01
        -0.25673E-01
        -0.14970E-01
        -0.98279E-02
        -0.12229E-01
        -0.14405E-01
        -0.15083E-01
        -0.92940E-03
         0.18657E-01
        -0.27007E-01
         0.62932E-01
         0.81165E-01
         0.10457E+00
         0.12512E+00
         0.12245E+00
         0.10714E+00
         0.10280E+00
         0.10160E+00
         0.63887E-01
         0.21272E-01
         0.84225E-02
         0.73844E-02
        -0.30075E-02
        -0.28526E-01
        -0.57121E-01
        -0.79181E-01
        -0.10268E+00
        -0.11379E+00
        -0.99971E-01
        -0.94559E-01
        -0.93998E-01
        -0.65829E-01
        -0.34039E-01
        -0.32142E-01
        -0.17749E-01
        -0.11118E-01
        -0.10351E-01
        -0.26821E-02
        -0.13380E-01
        -0.60708E-02
        -0.48214E-02
        -0.16976E-01
        -0.11186E-01
        -0.16363E-01
         0.83664E-02
         0.35809E-01
         0.21318E-01
         0.30745E-02
         0.35901E-01
         0.66960E-02
        -0.22844E-02
         0.18943E-02
         0.88007E-02
         0.15463E-02
         0.77629E-02
         0.53865E-02
        -0.31420E-02
         0.25668E-02
        -0.11107E-01
         0.24975E-02
         0.79890E-03
         0.13751E-02
        -0.16755E-02
        -0.10747E-01
         0.71987E-02
         0.17752E-02
         0.47941E-02
         0.41349E-02
        -0.16866E-02
         0.59327E-02
         0.11220E-01
         0.27393E-01
         0.24365E-01
         0.21216E-01
         0.15532E-01
        -0.35631E-02
        -0.78594E-02
        -0.99035E-02
        -0.12633E-01
        -0.25679E-01
        -0.14977E-01
        -0.98273E-02
        -0.12217E-01
        -0.14386E-01
        -0.15077E-01
        -0.91210E-03
         0.18639E-01
        -0.27008E-01
         0.62943E-01
         0.81166E-01
         0.10456E+00
         0.12507E+00
         0.12240E+00
         0.10710E+00
         0.10278E+00
         0.10157E+00
         0.63877E-01
         0.21288E-01
         0.84238E-02
         0.73990E-02
        -0.29799E-02
        -0.28544E-01
        -0.57158E-01
        -0.79205E-01
        -0.10268E+00
        -0.11379E+00
        -0.99966E-01
        -0.94556E-01
        -0.93973E-01
        -0.65781E-01
        -0.34002E-01
        -0.32099E-01
        -0.17757E-01
        -0.11118E-01
        -0.10356E-01
        -0.27011E-02
        -0.13381E-01
        -0.60755E-02
        -0.48246E-02
        -0.16999E-01
        -0.11206E-01
        -0.16413E-01
         0.83738E-02
         0.35808E-01
         0.21325E-01
         0.30770E-02
         0.35947E-01
         0.66973E-02
        -0.23052E-02
         0.18913E-02
         0.88073E-02
         0.15352E-02
         0.77825E-02
         0.53902E-02
        -0.31465E-02
         0.25632E-02
        -0.11148E-01
         0.24880E-02
         0.81153E-03
         0.13881E-02
        -0.16531E-02
        -0.10763E-01
         0.71978E-02
         0.17642E-02
         0.48050E-02
         0.41424E-02
        -0.16677E-02
         0.59376E-02
         0.11221E-01
         0.27437E-01
         0.24419E-01
         0.21244E-01
         0.15549E-01
        -0.35443E-02
        -0.78632E-02
        -0.99177E-02
        -0.12641E-01
        -0.25684E-01
        -0.14984E-01
        -0.98271E-02
        -0.12205E-01
        -0.14368E-01
        -0.15071E-01
        -0.89469E-03
         0.18621E-01
        -0.27009E-01
         0.62953E-01
         0.81167E-01
         0.10455E+00
         0.12503E+00
         0.12234E+00
         0.10707E+00
         0.10276E+00
         0.10154E+00
         0.63866E-01
         0.21303E-01
         0.84250E-02
         0.74137E-02
        -0.29523E-02
        -0.28562E-01
        -0.57194E-01
        -0.79229E-01
        -0.10268E+00
        -0.11378E+00
        -0.99962E-01
        -0.94554E-01
        -0.93948E-01
        -0.65734E-01
        -0.33965E-01
        -0.32056E-01
        -0.17766E-01
        -0.11117E-01
        -0.10360E-01
        -0.27201E-02
        -0.13383E-01
        -0.60803E-02
        -0.48280E-02
        -0.17021E-01
        -0.11227E-01
        -0.16464E-01
         0.83813E-02
         0.35806E-01
         0.21332E-01
         0.30799E-02
         0.35992E-01
         0.66986E-02
        -0.23261E-02
         0.18881E-02
         0.88140E-02
         0.15242E-02
         0.78020E-02
         0.53938E-02
        -0.31511E-02
         0.25596E-02
        -0.11190E-01
         0.24785E-02
         0.82383E-03
         0.14010E-02
        -0.16308E-02
        -0.10778E-01
         0.71969E-02
         0.17533E-02
         0.48158E-02
         0.41500E-02
        -0.16486E-02
         0.59423E-02
         0.11222E-01
         0.27481E-01
         0.24474E-01
         0.21272E-01
         0.15566E-01
        -0.35256E-02
        -0.78671E-02
        -0.99316E-02
        -0.12650E-01
        -0.25690E-01
        -0.14991E-01
        -0.98265E-02
        -0.12194E-01
        -0.14350E-01
        -0.15065E-01
        -0.87727E-03
         0.18603E-01
        -0.27010E-01
         0.62963E-01
         0.81167E-01
         0.10453E+00
         0.12499E+00
         0.12229E+00
         0.10704E+00
         0.10274E+00
         0.10151E+00
         0.63856E-01
         0.21318E-01
         0.84262E-02
         0.74281E-02
        -0.29247E-02
        -0.28581E-01
        -0.57230E-01
        -0.79252E-01
        -0.10268E+00
        -0.11377E+00
        -0.99957E-01
        -0.94552E-01
        -0.93923E-01
        -0.65687E-01
        -0.33929E-01
        -0.32013E-01
        -0.17775E-01
        -0.11116E-01
        -0.10365E-01
        -0.27392E-02
        -0.13385E-01
        -0.60851E-02
        -0.48316E-02
        -0.17043E-01
        -0.11248E-01
        -0.16515E-01
         0.83888E-02
         0.35804E-01
         0.21339E-01
         0.30823E-02
         0.36038E-01
         0.66999E-02
        -0.23472E-02
         0.18850E-02
         0.88207E-02
         0.15133E-02
         0.78215E-02
         0.53973E-02
        -0.31556E-02
         0.25561E-02
        -0.11231E-01
         0.24690E-02
         0.83646E-03
         0.14137E-02
        -0.16084E-02
        -0.10794E-01
         0.71960E-02
         0.17423E-02
         0.48265E-02
         0.41576E-02
        -0.16295E-02
         0.59470E-02
         0.11222E-01
         0.27525E-01
         0.24529E-01
         0.21300E-01
         0.15583E-01
        -0.35070E-02
        -0.78710E-02
        -0.99459E-02
        -0.12659E-01
        -0.25696E-01
        -0.14998E-01
        -0.98263E-02
        -0.12182E-01
        -0.14332E-01
        -0.15059E-01
        -0.85999E-03
         0.18586E-01
        -0.27012E-01
         0.62974E-01
         0.81168E-01
         0.10452E+00
         0.12494E+00
         0.12224E+00
         0.10701E+00
         0.10272E+00
         0.10147E+00
         0.63846E-01
         0.21334E-01
         0.84271E-02
         0.74425E-02
        -0.28972E-02
        -0.28599E-01
        -0.57266E-01
        -0.79276E-01
        -0.10267E+00
        -0.11376E+00
        -0.99952E-01
        -0.94550E-01
        -0.93897E-01
        -0.65640E-01
        -0.33892E-01
        -0.31970E-01
        -0.17784E-01
        -0.11115E-01
        -0.10370E-01
        -0.27584E-02
        -0.13387E-01
        -0.60898E-02
        -0.48349E-02
        -0.17065E-01
        -0.11269E-01
        -0.16566E-01
         0.83963E-02
         0.35802E-01
         0.21346E-01
         0.30850E-02
         0.36084E-01
         0.67012E-02
        -0.23685E-02
         0.18818E-02
         0.88273E-02
         0.15029E-02
         0.78410E-02
         0.54007E-02
        -0.31602E-02
         0.25525E-02
        -0.11272E-01
         0.24595E-02
         0.84896E-03
         0.14263E-02
        -0.15861E-02
        -0.10808E-01
         0.71951E-02
         0.17311E-02
         0.48373E-02
         0.41652E-02
        -0.16104E-02
         0.59519E-02
         0.11223E-01
         0.27570E-01
         0.24583E-01
         0.21326E-01
         0.15600E-01
        -0.34881E-02
        -0.78751E-02
        -0.99601E-02
        -0.12668E-01
        -0.25702E-01
        -0.15005E-01
        -0.98258E-02
        -0.12171E-01
        -0.14314E-01
        -0.15053E-01
        -0.84270E-03
         0.18568E-01
        -0.27013E-01
         0.62984E-01
         0.81168E-01
         0.10451E+00
         0.12490E+00
         0.12218E+00
         0.10697E+00
         0.10270E+00
         0.10144E+00
         0.63837E-01
         0.21350E-01
         0.84275E-02
         0.74568E-02
        -0.28697E-02
        -0.28617E-01
        -0.57302E-01
        -0.79300E-01
        -0.10267E+00
        -0.11376E+00
        -0.99948E-01
        -0.94548E-01
        -0.93872E-01
        -0.65592E-01
        -0.33856E-01
        -0.31927E-01
        -0.17792E-01
        -0.11114E-01
        -0.10375E-01
        -0.27775E-02
        -0.13388E-01
        -0.60944E-02
        -0.48383E-02
        -0.17087E-01
        -0.11290E-01
        -0.16616E-01
         0.84037E-02
         0.35801E-01
         0.21354E-01
         0.30878E-02
         0.36130E-01
         0.67024E-02
        -0.23901E-02
         0.18786E-02
         0.88340E-02
         0.14929E-02
         0.78605E-02
         0.54040E-02
        -0.31648E-02
         0.25490E-02
        -0.11313E-01
         0.24500E-02
         0.86201E-03
         0.14388E-02
        -0.15638E-02
        -0.10822E-01
         0.71941E-02
         0.17201E-02
         0.48479E-02
         0.41727E-02
        -0.15912E-02
         0.59566E-02
         0.11224E-01
         0.27615E-01
         0.24637E-01
         0.21352E-01
         0.15617E-01
        -0.34693E-02
        -0.78794E-02
        -0.99741E-02
        -0.12677E-01
        -0.25708E-01
        -0.15012E-01
        -0.98253E-02
        -0.12159E-01
        -0.14295E-01
        -0.15046E-01
        -0.82528E-03
         0.18550E-01
        -0.27014E-01
         0.62994E-01
         0.81169E-01
         0.10449E+00
         0.12486E+00
         0.12213E+00
         0.10694E+00
         0.10267E+00
         0.10141E+00
         0.63829E-01
         0.21365E-01
         0.84272E-02
         0.74712E-02
        -0.28421E-02
        -0.28635E-01
        -0.57338E-01
        -0.79323E-01
        -0.10267E+00
        -0.11375E+00
        -0.99943E-01
        -0.94546E-01
        -0.93846E-01
        -0.65545E-01
        -0.33820E-01
        -0.31884E-01
        -0.17801E-01
        -0.11113E-01
        -0.10380E-01
        -0.27966E-02
        -0.13390E-01
        -0.60992E-02
        -0.48420E-02
        -0.17109E-01
        -0.11312E-01
        -0.16667E-01
         0.84112E-02
         0.35799E-01
         0.21361E-01
         0.30901E-02
         0.36176E-01
         0.67038E-02
        -0.24118E-02
         0.18754E-02
         0.88408E-02
         0.14832E-02
         0.78801E-02
         0.54073E-02
        -0.31690E-02
         0.25457E-02
        -0.11354E-01
         0.24407E-02
         0.87472E-03
         0.14508E-02
        -0.15419E-02
        -0.10835E-01
         0.71933E-02
         0.17093E-02
         0.48587E-02
         0.41804E-02
        -0.15721E-02
         0.59613E-02
         0.11224E-01
         0.27661E-01
         0.24691E-01
         0.21377E-01
         0.15633E-01
        -0.34509E-02
        -0.78840E-02
        -0.99880E-02
        -0.12685E-01
        -0.25714E-01
        -0.15019E-01
        -0.98249E-02
        -0.12147E-01
        -0.14277E-01
        -0.15041E-01
        -0.80798E-03
         0.18531E-01
        -0.27015E-01
         0.63004E-01
         0.81170E-01
         0.10448E+00
         0.12481E+00
         0.12207E+00
         0.10691E+00
         0.10265E+00
         0.10137E+00
         0.63821E-01
         0.21381E-01
         0.84263E-02
         0.74855E-02
        -0.28145E-02
        -0.28653E-01
        -0.57374E-01
        -0.79347E-01
        -0.10267E+00
        -0.11374E+00
        -0.99938E-01
        -0.94543E-01
        -0.93821E-01
        -0.65498E-01
        -0.33784E-01
        -0.31842E-01
        -0.17883E-01
        -0.11160E-01
        -0.10430E-01
        -0.28264E-02
        -0.13447E-01
        -0.61284E-02
        -0.48663E-02
        -0.17200E-01
        -0.11378E-01
        -0.16782E-01
         0.84527E-02
         0.35940E-01
         0.21452E-01
         0.31051E-02
         0.36367E-01
         0.67331E-02
        -0.24422E-02
         0.18799E-02
         0.88833E-02
         0.14806E-02
         0.79292E-02
         0.54319E-02
        -0.31831E-02
         0.25545E-02
        -0.11440E-01
         0.24445E-02
         0.88998E-03
         0.14659E-02
        -0.15304E-02
        -0.10894E-01
         0.72232E-02
         0.17088E-02
         0.48889E-02
         0.42050E-02
        -0.15612E-02
         0.59873E-02
         0.11267E-01
         0.27816E-01
         0.24843E-01
         0.21488E-01
         0.15712E-01
        -0.34509E-02
        -0.79221E-02
        -0.10036E-01
        -0.12739E-01
        -0.25816E-01
        -0.15081E-01
        -0.98602E-02
        -0.12183E-01
        -0.14317E-01
        -0.15095E-01
        -0.79409E-03
         0.18586E-01
        -0.27127E-01
         0.63266E-01
         0.81492E-01
         0.10489E+00
         0.12529E+00
         0.12254E+00
         0.10733E+00
         0.10307E+00
         0.10178E+00
         0.64085E-01
         0.21479E-01
         0.84562E-02
         0.75270E-02
        -0.27987E-02
        -0.28773E-01
        -0.57616E-01
        -0.79672E-01
        -0.10308E+00
        -0.11420E+00
        -0.10032E+00
        -0.94902E-01
        -0.94161E-01
        -0.65710E-01
        -0.33881E-01
        -0.31924E-01
        -0.26678E-01
        -0.16718E-01
        -0.15537E-01
        -0.42466E-02
        -0.19336E-01
        -0.89003E-02
        -0.72767E-02
        -0.25551E-01
        -0.16948E-01
        -0.24883E-01
         0.12424E-01
         0.50735E-01
         0.30741E-01
         0.45455E-02
         0.51640E-01
         0.10055E-01
        -0.36592E-02
         0.28052E-02
         0.13092E-01
         0.21817E-02
         0.11373E-01
         0.78812E-02
        -0.45679E-02
         0.37926E-02
        -0.17132E-01
         0.36584E-02
         0.13245E-02
         0.21964E-02
        -0.22819E-02
        -0.16285E-01
         0.10788E-01
         0.25434E-02
         0.73264E-02
         0.62930E-02
        -0.21733E-02
         0.86815E-02
         0.16337E-01
         0.40373E-01
         0.36581E-01
         0.31748E-01
         0.22894E-01
        -0.50552E-02
        -0.11627E-01
        -0.14516E-01
        -0.18363E-01
        -0.36153E-01
        -0.21666E-01
        -0.14335E-01
        -0.17801E-01
        -0.20825E-01
        -0.21438E-01
        -0.11312E-02
         0.23229E-01
        -0.33886E-01
         0.79033E-01
         0.10208E+00
         0.13129E+00
         0.15719E+00
         0.15546E+00
         0.13734E+00
         0.13166E+00
         0.12923E+00
         0.81469E-01
         0.27257E-01
         0.10844E-01
         0.96985E-02
        -0.35328E-02
        -0.36142E-01
        -0.72155E-01
        -0.99220E-01
        -0.12830E+00
        -0.14229E+00
        -0.12631E+00
        -0.12002E+00
        -0.11864E+00
        -0.83063E-01
        -0.42685E-01
        -0.40069E-01
  
SCALARS                      strain_xz  double 1
LOOKUP_TABLE default
        -0.77507E-02
         0.53029E-01
         0.17843E+00
        -0.12685E-01
        -0.29301E-09
         0.10389E-09
         0.34740E-09
         0.69381E-10
         0.49108E+00
         0.33187E+00
         0.10391E-08
         0.93595E-09
        -0.20080E-01
         0.81803E-01
        -0.12816E-09
        -0.60035E-09
         0.18455E-01
         0.78681E-01
        -0.43365E-09
        -0.64585E-09
         0.11133E+00
         0.18228E+00
         0.18039E+00
        -0.43127E-09
        -0.19887E-09
         0.34744E-09
         0.19288E+00
         0.15018E+00
        -0.80728E-09
        -0.64038E-09
        -0.43111E-01
         0.92038E-01
        -0.95165E-02
         0.82191E-10
        -0.31762E-09
        -0.19568E-09
        -0.12499E+00
        -0.57233E-01
        -0.47157E-09
        -0.50210E-09
        -0.24407E+00
        -0.33217E+00
        -0.10637E-08
        -0.78444E-09
        -0.26991E+00
        -0.14592E+00
        -0.11681E-08
        -0.56226E-09
         0.69736E-01
        -0.35293E-09
        -0.18676E+00
        -0.98242E-10
         0.69275E-01
        -0.68963E-09
        -0.51081E-01
        -0.18242E-09
        -0.22342E+00
        -0.64198E-01
        -0.15627E-09
        -0.37773E-09
         0.45997E-02
        -0.12492E+00
         0.31256E-09
         0.21434E-09
         0.33267E-01
        -0.31439E-10
         0.10935E+00
         0.20679E-09
         0.68332E+00
         0.46692E+00
         0.12925E-08
         0.93742E-09
         0.29717E+00
         0.68257E-09
        -0.61142E-01
        -0.47217E-09
        -0.18986E+00
        -0.92670E-10
        -0.40369E+00
        -0.14377E-09
        -0.54402E+00
        -0.39523E+00
        -0.52689E-09
        -0.60259E-09
        -0.36431E+00
        -0.64806E-09
        -0.32691E+00
        -0.93304E-09
        -0.19971E+00
        -0.59511E-09
        -0.30902E+00
        -0.22599E+00
        -0.25399E-09
         0.34831E-09
         0.52247E-01
         0.40856E-09
         0.14446E+00
         0.17155E-09
         0.34435E+00
         0.42363E-09
         0.50683E+00
         0.35067E+00
         0.97677E-09
         0.10193E-08
         0.11864E+01
         0.13340E+01
         0.18049E-08
         0.17786E-08
         0.11675E+01
         0.15419E-08
         0.10832E+01
         0.11523E-08
         0.76232E+00
         0.63322E-09
         0.52858E+00
         0.67713E-10
         0.18691E+00
        -0.24117E-09
        -0.23415E+00
        -0.19295E-09
        -0.55723E+00
        -0.18965E-09
        -0.82898E+00
        -0.42767E-09
        -0.11503E+01
        -0.81365E-09
        -0.14726E+01
        -0.97094E-09
        -0.16576E+01
        -0.91611E-09
        -0.16360E+01
        -0.99620E-09
        -0.15512E+01
        -0.12929E-08
        -0.14258E+01
        -0.15246E-08
        -0.12549E+01
        -0.14173E-08
        -0.95093E+00
        -0.11518E-08
        -0.53958E+00
        -0.54376E-09
        -0.45465E-01
         0.10383E-09
         0.30182E+00
         0.25209E-09
         0.47805E+00
         0.41222E-09
         0.70927E+00
         0.80674E-09
         0.93815E+00
         0.13238E-08
         0.12458E+01
         0.15905E-08
         0.14513E+01
         0.16268E-08
        -0.22484E-02
         0.11554E-02
         0.13580E-02
        -0.27796E-02
         0.10422E-01
         0.82012E-02
         0.12116E-02
        -0.18008E-02
        -0.95005E-03
        -0.16679E-02
         0.88481E-03
         0.38157E-02
         0.80595E-02
        -0.25796E-02
        -0.30820E-02
         0.36966E-02
         0.30929E-02
        -0.14456E-02
        -0.21954E-02
        -0.23729E-02
        -0.12885E-01
        -0.13782E-01
        -0.12342E-01
        -0.38437E-02
         0.15538E-02
        -0.11572E-02
        -0.36649E-02
        -0.41151E-03
        -0.41631E-02
        -0.29113E-02
         0.32955E-02
         0.63627E-03
        -0.15527E-02
        -0.49684E-03
         0.15033E-01
         0.97265E-02
         0.88641E-02
        -0.61548E-02
        -0.35019E-02
        -0.73844E-02
        -0.15031E-01
        -0.14377E-01
        -0.14510E-01
        -0.10635E-01
        -0.75447E-02
        -0.57790E-02
         0.11052E-02
         0.46989E-02
         0.13572E-02
         0.42441E-02
         0.11168E-01
         0.95974E-02
         0.42204E-01
         0.45312E-01
         0.40363E-01
         0.34517E-01
         0.25676E-01
         0.12931E-01
        -0.75748E-03
        -0.90514E-02
        -0.13815E-01
        -0.23691E-01
        -0.38395E-01
        -0.48275E-01
        -0.44699E-01
        -0.43041E-01
        -0.45796E-01
        -0.46031E-01
        -0.41814E-01
        -0.36295E-01
        -0.17797E-01
         0.28368E-02
         0.11024E-01
         0.12285E-01
         0.20763E-01
         0.32795E-01
         0.43229E-01
         0.45697E-01
        -0.59838E-02
         0.12284E-02
        -0.23386E-02
        -0.68092E-02
         0.13967E-01
         0.11936E-01
         0.34776E-02
        -0.75913E-02
        -0.34882E-02
        -0.72170E-02
        -0.14580E-02
         0.53187E-02
         0.17498E-01
        -0.13420E-01
        -0.13898E-01
         0.11756E-01
         0.65448E-02
        -0.39200E-02
        -0.26380E-02
        -0.46329E-02
        -0.27486E-01
        -0.26196E-01
        -0.25850E-01
        -0.62528E-02
         0.35515E-02
         0.23913E-02
        -0.12968E-01
         0.17219E-02
        -0.43401E-02
        -0.59184E-02
         0.90321E-02
         0.58446E-02
        -0.58581E-02
        -0.50559E-02
         0.24908E-01
         0.13748E-01
         0.15769E-01
        -0.15413E-01
        -0.25807E-02
        -0.74824E-02
        -0.27487E-01
        -0.28276E-01
        -0.27639E-01
        -0.19985E-01
        -0.15390E-01
        -0.90046E-02
         0.97324E-02
         0.11490E-01
        -0.15188E-02
         0.18287E-02
         0.18744E-01
         0.16512E-01
         0.10398E+00
         0.10478E+00
         0.94042E-01
         0.77567E-01
         0.57864E-01
         0.26642E-01
        -0.66160E-02
        -0.21446E-01
        -0.28254E-01
        -0.51780E-01
        -0.91979E-01
        -0.10851E+00
        -0.91044E-01
        -0.86627E-01
        -0.95417E-01
        -0.98248E-01
        -0.89663E-01
        -0.84787E-01
        -0.43206E-01
         0.11229E-01
         0.24843E-01
         0.25173E-01
         0.44747E-01
         0.77481E-01
         0.99166E-01
         0.98856E-01
        -0.59951E-02
         0.12329E-02
        -0.23430E-02
        -0.68138E-02
         0.13953E-01
         0.11925E-01
         0.34997E-02
        -0.75721E-02
        -0.34920E-02
        -0.72114E-02
        -0.14285E-02
         0.53316E-02
         0.17509E-01
        -0.13387E-01
        -0.13891E-01
         0.11768E-01
         0.65592E-02
        -0.39092E-02
        -0.26367E-02
        -0.46247E-02
        -0.27484E-01
        -0.26193E-01
        -0.25848E-01
        -0.62531E-02
         0.35595E-02
         0.23953E-02
        -0.12972E-01
         0.16895E-02
        -0.43706E-02
        -0.59222E-02
         0.90453E-02
         0.58439E-02
        -0.58338E-02
        -0.50582E-02
         0.24920E-01
         0.13742E-01
         0.15764E-01
        -0.15438E-01
        -0.26055E-02
        -0.75060E-02
        -0.27505E-01
        -0.28292E-01
        -0.27640E-01
        -0.19982E-01
        -0.15385E-01
        -0.90000E-02
         0.97305E-02
         0.11494E-01
        -0.15077E-02
         0.18225E-02
         0.18732E-01
         0.16487E-01
         0.10394E+00
         0.10475E+00
         0.94034E-01
         0.77567E-01
         0.57846E-01
         0.26634E-01
        -0.66235E-02
        -0.21459E-01
        -0.28230E-01
        -0.51759E-01
        -0.91965E-01
        -0.10851E+00
        -0.91036E-01
        -0.86622E-01
        -0.95429E-01
        -0.98269E-01
        -0.89678E-01
        -0.84804E-01
        -0.43194E-01
         0.11234E-01
         0.24825E-01
         0.25163E-01
         0.44714E-01
         0.77434E-01
         0.99117E-01
         0.98812E-01
        -0.60064E-02
         0.12374E-02
        -0.23474E-02
        -0.68183E-02
         0.13940E-01
         0.11914E-01
         0.35219E-02
        -0.75529E-02
        -0.34956E-02
        -0.72053E-02
        -0.13991E-02
         0.53445E-02
         0.17520E-01
        -0.13354E-01
        -0.13883E-01
         0.11781E-01
         0.65738E-02
        -0.38982E-02
        -0.26354E-02
        -0.46168E-02
        -0.27481E-01
        -0.26190E-01
        -0.25846E-01
        -0.62535E-02
         0.35680E-02
         0.23996E-02
        -0.12976E-01
         0.16576E-02
        -0.44013E-02
        -0.59259E-02
         0.90588E-02
         0.58434E-02
        -0.58092E-02
        -0.50605E-02
         0.24933E-01
         0.13736E-01
         0.15759E-01
        -0.15463E-01
        -0.26302E-02
        -0.75298E-02
        -0.27522E-01
        -0.28309E-01
        -0.27642E-01
        -0.19980E-01
        -0.15379E-01
        -0.89956E-02
         0.97287E-02
         0.11497E-01
        -0.14964E-02
         0.18160E-02
         0.18720E-01
         0.16463E-01
         0.10391E+00
         0.10472E+00
         0.94025E-01
         0.77568E-01
         0.57828E-01
         0.26626E-01
        -0.66311E-02
        -0.21473E-01
        -0.28206E-01
        -0.51739E-01
        -0.91951E-01
        -0.10852E+00
        -0.91027E-01
        -0.86617E-01
        -0.95441E-01
        -0.98291E-01
        -0.89695E-01
        -0.84821E-01
        -0.43182E-01
         0.11239E-01
         0.24807E-01
         0.25153E-01
         0.44681E-01
         0.77386E-01
         0.99068E-01
         0.98768E-01
        -0.60178E-02
         0.12421E-02
        -0.23517E-02
        -0.68228E-02
         0.13926E-01
         0.11903E-01
         0.35439E-02
        -0.75336E-02
        -0.34987E-02
        -0.71982E-02
        -0.13697E-02
         0.53577E-02
         0.17530E-01
        -0.13321E-01
        -0.13876E-01
         0.11794E-01
         0.65891E-02
        -0.38872E-02
        -0.26343E-02
        -0.46086E-02
        -0.27480E-01
        -0.26188E-01
        -0.25847E-01
        -0.62538E-02
         0.35782E-02
         0.24049E-02
        -0.12979E-01
         0.16266E-02
        -0.44319E-02
        -0.59294E-02
         0.90734E-02
         0.58440E-02
        -0.57845E-02
        -0.50627E-02
         0.24945E-01
         0.13729E-01
         0.15754E-01
        -0.15487E-01
        -0.26548E-02
        -0.75534E-02
        -0.27540E-01
        -0.28327E-01
        -0.27646E-01
        -0.19978E-01
        -0.15373E-01
        -0.89908E-02
         0.97273E-02
         0.11501E-01
        -0.14850E-02
         0.18096E-02
         0.18708E-01
         0.16439E-01
         0.10387E+00
         0.10470E+00
         0.94017E-01
         0.77569E-01
         0.57810E-01
         0.26618E-01
        -0.66387E-02
        -0.21486E-01
        -0.28183E-01
        -0.51718E-01
        -0.91937E-01
        -0.10852E+00
        -0.91021E-01
        -0.86613E-01
        -0.95455E-01
        -0.98317E-01
        -0.89712E-01
        -0.84837E-01
        -0.43170E-01
         0.11244E-01
         0.24789E-01
         0.25143E-01
         0.44648E-01
         0.77339E-01
         0.99018E-01
         0.98724E-01
        -0.60290E-02
         0.12467E-02
        -0.23560E-02
        -0.68273E-02
         0.13912E-01
         0.11892E-01
         0.35661E-02
        -0.75141E-02
        -0.35014E-02
        -0.71899E-02
        -0.13402E-02
         0.53707E-02
         0.17541E-01
        -0.13288E-01
        -0.13868E-01
         0.11809E-01
         0.66051E-02
        -0.38762E-02
        -0.26329E-02
        -0.46003E-02
        -0.27479E-01
        -0.26186E-01
        -0.25848E-01
        -0.62542E-02
         0.35899E-02
         0.24110E-02
        -0.12981E-01
         0.15966E-02
        -0.44624E-02
        -0.59326E-02
         0.90890E-02
         0.58454E-02
        -0.57598E-02
        -0.50650E-02
         0.24958E-01
         0.13723E-01
         0.15749E-01
        -0.15512E-01
        -0.26794E-02
        -0.75772E-02
        -0.27559E-01
        -0.28346E-01
        -0.27651E-01
        -0.19977E-01
        -0.15367E-01
        -0.89856E-02
         0.97262E-02
         0.11506E-01
        -0.14737E-02
         0.18032E-02
         0.18696E-01
         0.16414E-01
         0.10384E+00
         0.10467E+00
         0.94008E-01
         0.77569E-01
         0.57793E-01
         0.26610E-01
        -0.66462E-02
        -0.21499E-01
        -0.28159E-01
        -0.51698E-01
        -0.91922E-01
        -0.10852E+00
        -0.91017E-01
        -0.86610E-01
        -0.95470E-01
        -0.98345E-01
        -0.89732E-01
        -0.84853E-01
        -0.43158E-01
         0.11249E-01
         0.24770E-01
         0.25133E-01
         0.44615E-01
         0.77292E-01
         0.98969E-01
         0.98680E-01
        -0.60398E-02
         0.12517E-02
        -0.23599E-02
        -0.68316E-02
         0.13899E-01
         0.11881E-01
         0.35883E-02
        -0.74943E-02
        -0.35040E-02
        -0.71815E-02
        -0.13108E-02
         0.53837E-02
         0.17551E-01
        -0.13255E-01
        -0.13861E-01
         0.11824E-01
         0.66210E-02
        -0.38651E-02
        -0.26314E-02
        -0.45924E-02
        -0.27479E-01
        -0.26185E-01
        -0.25850E-01
        -0.62547E-02
         0.36017E-02
         0.24173E-02
        -0.12984E-01
         0.15668E-02
        -0.44931E-02
        -0.59365E-02
         0.91045E-02
         0.58467E-02
        -0.57348E-02
        -0.50670E-02
         0.24971E-01
         0.13718E-01
         0.15745E-01
        -0.15536E-01
        -0.27039E-02
        -0.76011E-02
        -0.27577E-01
        -0.28365E-01
        -0.27657E-01
        -0.19976E-01
        -0.15362E-01
        -0.89811E-02
         0.97248E-02
         0.11510E-01
        -0.14620E-02
         0.17973E-02
         0.18685E-01
         0.16391E-01
         0.10380E+00
         0.10464E+00
         0.94000E-01
         0.77569E-01
         0.57775E-01
         0.26602E-01
        -0.66535E-02
        -0.21512E-01
        -0.28135E-01
        -0.51677E-01
        -0.91908E-01
        -0.10853E+00
        -0.91014E-01
        -0.86607E-01
        -0.95485E-01
        -0.98375E-01
        -0.89752E-01
        -0.84868E-01
        -0.43146E-01
         0.11254E-01
         0.24752E-01
         0.25123E-01
         0.44583E-01
         0.77245E-01
         0.98920E-01
         0.98636E-01
        -0.60498E-02
         0.12578E-02
        -0.23629E-02
        -0.68359E-02
         0.13886E-01
         0.11870E-01
         0.36110E-02
        -0.74741E-02
        -0.35068E-02
        -0.71735E-02
        -0.12812E-02
         0.53967E-02
         0.17562E-01
        -0.13221E-01
        -0.13853E-01
         0.11839E-01
         0.66363E-02
        -0.38540E-02
        -0.26302E-02
        -0.45846E-02
        -0.27478E-01
        -0.26185E-01
        -0.25852E-01
        -0.62555E-02
         0.36120E-02
         0.24228E-02
        -0.12987E-01
         0.15363E-02
        -0.45240E-02
        -0.59409E-02
         0.91191E-02
         0.58469E-02
        -0.57092E-02
        -0.50684E-02
         0.24984E-01
         0.13713E-01
         0.15740E-01
        -0.15561E-01
        -0.27287E-02
        -0.76255E-02
        -0.27596E-01
        -0.28385E-01
        -0.27664E-01
        -0.19975E-01
        -0.15357E-01
        -0.89770E-02
         0.97226E-02
         0.11514E-01
        -0.14494E-02
         0.17928E-02
         0.18674E-01
         0.16367E-01
         0.10377E+00
         0.10462E+00
         0.93991E-01
         0.77569E-01
         0.57757E-01
         0.26594E-01
        -0.66609E-02
        -0.21526E-01
        -0.28111E-01
        -0.51657E-01
        -0.91893E-01
        -0.10853E+00
        -0.91010E-01
        -0.86605E-01
        -0.95500E-01
        -0.98405E-01
        -0.89773E-01
        -0.84884E-01
        -0.43133E-01
         0.11258E-01
         0.24733E-01
         0.25114E-01
         0.44551E-01
         0.77198E-01
         0.98872E-01
         0.98592E-01
        -0.60593E-02
         0.12641E-02
        -0.23655E-02
        -0.68400E-02
         0.13873E-01
         0.11859E-01
         0.36339E-02
        -0.74536E-02
        -0.35097E-02
        -0.71658E-02
        -0.12515E-02
         0.54097E-02
         0.17573E-01
        -0.13188E-01
        -0.13845E-01
         0.11854E-01
         0.66513E-02
        -0.38428E-02
        -0.26288E-02
        -0.45773E-02
        -0.27478E-01
        -0.26184E-01
        -0.25854E-01
        -0.62561E-02
         0.36217E-02
         0.24280E-02
        -0.12990E-01
         0.15056E-02
        -0.45554E-02
        -0.59456E-02
         0.91333E-02
         0.58465E-02
        -0.56834E-02
        -0.50697E-02
         0.24997E-01
         0.13708E-01
         0.15737E-01
        -0.15585E-01
        -0.27534E-02
        -0.76497E-02
        -0.27616E-01
        -0.28405E-01
        -0.27671E-01
        -0.19975E-01
        -0.15352E-01
        -0.89737E-02
         0.97201E-02
         0.11517E-01
        -0.14364E-02
         0.17889E-02
         0.18665E-01
         0.16344E-01
         0.10373E+00
         0.10459E+00
         0.93982E-01
         0.77570E-01
         0.57739E-01
         0.26586E-01
        -0.66683E-02
        -0.21539E-01
        -0.28088E-01
        -0.51636E-01
        -0.91877E-01
        -0.10854E+00
        -0.91007E-01
        -0.86602E-01
        -0.95516E-01
        -0.98435E-01
        -0.89793E-01
        -0.84898E-01
        -0.43121E-01
         0.11261E-01
         0.24714E-01
         0.25104E-01
         0.44519E-01
         0.77151E-01
         0.98823E-01
         0.98548E-01
        -0.60687E-02
         0.12706E-02
        -0.23680E-02
        -0.68441E-02
         0.13860E-01
         0.11848E-01
         0.36566E-02
        -0.74332E-02
        -0.35126E-02
        -0.71583E-02
        -0.12219E-02
         0.54227E-02
         0.17584E-01
        -0.13155E-01
        -0.13838E-01
         0.11868E-01
         0.66663E-02
        -0.38316E-02
        -0.26274E-02
        -0.45698E-02
        -0.27478E-01
        -0.26183E-01
        -0.25857E-01
        -0.62570E-02
         0.36313E-02
         0.24331E-02
        -0.12993E-01
         0.14750E-02
        -0.45868E-02
        -0.59503E-02
         0.91475E-02
         0.58462E-02
        -0.56576E-02
        -0.50709E-02
         0.25011E-01
         0.13703E-01
         0.15733E-01
        -0.15609E-01
        -0.27783E-02
        -0.76738E-02
        -0.27635E-01
        -0.28425E-01
        -0.27678E-01
        -0.19975E-01
        -0.15348E-01
        -0.89703E-02
         0.97176E-02
         0.11521E-01
        -0.14233E-02
         0.17852E-02
         0.18655E-01
         0.16320E-01
         0.10370E+00
         0.10456E+00
         0.93973E-01
         0.77570E-01
         0.57721E-01
         0.26578E-01
        -0.66756E-02
        -0.21552E-01
        -0.28064E-01
        -0.51616E-01
        -0.91863E-01
        -0.10854E+00
        -0.91003E-01
        -0.86599E-01
        -0.95531E-01
        -0.98465E-01
        -0.89813E-01
        -0.84913E-01
        -0.43108E-01
         0.11265E-01
         0.24694E-01
         0.25094E-01
         0.44488E-01
         0.77105E-01
         0.98774E-01
         0.98505E-01
        -0.60782E-02
         0.12771E-02
        -0.23705E-02
        -0.68483E-02
         0.13847E-01
         0.11837E-01
         0.36795E-02
        -0.74128E-02
        -0.35155E-02
        -0.71507E-02
        -0.11924E-02
         0.54357E-02
         0.17596E-01
        -0.13122E-01
        -0.13830E-01
         0.11883E-01
         0.66814E-02
        -0.38206E-02
        -0.26259E-02
        -0.45624E-02
        -0.27477E-01
        -0.26182E-01
        -0.25859E-01
        -0.62578E-02
         0.36410E-02
         0.24383E-02
        -0.12996E-01
         0.14445E-02
        -0.46180E-02
        -0.59550E-02
         0.91617E-02
         0.58458E-02
        -0.56319E-02
        -0.50721E-02
         0.25024E-01
         0.13699E-01
         0.15729E-01
        -0.15634E-01
        -0.28031E-02
        -0.76983E-02
        -0.27654E-01
        -0.28445E-01
        -0.27684E-01
        -0.19975E-01
        -0.15343E-01
        -0.89667E-02
         0.97150E-02
         0.11525E-01
        -0.14104E-02
         0.17811E-02
         0.18645E-01
         0.16296E-01
         0.10366E+00
         0.10454E+00
         0.93964E-01
         0.77570E-01
         0.57703E-01
         0.26570E-01
        -0.66829E-02
        -0.21565E-01
        -0.28040E-01
        -0.51596E-01
        -0.91848E-01
        -0.10855E+00
        -0.91000E-01
        -0.86596E-01
        -0.95546E-01
        -0.98496E-01
        -0.89834E-01
        -0.84927E-01
        -0.43096E-01
         0.11268E-01
         0.24675E-01
         0.25084E-01
         0.44456E-01
         0.77058E-01
         0.98726E-01
         0.98461E-01
        -0.60877E-02
         0.12835E-02
        -0.23731E-02
        -0.68523E-02
         0.13834E-01
         0.11827E-01
         0.37022E-02
        -0.73924E-02
        -0.35183E-02
        -0.71431E-02
        -0.11627E-02
         0.54489E-02
         0.17607E-01
        -0.13089E-01
        -0.13822E-01
         0.11898E-01
         0.66963E-02
        -0.38096E-02
        -0.26248E-02
        -0.45548E-02
        -0.27477E-01
        -0.26182E-01
        -0.25861E-01
        -0.62587E-02
         0.36505E-02
         0.24433E-02
        -0.12999E-01
         0.14140E-02
        -0.46492E-02
        -0.59596E-02
         0.91758E-02
         0.58453E-02
        -0.56061E-02
        -0.50734E-02
         0.25038E-01
         0.13694E-01
         0.15725E-01
        -0.15658E-01
        -0.28281E-02
        -0.77224E-02
        -0.27673E-01
        -0.28465E-01
        -0.27691E-01
        -0.19975E-01
        -0.15339E-01
        -0.89634E-02
         0.97125E-02
         0.11528E-01
        -0.13973E-02
         0.17772E-02
         0.18636E-01
         0.16273E-01
         0.10362E+00
         0.10451E+00
         0.93955E-01
         0.77570E-01
         0.57685E-01
         0.26562E-01
        -0.66900E-02
        -0.21578E-01
        -0.28017E-01
        -0.51575E-01
        -0.91833E-01
        -0.10855E+00
        -0.90996E-01
        -0.86593E-01
        -0.95562E-01
        -0.98525E-01
        -0.89854E-01
        -0.84942E-01
        -0.43083E-01
         0.11272E-01
         0.24655E-01
         0.25075E-01
         0.44424E-01
         0.77012E-01
         0.98677E-01
         0.98417E-01
        -0.60971E-02
         0.12899E-02
        -0.23756E-02
        -0.68564E-02
         0.13821E-01
         0.11816E-01
         0.37250E-02
        -0.73720E-02
        -0.35212E-02
        -0.71356E-02
        -0.11332E-02
         0.54620E-02
         0.17617E-01
        -0.13057E-01
        -0.13814E-01
         0.11913E-01
         0.67113E-02
        -0.37984E-02
        -0.26235E-02
        -0.45474E-02
        -0.27476E-01
        -0.26181E-01
        -0.25863E-01
        -0.62596E-02
         0.36600E-02
         0.24486E-02
        -0.13002E-01
         0.13837E-02
        -0.46801E-02
        -0.59644E-02
         0.91900E-02
         0.58449E-02
        -0.55802E-02
        -0.50746E-02
         0.25052E-01
         0.13690E-01
         0.15721E-01
        -0.15682E-01
        -0.28530E-02
        -0.77470E-02
        -0.27692E-01
        -0.28485E-01
        -0.27697E-01
        -0.19975E-01
        -0.15334E-01
        -0.89602E-02
         0.97100E-02
         0.11532E-01
        -0.13842E-02
         0.17734E-02
         0.18626E-01
         0.16249E-01
         0.10359E+00
         0.10448E+00
         0.93946E-01
         0.77570E-01
         0.57668E-01
         0.26554E-01
        -0.66972E-02
        -0.21591E-01
        -0.27993E-01
        -0.51555E-01
        -0.91818E-01
        -0.10855E+00
        -0.90992E-01
        -0.86590E-01
        -0.95577E-01
        -0.98555E-01
        -0.89874E-01
        -0.84957E-01
        -0.43070E-01
         0.11275E-01
         0.24636E-01
         0.25065E-01
         0.44393E-01
         0.76965E-01
         0.98629E-01
         0.98373E-01
        -0.61066E-02
         0.12964E-02
        -0.23780E-02
        -0.68605E-02
         0.13808E-01
         0.11805E-01
         0.37478E-02
        -0.73515E-02
        -0.35240E-02
        -0.71279E-02
        -0.11037E-02
         0.54750E-02
         0.17629E-01
        -0.13024E-01
        -0.13806E-01
         0.11927E-01
         0.67262E-02
        -0.37873E-02
        -0.26222E-02
        -0.45399E-02
        -0.27476E-01
        -0.26180E-01
        -0.25866E-01
        -0.62605E-02
         0.36694E-02
         0.24537E-02
        -0.13005E-01
         0.13533E-02
        -0.47113E-02
        -0.59690E-02
         0.92042E-02
         0.58445E-02
        -0.55543E-02
        -0.50758E-02
         0.25065E-01
         0.13685E-01
         0.15718E-01
        -0.15706E-01
        -0.28781E-02
        -0.77713E-02
        -0.27711E-01
        -0.28504E-01
        -0.27704E-01
        -0.19975E-01
        -0.15330E-01
        -0.89563E-02
         0.97074E-02
         0.11536E-01
        -0.13711E-02
         0.17695E-02
         0.18616E-01
         0.16226E-01
         0.10355E+00
         0.10446E+00
         0.93937E-01
         0.77570E-01
         0.57650E-01
         0.26546E-01
        -0.67045E-02
        -0.21604E-01
        -0.27969E-01
        -0.51534E-01
        -0.91803E-01
        -0.10856E+00
        -0.90989E-01
        -0.86587E-01
        -0.95592E-01
        -0.98585E-01
        -0.89894E-01
        -0.84971E-01
        -0.43058E-01
         0.11279E-01
         0.24616E-01
         0.25055E-01
         0.44361E-01
         0.76919E-01
         0.98580E-01
         0.98330E-01
        -0.61162E-02
         0.13028E-02
        -0.23804E-02
        -0.68645E-02
         0.13795E-01
         0.11794E-01
         0.37703E-02
        -0.73311E-02
        -0.35268E-02
        -0.71202E-02
        -0.10743E-02
         0.54880E-02
         0.17640E-01
        -0.12991E-01
        -0.13799E-01
         0.11942E-01
         0.67412E-02
        -0.37762E-02
        -0.26211E-02
        -0.45325E-02
        -0.27475E-01
        -0.26179E-01
        -0.25868E-01
        -0.62615E-02
         0.36788E-02
         0.24588E-02
        -0.13007E-01
         0.13231E-02
        -0.47424E-02
        -0.59736E-02
         0.92183E-02
         0.58441E-02
        -0.55284E-02
        -0.50770E-02
         0.25079E-01
         0.13681E-01
         0.15714E-01
        -0.15730E-01
        -0.29031E-02
        -0.77959E-02
        -0.27730E-01
        -0.28524E-01
        -0.27711E-01
        -0.19975E-01
        -0.15325E-01
        -0.89531E-02
         0.97049E-02
         0.11539E-01
        -0.13579E-02
         0.17655E-02
         0.18607E-01
         0.16203E-01
         0.10352E+00
         0.10443E+00
         0.93928E-01
         0.77570E-01
         0.57632E-01
         0.26537E-01
        -0.67117E-02
        -0.21616E-01
        -0.27945E-01
        -0.51513E-01
        -0.91788E-01
        -0.10856E+00
        -0.90985E-01
        -0.86585E-01
        -0.95608E-01
        -0.98616E-01
        -0.89915E-01
        -0.84986E-01
        -0.43045E-01
         0.11282E-01
         0.24597E-01
         0.25046E-01
         0.44329E-01
         0.76872E-01
         0.98532E-01
         0.98286E-01
        -0.61257E-02
         0.13091E-02
        -0.23829E-02
        -0.68685E-02
         0.13782E-01
         0.11783E-01
         0.37930E-02
        -0.73107E-02
        -0.35296E-02
        -0.71126E-02
        -0.10449E-02
         0.55013E-02
         0.17651E-01
        -0.12958E-01
        -0.13791E-01
         0.11957E-01
         0.67561E-02
        -0.37652E-02
        -0.26198E-02
        -0.45249E-02
        -0.27475E-01
        -0.26178E-01
        -0.25870E-01
        -0.62624E-02
         0.36881E-02
         0.24639E-02
        -0.13010E-01
         0.12929E-02
        -0.47735E-02
        -0.59781E-02
         0.92324E-02
         0.58435E-02
        -0.55024E-02
        -0.50782E-02
         0.25093E-01
         0.13676E-01
         0.15711E-01
        -0.15753E-01
        -0.29282E-02
        -0.78203E-02
        -0.27749E-01
        -0.28544E-01
        -0.27717E-01
        -0.19975E-01
        -0.15321E-01
        -0.89498E-02
         0.97023E-02
         0.11543E-01
        -0.13446E-02
         0.17617E-02
         0.18597E-01
         0.16179E-01
         0.10348E+00
         0.10440E+00
         0.93919E-01
         0.77570E-01
         0.57614E-01
         0.26529E-01
        -0.67188E-02
        -0.21629E-01
        -0.27922E-01
        -0.51493E-01
        -0.91773E-01
        -0.10857E+00
        -0.90981E-01
        -0.86582E-01
        -0.95623E-01
        -0.98646E-01
        -0.89935E-01
        -0.85000E-01
        -0.43033E-01
         0.11285E-01
         0.24578E-01
         0.25037E-01
         0.44298E-01
         0.76826E-01
         0.98483E-01
         0.98242E-01
        -0.61352E-02
         0.13156E-02
        -0.23854E-02
        -0.68725E-02
         0.13769E-01
         0.11772E-01
         0.38155E-02
        -0.72902E-02
        -0.35324E-02
        -0.71049E-02
        -0.10155E-02
         0.55144E-02
         0.17662E-01
        -0.12925E-01
        -0.13783E-01
         0.11971E-01
         0.67710E-02
        -0.37542E-02
        -0.26185E-02
        -0.45176E-02
        -0.27475E-01
        -0.26177E-01
        -0.25872E-01
        -0.62633E-02
         0.36973E-02
         0.24690E-02
        -0.13013E-01
         0.12627E-02
        -0.48046E-02
        -0.59826E-02
         0.92465E-02
         0.58431E-02
        -0.54766E-02
        -0.50794E-02
         0.25107E-01
         0.13672E-01
         0.15707E-01
        -0.15777E-01
        -0.29534E-02
        -0.78446E-02
        -0.27768E-01
        -0.28563E-01
        -0.27724E-01
        -0.19974E-01
        -0.15317E-01
        -0.89462E-02
         0.96997E-02
         0.11547E-01
        -0.13315E-02
         0.17577E-02
         0.18587E-01
         0.16155E-01
         0.10345E+00
         0.10438E+00
         0.93910E-01
         0.77570E-01
         0.57597E-01
         0.26521E-01
        -0.67257E-02
        -0.21641E-01
        -0.27898E-01
        -0.51473E-01
        -0.91759E-01
        -0.10857E+00
        -0.90978E-01
        -0.86579E-01
        -0.95639E-01
        -0.98676E-01
        -0.89955E-01
        -0.85015E-01
        -0.43020E-01
         0.11288E-01
         0.24558E-01
         0.25027E-01
         0.44266E-01
         0.76779E-01
         0.98435E-01
         0.98199E-01
        -0.61447E-02
         0.13220E-02
        -0.23879E-02
        -0.68765E-02
         0.13757E-01
         0.11761E-01
         0.38382E-02
        -0.72697E-02
        -0.35351E-02
        -0.70969E-02
        -0.98612E-03
         0.55275E-02
         0.17673E-01
        -0.12893E-01
        -0.13774E-01
         0.11986E-01
         0.67860E-02
        -0.37432E-02
        -0.26173E-02
        -0.45100E-02
        -0.27474E-01
        -0.26176E-01
        -0.25875E-01
        -0.62643E-02
         0.37062E-02
         0.24740E-02
        -0.13016E-01
         0.12322E-02
        -0.48354E-02
        -0.59871E-02
         0.92607E-02
         0.58428E-02
        -0.54507E-02
        -0.50808E-02
         0.25121E-01
         0.13667E-01
         0.15703E-01
        -0.15801E-01
        -0.29788E-02
        -0.78692E-02
        -0.27787E-01
        -0.28583E-01
        -0.27730E-01
        -0.19975E-01
        -0.15312E-01
        -0.89429E-02
         0.96972E-02
         0.11550E-01
        -0.13183E-02
         0.17537E-02
         0.18577E-01
         0.16132E-01
         0.10341E+00
         0.10435E+00
         0.93901E-01
         0.77570E-01
         0.57579E-01
         0.26513E-01
        -0.67325E-02
        -0.21654E-01
        -0.27875E-01
        -0.51452E-01
        -0.91744E-01
        -0.10858E+00
        -0.90975E-01
        -0.86576E-01
        -0.95654E-01
        -0.98705E-01
        -0.89976E-01
        -0.85029E-01
        -0.43007E-01
         0.11292E-01
         0.24539E-01
         0.25017E-01
         0.44234E-01
         0.76732E-01
         0.98386E-01
         0.98155E-01
        -0.61543E-02
         0.13284E-02
        -0.23902E-02
        -0.68805E-02
         0.13744E-01
         0.11750E-01
         0.38607E-02
        -0.72493E-02
        -0.35375E-02
        -0.70881E-02
        -0.95677E-03
         0.55407E-02
         0.17684E-01
        -0.12860E-01
        -0.13766E-01
         0.12001E-01
         0.68008E-02
        -0.37322E-02
        -0.26164E-02
        -0.45027E-02
        -0.27474E-01
        -0.26175E-01
        -0.25877E-01
        -0.62652E-02
         0.37147E-02
         0.24793E-02
        -0.13017E-01
         0.12010E-02
        -0.48663E-02
        -0.59919E-02
         0.92749E-02
         0.58422E-02
        -0.54247E-02
        -0.50820E-02
         0.25134E-01
         0.13663E-01
         0.15699E-01
        -0.15824E-01
        -0.30050E-02
        -0.78934E-02
        -0.27804E-01
        -0.28601E-01
        -0.27736E-01
        -0.19975E-01
        -0.15307E-01
        -0.89393E-02
         0.96947E-02
         0.11554E-01
        -0.13052E-02
         0.17498E-02
         0.18568E-01
         0.16108E-01
         0.10337E+00
         0.10433E+00
         0.93892E-01
         0.77570E-01
         0.57561E-01
         0.26505E-01
        -0.67394E-02
        -0.21666E-01
        -0.27851E-01
        -0.51431E-01
        -0.91728E-01
        -0.10859E+00
        -0.90973E-01
        -0.86573E-01
        -0.95669E-01
        -0.98735E-01
        -0.89996E-01
        -0.85043E-01
        -0.42995E-01
         0.11295E-01
         0.24519E-01
         0.25007E-01
         0.44203E-01
         0.76686E-01
         0.98337E-01
         0.98111E-01
        -0.61638E-02
         0.13348E-02
        -0.23926E-02
        -0.68844E-02
         0.13731E-01
         0.11739E-01
         0.38833E-02
        -0.72288E-02
        -0.35397E-02
        -0.70784E-02
        -0.92751E-03
         0.55538E-02
         0.17695E-01
        -0.12827E-01
        -0.13757E-01
         0.12015E-01
         0.68154E-02
        -0.37212E-02
        -0.26152E-02
        -0.44953E-02
        -0.27473E-01
        -0.26174E-01
        -0.25879E-01
        -0.62662E-02
         0.37224E-02
         0.24844E-02
        -0.13018E-01
         0.11688E-02
        -0.48973E-02
        -0.59965E-02
         0.92890E-02
         0.58417E-02
        -0.53987E-02
        -0.50833E-02
         0.25148E-01
         0.13659E-01
         0.15696E-01
        -0.15846E-01
        -0.30318E-02
        -0.79177E-02
        -0.27820E-01
        -0.28617E-01
        -0.27741E-01
        -0.19975E-01
        -0.15303E-01
        -0.89360E-02
         0.96922E-02
         0.11558E-01
        -0.12920E-02
         0.17459E-02
         0.18558E-01
         0.16084E-01
         0.10334E+00
         0.10430E+00
         0.93882E-01
         0.77570E-01
         0.57543E-01
         0.26497E-01
        -0.67462E-02
        -0.21678E-01
        -0.27828E-01
        -0.51409E-01
        -0.91712E-01
        -0.10860E+00
        -0.90974E-01
        -0.86571E-01
        -0.95684E-01
        -0.98765E-01
        -0.90016E-01
        -0.85057E-01
        -0.42982E-01
         0.11298E-01
         0.24500E-01
         0.24998E-01
         0.44171E-01
         0.76640E-01
         0.98289E-01
         0.98068E-01
        -0.61733E-02
         0.13412E-02
        -0.23951E-02
        -0.68884E-02
         0.13718E-01
         0.11729E-01
         0.39056E-02
        -0.72084E-02
        -0.35417E-02
        -0.70685E-02
        -0.89845E-03
         0.55667E-02
         0.17705E-01
        -0.12793E-01
        -0.13749E-01
         0.12030E-01
         0.68301E-02
        -0.37103E-02
        -0.26139E-02
        -0.44880E-02
        -0.27473E-01
        -0.26173E-01
        -0.25881E-01
        -0.62671E-02
         0.37299E-02
         0.24894E-02
        -0.13018E-01
         0.11365E-02
        -0.49279E-02
        -0.60011E-02
         0.93032E-02
         0.58413E-02
        -0.53730E-02
        -0.50846E-02
         0.25162E-01
         0.13654E-01
         0.15692E-01
        -0.15868E-01
        -0.30590E-02
        -0.79413E-02
        -0.27835E-01
        -0.28632E-01
        -0.27745E-01
        -0.19975E-01
        -0.15299E-01
        -0.89327E-02
         0.96898E-02
         0.11562E-01
        -0.12789E-02
         0.17418E-02
         0.18549E-01
         0.16061E-01
         0.10330E+00
         0.10427E+00
         0.93874E-01
         0.77570E-01
         0.57525E-01
         0.26488E-01
        -0.67530E-02
        -0.21690E-01
        -0.27805E-01
        -0.51386E-01
        -0.91696E-01
        -0.10861E+00
        -0.90975E-01
        -0.86569E-01
        -0.95699E-01
        -0.98795E-01
        -0.90037E-01
        -0.85072E-01
        -0.42970E-01
         0.11302E-01
         0.24481E-01
         0.24988E-01
         0.44140E-01
         0.76593E-01
         0.98241E-01
         0.98024E-01
        -0.62076E-02
         0.13518E-02
        -0.24076E-02
        -0.69197E-02
         0.13759E-01
         0.11765E-01
         0.39414E-02
        -0.72199E-02
        -0.35577E-02
        -0.70894E-02
        -0.87676E-03
         0.55987E-02
         0.17785E-01
        -0.12816E-01
        -0.13798E-01
         0.12092E-01
         0.68717E-02
        -0.37150E-02
        -0.26226E-02
        -0.44979E-02
        -0.27577E-01
        -0.26274E-01
        -0.25981E-01
        -0.62928E-02
         0.37518E-02
         0.25039E-02
        -0.13074E-01
         0.11109E-02
        -0.49764E-02
        -0.60295E-02
         0.93539E-02
         0.58638E-02
        -0.53709E-02
        -0.51067E-02
         0.25274E-01
         0.13704E-01
         0.15750E-01
        -0.15956E-01
        -0.30964E-02
        -0.79954E-02
        -0.27963E-01
        -0.28764E-01
        -0.27861E-01
        -0.20050E-01
        -0.15353E-01
        -0.89630E-02
         0.97261E-02
         0.11613E-01
        -0.12723E-02
         0.17447E-02
         0.18613E-01
         0.16103E-01
         0.10369E+00
         0.10466E+00
         0.94245E-01
         0.77879E-01
         0.57741E-01
         0.26586E-01
        -0.67901E-02
        -0.21791E-01
        -0.27901E-01
        -0.51585E-01
        -0.92072E-01
        -0.10906E+00
        -0.91329E-01
        -0.86894E-01
        -0.96070E-01
        -0.99186E-01
        -0.90387E-01
        -0.85412E-01
        -0.43131E-01
         0.11354E-01
         0.24562E-01
         0.25075E-01
         0.44284E-01
         0.76851E-01
         0.98575E-01
         0.98359E-01
        -0.92654E-02
         0.20313E-02
        -0.35866E-02
        -0.10344E-01
         0.19763E-01
         0.17058E-01
         0.59071E-02
        -0.10706E-01
        -0.52934E-02
        -0.10495E-01
        -0.12699E-02
         0.79060E-02
         0.25485E-01
        -0.18727E-01
        -0.19576E-01
         0.18061E-01
         0.10239E-01
        -0.55423E-02
        -0.38631E-02
        -0.66409E-02
        -0.39482E-01
        -0.38101E-01
        -0.37299E-01
        -0.93430E-02
         0.56104E-02
         0.37507E-02
        -0.19273E-01
         0.16319E-02
        -0.74866E-02
        -0.90048E-02
         0.13979E-01
         0.87364E-02
        -0.80100E-02
        -0.76352E-02
         0.35648E-01
         0.19862E-01
         0.22838E-01
        -0.23169E-01
        -0.45751E-02
        -0.11823E-01
        -0.40738E-01
        -0.42212E-01
        -0.40852E-01
        -0.28991E-01
        -0.22126E-01
        -0.12550E-01
         0.13970E-01
         0.16903E-01
        -0.18485E-02
         0.25366E-02
         0.26427E-01
         0.23277E-01
         0.12969E+00
         0.13068E+00
         0.11772E+00
         0.97559E-01
         0.72264E-01
         0.33345E-01
        -0.86270E-02
        -0.27891E-01
        -0.35623E-01
        -0.65487E-01
        -0.11705E+00
        -0.13840E+00
        -0.11718E+00
        -0.11183E+00
        -0.12206E+00
        -0.12458E+00
        -0.11318E+00
        -0.10636E+00
        -0.53674E-01
         0.14157E-01
         0.30920E-01
         0.31705E-01
         0.55788E-01
         0.97157E-01
         0.12423E+00
         0.12352E+00
  
SCALARS                      strain_xy  double 1
LOOKUP_TABLE default
         0.37996E-04
         0.85068E-04
         0.75157E-03
        -0.27986E-04
        -0.41378E-19
         0.40438E-20
         0.60799E-19
         0.92616E-20
         0.76757E-02
        -0.34287E-02
         0.27063E-18
         0.21461E-18
        -0.26857E-03
         0.55582E-04
         0.23888E-19
        -0.71744E-20
        -0.89253E-04
        -0.13492E-02
         0.11892E-20
         0.18122E-19
         0.97169E-03
         0.59007E-02
         0.62192E-02
         0.18427E-18
         0.14675E-18
        -0.21430E-18
         0.61556E-03
         0.48197E-02
         0.24812E-18
         0.38183E-18
         0.23807E-03
        -0.43366E-03
        -0.39700E-04
        -0.13096E-19
         0.51663E-19
        -0.66079E-21
         0.20264E-02
         0.86962E-03
         0.13827E-18
         0.11454E-18
         0.38484E-02
         0.32630E-02
         0.23571E-18
         0.15885E-18
         0.39295E-02
         0.73794E-03
        -0.85865E-20
         0.63927E-19
        -0.88985E-03
         0.18893E-19
         0.25033E-03
        -0.42595E-21
        -0.50693E-04
         0.14280E-18
        -0.24596E-03
         0.21974E-19
        -0.35099E-02
         0.18361E-03
         0.51067E-21
        -0.25053E-20
        -0.30789E-04
         0.30272E-02
         0.13916E-19
         0.35696E-19
        -0.13515E-03
        -0.28256E-20
        -0.18892E-02
         0.22641E-19
         0.93599E-02
         0.33750E-02
         0.17488E-19
        -0.16747E-18
         0.74631E-02
        -0.26777E-18
        -0.24706E-02
         0.17935E-18
        -0.77117E-02
         0.26720E-19
        -0.13541E-01
         0.34746E-19
        -0.27099E-01
        -0.15269E-01
         0.81687E-19
        -0.20713E-19
        -0.20124E-02
        -0.24926E-20
         0.74365E-02
        -0.22481E-18
         0.10639E-01
        -0.25102E-18
         0.22846E-01
         0.10295E-01
        -0.15890E-18
         0.17637E-18
        -0.16823E-02
         0.16059E-18
        -0.41899E-02
         0.68986E-19
        -0.96888E-02
         0.18317E-18
        -0.23726E-01
        -0.13680E-01
         0.39276E-18
         0.19638E-18
         0.36695E-01
        -0.15789E-01
        -0.25518E-18
         0.31250E-18
         0.88765E-01
        -0.72523E-18
         0.11938E+00
        -0.79277E-18
         0.10169E+00
        -0.53804E-18
         0.80733E-01
        -0.57071E-19
         0.32840E-01
         0.16086E-18
        -0.41428E-01
         0.99596E-19
        -0.92685E-01
         0.91047E-19
        -0.12273E+00
         0.19534E-18
        -0.12619E+00
         0.23751E-18
        -0.11258E+00
         0.93575E-19
        -0.65647E-01
         0.57050E-19
         0.47388E-02
         0.93247E-19
         0.60580E-01
         0.62505E-19
         0.10098E+00
        -0.22290E-18
         0.13758E+00
        -0.58488E-18
         0.11392E+00
        -0.74225E-18
         0.69198E-01
        -0.45937E-18
         0.74155E-02
         0.87642E-19
        -0.51612E-01
         0.18575E-18
        -0.75898E-01
         0.29603E-18
        -0.90547E-01
         0.58295E-18
        -0.81307E-01
         0.75643E-18
        -0.77136E-01
         0.53742E-18
        -0.65318E-01
         0.42502E-18
        -0.70084E-05
         0.18410E-05
         0.18920E-05
        -0.12206E-05
         0.14665E-04
         0.12467E-04
         0.19033E-06
        -0.43951E-05
        -0.20310E-05
        -0.51666E-05
        -0.13871E-05
        -0.25426E-04
        -0.37073E-04
         0.13769E-05
         0.20840E-04
        -0.30645E-05
         0.22656E-05
         0.68680E-06
         0.13316E-05
        -0.10927E-05
         0.54149E-05
         0.47961E-05
        -0.14316E-04
         0.37653E-06
         0.32878E-05
         0.36179E-06
         0.58550E-07
         0.11509E-06
         0.13980E-05
        -0.47934E-05
        -0.26632E-05
         0.54940E-06
         0.91243E-06
        -0.70422E-07
        -0.33746E-05
        -0.12007E-04
        -0.24700E-04
         0.36793E-04
         0.19107E-04
         0.33590E-04
         0.63726E-04
         0.15513E-04
        -0.13077E-04
        -0.26219E-04
        -0.30411E-04
        -0.37296E-04
         0.47609E-05
         0.14763E-04
         0.45443E-05
         0.14902E-04
         0.45348E-04
         0.18151E-04
        -0.14135E-03
         0.18629E-03
        -0.44802E-03
        -0.53191E-03
        -0.50395E-03
        -0.29822E-03
         0.17357E-04
         0.18693E-03
         0.27191E-03
         0.44025E-03
         0.45848E-03
         0.26089E-03
         0.10735E-03
         0.45739E-04
        -0.75039E-04
        -0.29969E-03
        -0.50031E-03
        -0.56214E-03
        -0.32362E-03
         0.59608E-04
         0.22044E-03
         0.23215E-03
         0.36439E-03
         0.39620E-03
         0.30965E-03
         0.28894E-03
        -0.52607E-04
         0.68111E-05
        -0.11999E-04
        -0.82870E-05
         0.93081E-04
         0.35776E-04
         0.82652E-05
        -0.63077E-04
        -0.19007E-04
        -0.56400E-04
         0.60239E-05
        -0.95118E-04
        -0.18538E-03
         0.20429E-04
         0.24488E-03
        -0.39195E-04
         0.66125E-05
         0.37812E-05
         0.11469E-04
         0.38942E-05
         0.10301E-03
         0.69701E-04
        -0.39875E-04
         0.81405E-05
         0.18689E-04
        -0.31126E-05
         0.42356E-05
        -0.10455E-05
        -0.42093E-05
        -0.31069E-04
        -0.32453E-04
        -0.55317E-05
         0.13605E-04
         0.10195E-04
         0.23950E-04
        -0.40294E-04
        -0.88248E-04
         0.20639E-03
         0.30472E-04
         0.77860E-04
         0.21014E-03
        -0.53414E-04
        -0.10754E-03
        -0.97129E-04
        -0.96315E-04
        -0.11512E-03
         0.72396E-04
         0.56519E-04
        -0.93899E-05
         0.13347E-04
         0.14175E-03
         0.93692E-05
        -0.98149E-03
         0.14148E-02
        -0.29555E-02
        -0.31503E-02
        -0.30337E-02
        -0.16766E-02
         0.40775E-03
         0.11538E-02
         0.14567E-02
         0.26418E-02
         0.29467E-02
         0.11457E-02
         0.38287E-03
         0.31213E-03
        -0.15925E-03
        -0.13913E-02
        -0.25439E-02
        -0.33487E-02
        -0.22206E-02
         0.64000E-03
         0.12431E-02
         0.11907E-02
         0.21105E-02
         0.25729E-02
         0.17108E-02
         0.16148E-02
        -0.52739E-04
         0.68376E-05
        -0.12028E-04
        -0.83534E-05
         0.93002E-04
         0.35771E-04
         0.83282E-05
        -0.63024E-04
        -0.19061E-04
        -0.56566E-04
         0.59055E-05
        -0.95341E-04
        -0.18554E-03
         0.20380E-04
         0.24507E-03
        -0.39238E-04
         0.66873E-05
         0.37651E-05
         0.11471E-04
         0.38656E-05
         0.10325E-03
         0.69760E-04
        -0.39882E-04
         0.81371E-05
         0.18816E-04
        -0.31121E-05
         0.42868E-05
        -0.10316E-05
        -0.42110E-05
        -0.31154E-04
        -0.32506E-04
        -0.55189E-05
         0.13578E-04
         0.10217E-04
         0.23737E-04
        -0.40302E-04
        -0.88217E-04
         0.20704E-03
         0.30831E-04
         0.78196E-04
         0.21043E-03
        -0.53301E-04
        -0.10766E-03
        -0.97164E-04
        -0.96284E-04
        -0.11506E-03
         0.72389E-04
         0.56504E-04
        -0.93089E-05
         0.13283E-04
         0.14160E-03
         0.92137E-05
        -0.98024E-03
         0.14145E-02
        -0.29557E-02
        -0.31503E-02
        -0.30324E-02
        -0.16755E-02
         0.40804E-03
         0.11542E-02
         0.14552E-02
         0.26400E-02
         0.29456E-02
         0.11463E-02
         0.38280E-03
         0.31275E-03
        -0.15798E-03
        -0.13923E-02
        -0.25454E-02
        -0.33501E-02
        -0.22200E-02
         0.64025E-03
         0.12421E-02
         0.11901E-02
         0.21084E-02
         0.25695E-02
         0.17080E-02
         0.16119E-02
        -0.52872E-04
         0.68638E-05
        -0.12056E-04
        -0.84205E-05
         0.92920E-04
         0.35768E-04
         0.83916E-05
        -0.62969E-04
        -0.19115E-04
        -0.56728E-04
         0.57872E-05
        -0.95564E-04
        -0.18570E-03
         0.20327E-04
         0.24525E-03
        -0.39282E-04
         0.67633E-05
         0.37488E-05
         0.11474E-04
         0.38371E-05
         0.10350E-03
         0.69817E-04
        -0.39895E-04
         0.81326E-05
         0.18946E-04
        -0.31113E-05
         0.43415E-05
        -0.10180E-05
        -0.42098E-05
        -0.31237E-04
        -0.32560E-04
        -0.55039E-05
         0.13551E-04
         0.10238E-04
         0.23523E-04
        -0.40312E-04
        -0.88181E-04
         0.20769E-03
         0.31190E-04
         0.78535E-04
         0.21074E-03
        -0.53174E-04
        -0.10777E-03
        -0.97216E-04
        -0.96262E-04
        -0.11501E-03
         0.72383E-04
         0.56488E-04
        -0.92265E-05
         0.13219E-04
         0.14145E-03
         0.90593E-05
        -0.97899E-03
         0.14143E-02
        -0.29560E-02
        -0.31503E-02
        -0.30311E-02
        -0.16744E-02
         0.40833E-03
         0.11546E-02
         0.14536E-02
         0.26382E-02
         0.29446E-02
         0.11469E-02
         0.38275E-03
         0.31337E-03
        -0.15669E-03
        -0.13934E-02
        -0.25471E-02
        -0.33516E-02
        -0.22193E-02
         0.64050E-03
         0.12411E-02
         0.11896E-02
         0.21063E-02
         0.25661E-02
         0.17053E-02
         0.16091E-02
        -0.53006E-04
         0.68908E-05
        -0.12085E-04
        -0.84879E-05
         0.92839E-04
         0.35764E-04
         0.84550E-05
        -0.62913E-04
        -0.19167E-04
        -0.56878E-04
         0.56691E-05
        -0.95792E-04
        -0.18586E-03
         0.20277E-04
         0.24543E-03
        -0.39331E-04
         0.68413E-05
         0.37324E-05
         0.11477E-04
         0.38069E-05
         0.10376E-03
         0.69871E-04
        -0.39929E-04
         0.81249E-05
         0.19081E-04
        -0.31096E-05
         0.43977E-05
        -0.10068E-05
        -0.42007E-05
        -0.31313E-04
        -0.32615E-04
        -0.54846E-05
         0.13523E-04
         0.10259E-04
         0.23309E-04
        -0.40320E-04
        -0.88147E-04
         0.20834E-03
         0.31552E-04
         0.78880E-04
         0.21107E-03
        -0.53005E-04
        -0.10787E-03
        -0.97301E-04
        -0.96253E-04
        -0.11495E-03
         0.72385E-04
         0.56473E-04
        -0.91441E-05
         0.13154E-04
         0.14130E-03
         0.89055E-05
        -0.97774E-03
         0.14140E-02
        -0.29563E-02
        -0.31504E-02
        -0.30298E-02
        -0.16733E-02
         0.40863E-03
         0.11549E-02
         0.14521E-02
         0.26365E-02
         0.29435E-02
         0.11476E-02
         0.38273E-03
         0.31399E-03
        -0.15540E-03
        -0.13945E-02
        -0.25490E-02
        -0.33532E-02
        -0.22187E-02
         0.64075E-03
         0.12401E-02
         0.11891E-02
         0.21042E-02
         0.25627E-02
         0.17026E-02
         0.16063E-02
        -0.53137E-04
         0.69178E-05
        -0.12113E-04
        -0.85550E-05
         0.92761E-04
         0.35759E-04
         0.85186E-05
        -0.62854E-04
        -0.19217E-04
        -0.57016E-04
         0.55506E-05
        -0.96016E-04
        -0.18602E-03
         0.20228E-04
         0.24561E-03
        -0.39383E-04
         0.69212E-05
         0.37160E-05
         0.11480E-04
         0.37755E-05
         0.10402E-03
         0.69919E-04
        -0.39983E-04
         0.81141E-05
         0.19223E-04
        -0.31067E-05
         0.44600E-05
        -0.99756E-06
        -0.41832E-05
        -0.31382E-04
        -0.32671E-04
        -0.54601E-05
         0.13495E-04
         0.10280E-04
         0.23093E-04
        -0.40329E-04
        -0.88116E-04
         0.20900E-03
         0.31914E-04
         0.79233E-04
         0.21144E-03
        -0.52792E-04
        -0.10795E-03
        -0.97426E-04
        -0.96262E-04
        -0.11490E-03
         0.72393E-04
         0.56464E-04
        -0.90626E-05
         0.13090E-04
         0.14115E-03
         0.87513E-05
        -0.97649E-03
         0.14137E-02
        -0.29566E-02
        -0.31504E-02
        -0.30285E-02
        -0.16723E-02
         0.40892E-03
         0.11553E-02
         0.14506E-02
         0.26347E-02
         0.29426E-02
         0.11484E-02
         0.38275E-03
         0.31460E-03
        -0.15411E-03
        -0.13958E-02
        -0.25511E-02
        -0.33548E-02
        -0.22180E-02
         0.64100E-03
         0.12391E-02
         0.11886E-02
         0.21021E-02
         0.25593E-02
         0.16999E-02
         0.16034E-02
        -0.53263E-04
         0.69466E-05
        -0.12139E-04
        -0.86228E-05
         0.92681E-04
         0.35754E-04
         0.85811E-05
        -0.62788E-04
        -0.19266E-04
        -0.57147E-04
         0.54323E-05
        -0.96240E-04
        -0.18618E-03
         0.20181E-04
         0.24579E-03
        -0.39438E-04
         0.70028E-05
         0.36997E-05
         0.11482E-04
         0.37441E-05
         0.10429E-03
         0.69967E-04
        -0.40047E-04
         0.81022E-05
         0.19362E-04
        -0.31033E-05
         0.45268E-05
        -0.98906E-06
        -0.41619E-05
        -0.31451E-04
        -0.32725E-04
        -0.54324E-05
         0.13466E-04
         0.10301E-04
         0.22876E-04
        -0.40342E-04
        -0.88089E-04
         0.20966E-03
         0.32280E-04
         0.79592E-04
         0.21181E-03
        -0.52565E-04
        -0.10804E-03
        -0.97562E-04
        -0.96286E-04
        -0.11486E-03
         0.72401E-04
         0.56459E-04
        -0.89798E-05
         0.13030E-04
         0.14101E-03
         0.85979E-05
        -0.97523E-03
         0.14134E-02
        -0.29569E-02
        -0.31505E-02
        -0.30272E-02
        -0.16712E-02
         0.40919E-03
         0.11557E-02
         0.14490E-02
         0.26329E-02
         0.29416E-02
         0.11493E-02
         0.38279E-03
         0.31521E-03
        -0.15281E-03
        -0.13972E-02
        -0.25533E-02
        -0.33565E-02
        -0.22174E-02
         0.64122E-03
         0.12381E-02
         0.11881E-02
         0.21001E-02
         0.25559E-02
         0.16972E-02
         0.16006E-02
        -0.53380E-04
         0.69799E-05
        -0.12160E-04
        -0.86921E-05
         0.92605E-04
         0.35751E-04
         0.86426E-05
        -0.62708E-04
        -0.19316E-04
        -0.57273E-04
         0.53139E-05
        -0.96469E-04
        -0.18636E-03
         0.20146E-04
         0.24597E-03
        -0.39494E-04
         0.70856E-05
         0.36833E-05
         0.11486E-04
         0.37128E-05
         0.10456E-03
         0.70017E-04
        -0.40112E-04
         0.80910E-05
         0.19494E-04
        -0.30988E-05
         0.46057E-05
        -0.98038E-06
        -0.41393E-05
        -0.31521E-04
        -0.32774E-04
        -0.54018E-05
         0.13437E-04
         0.10323E-04
         0.22659E-04
        -0.40358E-04
        -0.88067E-04
         0.21032E-03
         0.32649E-04
         0.79955E-04
         0.21220E-03
        -0.52332E-04
        -0.10811E-03
        -0.97701E-04
        -0.96318E-04
        -0.11483E-03
         0.72414E-04
         0.56468E-04
        -0.88929E-05
         0.12981E-04
         0.14087E-03
         0.84432E-05
        -0.97398E-03
         0.14131E-02
        -0.29571E-02
        -0.31505E-02
        -0.30259E-02
        -0.16701E-02
         0.40947E-03
         0.11560E-02
         0.14475E-02
         0.26311E-02
         0.29407E-02
         0.11502E-02
         0.38283E-03
         0.31582E-03
        -0.15152E-03
        -0.13985E-02
        -0.25555E-02
        -0.33581E-02
        -0.22167E-02
         0.64140E-03
         0.12371E-02
         0.11876E-02
         0.20980E-02
         0.25526E-02
         0.16945E-02
         0.15978E-02
        -0.53491E-04
         0.70147E-05
        -0.12179E-04
        -0.87622E-05
         0.92532E-04
         0.35747E-04
         0.87032E-05
        -0.62621E-04
        -0.19368E-04
        -0.57396E-04
         0.51955E-05
        -0.96696E-04
        -0.18654E-03
         0.20114E-04
         0.24614E-03
        -0.39551E-04
         0.71693E-05
         0.36668E-05
         0.11489E-04
         0.36820E-05
         0.10482E-03
         0.70067E-04
        -0.40175E-04
         0.80799E-05
         0.19621E-04
        -0.30938E-05
         0.46876E-05
        -0.97141E-06
        -0.41163E-05
        -0.31594E-04
        -0.32822E-04
        -0.53693E-05
         0.13407E-04
         0.10344E-04
         0.22439E-04
        -0.40378E-04
        -0.88053E-04
         0.21098E-03
         0.33020E-04
         0.80320E-04
         0.21258E-03
        -0.52100E-04
        -0.10819E-03
        -0.97843E-04
        -0.96354E-04
        -0.11481E-03
         0.72429E-04
         0.56482E-04
        -0.88044E-05
         0.12936E-04
         0.14074E-03
         0.82892E-05
        -0.97273E-03
         0.14128E-02
        -0.29573E-02
        -0.31505E-02
        -0.30246E-02
        -0.16690E-02
         0.40975E-03
         0.11564E-02
         0.14460E-02
         0.26293E-02
         0.29397E-02
         0.11511E-02
         0.38287E-03
         0.31644E-03
        -0.15022E-03
        -0.13999E-02
        -0.25577E-02
        -0.33597E-02
        -0.22160E-02
         0.64156E-03
         0.12360E-02
         0.11871E-02
         0.20960E-02
         0.25492E-02
         0.16918E-02
         0.15949E-02
        -0.53602E-04
         0.70500E-05
        -0.12198E-04
        -0.88324E-05
         0.92456E-04
         0.35742E-04
         0.87637E-05
        -0.62534E-04
        -0.19420E-04
        -0.57519E-04
         0.50771E-05
        -0.96923E-04
        -0.18672E-03
         0.20084E-04
         0.24632E-03
        -0.39608E-04
         0.72536E-05
         0.36503E-05
         0.11491E-04
         0.36508E-05
         0.10509E-03
         0.70118E-04
        -0.40239E-04
         0.80692E-05
         0.19748E-04
        -0.30888E-05
         0.47717E-05
        -0.96194E-06
        -0.40925E-05
        -0.31666E-04
        -0.32869E-04
        -0.53372E-05
         0.13377E-04
         0.10365E-04
         0.22219E-04
        -0.40394E-04
        -0.88037E-04
         0.21165E-03
         0.33394E-04
         0.80682E-04
         0.21297E-03
        -0.51869E-04
        -0.10827E-03
        -0.97988E-04
        -0.96394E-04
        -0.11480E-03
         0.72442E-04
         0.56496E-04
        -0.87162E-05
         0.12893E-04
         0.14061E-03
         0.81348E-05
        -0.97147E-03
         0.14125E-02
        -0.29576E-02
        -0.31506E-02
        -0.30233E-02
        -0.16680E-02
         0.41002E-03
         0.11567E-02
         0.14445E-02
         0.26275E-02
         0.29388E-02
         0.11520E-02
         0.38291E-03
         0.31707E-03
        -0.14893E-03
        -0.14012E-02
        -0.25599E-02
        -0.33613E-02
        -0.22152E-02
         0.64172E-03
         0.12350E-02
         0.11866E-02
         0.20939E-02
         0.25458E-02
         0.16891E-02
         0.15921E-02
        -0.53713E-04
         0.70854E-05
        -0.12217E-04
        -0.89024E-05
         0.92380E-04
         0.35737E-04
         0.88245E-05
        -0.62447E-04
        -0.19472E-04
        -0.57641E-04
         0.49586E-05
        -0.97151E-04
        -0.18690E-03
         0.20051E-04
         0.24650E-03
        -0.39665E-04
         0.73384E-05
         0.36340E-05
         0.11494E-04
         0.36197E-05
         0.10536E-03
         0.70166E-04
        -0.40299E-04
         0.80585E-05
         0.19876E-04
        -0.30838E-05
         0.48535E-05
        -0.95206E-06
        -0.40682E-05
        -0.31738E-04
        -0.32916E-04
        -0.53048E-05
         0.13347E-04
         0.10387E-04
         0.21998E-04
        -0.40415E-04
        -0.88023E-04
         0.21232E-03
         0.33769E-04
         0.81050E-04
         0.21336E-03
        -0.51638E-04
        -0.10835E-03
        -0.98130E-04
        -0.96431E-04
        -0.11478E-03
         0.72457E-04
         0.56512E-04
        -0.86286E-05
         0.12847E-04
         0.14048E-03
         0.79814E-05
        -0.97021E-03
         0.14123E-02
        -0.29578E-02
        -0.31506E-02
        -0.30220E-02
        -0.16669E-02
         0.41029E-03
         0.11571E-02
         0.14430E-02
         0.26257E-02
         0.29378E-02
         0.11529E-02
         0.38296E-03
         0.31770E-03
        -0.14764E-03
        -0.14025E-02
        -0.25621E-02
        -0.33629E-02
        -0.22145E-02
         0.64188E-03
         0.12340E-02
         0.11862E-02
         0.20919E-02
         0.25424E-02
         0.16864E-02
         0.15893E-02
        -0.53823E-04
         0.71205E-05
        -0.12236E-04
        -0.89723E-05
         0.92307E-04
         0.35733E-04
         0.88855E-05
        -0.62358E-04
        -0.19524E-04
        -0.57763E-04
         0.48398E-05
        -0.97381E-04
        -0.18708E-03
         0.20021E-04
         0.24668E-03
        -0.39722E-04
         0.74237E-05
         0.36177E-05
         0.11497E-04
         0.35884E-05
         0.10562E-03
         0.70214E-04
        -0.40363E-04
         0.80481E-05
         0.20003E-04
        -0.30787E-05
         0.49369E-05
        -0.94158E-06
        -0.40431E-05
        -0.31810E-04
        -0.32963E-04
        -0.52726E-05
         0.13317E-04
         0.10408E-04
         0.21776E-04
        -0.40433E-04
        -0.88009E-04
         0.21299E-03
         0.34146E-04
         0.81413E-04
         0.21374E-03
        -0.51406E-04
        -0.10843E-03
        -0.98268E-04
        -0.96469E-04
        -0.11476E-03
         0.72471E-04
         0.56526E-04
        -0.85405E-05
         0.12803E-04
         0.14035E-03
         0.78281E-05
        -0.96895E-03
         0.14120E-02
        -0.29580E-02
        -0.31506E-02
        -0.30206E-02
        -0.16658E-02
         0.41055E-03
         0.11574E-02
         0.14414E-02
         0.26239E-02
         0.29369E-02
         0.11537E-02
         0.38300E-03
         0.31832E-03
        -0.14634E-03
        -0.14039E-02
        -0.25643E-02
        -0.33645E-02
        -0.22138E-02
         0.64203E-03
         0.12329E-02
         0.11857E-02
         0.20898E-02
         0.25391E-02
         0.16838E-02
         0.15865E-02
        -0.53934E-04
         0.71556E-05
        -0.12255E-04
        -0.90429E-05
         0.92232E-04
         0.35728E-04
         0.89463E-05
        -0.62269E-04
        -0.19576E-04
        -0.57884E-04
         0.47210E-05
        -0.97611E-04
        -0.18726E-03
         0.19990E-04
         0.24686E-03
        -0.39779E-04
         0.75094E-05
         0.36013E-05
         0.11500E-04
         0.35576E-05
         0.10589E-03
         0.70261E-04
        -0.40426E-04
         0.80378E-05
         0.20130E-04
        -0.30738E-05
         0.50184E-05
        -0.93074E-06
        -0.40171E-05
        -0.31883E-04
        -0.33011E-04
        -0.52403E-05
         0.13285E-04
         0.10430E-04
         0.21552E-04
        -0.40452E-04
        -0.87992E-04
         0.21366E-03
         0.34525E-04
         0.81783E-04
         0.21413E-03
        -0.51176E-04
        -0.10851E-03
        -0.98410E-04
        -0.96507E-04
        -0.11475E-03
         0.72484E-04
         0.56543E-04
        -0.84525E-05
         0.12760E-04
         0.14022E-03
         0.76753E-05
        -0.96769E-03
         0.14117E-02
        -0.29582E-02
        -0.31506E-02
        -0.30194E-02
        -0.16647E-02
         0.41081E-03
         0.11578E-02
         0.14399E-02
         0.26221E-02
         0.29359E-02
         0.11546E-02
         0.38305E-03
         0.31894E-03
        -0.14504E-03
        -0.14052E-02
        -0.25666E-02
        -0.33660E-02
        -0.22131E-02
         0.64218E-03
         0.12319E-02
         0.11852E-02
         0.20878E-02
         0.25357E-02
         0.16811E-02
         0.15836E-02
        -0.54046E-04
         0.71911E-05
        -0.12273E-04
        -0.91137E-05
         0.92157E-04
         0.35723E-04
         0.90070E-05
        -0.62179E-04
        -0.19628E-04
        -0.58003E-04
         0.46024E-05
        -0.97838E-04
        -0.18744E-03
         0.19956E-04
         0.24703E-03
        -0.39835E-04
         0.75954E-05
         0.35847E-05
         0.11503E-04
         0.35268E-05
         0.10615E-03
         0.70309E-04
        -0.40488E-04
         0.80275E-05
         0.20257E-04
        -0.30686E-05
         0.51023E-05
        -0.91935E-06
        -0.39907E-05
        -0.31954E-04
        -0.33058E-04
        -0.52076E-05
         0.13253E-04
         0.10451E-04
         0.21328E-04
        -0.40472E-04
        -0.87979E-04
         0.21432E-03
         0.34907E-04
         0.82150E-04
         0.21452E-03
        -0.50943E-04
        -0.10859E-03
        -0.98554E-04
        -0.96548E-04
        -0.11472E-03
         0.72500E-04
         0.56558E-04
        -0.83643E-05
         0.12715E-04
         0.14009E-03
         0.75233E-05
        -0.96643E-03
         0.14114E-02
        -0.29584E-02
        -0.31507E-02
        -0.30181E-02
        -0.16636E-02
         0.41108E-03
         0.11581E-02
         0.14384E-02
         0.26203E-02
         0.29349E-02
         0.11555E-02
         0.38309E-03
         0.31956E-03
        -0.14374E-03
        -0.14066E-02
        -0.25688E-02
        -0.33676E-02
        -0.22124E-02
         0.64234E-03
         0.12309E-02
         0.11847E-02
         0.20857E-02
         0.25324E-02
         0.16785E-02
         0.15808E-02
        -0.54157E-04
         0.72260E-05
        -0.12292E-04
        -0.91844E-05
         0.92084E-04
         0.35718E-04
         0.90680E-05
        -0.62088E-04
        -0.19680E-04
        -0.58122E-04
         0.44838E-05
        -0.98065E-04
        -0.18762E-03
         0.19925E-04
         0.24721E-03
        -0.39891E-04
         0.76820E-05
         0.35685E-05
         0.11507E-04
         0.34962E-05
         0.10642E-03
         0.70356E-04
        -0.40552E-04
         0.80173E-05
         0.20384E-04
        -0.30633E-05
         0.51839E-05
        -0.90757E-06
        -0.39638E-05
        -0.32026E-04
        -0.33104E-04
        -0.51754E-05
         0.13222E-04
         0.10473E-04
         0.21104E-04
        -0.40491E-04
        -0.87962E-04
         0.21500E-03
         0.35290E-04
         0.82519E-04
         0.21491E-03
        -0.50710E-04
        -0.10867E-03
        -0.98694E-04
        -0.96585E-04
        -0.11471E-03
         0.72515E-04
         0.56573E-04
        -0.82763E-05
         0.12671E-04
         0.13996E-03
         0.73727E-05
        -0.96517E-03
         0.14111E-02
        -0.29586E-02
        -0.31507E-02
        -0.30168E-02
        -0.16625E-02
         0.41135E-03
         0.11584E-02
         0.14369E-02
         0.26185E-02
         0.29340E-02
         0.11564E-02
         0.38313E-03
         0.32019E-03
        -0.14245E-03
        -0.14079E-02
        -0.25710E-02
        -0.33692E-02
        -0.22117E-02
         0.64248E-03
         0.12298E-02
         0.11842E-02
         0.20837E-02
         0.25290E-02
         0.16758E-02
         0.15780E-02
        -0.54268E-04
         0.72607E-05
        -0.12310E-04
        -0.92551E-05
         0.92009E-04
         0.35712E-04
         0.91289E-05
        -0.61997E-04
        -0.19732E-04
        -0.58240E-04
         0.43650E-05
        -0.98299E-04
        -0.18780E-03
         0.19891E-04
         0.24738E-03
        -0.39948E-04
         0.77692E-05
         0.35523E-05
         0.11510E-04
         0.34654E-05
         0.10669E-03
         0.70403E-04
        -0.40613E-04
         0.80073E-05
         0.20512E-04
        -0.30580E-05
         0.52671E-05
        -0.89523E-06
        -0.39365E-05
        -0.32097E-04
        -0.33151E-04
        -0.51428E-05
         0.13189E-04
         0.10494E-04
         0.20878E-04
        -0.40511E-04
        -0.87948E-04
         0.21567E-03
         0.35675E-04
         0.82887E-04
         0.21529E-03
        -0.50478E-04
        -0.10874E-03
        -0.98835E-04
        -0.96623E-04
        -0.11469E-03
         0.72527E-04
         0.56589E-04
        -0.81873E-05
         0.12628E-04
         0.13983E-03
         0.72213E-05
        -0.96391E-03
         0.14108E-02
        -0.29589E-02
        -0.31507E-02
        -0.30155E-02
        -0.16615E-02
         0.41160E-03
         0.11587E-02
         0.14354E-02
         0.26166E-02
         0.29330E-02
         0.11573E-02
         0.38317E-03
         0.32081E-03
        -0.14115E-03
        -0.14092E-02
        -0.25732E-02
        -0.33708E-02
        -0.22110E-02
         0.64263E-03
         0.12288E-02
         0.11837E-02
         0.20816E-02
         0.25256E-02
         0.16732E-02
         0.15752E-02
        -0.54379E-04
         0.72961E-05
        -0.12329E-04
        -0.93257E-05
         0.91933E-04
         0.35708E-04
         0.91896E-05
        -0.61905E-04
        -0.19785E-04
        -0.58358E-04
         0.42459E-05
        -0.98527E-04
        -0.18798E-03
         0.19859E-04
         0.24755E-03
        -0.40005E-04
         0.78571E-05
         0.35361E-05
         0.11513E-04
         0.34348E-05
         0.10695E-03
         0.70448E-04
        -0.40675E-04
         0.79974E-05
         0.20638E-04
        -0.30526E-05
         0.53481E-05
        -0.88243E-06
        -0.39085E-05
        -0.32168E-04
        -0.33198E-04
        -0.51105E-05
         0.13157E-04
         0.10516E-04
         0.20651E-04
        -0.40529E-04
        -0.87933E-04
         0.21634E-03
         0.36062E-04
         0.83253E-04
         0.21568E-03
        -0.50245E-04
        -0.10882E-03
        -0.98972E-04
        -0.96664E-04
        -0.11467E-03
         0.72542E-04
         0.56604E-04
        -0.80994E-05
         0.12583E-04
         0.13970E-03
         0.70704E-05
        -0.96265E-03
         0.14105E-02
        -0.29591E-02
        -0.31507E-02
        -0.30142E-02
        -0.16604E-02
         0.41184E-03
         0.11590E-02
         0.14339E-02
         0.26148E-02
         0.29321E-02
         0.11582E-02
         0.38321E-03
         0.32142E-03
        -0.13985E-03
        -0.14106E-02
        -0.25754E-02
        -0.33724E-02
        -0.22103E-02
         0.64277E-03
         0.12278E-02
         0.11833E-02
         0.20796E-02
         0.25223E-02
         0.16705E-02
         0.15724E-02
        -0.54490E-04
         0.73310E-05
        -0.12347E-04
        -0.93965E-05
         0.91861E-04
         0.35703E-04
         0.92509E-05
        -0.61812E-04
        -0.19836E-04
        -0.58472E-04
         0.41267E-05
        -0.98757E-04
        -0.18816E-03
         0.19824E-04
         0.24772E-03
        -0.40062E-04
         0.79457E-05
         0.35198E-05
         0.11517E-04
         0.34045E-05
         0.10722E-03
         0.70490E-04
        -0.40737E-04
         0.79877E-05
         0.20764E-04
        -0.30471E-05
         0.54311E-05
        -0.86895E-06
        -0.38796E-05
        -0.32238E-04
        -0.33244E-04
        -0.50781E-05
         0.13124E-04
         0.10538E-04
         0.20423E-04
        -0.40548E-04
        -0.87916E-04
         0.21701E-03
         0.36454E-04
         0.83624E-04
         0.21606E-03
        -0.50014E-04
        -0.10890E-03
        -0.99116E-04
        -0.96702E-04
        -0.11465E-03
         0.72557E-04
         0.56621E-04
        -0.80120E-05
         0.12539E-04
         0.13957E-03
         0.69212E-05
        -0.96138E-03
         0.14102E-02
        -0.29592E-02
        -0.31508E-02
        -0.30129E-02
        -0.16593E-02
         0.41207E-03
         0.11593E-02
         0.14324E-02
         0.26130E-02
         0.29311E-02
         0.11591E-02
         0.38324E-03
         0.32203E-03
        -0.13856E-03
        -0.14119E-02
        -0.25776E-02
        -0.33740E-02
        -0.22096E-02
         0.64292E-03
         0.12268E-02
         0.11828E-02
         0.20775E-02
         0.25189E-02
         0.16679E-02
         0.15696E-02
        -0.54601E-04
         0.73659E-05
        -0.12366E-04
        -0.94678E-05
         0.91786E-04
         0.35697E-04
         0.93116E-05
        -0.61718E-04
        -0.19887E-04
        -0.58579E-04
         0.40074E-05
        -0.98988E-04
        -0.18834E-03
         0.19791E-04
         0.24788E-03
        -0.40119E-04
         0.80352E-05
         0.35035E-05
         0.11521E-04
         0.33757E-05
         0.10748E-03
         0.70532E-04
        -0.40801E-04
         0.79774E-05
         0.20888E-04
        -0.30419E-05
         0.55130E-05
        -0.85449E-06
        -0.38503E-05
        -0.32308E-04
        -0.33291E-04
        -0.50452E-05
         0.13090E-04
         0.10560E-04
         0.20195E-04
        -0.40569E-04
        -0.87902E-04
         0.21768E-03
         0.36856E-04
         0.83984E-04
         0.21643E-03
        -0.49776E-04
        -0.10898E-03
        -0.99257E-04
        -0.96740E-04
        -0.11464E-03
         0.72571E-04
         0.56637E-04
        -0.79248E-05
         0.12495E-04
         0.13945E-03
         0.67720E-05
        -0.96012E-03
         0.14099E-02
        -0.29594E-02
        -0.31508E-02
        -0.30116E-02
        -0.16582E-02
         0.41232E-03
         0.11596E-02
         0.14309E-02
         0.26111E-02
         0.29302E-02
         0.11600E-02
         0.38325E-03
         0.32265E-03
        -0.13727E-03
        -0.14132E-02
        -0.25798E-02
        -0.33755E-02
        -0.22089E-02
         0.64306E-03
         0.12257E-02
         0.11823E-02
         0.20755E-02
         0.25156E-02
         0.16653E-02
         0.15668E-02
        -0.54712E-04
         0.74006E-05
        -0.12384E-04
        -0.95389E-05
         0.91710E-04
         0.35691E-04
         0.93726E-05
        -0.61623E-04
        -0.19937E-04
        -0.58678E-04
         0.38883E-05
        -0.99216E-04
        -0.18852E-03
         0.19757E-04
         0.24805E-03
        -0.40175E-04
         0.81261E-05
         0.34872E-05
         0.11525E-04
         0.33477E-05
         0.10775E-03
         0.70571E-04
        -0.40863E-04
         0.79678E-05
         0.21007E-04
        -0.30363E-05
         0.55979E-05
        -0.83888E-06
        -0.38204E-05
        -0.32373E-04
        -0.33337E-04
        -0.50127E-05
         0.13056E-04
         0.10581E-04
         0.19964E-04
        -0.40588E-04
        -0.87887E-04
         0.21835E-03
         0.37267E-04
         0.84345E-04
         0.21678E-03
        -0.49536E-04
        -0.10906E-03
        -0.99396E-04
        -0.96782E-04
        -0.11462E-03
         0.72586E-04
         0.56652E-04
        -0.78369E-05
         0.12451E-04
         0.13931E-03
         0.66222E-05
        -0.95885E-03
         0.14096E-02
        -0.29596E-02
        -0.31508E-02
        -0.30103E-02
        -0.16571E-02
         0.41255E-03
         0.11599E-02
         0.14294E-02
         0.26091E-02
         0.29293E-02
         0.11610E-02
         0.38324E-03
         0.32326E-03
        -0.13597E-03
        -0.14145E-02
        -0.25821E-02
        -0.33771E-02
        -0.22082E-02
         0.64320E-03
         0.12247E-02
         0.11818E-02
         0.20734E-02
         0.25122E-02
         0.16627E-02
         0.15640E-02
        -0.54824E-04
         0.74355E-05
        -0.12403E-04
        -0.96100E-05
         0.91640E-04
         0.35687E-04
         0.94337E-05
        -0.61528E-04
        -0.19986E-04
        -0.58774E-04
         0.37698E-05
        -0.99442E-04
        -0.18870E-03
         0.19721E-04
         0.24821E-03
        -0.40232E-04
         0.82176E-05
         0.34712E-05
         0.11528E-04
         0.33206E-05
         0.10802E-03
         0.70611E-04
        -0.40921E-04
         0.79588E-05
         0.21126E-04
        -0.30310E-05
         0.56806E-05
        -0.82249E-06
        -0.37904E-05
        -0.32438E-04
        -0.33384E-04
        -0.49809E-05
         0.13023E-04
         0.10604E-04
         0.19736E-04
        -0.40607E-04
        -0.87869E-04
         0.21901E-03
         0.37683E-04
         0.84693E-04
         0.21713E-03
        -0.49300E-04
        -0.10914E-03
        -0.99535E-04
        -0.96817E-04
        -0.11460E-03
         0.72601E-04
         0.56669E-04
        -0.77501E-05
         0.12406E-04
         0.13919E-03
         0.64741E-05
        -0.95758E-03
         0.14093E-02
        -0.29598E-02
        -0.31508E-02
        -0.30090E-02
        -0.16560E-02
         0.41278E-03
         0.11602E-02
         0.14279E-02
         0.26070E-02
         0.29285E-02
         0.11619E-02
         0.38320E-03
         0.32387E-03
        -0.13467E-03
        -0.14159E-02
        -0.25843E-02
        -0.33787E-02
        -0.22075E-02
         0.64336E-03
         0.12237E-02
         0.11813E-02
         0.20714E-02
         0.25089E-02
         0.16601E-02
         0.15612E-02
        -0.55468E-04
         0.75378E-05
        -0.12547E-04
        -0.97712E-05
         0.92479E-04
         0.36031E-04
         0.95847E-05
        -0.62062E-04
        -0.20225E-04
        -0.59461E-04
         0.37042E-05
        -0.10064E-03
        -0.19074E-03
         0.19893E-04
         0.25100E-03
        -0.40676E-04
         0.83854E-05
         0.34889E-05
         0.11641E-04
         0.33280E-05
         0.10931E-03
         0.71340E-04
        -0.41335E-04
         0.80320E-05
         0.21450E-04
        -0.30580E-05
         0.58160E-05
        -0.81395E-06
        -0.38066E-05
        -0.32830E-04
        -0.33757E-04
        -0.50063E-05
         0.13118E-04
         0.10729E-04
         0.19728E-04
        -0.41010E-04
        -0.88698E-04
         0.22194E-03
         0.38461E-04
         0.85896E-04
         0.21969E-03
        -0.49628E-04
        -0.11034E-03
        -0.10056E-03
        -0.97754E-04
        -0.11569E-03
         0.73314E-04
         0.57223E-04
        -0.77465E-05
         0.12483E-04
         0.14045E-03
         0.63907E-05
        -0.96753E-03
         0.14256E-02
        -0.29948E-02
        -0.31873E-02
        -0.30433E-02
        -0.16749E-02
         0.41825E-03
         0.11747E-02
         0.14442E-02
         0.26380E-02
         0.29640E-02
         0.11764E-02
         0.38730E-03
         0.32788E-03
        -0.13485E-03
        -0.14319E-02
        -0.26136E-02
        -0.34180E-02
        -0.22330E-02
         0.65132E-03
         0.12367E-02
         0.11939E-02
         0.20928E-02
         0.25341E-02
         0.16762E-02
         0.15759E-02
        -0.12546E-03
         0.17248E-04
        -0.28296E-04
        -0.22271E-04
         0.19448E-03
         0.77167E-04
         0.21863E-04
        -0.13917E-03
        -0.45512E-04
        -0.13286E-03
         0.80394E-05
        -0.20503E-03
        -0.39948E-03
         0.43406E-04
         0.51721E-03
        -0.92104E-04
         0.19023E-04
         0.78766E-05
         0.25695E-04
         0.73671E-05
         0.22855E-03
         0.15290E-03
        -0.86649E-04
         0.17989E-04
         0.48908E-04
        -0.69617E-05
         0.13016E-04
        -0.18266E-05
        -0.87075E-05
        -0.74668E-04
        -0.76494E-04
        -0.11280E-04
         0.29756E-04
         0.24381E-04
         0.39506E-04
        -0.87757E-04
        -0.18990E-03
         0.47812E-03
         0.85475E-04
         0.19164E-03
         0.47648E-03
        -0.10888E-03
        -0.24207E-03
        -0.21391E-03
        -0.20667E-03
        -0.23137E-03
         0.15407E-03
         0.12319E-03
        -0.16723E-04
         0.26865E-04
         0.28864E-03
         0.13393E-04
        -0.15621E-02
         0.22946E-02
        -0.48270E-02
        -0.51610E-02
        -0.49249E-02
        -0.27280E-02
         0.69814E-03
         0.19916E-02
         0.24383E-02
         0.44064E-02
         0.49585E-02
         0.19570E-02
         0.65584E-03
         0.55866E-03
        -0.22225E-03
        -0.23228E-02
        -0.42153E-02
        -0.54657E-02
        -0.35731E-02
         0.10457E-02
         0.20201E-02
         0.19655E-02
         0.34239E-02
         0.41730E-02
         0.27417E-02
         0.25584E-02
  
SCALARS                      strain_eq  double 1
LOOKUP_TABLE default
         0.11729E+02
         0.11576E+02
         0.11672E+02
         0.11848E+02
         0.30248E-08
         0.33539E-08
         0.32586E-08
         0.29320E-08
         0.11563E+02
         0.11619E+02
         0.32987E-08
         0.31547E-08
         0.11353E+02
         0.11345E+02
         0.36090E-08
         0.34369E-08
         0.11822E+02
         0.11356E+02
         0.26923E-08
         0.30281E-08
         0.11185E+02
         0.11049E+02
         0.11260E+02
         0.37171E-08
         0.35458E-08
         0.35268E-08
         0.11056E+02
         0.10860E+02
         0.36004E-08
         0.32700E-08
         0.11814E+02
         0.11611E+02
         0.12010E+02
         0.29297E-08
         0.27512E-08
         0.26353E-08
         0.11696E+02
         0.11438E+02
         0.31941E-08
         0.29119E-08
         0.11592E+02
         0.11392E+02
         0.29710E-08
         0.25631E-08
         0.11760E+02
         0.11837E+02
         0.32082E-08
         0.33270E-08
         0.11235E+02
         0.28753E-08
         0.11822E+02
         0.33433E-08
         0.11001E+02
         0.31435E-08
         0.10940E+02
         0.29015E-08
         0.10939E+02
         0.11158E+02
         0.29403E-08
         0.28913E-08
         0.11810E+02
         0.11730E+02
         0.29667E-08
         0.33583E-08
         0.11858E+02
         0.28475E-08
         0.11765E+02
         0.31186E-08
         0.11508E+02
         0.11492E+02
         0.33359E-08
         0.33337E-08
         0.11439E+02
         0.33736E-08
         0.10790E+02
         0.26967E-08
         0.10755E+02
         0.25100E-08
         0.10769E+02
         0.26148E-08
         0.10856E+02
         0.10960E+02
         0.25291E-08
         0.26269E-08
         0.11161E+02
         0.24739E-08
         0.11755E+02
         0.33217E-08
         0.11658E+02
         0.33825E-08
         0.11574E+02
         0.11542E+02
         0.33794E-08
         0.33150E-08
         0.11598E+02
         0.29749E-08
         0.11634E+02
         0.29127E-08
         0.11599E+02
         0.31505E-08
         0.11579E+02
         0.11618E+02
         0.32389E-08
         0.32301E-08
         0.11364E+02
         0.11443E+02
         0.30798E-08
         0.29728E-08
         0.11337E+02
         0.29909E-08
         0.11428E+02
         0.29201E-08
         0.11332E+02
         0.29166E-08
         0.11106E+02
         0.27344E-08
         0.10882E+02
         0.23137E-08
         0.10752E+02
         0.19550E-08
         0.10739E+02
         0.18962E-08
         0.10744E+02
         0.20202E-08
         0.10887E+02
         0.20840E-08
         0.11138E+02
         0.19522E-08
         0.11419E+02
         0.17818E-08
         0.11594E+02
         0.18440E-08
         0.11766E+02
         0.21859E-08
         0.11877E+02
         0.25518E-08
         0.11868E+02
         0.27197E-08
         0.11616E+02
         0.29040E-08
         0.11444E+02
         0.30519E-08
         0.11364E+02
         0.28475E-08
         0.11454E+02
         0.25070E-08
         0.11511E+02
         0.25021E-08
         0.11438E+02
         0.27533E-08
         0.11451E+02
         0.29216E-08
         0.11506E+02
         0.28270E-08
         0.11579E+02
         0.27640E-08
         0.39008E+00
         0.38583E+00
         0.38642E+00
         0.39168E+00
         0.38154E+00
         0.38700E+00
         0.37996E+00
         0.38375E+00
         0.39092E+00
         0.38663E+00
         0.37571E+00
         0.37469E+00
         0.37815E+00
         0.37815E+00
         0.37622E+00
         0.39145E+00
         0.39052E+00
         0.39305E+00
         0.38534E+00
         0.38686E+00
         0.38490E+00
         0.38639E+00
         0.38361E+00
         0.38413E+00
         0.38677E+00
         0.38655E+00
         0.38200E+00
         0.38241E+00
         0.37881E+00
         0.38421E+00
         0.39099E+00
         0.38575E+00
         0.39094E+00
         0.38759E+00
         0.37369E+00
         0.37845E+00
         0.38070E+00
         0.37823E+00
         0.37780E+00
         0.37325E+00
         0.36999E+00
         0.37806E+00
         0.38505E+00
         0.38406E+00
         0.38052E+00
         0.37393E+00
         0.37951E+00
         0.38514E+00
         0.38475E+00
         0.38041E+00
         0.37578E+00
         0.38204E+00
         0.36319E+00
         0.37047E+00
         0.36958E+00
         0.37138E+00
         0.37136E+00
         0.36816E+00
         0.36401E+00
         0.36206E+00
         0.36247E+00
         0.36229E+00
         0.36035E+00
         0.37068E+00
         0.37351E+00
         0.37457E+00
         0.37711E+00
         0.37905E+00
         0.37922E+00
         0.37658E+00
         0.36588E+00
         0.36877E+00
         0.37207E+00
         0.37175E+00
         0.37118E+00
         0.36752E+00
         0.37282E+00
         0.37478E+00
         0.21491E-01
         0.12913E-01
         0.12180E-01
         0.83522E-02
         0.22318E-01
         0.15431E-01
         0.68111E-02
         0.21136E-01
         0.13240E-01
         0.19916E-01
         0.97106E-02
         0.41843E-01
         0.31774E-01
         0.15892E-01
         0.43824E-01
         0.15615E-01
         0.79110E-02
         0.50472E-02
         0.10515E-01
         0.56924E-02
         0.32905E-01
         0.30871E-01
         0.30064E-01
         0.78238E-02
         0.12853E-01
         0.40868E-02
         0.14993E-01
         0.24353E-02
         0.54914E-02
         0.13941E-01
         0.13340E-01
         0.70955E-02
         0.86404E-02
         0.74747E-02
         0.28849E-01
         0.17264E-01
         0.22347E-01
         0.35740E-01
         0.27492E-01
         0.25588E-01
         0.36342E-01
         0.32945E-01
         0.33164E-01
         0.25674E-01
         0.22928E-01
         0.31364E-01
         0.20561E-01
         0.17484E-01
         0.14417E-01
         0.17025E-01
         0.27837E-01
         0.19112E-01
         0.12220E+00
         0.12512E+00
         0.13078E+00
         0.12984E+00
         0.13840E+00
         0.14860E+00
         0.14259E+00
         0.12680E+00
         0.12357E+00
         0.13224E+00
         0.12961E+00
         0.12784E+00
         0.10569E+00
         0.10047E+00
         0.11037E+00
         0.11822E+00
         0.12268E+00
         0.13397E+00
         0.12887E+00
         0.13235E+00
         0.11918E+00
         0.11316E+00
         0.12068E+00
         0.11798E+00
         0.12140E+00
         0.12038E+00
         0.21507E-01
         0.12916E-01
         0.12187E-01
         0.83641E-02
         0.22308E-01
         0.15422E-01
         0.68317E-02
         0.21157E-01
         0.13263E-01
         0.19975E-01
         0.97104E-02
         0.41842E-01
         0.31787E-01
         0.15855E-01
         0.43869E-01
         0.15628E-01
         0.79331E-02
         0.50345E-02
         0.10521E-01
         0.56799E-02
         0.32908E-01
         0.30869E-01
         0.30062E-01
         0.78236E-02
         0.12908E-01
         0.40859E-02
         0.14998E-01
         0.24095E-02
         0.55176E-02
         0.13966E-01
         0.13353E-01
         0.70932E-02
         0.86258E-02
         0.74816E-02
         0.28862E-01
         0.17259E-01
         0.22342E-01
         0.35795E-01
         0.27554E-01
         0.25624E-01
         0.36366E-01
         0.32962E-01
         0.33168E-01
         0.25673E-01
         0.22923E-01
         0.31362E-01
         0.20561E-01
         0.17482E-01
         0.14397E-01
         0.17002E-01
         0.27822E-01
         0.19083E-01
         0.12215E+00
         0.12509E+00
         0.13078E+00
         0.12984E+00
         0.13838E+00
         0.14855E+00
         0.14253E+00
         0.12677E+00
         0.12354E+00
         0.13220E+00
         0.12958E+00
         0.12785E+00
         0.10568E+00
         0.10046E+00
         0.11038E+00
         0.11825E+00
         0.12271E+00
         0.13400E+00
         0.12886E+00
         0.13235E+00
         0.11917E+00
         0.11316E+00
         0.12064E+00
         0.11790E+00
         0.12133E+00
         0.12032E+00
         0.21523E-01
         0.12919E-01
         0.12194E-01
         0.83762E-02
         0.22297E-01
         0.15413E-01
         0.68525E-02
         0.21177E-01
         0.13286E-01
         0.20033E-01
         0.97103E-02
         0.41840E-01
         0.31799E-01
         0.15817E-01
         0.43914E-01
         0.15641E-01
         0.79557E-02
         0.50217E-02
         0.10527E-01
         0.56676E-02
         0.32911E-01
         0.30867E-01
         0.30060E-01
         0.78233E-02
         0.12963E-01
         0.40847E-02
         0.15003E-01
         0.23846E-02
         0.55435E-02
         0.13989E-01
         0.13366E-01
         0.70909E-02
         0.86112E-02
         0.74883E-02
         0.28875E-01
         0.17255E-01
         0.22336E-01
         0.35851E-01
         0.27615E-01
         0.25659E-01
         0.36391E-01
         0.32979E-01
         0.33172E-01
         0.25674E-01
         0.22919E-01
         0.31361E-01
         0.20562E-01
         0.17481E-01
         0.14376E-01
         0.16978E-01
         0.27807E-01
         0.19054E-01
         0.12211E+00
         0.12506E+00
         0.13078E+00
         0.12984E+00
         0.13836E+00
         0.14850E+00
         0.14247E+00
         0.12673E+00
         0.12351E+00
         0.13216E+00
         0.12956E+00
         0.12785E+00
         0.10567E+00
         0.10046E+00
         0.11040E+00
         0.11828E+00
         0.12274E+00
         0.13402E+00
         0.12885E+00
         0.13234E+00
         0.11916E+00
         0.11315E+00
         0.12060E+00
         0.11782E+00
         0.12126E+00
         0.12025E+00
         0.21539E-01
         0.12922E-01
         0.12201E-01
         0.83882E-02
         0.22287E-01
         0.15404E-01
         0.68734E-02
         0.21197E-01
         0.13309E-01
         0.20090E-01
         0.97103E-02
         0.41839E-01
         0.31812E-01
         0.15780E-01
         0.43960E-01
         0.15655E-01
         0.79791E-02
         0.50088E-02
         0.10534E-01
         0.56547E-02
         0.32915E-01
         0.30866E-01
         0.30061E-01
         0.78225E-02
         0.13017E-01
         0.40829E-02
         0.15007E-01
         0.23627E-02
         0.55680E-02
         0.14011E-01
         0.13379E-01
         0.70891E-02
         0.85965E-02
         0.74951E-02
         0.28887E-01
         0.17250E-01
         0.22331E-01
         0.35907E-01
         0.27679E-01
         0.25697E-01
         0.36417E-01
         0.32997E-01
         0.33178E-01
         0.25677E-01
         0.22917E-01
         0.31361E-01
         0.20563E-01
         0.17480E-01
         0.14356E-01
         0.16955E-01
         0.27791E-01
         0.19024E-01
         0.12206E+00
         0.12503E+00
         0.13078E+00
         0.12984E+00
         0.13833E+00
         0.14845E+00
         0.14242E+00
         0.12670E+00
         0.12347E+00
         0.13212E+00
         0.12954E+00
         0.12786E+00
         0.10566E+00
         0.10046E+00
         0.11041E+00
         0.11831E+00
         0.12278E+00
         0.13406E+00
         0.12884E+00
         0.13233E+00
         0.11914E+00
         0.11314E+00
         0.12056E+00
         0.11774E+00
         0.12120E+00
         0.12019E+00
         0.21556E-01
         0.12925E-01
         0.12208E-01
         0.84002E-02
         0.22277E-01
         0.15395E-01
         0.68942E-02
         0.21217E-01
         0.13331E-01
         0.20146E-01
         0.97106E-02
         0.41838E-01
         0.31825E-01
         0.15743E-01
         0.44005E-01
         0.15670E-01
         0.80033E-02
         0.49958E-02
         0.10541E-01
         0.56415E-02
         0.32921E-01
         0.30865E-01
         0.30063E-01
         0.78213E-02
         0.13069E-01
         0.40801E-02
         0.15011E-01
         0.23436E-02
         0.55910E-02
         0.14030E-01
         0.13393E-01
         0.70876E-02
         0.85818E-02
         0.75019E-02
         0.28900E-01
         0.17245E-01
         0.22326E-01
         0.35963E-01
         0.27743E-01
         0.25736E-01
         0.36445E-01
         0.33016E-01
         0.33186E-01
         0.25682E-01
         0.22916E-01
         0.31362E-01
         0.20566E-01
         0.17480E-01
         0.14336E-01
         0.16931E-01
         0.27776E-01
         0.18995E-01
         0.12202E+00
         0.12500E+00
         0.13078E+00
         0.12984E+00
         0.13831E+00
         0.14840E+00
         0.14236E+00
         0.12667E+00
         0.12344E+00
         0.13208E+00
         0.12952E+00
         0.12787E+00
         0.10566E+00
         0.10046E+00
         0.11043E+00
         0.11835E+00
         0.12282E+00
         0.13409E+00
         0.12884E+00
         0.13232E+00
         0.11913E+00
         0.11313E+00
         0.12051E+00
         0.11767E+00
         0.12113E+00
         0.12012E+00
         0.21571E-01
         0.12927E-01
         0.12214E-01
         0.84122E-02
         0.22267E-01
         0.15387E-01
         0.69144E-02
         0.21236E-01
         0.13354E-01
         0.20200E-01
         0.97116E-02
         0.41837E-01
         0.31838E-01
         0.15706E-01
         0.44050E-01
         0.15685E-01
         0.80278E-02
         0.49828E-02
         0.10547E-01
         0.56286E-02
         0.32926E-01
         0.30865E-01
         0.30066E-01
         0.78201E-02
         0.13120E-01
         0.40770E-02
         0.15014E-01
         0.23260E-02
         0.56138E-02
         0.14049E-01
         0.13407E-01
         0.70855E-02
         0.85671E-02
         0.75087E-02
         0.28914E-01
         0.17241E-01
         0.22322E-01
         0.36019E-01
         0.27807E-01
         0.25777E-01
         0.36473E-01
         0.33036E-01
         0.33194E-01
         0.25688E-01
         0.22916E-01
         0.31365E-01
         0.20569E-01
         0.17480E-01
         0.14317E-01
         0.16908E-01
         0.27761E-01
         0.18966E-01
         0.12198E+00
         0.12497E+00
         0.13078E+00
         0.12984E+00
         0.13829E+00
         0.14835E+00
         0.14230E+00
         0.12663E+00
         0.12341E+00
         0.13204E+00
         0.12950E+00
         0.12787E+00
         0.10565E+00
         0.10045E+00
         0.11044E+00
         0.11839E+00
         0.12286E+00
         0.13412E+00
         0.12883E+00
         0.13232E+00
         0.11912E+00
         0.11313E+00
         0.12047E+00
         0.11759E+00
         0.12106E+00
         0.12006E+00
         0.21585E-01
         0.12927E-01
         0.12221E-01
         0.84244E-02
         0.22257E-01
         0.15378E-01
         0.69339E-02
         0.21252E-01
         0.13378E-01
         0.20252E-01
         0.97141E-02
         0.41837E-01
         0.31852E-01
         0.15669E-01
         0.44096E-01
         0.15701E-01
         0.80517E-02
         0.49698E-02
         0.10555E-01
         0.56160E-02
         0.32932E-01
         0.30865E-01
         0.30069E-01
         0.78191E-02
         0.13170E-01
         0.40733E-02
         0.15018E-01
         0.23089E-02
         0.56369E-02
         0.14068E-01
         0.13420E-01
         0.70821E-02
         0.85522E-02
         0.75152E-02
         0.28927E-01
         0.17238E-01
         0.22318E-01
         0.36076E-01
         0.27873E-01
         0.25817E-01
         0.36502E-01
         0.33056E-01
         0.33203E-01
         0.25695E-01
         0.22918E-01
         0.31369E-01
         0.20573E-01
         0.17482E-01
         0.14300E-01
         0.16887E-01
         0.27747E-01
         0.18937E-01
         0.12193E+00
         0.12494E+00
         0.13078E+00
         0.12984E+00
         0.13827E+00
         0.14829E+00
         0.14224E+00
         0.12660E+00
         0.12338E+00
         0.13200E+00
         0.12948E+00
         0.12788E+00
         0.10565E+00
         0.10045E+00
         0.11046E+00
         0.11843E+00
         0.12290E+00
         0.13415E+00
         0.12882E+00
         0.13231E+00
         0.11911E+00
         0.11312E+00
         0.12043E+00
         0.11751E+00
         0.12099E+00
         0.12000E+00
         0.21598E-01
         0.12927E-01
         0.12227E-01
         0.84365E-02
         0.22248E-01
         0.15369E-01
         0.69528E-02
         0.21266E-01
         0.13401E-01
         0.20303E-01
         0.97175E-02
         0.41837E-01
         0.31866E-01
         0.15633E-01
         0.44142E-01
         0.15716E-01
         0.80755E-02
         0.49566E-02
         0.10562E-01
         0.56038E-02
         0.32938E-01
         0.30865E-01
         0.30072E-01
         0.78181E-02
         0.13219E-01
         0.40694E-02
         0.15022E-01
         0.22924E-02
         0.56608E-02
         0.14086E-01
         0.13432E-01
         0.70778E-02
         0.85374E-02
         0.75217E-02
         0.28941E-01
         0.17235E-01
         0.22315E-01
         0.36134E-01
         0.27938E-01
         0.25858E-01
         0.36531E-01
         0.33076E-01
         0.33211E-01
         0.25702E-01
         0.22920E-01
         0.31374E-01
         0.20578E-01
         0.17485E-01
         0.14285E-01
         0.16865E-01
         0.27734E-01
         0.18909E-01
         0.12189E+00
         0.12491E+00
         0.13078E+00
         0.12984E+00
         0.13824E+00
         0.14824E+00
         0.14218E+00
         0.12656E+00
         0.12335E+00
         0.13196E+00
         0.12946E+00
         0.12789E+00
         0.10564E+00
         0.10045E+00
         0.11048E+00
         0.11846E+00
         0.12295E+00
         0.13418E+00
         0.12881E+00
         0.13230E+00
         0.11910E+00
         0.11312E+00
         0.12039E+00
         0.11744E+00
         0.12093E+00
         0.11993E+00
         0.21612E-01
         0.12927E-01
         0.12233E-01
         0.84487E-02
         0.22239E-01
         0.15361E-01
         0.69717E-02
         0.21281E-01
         0.13425E-01
         0.20353E-01
         0.97206E-02
         0.41837E-01
         0.31881E-01
         0.15596E-01
         0.44188E-01
         0.15732E-01
         0.80993E-02
         0.49435E-02
         0.10569E-01
         0.55914E-02
         0.32943E-01
         0.30865E-01
         0.30076E-01
         0.78174E-02
         0.13268E-01
         0.40655E-02
         0.15027E-01
         0.22764E-02
         0.56848E-02
         0.14105E-01
         0.13444E-01
         0.70737E-02
         0.85226E-02
         0.75282E-02
         0.28956E-01
         0.17232E-01
         0.22312E-01
         0.36191E-01
         0.28004E-01
         0.25899E-01
         0.36560E-01
         0.33096E-01
         0.33220E-01
         0.25710E-01
         0.22922E-01
         0.31380E-01
         0.20583E-01
         0.17488E-01
         0.14270E-01
         0.16844E-01
         0.27721E-01
         0.18881E-01
         0.12184E+00
         0.12488E+00
         0.13078E+00
         0.12984E+00
         0.13822E+00
         0.14819E+00
         0.14211E+00
         0.12653E+00
         0.12332E+00
         0.13192E+00
         0.12943E+00
         0.12790E+00
         0.10564E+00
         0.10045E+00
         0.11049E+00
         0.11850E+00
         0.12299E+00
         0.13421E+00
         0.12881E+00
         0.13229E+00
         0.11908E+00
         0.11311E+00
         0.12035E+00
         0.11736E+00
         0.12086E+00
         0.11987E+00
         0.21625E-01
         0.12927E-01
         0.12239E-01
         0.84610E-02
         0.22229E-01
         0.15352E-01
         0.69907E-02
         0.21295E-01
         0.13448E-01
         0.20404E-01
         0.97242E-02
         0.41838E-01
         0.31895E-01
         0.15560E-01
         0.44234E-01
         0.15747E-01
         0.81231E-02
         0.49306E-02
         0.10575E-01
         0.55791E-02
         0.32949E-01
         0.30865E-01
         0.30078E-01
         0.78166E-02
         0.13317E-01
         0.40617E-02
         0.15031E-01
         0.22610E-02
         0.57091E-02
         0.14124E-01
         0.13457E-01
         0.70694E-02
         0.85079E-02
         0.75347E-02
         0.28969E-01
         0.17230E-01
         0.22309E-01
         0.36249E-01
         0.28070E-01
         0.25940E-01
         0.36589E-01
         0.33116E-01
         0.33229E-01
         0.25717E-01
         0.22925E-01
         0.31384E-01
         0.20588E-01
         0.17491E-01
         0.14255E-01
         0.16822E-01
         0.27707E-01
         0.18852E-01
         0.12180E+00
         0.12485E+00
         0.13077E+00
         0.12984E+00
         0.13820E+00
         0.14814E+00
         0.14205E+00
         0.12649E+00
         0.12329E+00
         0.13188E+00
         0.12941E+00
         0.12791E+00
         0.10564E+00
         0.10045E+00
         0.11051E+00
         0.11854E+00
         0.12303E+00
         0.13425E+00
         0.12880E+00
         0.13228E+00
         0.11907E+00
         0.11311E+00
         0.12031E+00
         0.11728E+00
         0.12079E+00
         0.11980E+00
         0.21638E-01
         0.12927E-01
         0.12246E-01
         0.84731E-02
         0.22220E-01
         0.15343E-01
         0.70099E-02
         0.21310E-01
         0.13472E-01
         0.20455E-01
         0.97280E-02
         0.41838E-01
         0.31910E-01
         0.15524E-01
         0.44281E-01
         0.15763E-01
         0.81470E-02
         0.49176E-02
         0.10582E-01
         0.55666E-02
         0.32954E-01
         0.30865E-01
         0.30082E-01
         0.78159E-02
         0.13365E-01
         0.40579E-02
         0.15036E-01
         0.22459E-02
         0.57335E-02
         0.14142E-01
         0.13469E-01
         0.70652E-02
         0.84934E-02
         0.75412E-02
         0.28984E-01
         0.17227E-01
         0.22306E-01
         0.36306E-01
         0.28136E-01
         0.25980E-01
         0.36618E-01
         0.33136E-01
         0.33237E-01
         0.25724E-01
         0.22927E-01
         0.31390E-01
         0.20593E-01
         0.17494E-01
         0.14240E-01
         0.16801E-01
         0.27695E-01
         0.18824E-01
         0.12175E+00
         0.12482E+00
         0.13077E+00
         0.12984E+00
         0.13817E+00
         0.14809E+00
         0.14199E+00
         0.12646E+00
         0.12326E+00
         0.13184E+00
         0.12939E+00
         0.12792E+00
         0.10563E+00
         0.10044E+00
         0.11053E+00
         0.11858E+00
         0.12307E+00
         0.13428E+00
         0.12879E+00
         0.13227E+00
         0.11906E+00
         0.11310E+00
         0.12026E+00
         0.11721E+00
         0.12072E+00
         0.11974E+00
         0.21652E-01
         0.12927E-01
         0.12252E-01
         0.84855E-02
         0.22210E-01
         0.15334E-01
         0.70290E-02
         0.21324E-01
         0.13496E-01
         0.20505E-01
         0.97318E-02
         0.41838E-01
         0.31924E-01
         0.15488E-01
         0.44326E-01
         0.15779E-01
         0.81710E-02
         0.49045E-02
         0.10589E-01
         0.55544E-02
         0.32960E-01
         0.30865E-01
         0.30085E-01
         0.78153E-02
         0.13414E-01
         0.40544E-02
         0.15040E-01
         0.22315E-02
         0.57579E-02
         0.14161E-01
         0.13481E-01
         0.70610E-02
         0.84787E-02
         0.75478E-02
         0.28998E-01
         0.17224E-01
         0.22303E-01
         0.36364E-01
         0.28202E-01
         0.26021E-01
         0.36647E-01
         0.33156E-01
         0.33246E-01
         0.25731E-01
         0.22929E-01
         0.31395E-01
         0.20598E-01
         0.17497E-01
         0.14225E-01
         0.16780E-01
         0.27681E-01
         0.18796E-01
         0.12171E+00
         0.12479E+00
         0.13077E+00
         0.12984E+00
         0.13815E+00
         0.14804E+00
         0.14193E+00
         0.12643E+00
         0.12323E+00
         0.13180E+00
         0.12937E+00
         0.12792E+00
         0.10563E+00
         0.10044E+00
         0.11054E+00
         0.11862E+00
         0.12312E+00
         0.13431E+00
         0.12878E+00
         0.13227E+00
         0.11905E+00
         0.11310E+00
         0.12022E+00
         0.11713E+00
         0.12066E+00
         0.11968E+00
         0.21665E-01
         0.12926E-01
         0.12258E-01
         0.84978E-02
         0.22201E-01
         0.15326E-01
         0.70480E-02
         0.21339E-01
         0.13520E-01
         0.20555E-01
         0.97359E-02
         0.41838E-01
         0.31939E-01
         0.15451E-01
         0.44373E-01
         0.15794E-01
         0.81949E-02
         0.48914E-02
         0.10596E-01
         0.55420E-02
         0.32966E-01
         0.30865E-01
         0.30088E-01
         0.78147E-02
         0.13462E-01
         0.40506E-02
         0.15044E-01
         0.22174E-02
         0.57827E-02
         0.14179E-01
         0.13493E-01
         0.70568E-02
         0.84642E-02
         0.75543E-02
         0.29012E-01
         0.17222E-01
         0.22300E-01
         0.36421E-01
         0.28268E-01
         0.26061E-01
         0.36676E-01
         0.33176E-01
         0.33254E-01
         0.25739E-01
         0.22932E-01
         0.31399E-01
         0.20603E-01
         0.17499E-01
         0.14210E-01
         0.16758E-01
         0.27668E-01
         0.18767E-01
         0.12166E+00
         0.12476E+00
         0.13077E+00
         0.12984E+00
         0.13813E+00
         0.14799E+00
         0.14187E+00
         0.12639E+00
         0.12320E+00
         0.13176E+00
         0.12935E+00
         0.12793E+00
         0.10562E+00
         0.10044E+00
         0.11056E+00
         0.11866E+00
         0.12316E+00
         0.13434E+00
         0.12877E+00
         0.13226E+00
         0.11904E+00
         0.11309E+00
         0.12018E+00
         0.11705E+00
         0.12059E+00
         0.11961E+00
         0.21678E-01
         0.12926E-01
         0.12264E-01
         0.85101E-02
         0.22192E-01
         0.15317E-01
         0.70674E-02
         0.21353E-01
         0.13543E-01
         0.20606E-01
         0.97400E-02
         0.41838E-01
         0.31953E-01
         0.15415E-01
         0.44419E-01
         0.15810E-01
         0.82189E-02
         0.48783E-02
         0.10603E-01
         0.55299E-02
         0.32971E-01
         0.30865E-01
         0.30092E-01
         0.78140E-02
         0.13511E-01
         0.40469E-02
         0.15048E-01
         0.22040E-02
         0.58079E-02
         0.14198E-01
         0.13506E-01
         0.70526E-02
         0.84497E-02
         0.75609E-02
         0.29027E-01
         0.17219E-01
         0.22297E-01
         0.36479E-01
         0.28335E-01
         0.26101E-01
         0.36705E-01
         0.33196E-01
         0.33263E-01
         0.25746E-01
         0.22934E-01
         0.31404E-01
         0.20608E-01
         0.17502E-01
         0.14194E-01
         0.16737E-01
         0.27655E-01
         0.18739E-01
         0.12162E+00
         0.12474E+00
         0.13077E+00
         0.12985E+00
         0.13811E+00
         0.14794E+00
         0.14181E+00
         0.12636E+00
         0.12316E+00
         0.13171E+00
         0.12933E+00
         0.12794E+00
         0.10562E+00
         0.10044E+00
         0.11058E+00
         0.11870E+00
         0.12320E+00
         0.13437E+00
         0.12876E+00
         0.13225E+00
         0.11903E+00
         0.11308E+00
         0.12014E+00
         0.11698E+00
         0.12052E+00
         0.11955E+00
         0.21691E-01
         0.12926E-01
         0.12270E-01
         0.85225E-02
         0.22183E-01
         0.15308E-01
         0.70865E-02
         0.21367E-01
         0.13567E-01
         0.20656E-01
         0.97443E-02
         0.41839E-01
         0.31967E-01
         0.15379E-01
         0.44465E-01
         0.15825E-01
         0.82430E-02
         0.48654E-02
         0.10610E-01
         0.55175E-02
         0.32977E-01
         0.30865E-01
         0.30095E-01
         0.78134E-02
         0.13559E-01
         0.40432E-02
         0.15052E-01
         0.21909E-02
         0.58332E-02
         0.14216E-01
         0.13518E-01
         0.70484E-02
         0.84353E-02
         0.75674E-02
         0.29041E-01
         0.17217E-01
         0.22294E-01
         0.36537E-01
         0.28401E-01
         0.26142E-01
         0.36734E-01
         0.33216E-01
         0.33272E-01
         0.25753E-01
         0.22937E-01
         0.31410E-01
         0.20613E-01
         0.17505E-01
         0.14179E-01
         0.16716E-01
         0.27642E-01
         0.18711E-01
         0.12158E+00
         0.12471E+00
         0.13077E+00
         0.12985E+00
         0.13808E+00
         0.14789E+00
         0.14175E+00
         0.12632E+00
         0.12313E+00
         0.13167E+00
         0.12931E+00
         0.12795E+00
         0.10562E+00
         0.10044E+00
         0.11059E+00
         0.11874E+00
         0.12324E+00
         0.13440E+00
         0.12875E+00
         0.13224E+00
         0.11902E+00
         0.11308E+00
         0.12010E+00
         0.11690E+00
         0.12045E+00
         0.11949E+00
         0.21704E-01
         0.12926E-01
         0.12276E-01
         0.85348E-02
         0.22173E-01
         0.15300E-01
         0.71057E-02
         0.21382E-01
         0.13591E-01
         0.20707E-01
         0.97487E-02
         0.41839E-01
         0.31982E-01
         0.15343E-01
         0.44511E-01
         0.15841E-01
         0.82671E-02
         0.48524E-02
         0.10617E-01
         0.55053E-02
         0.32983E-01
         0.30865E-01
         0.30098E-01
         0.78129E-02
         0.13608E-01
         0.40396E-02
         0.15057E-01
         0.21783E-02
         0.58588E-02
         0.14235E-01
         0.13530E-01
         0.70443E-02
         0.84211E-02
         0.75741E-02
         0.29055E-01
         0.17214E-01
         0.22291E-01
         0.36594E-01
         0.28467E-01
         0.26182E-01
         0.36763E-01
         0.33236E-01
         0.33280E-01
         0.25760E-01
         0.22939E-01
         0.31415E-01
         0.20618E-01
         0.17508E-01
         0.14164E-01
         0.16694E-01
         0.27629E-01
         0.18683E-01
         0.12153E+00
         0.12468E+00
         0.13076E+00
         0.12985E+00
         0.13806E+00
         0.14784E+00
         0.14169E+00
         0.12629E+00
         0.12310E+00
         0.13163E+00
         0.12929E+00
         0.12796E+00
         0.10561E+00
         0.10043E+00
         0.11061E+00
         0.11878E+00
         0.12329E+00
         0.13443E+00
         0.12875E+00
         0.13223E+00
         0.11901E+00
         0.11307E+00
         0.12006E+00
         0.11682E+00
         0.12039E+00
         0.11942E+00
         0.21718E-01
         0.12926E-01
         0.12283E-01
         0.85472E-02
         0.22164E-01
         0.15291E-01
         0.71252E-02
         0.21396E-01
         0.13615E-01
         0.20757E-01
         0.97533E-02
         0.41840E-01
         0.31997E-01
         0.15307E-01
         0.44558E-01
         0.15856E-01
         0.82913E-02
         0.48395E-02
         0.10624E-01
         0.54930E-02
         0.32988E-01
         0.30864E-01
         0.30101E-01
         0.78125E-02
         0.13656E-01
         0.40359E-02
         0.15061E-01
         0.21659E-02
         0.58842E-02
         0.14253E-01
         0.13542E-01
         0.70402E-02
         0.84069E-02
         0.75808E-02
         0.29070E-01
         0.17211E-01
         0.22288E-01
         0.36652E-01
         0.28533E-01
         0.26222E-01
         0.36791E-01
         0.33255E-01
         0.33288E-01
         0.25767E-01
         0.22942E-01
         0.31420E-01
         0.20624E-01
         0.17511E-01
         0.14149E-01
         0.16673E-01
         0.27615E-01
         0.18655E-01
         0.12149E+00
         0.12465E+00
         0.13076E+00
         0.12985E+00
         0.13804E+00
         0.14779E+00
         0.14163E+00
         0.12625E+00
         0.12307E+00
         0.13159E+00
         0.12927E+00
         0.12797E+00
         0.10561E+00
         0.10043E+00
         0.11063E+00
         0.11882E+00
         0.12333E+00
         0.13446E+00
         0.12874E+00
         0.13223E+00
         0.11900E+00
         0.11307E+00
         0.12001E+00
         0.11675E+00
         0.12032E+00
         0.11936E+00
         0.21731E-01
         0.12926E-01
         0.12289E-01
         0.85597E-02
         0.22155E-01
         0.15282E-01
         0.71444E-02
         0.21410E-01
         0.13639E-01
         0.20807E-01
         0.97580E-02
         0.41840E-01
         0.32011E-01
         0.15271E-01
         0.44603E-01
         0.15872E-01
         0.83155E-02
         0.48264E-02
         0.10631E-01
         0.54813E-02
         0.32994E-01
         0.30864E-01
         0.30105E-01
         0.78118E-02
         0.13704E-01
         0.40326E-02
         0.15063E-01
         0.21536E-02
         0.59101E-02
         0.14270E-01
         0.13555E-01
         0.70360E-02
         0.83927E-02
         0.75875E-02
         0.29084E-01
         0.17209E-01
         0.22285E-01
         0.36710E-01
         0.28600E-01
         0.26260E-01
         0.36818E-01
         0.33273E-01
         0.33296E-01
         0.25775E-01
         0.22944E-01
         0.31425E-01
         0.20629E-01
         0.17514E-01
         0.14134E-01
         0.16652E-01
         0.27603E-01
         0.18626E-01
         0.12144E+00
         0.12462E+00
         0.13076E+00
         0.12985E+00
         0.13802E+00
         0.14774E+00
         0.14156E+00
         0.12622E+00
         0.12304E+00
         0.13154E+00
         0.12925E+00
         0.12798E+00
         0.10561E+00
         0.10043E+00
         0.11064E+00
         0.11886E+00
         0.12337E+00
         0.13449E+00
         0.12873E+00
         0.13222E+00
         0.11899E+00
         0.11306E+00
         0.11997E+00
         0.11667E+00
         0.12025E+00
         0.11930E+00
         0.21744E-01
         0.12926E-01
         0.12295E-01
         0.85722E-02
         0.22145E-01
         0.15273E-01
         0.71637E-02
         0.21425E-01
         0.13663E-01
         0.20856E-01
         0.97627E-02
         0.41840E-01
         0.32026E-01
         0.15234E-01
         0.44650E-01
         0.15887E-01
         0.83397E-02
         0.48134E-02
         0.10638E-01
         0.54695E-02
         0.33000E-01
         0.30863E-01
         0.30108E-01
         0.78113E-02
         0.13752E-01
         0.40290E-02
         0.15065E-01
         0.21410E-02
         0.59362E-02
         0.14286E-01
         0.13567E-01
         0.70318E-02
         0.83786E-02
         0.75941E-02
         0.29099E-01
         0.17207E-01
         0.22282E-01
         0.36769E-01
         0.28665E-01
         0.26297E-01
         0.36843E-01
         0.33289E-01
         0.33303E-01
         0.25782E-01
         0.22947E-01
         0.31430E-01
         0.20634E-01
         0.17517E-01
         0.14119E-01
         0.16630E-01
         0.27589E-01
         0.18598E-01
         0.12140E+00
         0.12459E+00
         0.13076E+00
         0.12985E+00
         0.13799E+00
         0.14769E+00
         0.14150E+00
         0.12618E+00
         0.12301E+00
         0.13150E+00
         0.12923E+00
         0.12800E+00
         0.10561E+00
         0.10043E+00
         0.11066E+00
         0.11890E+00
         0.12341E+00
         0.13452E+00
         0.12872E+00
         0.13221E+00
         0.11898E+00
         0.11306E+00
         0.11993E+00
         0.11659E+00
         0.12019E+00
         0.11923E+00
         0.21757E-01
         0.12926E-01
         0.12301E-01
         0.85847E-02
         0.22136E-01
         0.15265E-01
         0.71832E-02
         0.21439E-01
         0.13687E-01
         0.20905E-01
         0.97677E-02
         0.41841E-01
         0.32040E-01
         0.15198E-01
         0.44695E-01
         0.15903E-01
         0.83641E-02
         0.48005E-02
         0.10645E-01
         0.54580E-02
         0.33005E-01
         0.30863E-01
         0.30111E-01
         0.78109E-02
         0.13800E-01
         0.40256E-02
         0.15066E-01
         0.21285E-02
         0.59624E-02
         0.14302E-01
         0.13579E-01
         0.70278E-02
         0.83648E-02
         0.76009E-02
         0.29114E-01
         0.17204E-01
         0.22279E-01
         0.36827E-01
         0.28731E-01
         0.26333E-01
         0.36868E-01
         0.33305E-01
         0.33309E-01
         0.25789E-01
         0.22949E-01
         0.31435E-01
         0.20639E-01
         0.17520E-01
         0.14105E-01
         0.16609E-01
         0.27577E-01
         0.18570E-01
         0.12135E+00
         0.12456E+00
         0.13075E+00
         0.12985E+00
         0.13797E+00
         0.14764E+00
         0.14144E+00
         0.12615E+00
         0.12298E+00
         0.13145E+00
         0.12921E+00
         0.12801E+00
         0.10561E+00
         0.10043E+00
         0.11068E+00
         0.11894E+00
         0.12345E+00
         0.13456E+00
         0.12871E+00
         0.13220E+00
         0.11897E+00
         0.11305E+00
         0.11989E+00
         0.11652E+00
         0.12012E+00
         0.11917E+00
         0.22221E-01
         0.13601E-01
         0.13000E-01
         0.93775E-02
         0.22720E-01
         0.15932E-01
         0.84344E-02
         0.22008E-01
         0.14294E-01
         0.21517E-01
         0.10939E-01
         0.42446E-01
         0.32615E-01
         0.16031E-01
         0.45364E-01
         0.16419E-01
         0.93221E-02
         0.59405E-02
         0.11479E-01
         0.69781E-02
         0.33499E-01
         0.31371E-01
         0.30586E-01
         0.87884E-02
         0.14597E-01
         0.55387E-02
         0.15920E-01
         0.51927E-02
         0.76775E-02
         0.15100E-01
         0.14162E-01
         0.80742E-02
         0.91600E-02
         0.85545E-02
         0.29730E-01
         0.17890E-01
         0.22859E-01
         0.37489E-01
         0.29425E-01
         0.27014E-01
         0.37480E-01
         0.33880E-01
         0.33834E-01
         0.26275E-01
         0.23496E-01
         0.32022E-01
         0.21267E-01
         0.18140E-01
         0.14784E-01
         0.17250E-01
         0.28142E-01
         0.19167E-01
         0.12246E+00
         0.12567E+00
         0.13194E+00
         0.13099E+00
         0.13917E+00
         0.14892E+00
         0.14270E+00
         0.12735E+00
         0.12418E+00
         0.13271E+00
         0.13044E+00
         0.12920E+00
         0.10656E+00
         0.10130E+00
         0.11161E+00
         0.11993E+00
         0.12448E+00
         0.13571E+00
         0.12990E+00
         0.13341E+00
         0.12001E+00
         0.11404E+00
         0.12091E+00
         0.11749E+00
         0.12110E+00
         0.12015E+00
         0.53183E-01
         0.47932E-01
         0.46951E-01
         0.41545E-01
         0.58075E-01
         0.50664E-01
         0.48467E-01
         0.57512E-01
         0.45829E-01
         0.57038E-01
         0.53748E-01
         0.83439E-01
         0.70273E-01
         0.57768E-01
         0.88141E-01
         0.46765E-01
         0.44847E-01
         0.38389E-01
         0.47154E-01
         0.47351E-01
         0.68004E-01
         0.66994E-01
         0.63775E-01
         0.44325E-01
         0.52489E-01
         0.41736E-01
         0.57615E-01
         0.52233E-01
         0.53157E-01
         0.54285E-01
         0.45438E-01
         0.43861E-01
         0.41718E-01
         0.43095E-01
         0.67276E-01
         0.54705E-01
         0.58667E-01
         0.79566E-01
         0.71085E-01
         0.68470E-01
         0.78864E-01
         0.73402E-01
         0.71254E-01
         0.58961E-01
         0.57798E-01
         0.69155E-01
         0.57380E-01
         0.52774E-01
         0.49715E-01
         0.52759E-01
         0.64380E-01
         0.54188E-01
         0.17681E+00
         0.17918E+00
         0.18725E+00
         0.18538E+00
         0.19585E+00
         0.20957E+00
         0.20481E+00
         0.18808E+00
         0.18445E+00
         0.19443E+00
         0.19070E+00
         0.18646E+00
         0.15749E+00
         0.14978E+00
         0.16028E+00
         0.16886E+00
         0.17403E+00
         0.18896E+00
         0.18473E+00
         0.18908E+00
         0.17223E+00
         0.16480E+00
         0.17340E+00
         0.16965E+00
         0.17299E+00
         0.17129E+00
  
SCALARS                     nodal_mass  double 1
LOOKUP_TABLE default
         0.24608E-05
         0.19551E-05
         0.20945E-05
         0.35953E-05
         0.12304E-05
         0.97770E-06
         0.10472E-05
         0.17973E-05
         0.19315E-05
         0.24627E-05
         0.96570E-06
         0.12312E-05
         0.13823E-05
         0.16614E-05
         0.69133E-06
         0.83095E-06
         0.27274E-05
         0.20125E-05
         0.13635E-05
         0.10066E-05
         0.81737E-06
         0.15393E-05
         0.16929E-05
         0.40889E-06
         0.76975E-06
         0.84649E-06
         0.13859E-05
         0.17532E-05
         0.69345E-06
         0.87672E-06
         0.32470E-05
         0.25355E-05
         0.32225E-05
         0.16233E-05
         0.12675E-05
         0.16109E-05
         0.18980E-05
         0.21673E-05
         0.94902E-06
         0.10836E-05
         0.20482E-05
         0.22683E-05
         0.10242E-05
         0.11342E-05
         0.17426E-05
         0.10823E-05
         0.87140E-06
         0.54121E-06
         0.20598E-05
         0.10301E-05
         0.17103E-05
         0.85523E-06
         0.17977E-05
         0.89958E-06
         0.18362E-05
         0.91859E-06
         0.15911E-05
         0.19369E-05
         0.79575E-06
         0.96860E-06
         0.24553E-05
         0.17361E-05
         0.12277E-05
         0.86816E-06
         0.27409E-05
         0.13702E-05
         0.23792E-05
         0.11891E-05
         0.10821E-05
         0.16705E-05
         0.54106E-06
         0.83538E-06
         0.18955E-05
         0.94787E-06
         0.20026E-05
         0.10014E-05
         0.19316E-05
         0.96578E-06
         0.15181E-05
         0.75906E-06
         0.95443E-06
         0.15782E-05
         0.47723E-06
         0.78918E-06
         0.20886E-05
         0.10443E-05
         0.16867E-05
         0.84342E-06
         0.14838E-05
         0.74203E-06
         0.97224E-06
         0.16569E-05
         0.48620E-06
         0.82849E-06
         0.22482E-05
         0.11241E-05
         0.23568E-05
         0.11783E-05
         0.19018E-05
         0.95085E-06
         0.11709E-05
         0.20091E-05
         0.58544E-06
         0.10044E-05
         0.74681E-06
         0.94889E-06
         0.37348E-06
         0.47447E-06
         0.88885E-06
         0.44455E-06
         0.10466E-05
         0.52333E-06
         0.10205E-05
         0.51021E-06
         0.99108E-06
         0.49550E-06
         0.10560E-05
         0.52791E-06
         0.11142E-05
         0.55694E-06
         0.10497E-05
         0.52469E-06
         0.82085E-06
         0.41039E-06
         0.66950E-06
         0.33475E-06
         0.86397E-06
         0.43199E-06
         0.11504E-05
         0.57519E-06
         0.12637E-05
         0.63182E-06
         0.12132E-05
         0.60658E-06
         0.10948E-05
         0.54745E-06
         0.99429E-06
         0.49718E-06
         0.80759E-06
         0.40382E-06
         0.67982E-06
         0.33995E-06
         0.88797E-06
         0.44401E-06
         0.11753E-05
         0.58766E-06
         0.12140E-05
         0.60702E-06
         0.98236E-06
         0.49125E-06
         0.79766E-06
         0.39889E-06
         0.97540E-06
         0.48769E-06
         0.11548E-05
         0.57743E-06
         0.24609E-05
         0.19547E-05
         0.20946E-05
         0.35969E-05
         0.19318E-05
         0.24634E-05
         0.13815E-05
         0.16603E-05
         0.27283E-05
         0.20111E-05
         0.81658E-06
         0.15390E-05
         0.16927E-05
         0.13839E-05
         0.17528E-05
         0.32479E-05
         0.25367E-05
         0.32241E-05
         0.18980E-05
         0.21675E-05
         0.20481E-05
         0.22684E-05
         0.17424E-05
         0.10822E-05
         0.20589E-05
         0.17102E-05
         0.17950E-05
         0.18344E-05
         0.15904E-05
         0.19365E-05
         0.24555E-05
         0.17359E-05
         0.27423E-05
         0.23814E-05
         0.10820E-05
         0.16702E-05
         0.18953E-05
         0.20025E-05
         0.19317E-05
         0.15181E-05
         0.95442E-06
         0.15780E-05
         0.20884E-05
         0.16864E-05
         0.14835E-05
         0.97197E-06
         0.16567E-05
         0.22482E-05
         0.23571E-05
         0.19022E-05
         0.11709E-05
         0.20101E-05
         0.74658E-06
         0.94886E-06
         0.88841E-06
         0.10467E-05
         0.10207E-05
         0.99128E-06
         0.10565E-05
         0.11150E-05
         0.10503E-05
         0.82102E-06
         0.66954E-06
         0.86398E-06
         0.11506E-05
         0.12640E-05
         0.12133E-05
         0.10948E-05
         0.99421E-06
         0.80751E-06
         0.67970E-06
         0.88789E-06
         0.11752E-05
         0.12140E-05
         0.98215E-06
         0.79747E-06
         0.97551E-06
         0.11548E-05
         0.24611E-05
         0.19543E-05
         0.20949E-05
         0.35987E-05
         0.19321E-05
         0.24642E-05
         0.13808E-05
         0.16594E-05
         0.27293E-05
         0.20098E-05
         0.81582E-06
         0.15388E-05
         0.16927E-05
         0.13821E-05
         0.17525E-05
         0.32489E-05
         0.25379E-05
         0.32257E-05
         0.18982E-05
         0.21678E-05
         0.20480E-05
         0.22685E-05
         0.17423E-05
         0.10821E-05
         0.20580E-05
         0.17101E-05
         0.17924E-05
         0.18326E-05
         0.15898E-05
         0.19361E-05
         0.24558E-05
         0.17357E-05
         0.27438E-05
         0.23836E-05
         0.10821E-05
         0.16699E-05
         0.18951E-05
         0.20024E-05
         0.19318E-05
         0.15183E-05
         0.95445E-06
         0.15778E-05
         0.20884E-05
         0.16862E-05
         0.14831E-05
         0.97174E-06
         0.16566E-05
         0.22483E-05
         0.23575E-05
         0.19026E-05
         0.11709E-05
         0.20112E-05
         0.74636E-06
         0.94886E-06
         0.88800E-06
         0.10467E-05
         0.10210E-05
         0.99152E-06
         0.10570E-05
         0.11159E-05
         0.10509E-05
         0.82122E-06
         0.66961E-06
         0.86402E-06
         0.11507E-05
         0.12643E-05
         0.12135E-05
         0.10948E-05
         0.99417E-06
         0.80747E-06
         0.67961E-06
         0.88784E-06
         0.11752E-05
         0.12140E-05
         0.98197E-06
         0.79731E-06
         0.97565E-06
         0.11548E-05
         0.24612E-05
         0.19539E-05
         0.20950E-05
         0.36004E-05
         0.19324E-05
         0.24650E-05
         0.13801E-05
         0.16584E-05
         0.27303E-05
         0.20085E-05
         0.81504E-06
         0.15385E-05
         0.16925E-05
         0.13801E-05
         0.17521E-05
         0.32498E-05
         0.25390E-05
         0.32274E-05
         0.18982E-05
         0.21681E-05
         0.20479E-05
         0.22686E-05
         0.17421E-05
         0.10820E-05
         0.20571E-05
         0.17099E-05
         0.17897E-05
         0.18308E-05
         0.15891E-05
         0.19356E-05
         0.24561E-05
         0.17355E-05
         0.27453E-05
         0.23857E-05
         0.10820E-05
         0.16696E-05
         0.18948E-05
         0.20022E-05
         0.19320E-05
         0.15183E-05
         0.95445E-06
         0.15776E-05
         0.20883E-05
         0.16859E-05
         0.14828E-05
         0.97149E-06
         0.16564E-05
         0.22483E-05
         0.23578E-05
         0.19030E-05
         0.11710E-05
         0.20122E-05
         0.74613E-06
         0.94884E-06
         0.88756E-06
         0.10467E-05
         0.10212E-05
         0.99173E-06
         0.10574E-05
         0.11167E-05
         0.10515E-05
         0.82140E-06
         0.66966E-06
         0.86404E-06
         0.11509E-05
         0.12646E-05
         0.12136E-05
         0.10947E-05
         0.99410E-06
         0.80740E-06
         0.67950E-06
         0.88777E-06
         0.11752E-05
         0.12140E-05
         0.98177E-06
         0.79713E-06
         0.97576E-06
         0.11547E-05
         0.24613E-05
         0.19535E-05
         0.20952E-05
         0.36022E-05
         0.19327E-05
         0.24657E-05
         0.13794E-05
         0.16574E-05
         0.27313E-05
         0.20072E-05
         0.81426E-06
         0.15382E-05
         0.16924E-05
         0.13782E-05
         0.17517E-05
         0.32508E-05
         0.25402E-05
         0.32290E-05
         0.18983E-05
         0.21684E-05
         0.20479E-05
         0.22687E-05
         0.17420E-05
         0.10819E-05
         0.20563E-05
         0.17098E-05
         0.17870E-05
         0.18290E-05
         0.15884E-05
         0.19352E-05
         0.24563E-05
         0.17353E-05
         0.27467E-05
         0.23879E-05
         0.10820E-05
         0.16693E-05
         0.18946E-05
         0.20021E-05
         0.19321E-05
         0.15184E-05
         0.95445E-06
         0.15773E-05
         0.20882E-05
         0.16857E-05
         0.14824E-05
         0.97124E-06
         0.16563E-05
         0.22484E-05
         0.23582E-05
         0.19034E-05
         0.11710E-05
         0.20132E-05
         0.74590E-06
         0.94883E-06
         0.88713E-06
         0.10468E-05
         0.10215E-05
         0.99194E-06
         0.10579E-05
         0.11175E-05
         0.10521E-05
         0.82159E-06
         0.66972E-06
         0.86406E-06
         0.11510E-05
         0.12649E-05
         0.12138E-05
         0.10947E-05
         0.99404E-06
         0.80734E-06
         0.67940E-06
         0.88771E-06
         0.11752E-05
         0.12140E-05
         0.98157E-06
         0.79696E-06
         0.97588E-06
         0.11547E-05
         0.24615E-05
         0.19531E-05
         0.20954E-05
         0.36039E-05
         0.19331E-05
         0.24665E-05
         0.13787E-05
         0.16564E-05
         0.27322E-05
         0.20059E-05
         0.81349E-06
         0.15380E-05
         0.16923E-05
         0.13763E-05
         0.17514E-05
         0.32518E-05
         0.25414E-05
         0.32306E-05
         0.18984E-05
         0.21687E-05
         0.20478E-05
         0.22688E-05
         0.17418E-05
         0.10818E-05
         0.20554E-05
         0.17096E-05
         0.17843E-05
         0.18272E-05
         0.15878E-05
         0.19347E-05
         0.24566E-05
         0.17351E-05
         0.27482E-05
         0.23901E-05
         0.10820E-05
         0.16690E-05
         0.18943E-05
         0.20019E-05
         0.19322E-05
         0.15185E-05
         0.95446E-06
         0.15771E-05
         0.20881E-05
         0.16855E-05
         0.14821E-05
         0.97100E-06
         0.16562E-05
         0.22484E-05
         0.23586E-05
         0.19038E-05
         0.11710E-05
         0.20142E-05
         0.74568E-06
         0.94882E-06
         0.88671E-06
         0.10468E-05
         0.10217E-05
         0.99216E-06
         0.10583E-05
         0.11183E-05
         0.10528E-05
         0.82178E-06
         0.66977E-06
         0.86408E-06
         0.11512E-05
         0.12652E-05
         0.12139E-05
         0.10947E-05
         0.99398E-06
         0.80728E-06
         0.67930E-06
         0.88766E-06
         0.11752E-05
         0.12140E-05
         0.98138E-06
         0.79679E-06
         0.97601E-06
         0.11547E-05
         0.24616E-05
         0.19527E-05
         0.20956E-05
         0.36056E-05
         0.19334E-05
         0.24672E-05
         0.13779E-05
         0.16554E-05
         0.27332E-05
         0.20046E-05
         0.81271E-06
         0.15377E-05
         0.16922E-05
         0.13744E-05
         0.17510E-05
         0.32527E-05
         0.25425E-05
         0.32322E-05
         0.18984E-05
         0.21689E-05
         0.20477E-05
         0.22689E-05
         0.17416E-05
         0.10816E-05
         0.20545E-05
         0.17095E-05
         0.17817E-05
         0.18254E-05
         0.15871E-05
         0.19343E-05
         0.24568E-05
         0.17349E-05
         0.27496E-05
         0.23922E-05
         0.10820E-05
         0.16686E-05
         0.18941E-05
         0.20018E-05
         0.19324E-05
         0.15186E-05
         0.95446E-06
         0.15769E-05
         0.20880E-05
         0.16852E-05
         0.14817E-05
         0.97074E-06
         0.16560E-05
         0.22484E-05
         0.23589E-05
         0.19042E-05
         0.11710E-05
         0.20152E-05
         0.74544E-06
         0.94880E-06
         0.88627E-06
         0.10469E-05
         0.10219E-05
         0.99237E-06
         0.10588E-05
         0.11191E-05
         0.10534E-05
         0.82196E-06
         0.66982E-06
         0.86410E-06
         0.11513E-05
         0.12654E-05
         0.12140E-05
         0.10947E-05
         0.99391E-06
         0.80721E-06
         0.67919E-06
         0.88759E-06
         0.11751E-05
         0.12140E-05
         0.98118E-06
         0.79661E-06
         0.97612E-06
         0.11546E-05
         0.24618E-05
         0.19523E-05
         0.20957E-05
         0.36073E-05
         0.19337E-05
         0.24680E-05
         0.13772E-05
         0.16545E-05
         0.27341E-05
         0.20033E-05
         0.81194E-06
         0.15374E-05
         0.16921E-05
         0.13725E-05
         0.17506E-05
         0.32537E-05
         0.25437E-05
         0.32339E-05
         0.18985E-05
         0.21692E-05
         0.20476E-05
         0.22690E-05
         0.17414E-05
         0.10815E-05
         0.20536E-05
         0.17093E-05
         0.17790E-05
         0.18236E-05
         0.15864E-05
         0.19339E-05
         0.24571E-05
         0.17347E-05
         0.27511E-05
         0.23944E-05
         0.10820E-05
         0.16683E-05
         0.18938E-05
         0.20016E-05
         0.19325E-05
         0.15186E-05
         0.95446E-06
         0.15767E-05
         0.20878E-05
         0.16850E-05
         0.14814E-05
         0.97050E-06
         0.16559E-05
         0.22484E-05
         0.23593E-05
         0.19046E-05
         0.11711E-05
         0.20162E-05
         0.74522E-06
         0.94878E-06
         0.88584E-06
         0.10469E-05
         0.10222E-05
         0.99258E-06
         0.10593E-05
         0.11199E-05
         0.10540E-05
         0.82215E-06
         0.66988E-06
         0.86413E-06
         0.11515E-05
         0.12657E-05
         0.12142E-05
         0.10946E-05
         0.99385E-06
         0.80715E-06
         0.67909E-06
         0.88752E-06
         0.11751E-05
         0.12140E-05
         0.98098E-06
         0.79643E-06
         0.97624E-06
         0.11546E-05
         0.24619E-05
         0.19519E-05
         0.20959E-05
         0.36091E-05
         0.19340E-05
         0.24688E-05
         0.13765E-05
         0.16535E-05
         0.27351E-05
         0.20020E-05
         0.81117E-06
         0.15372E-05
         0.16920E-05
         0.13706E-05
         0.17503E-05
         0.32546E-05
         0.25448E-05
         0.32355E-05
         0.18986E-05
         0.21695E-05
         0.20475E-05
         0.22691E-05
         0.17413E-05
         0.10814E-05
         0.20527E-05
         0.17092E-05
         0.17763E-05
         0.18219E-05
         0.15858E-05
         0.19334E-05
         0.24573E-05
         0.17345E-05
         0.27525E-05
         0.23966E-05
         0.10820E-05
         0.16680E-05
         0.18936E-05
         0.20015E-05
         0.19326E-05
         0.15187E-05
         0.95447E-06
         0.15765E-05
         0.20878E-05
         0.16848E-05
         0.14810E-05
         0.97025E-06
         0.16557E-05
         0.22485E-05
         0.23597E-05
         0.19050E-05
         0.11711E-05
         0.20172E-05
         0.74499E-06
         0.94877E-06
         0.88541E-06
         0.10469E-05
         0.10224E-05
         0.99280E-06
         0.10597E-05
         0.11207E-05
         0.10546E-05
         0.82234E-06
         0.66994E-06
         0.86415E-06
         0.11517E-05
         0.12660E-05
         0.12143E-05
         0.10946E-05
         0.99379E-06
         0.80709E-06
         0.67898E-06
         0.88746E-06
         0.11751E-05
         0.12140E-05
         0.98079E-06
         0.79626E-06
         0.97636E-06
         0.11546E-05
         0.24621E-05
         0.19515E-05
         0.20961E-05
         0.36108E-05
         0.19343E-05
         0.24695E-05
         0.13758E-05
         0.16525E-05
         0.27361E-05
         0.20006E-05
         0.81039E-06
         0.15369E-05
         0.16919E-05
         0.13686E-05
         0.17499E-05
         0.32556E-05
         0.25460E-05
         0.32371E-05
         0.18986E-05
         0.21697E-05
         0.20474E-05
         0.22692E-05
         0.17411E-05
         0.10813E-05
         0.20519E-05
         0.17091E-05
         0.17736E-05
         0.18201E-05
         0.15851E-05
         0.19330E-05
         0.24575E-05
         0.17342E-05
         0.27540E-05
         0.23987E-05
         0.10820E-05
         0.16677E-05
         0.18933E-05
         0.20014E-05
         0.19328E-05
         0.15188E-05
         0.95448E-06
         0.15763E-05
         0.20876E-05
         0.16845E-05
         0.14807E-05
         0.97000E-06
         0.16556E-05
         0.22485E-05
         0.23600E-05
         0.19053E-05
         0.11711E-05
         0.20182E-05
         0.74476E-06
         0.94875E-06
         0.88498E-06
         0.10470E-05
         0.10227E-05
         0.99301E-06
         0.10602E-05
         0.11215E-05
         0.10553E-05
         0.82252E-06
         0.66999E-06
         0.86417E-06
         0.11518E-05
         0.12663E-05
         0.12145E-05
         0.10946E-05
         0.99373E-06
         0.80702E-06
         0.67888E-06
         0.88740E-06
         0.11751E-05
         0.12140E-05
         0.98058E-06
         0.79608E-06
         0.97648E-06
         0.11546E-05
         0.24622E-05
         0.19511E-05
         0.20963E-05
         0.36125E-05
         0.19346E-05
         0.24703E-05
         0.13751E-05
         0.16515E-05
         0.27370E-05
         0.19993E-05
         0.80962E-06
         0.15366E-05
         0.16917E-05
         0.13667E-05
         0.17495E-05
         0.32565E-05
         0.25471E-05
         0.32388E-05
         0.18987E-05
         0.21700E-05
         0.20473E-05
         0.22693E-05
         0.17409E-05
         0.10812E-05
         0.20510E-05
         0.17089E-05
         0.17710E-05
         0.18183E-05
         0.15844E-05
         0.19325E-05
         0.24578E-05
         0.17340E-05
         0.27554E-05
         0.24009E-05
         0.10820E-05
         0.16674E-05
         0.18931E-05
         0.20012E-05
         0.19329E-05
         0.15189E-05
         0.95448E-06
         0.15760E-05
         0.20875E-05
         0.16843E-05
         0.14803E-05
         0.96975E-06
         0.16555E-05
         0.22485E-05
         0.23604E-05
         0.19057E-05
         0.11712E-05
         0.20192E-05
         0.74453E-06
         0.94874E-06
         0.88455E-06
         0.10470E-05
         0.10229E-05
         0.99322E-06
         0.10606E-05
         0.11223E-05
         0.10559E-05
         0.82270E-06
         0.67004E-06
         0.86419E-06
         0.11520E-05
         0.12666E-05
         0.12146E-05
         0.10945E-05
         0.99366E-06
         0.80696E-06
         0.67877E-06
         0.88733E-06
         0.11751E-05
         0.12140E-05
         0.98038E-06
         0.79590E-06
         0.97660E-06
         0.11545E-05
         0.24623E-05
         0.19507E-05
         0.20964E-05
         0.36142E-05
         0.19349E-05
         0.24710E-05
         0.13743E-05
         0.16505E-05
         0.27380E-05
         0.19980E-05
         0.80885E-06
         0.15364E-05
         0.16916E-05
         0.13648E-05
         0.17492E-05
         0.32575E-05
         0.25483E-05
         0.32404E-05
         0.18988E-05
         0.21703E-05
         0.20473E-05
         0.22694E-05
         0.17407E-05
         0.10811E-05
         0.20501E-05
         0.17088E-05
         0.17683E-05
         0.18165E-05
         0.15837E-05
         0.19321E-05
         0.24580E-05
         0.17338E-05
         0.27569E-05
         0.24031E-05
         0.10820E-05
         0.16670E-05
         0.18928E-05
         0.20011E-05
         0.19330E-05
         0.15189E-05
         0.95448E-06
         0.15758E-05
         0.20874E-05
         0.16840E-05
         0.14800E-05
         0.96950E-06
         0.16553E-05
         0.22485E-05
         0.23608E-05
         0.19061E-05
         0.11712E-05
         0.20202E-05
         0.74430E-06
         0.94872E-06
         0.88412E-06
         0.10470E-05
         0.10231E-05
         0.99344E-06
         0.10611E-05
         0.11231E-05
         0.10565E-05
         0.82289E-06
         0.67009E-06
         0.86422E-06
         0.11521E-05
         0.12669E-05
         0.12147E-05
         0.10945E-05
         0.99360E-06
         0.80690E-06
         0.67867E-06
         0.88727E-06
         0.11750E-05
         0.12140E-05
         0.98019E-06
         0.79573E-06
         0.97672E-06
         0.11545E-05
         0.24625E-05
         0.19503E-05
         0.20966E-05
         0.36160E-05
         0.19352E-05
         0.24718E-05
         0.13736E-05
         0.16496E-05
         0.27389E-05
         0.19967E-05
         0.80807E-06
         0.15361E-05
         0.16915E-05
         0.13629E-05
         0.17488E-05
         0.32584E-05
         0.25495E-05
         0.32420E-05
         0.18988E-05
         0.21705E-05
         0.20472E-05
         0.22695E-05
         0.17406E-05
         0.10810E-05
         0.20492E-05
         0.17086E-05
         0.17656E-05
         0.18147E-05
         0.15831E-05
         0.19317E-05
         0.24583E-05
         0.17336E-05
         0.27583E-05
         0.24053E-05
         0.10820E-05
         0.16667E-05
         0.18926E-05
         0.20009E-05
         0.19331E-05
         0.15190E-05
         0.95449E-06
         0.15756E-05
         0.20873E-05
         0.16838E-05
         0.14796E-05
         0.96925E-06
         0.16552E-05
         0.22486E-05
         0.23611E-05
         0.19065E-05
         0.11712E-05
         0.20212E-05
         0.74407E-06
         0.94870E-06
         0.88368E-06
         0.10471E-05
         0.10234E-05
         0.99365E-06
         0.10616E-05
         0.11239E-05
         0.10571E-05
         0.82307E-06
         0.67014E-06
         0.86424E-06
         0.11523E-05
         0.12672E-05
         0.12149E-05
         0.10945E-05
         0.99354E-06
         0.80683E-06
         0.67856E-06
         0.88721E-06
         0.11750E-05
         0.12140E-05
         0.97999E-06
         0.79555E-06
         0.97684E-06
         0.11545E-05
         0.24626E-05
         0.19499E-05
         0.20968E-05
         0.36177E-05
         0.19355E-05
         0.24725E-05
         0.13729E-05
         0.16486E-05
         0.27399E-05
         0.19954E-05
         0.80730E-06
         0.15358E-05
         0.16914E-05
         0.13610E-05
         0.17484E-05
         0.32594E-05
         0.25506E-05
         0.32437E-05
         0.18989E-05
         0.21708E-05
         0.20471E-05
         0.22696E-05
         0.17404E-05
         0.10808E-05
         0.20483E-05
         0.17085E-05
         0.17629E-05
         0.18129E-05
         0.15824E-05
         0.19312E-05
         0.24585E-05
         0.17334E-05
         0.27598E-05
         0.24074E-05
         0.10820E-05
         0.16664E-05
         0.18923E-05
         0.20008E-05
         0.19333E-05
         0.15191E-05
         0.95449E-06
         0.15754E-05
         0.20872E-05
         0.16835E-05
         0.14793E-05
         0.96901E-06
         0.16550E-05
         0.22486E-05
         0.23615E-05
         0.19069E-05
         0.11713E-05
         0.20222E-05
         0.74384E-06
         0.94869E-06
         0.88325E-06
         0.10471E-05
         0.10236E-05
         0.99386E-06
         0.10620E-05
         0.11247E-05
         0.10577E-05
         0.82326E-06
         0.67020E-06
         0.86426E-06
         0.11524E-05
         0.12674E-05
         0.12150E-05
         0.10944E-05
         0.99348E-06
         0.80677E-06
         0.67846E-06
         0.88714E-06
         0.11750E-05
         0.12140E-05
         0.97979E-06
         0.79538E-06
         0.97696E-06
         0.11544E-05
         0.24628E-05
         0.19495E-05
         0.20970E-05
         0.36194E-05
         0.19358E-05
         0.24733E-05
         0.13722E-05
         0.16476E-05
         0.27409E-05
         0.19941E-05
         0.80652E-06
         0.15355E-05
         0.16913E-05
         0.13591E-05
         0.17481E-05
         0.32604E-05
         0.25518E-05
         0.32453E-05
         0.18990E-05
         0.21711E-05
         0.20470E-05
         0.22697E-05
         0.17402E-05
         0.10807E-05
         0.20474E-05
         0.17084E-05
         0.17603E-05
         0.18111E-05
         0.15817E-05
         0.19308E-05
         0.24588E-05
         0.17332E-05
         0.27613E-05
         0.24096E-05
         0.10819E-05
         0.16661E-05
         0.18921E-05
         0.20006E-05
         0.19334E-05
         0.15192E-05
         0.95450E-06
         0.15752E-05
         0.20871E-05
         0.16833E-05
         0.14789E-05
         0.96876E-06
         0.16549E-05
         0.22486E-05
         0.23619E-05
         0.19073E-05
         0.11713E-05
         0.20232E-05
         0.74362E-06
         0.94868E-06
         0.88282E-06
         0.10472E-05
         0.10238E-05
         0.99408E-06
         0.10625E-05
         0.11255E-05
         0.10584E-05
         0.82345E-06
         0.67025E-06
         0.86428E-06
         0.11526E-05
         0.12677E-05
         0.12152E-05
         0.10944E-05
         0.99342E-06
         0.80671E-06
         0.67836E-06
         0.88709E-06
         0.11750E-05
         0.12140E-05
         0.97959E-06
         0.79521E-06
         0.97708E-06
         0.11544E-05
         0.24629E-05
         0.19491E-05
         0.20972E-05
         0.36212E-05
         0.19361E-05
         0.24741E-05
         0.13715E-05
         0.16466E-05
         0.27418E-05
         0.19928E-05
         0.80575E-06
         0.15353E-05
         0.16912E-05
         0.13572E-05
         0.17477E-05
         0.32613E-05
         0.25529E-05
         0.32469E-05
         0.18990E-05
         0.21714E-05
         0.20469E-05
         0.22698E-05
         0.17400E-05
         0.10806E-05
         0.20466E-05
         0.17082E-05
         0.17576E-05
         0.18093E-05
         0.15810E-05
         0.19303E-05
         0.24590E-05
         0.17330E-05
         0.27627E-05
         0.24118E-05
         0.10819E-05
         0.16658E-05
         0.18919E-05
         0.20005E-05
         0.19335E-05
         0.15192E-05
         0.95450E-06
         0.15750E-05
         0.20870E-05
         0.16831E-05
         0.14786E-05
         0.96851E-06
         0.16548E-05
         0.22487E-05
         0.23622E-05
         0.19077E-05
         0.11713E-05
         0.20242E-05
         0.74339E-06
         0.94866E-06
         0.88239E-06
         0.10472E-05
         0.10241E-05
         0.99429E-06
         0.10630E-05
         0.11263E-05
         0.10590E-05
         0.82363E-06
         0.67030E-06
         0.86430E-06
         0.11527E-05
         0.12680E-05
         0.12153E-05
         0.10944E-05
         0.99335E-06
         0.80665E-06
         0.67825E-06
         0.88702E-06
         0.11749E-05
         0.12140E-05
         0.97939E-06
         0.79503E-06
         0.97720E-06
         0.11544E-05
         0.24631E-05
         0.19487E-05
         0.20973E-05
         0.36229E-05
         0.19364E-05
         0.24748E-05
         0.13707E-05
         0.16456E-05
         0.27428E-05
         0.19915E-05
         0.80498E-06
         0.15350E-05
         0.16911E-05
         0.13553E-05
         0.17473E-05
         0.32623E-05
         0.25541E-05
         0.32486E-05
         0.18991E-05
         0.21716E-05
         0.20468E-05
         0.22699E-05
         0.17399E-05
         0.10805E-05
         0.20457E-05
         0.17081E-05
         0.17549E-05
         0.18075E-05
         0.15804E-05
         0.19299E-05
         0.24592E-05
         0.17328E-05
         0.27642E-05
         0.24140E-05
         0.10819E-05
         0.16654E-05
         0.18916E-05
         0.20003E-05
         0.19337E-05
         0.15193E-05
         0.95450E-06
         0.15748E-05
         0.20869E-05
         0.16828E-05
         0.14782E-05
         0.96826E-06
         0.16546E-05
         0.22487E-05
         0.23626E-05
         0.19081E-05
         0.11714E-05
         0.20253E-05
         0.74316E-06
         0.94864E-06
         0.88196E-06
         0.10472E-05
         0.10243E-05
         0.99450E-06
         0.10634E-05
         0.11271E-05
         0.10596E-05
         0.82381E-06
         0.67036E-06
         0.86432E-06
         0.11529E-05
         0.12683E-05
         0.12154E-05
         0.10943E-05
         0.99329E-06
         0.80658E-06
         0.67815E-06
         0.88696E-06
         0.11749E-05
         0.12140E-05
         0.97919E-06
         0.79485E-06
         0.97732E-06
         0.11544E-05
         0.24632E-05
         0.19483E-05
         0.20975E-05
         0.36246E-05
         0.19368E-05
         0.24756E-05
         0.13700E-05
         0.16447E-05
         0.27437E-05
         0.19902E-05
         0.80421E-06
         0.15347E-05
         0.16910E-05
         0.13534E-05
         0.17470E-05
         0.32632E-05
         0.25552E-05
         0.32502E-05
         0.18992E-05
         0.21719E-05
         0.20467E-05
         0.22700E-05
         0.17397E-05
         0.10804E-05
         0.20448E-05
         0.17079E-05
         0.17523E-05
         0.18057E-05
         0.15797E-05
         0.19295E-05
         0.24595E-05
         0.17326E-05
         0.27656E-05
         0.24161E-05
         0.10819E-05
         0.16651E-05
         0.18914E-05
         0.20002E-05
         0.19338E-05
         0.15194E-05
         0.95451E-06
         0.15745E-05
         0.20868E-05
         0.16826E-05
         0.14779E-05
         0.96801E-06
         0.16545E-05
         0.22487E-05
         0.23630E-05
         0.19085E-05
         0.11714E-05
         0.20263E-05
         0.74293E-06
         0.94863E-06
         0.88153E-06
         0.10473E-05
         0.10245E-05
         0.99472E-06
         0.10639E-05
         0.11279E-05
         0.10602E-05
         0.82400E-06
         0.67041E-06
         0.86435E-06
         0.11530E-05
         0.12686E-05
         0.12156E-05
         0.10943E-05
         0.99323E-06
         0.80652E-06
         0.67804E-06
         0.88690E-06
         0.11749E-05
         0.12140E-05
         0.97900E-06
         0.79468E-06
         0.97744E-06
         0.11543E-05
         0.24633E-05
         0.19479E-05
         0.20977E-05
         0.36264E-05
         0.19371E-05
         0.24763E-05
         0.13693E-05
         0.16437E-05
         0.27447E-05
         0.19888E-05
         0.80343E-06
         0.15345E-05
         0.16908E-05
         0.13515E-05
         0.17466E-05
         0.32642E-05
         0.25564E-05
         0.32518E-05
         0.18992E-05
         0.21722E-05
         0.20466E-05
         0.22701E-05
         0.17395E-05
         0.10803E-05
         0.20439E-05
         0.17078E-05
         0.17496E-05
         0.18039E-05
         0.15790E-05
         0.19290E-05
         0.24597E-05
         0.17323E-05
         0.27671E-05
         0.24183E-05
         0.10819E-05
         0.16648E-05
         0.18911E-05
         0.20001E-05
         0.19339E-05
         0.15195E-05
         0.95452E-06
         0.15743E-05
         0.20867E-05
         0.16823E-05
         0.14775E-05
         0.96776E-06
         0.16543E-05
         0.22487E-05
         0.23633E-05
         0.19089E-05
         0.11714E-05
         0.20273E-05
         0.74270E-06
         0.94861E-06
         0.88109E-06
         0.10473E-05
         0.10248E-05
         0.99493E-06
         0.10643E-05
         0.11287E-05
         0.10609E-05
         0.82418E-06
         0.67046E-06
         0.86437E-06
         0.11532E-05
         0.12689E-05
         0.12157E-05
         0.10943E-05
         0.99316E-06
         0.80646E-06
         0.67794E-06
         0.88683E-06
         0.11749E-05
         0.12140E-05
         0.97879E-06
         0.79450E-06
         0.97755E-06
         0.11543E-05
         0.24635E-05
         0.19475E-05
         0.20979E-05
         0.36281E-05
         0.19374E-05
         0.24771E-05
         0.13686E-05
         0.16427E-05
         0.27456E-05
         0.19875E-05
         0.80266E-06
         0.15342E-05
         0.16907E-05
         0.13496E-05
         0.17463E-05
         0.32651E-05
         0.25575E-05
         0.32534E-05
         0.18993E-05
         0.21724E-05
         0.20466E-05
         0.22702E-05
         0.17393E-05
         0.10802E-05
         0.20430E-05
         0.17076E-05
         0.17469E-05
         0.18021E-05
         0.15784E-05
         0.19286E-05
         0.24600E-05
         0.17321E-05
         0.27685E-05
         0.24205E-05
         0.10819E-05
         0.16645E-05
         0.18909E-05
         0.19999E-05
         0.19341E-05
         0.15195E-05
         0.95452E-06
         0.15741E-05
         0.20866E-05
         0.16821E-05
         0.14772E-05
         0.96751E-06
         0.16542E-05
         0.22488E-05
         0.23637E-05
         0.19092E-05
         0.11715E-05
         0.20283E-05
         0.74247E-06
         0.94860E-06
         0.88066E-06
         0.10473E-05
         0.10250E-05
         0.99514E-06
         0.10648E-05
         0.11295E-05
         0.10615E-05
         0.82437E-06
         0.67052E-06
         0.86439E-06
         0.11533E-05
         0.12691E-05
         0.12159E-05
         0.10942E-05
         0.99310E-06
         0.80639E-06
         0.67783E-06
         0.88676E-06
         0.11748E-05
         0.12140E-05
         0.97859E-06
         0.79433E-06
         0.97767E-06
         0.11543E-05
         0.24636E-05
         0.19471E-05
         0.20980E-05
         0.36298E-05
         0.19377E-05
         0.24779E-05
         0.13679E-05
         0.16417E-05
         0.27466E-05
         0.19862E-05
         0.80189E-06
         0.15339E-05
         0.16906E-05
         0.13477E-05
         0.17459E-05
         0.32661E-05
         0.25587E-05
         0.32551E-05
         0.18994E-05
         0.21727E-05
         0.20465E-05
         0.22703E-05
         0.17392E-05
         0.10800E-05
         0.20421E-05
         0.17075E-05
         0.17443E-05
         0.18003E-05
         0.15777E-05
         0.19281E-05
         0.24602E-05
         0.17319E-05
         0.27700E-05
         0.24227E-05
         0.10819E-05
         0.16642E-05
         0.18906E-05
         0.19998E-05
         0.19342E-05
         0.15196E-05
         0.95453E-06
         0.15739E-05
         0.20865E-05
         0.16819E-05
         0.14768E-05
         0.96727E-06
         0.16541E-05
         0.22488E-05
         0.23640E-05
         0.19096E-05
         0.11715E-05
         0.20293E-05
         0.74225E-06
         0.94859E-06
         0.88023E-06
         0.10474E-05
         0.10253E-05
         0.99535E-06
         0.10653E-05
         0.11303E-05
         0.10621E-05
         0.82456E-06
         0.67057E-06
         0.86441E-06
         0.11535E-05
         0.12694E-05
         0.12160E-05
         0.10942E-05
         0.99304E-06
         0.80633E-06
         0.67773E-06
         0.88671E-06
         0.11748E-05
         0.12140E-05
         0.97840E-06
         0.79415E-06
         0.97780E-06
         0.11542E-05
         0.24637E-05
         0.19466E-05
         0.20982E-05
         0.36315E-05
         0.19380E-05
         0.24786E-05
         0.13671E-05
         0.16407E-05
         0.27475E-05
         0.19849E-05
         0.80110E-06
         0.15336E-05
         0.16905E-05
         0.13457E-05
         0.17455E-05
         0.32669E-05
         0.25598E-05
         0.32567E-05
         0.18994E-05
         0.21729E-05
         0.20464E-05
         0.22703E-05
         0.17390E-05
         0.10799E-05
         0.20412E-05
         0.17073E-05
         0.17416E-05
         0.17985E-05
         0.15770E-05
         0.19277E-05
         0.24604E-05
         0.17317E-05
         0.27714E-05
         0.24248E-05
         0.10819E-05
         0.16638E-05
         0.18903E-05
         0.19996E-05
         0.19343E-05
         0.15196E-05
         0.95451E-06
         0.15737E-05
         0.20864E-05
         0.16816E-05
         0.14765E-05
         0.96700E-06
         0.16539E-05
         0.22488E-05
         0.23644E-05
         0.19100E-05
         0.11715E-05
         0.20303E-05
         0.74200E-06
         0.94855E-06
         0.87978E-06
         0.10474E-05
         0.10255E-05
         0.99555E-06
         0.10657E-05
         0.11311E-05
         0.10627E-05
         0.82472E-06
         0.67061E-06
         0.86442E-06
         0.11536E-05
         0.12697E-05
         0.12161E-05
         0.10941E-05
         0.99295E-06
         0.80625E-06
         0.67761E-06
         0.88662E-06
         0.11748E-05
         0.12140E-05
         0.97818E-06
         0.79396E-06
         0.97790E-06
         0.11542E-05
         0.24639E-05
         0.19463E-05
         0.20984E-05
         0.36333E-05
         0.19383E-05
         0.24794E-05
         0.13664E-05
         0.16398E-05
         0.27485E-05
         0.19836E-05
         0.80034E-06
         0.15334E-05
         0.16904E-05
         0.13439E-05
         0.17452E-05
         0.32679E-05
         0.25610E-05
         0.32583E-05
         0.18995E-05
         0.21732E-05
         0.20463E-05
         0.22704E-05
         0.17388E-05
         0.10798E-05
         0.20404E-05
         0.17072E-05
         0.17389E-05
         0.17967E-05
         0.15763E-05
         0.19272E-05
         0.24607E-05
         0.17315E-05
         0.27729E-05
         0.24270E-05
         0.10819E-05
         0.16635E-05
         0.18901E-05
         0.19995E-05
         0.19345E-05
         0.15197E-05
         0.95453E-06
         0.15735E-05
         0.20863E-05
         0.16814E-05
         0.14761E-05
         0.96677E-06
         0.16538E-05
         0.22488E-05
         0.23647E-05
         0.19104E-05
         0.11716E-05
         0.20313E-05
         0.74179E-06
         0.94855E-06
         0.87936E-06
         0.10475E-05
         0.10257E-05
         0.99577E-06
         0.10662E-05
         0.11319E-05
         0.10633E-05
         0.82492E-06
         0.67068E-06
         0.86446E-06
         0.11538E-05
         0.12700E-05
         0.12163E-05
         0.10941E-05
         0.99291E-06
         0.80620E-06
         0.67752E-06
         0.88657E-06
         0.11748E-05
         0.12140E-05
         0.97800E-06
         0.79380E-06
         0.97803E-06
         0.11542E-05
         0.12320E-05
         0.97306E-06
         0.10493E-05
         0.18171E-05
         0.96926E-06
         0.12399E-05
         0.68306E-06
         0.81967E-06
         0.13745E-05
         0.99152E-06
         0.39999E-06
         0.76665E-06
         0.84519E-06
         0.67148E-06
         0.87252E-06
         0.16343E-05
         0.12808E-05
         0.16296E-05
         0.94981E-06
         0.10867E-05
         0.10232E-05
         0.11353E-05
         0.86940E-06
         0.53990E-06
         0.10200E-05
         0.85360E-06
         0.86884E-06
         0.89793E-06
         0.78802E-06
         0.96354E-06
         0.12305E-05
         0.86572E-06
         0.13869E-05
         0.12141E-05
         0.54095E-06
         0.83170E-06
         0.94503E-06
         0.99975E-06
         0.96729E-06
         0.75992E-06
         0.47728E-06
         0.78670E-06
         0.10432E-05
         0.84065E-06
         0.73800E-06
         0.48334E-06
         0.82688E-06
         0.11245E-05
         0.11825E-05
         0.95534E-06
         0.58581E-06
         0.10159E-05
         0.37085E-06
         0.47429E-06
         0.43959E-06
         0.52375E-06
         0.51294E-06
         0.49796E-06
         0.53322E-06
         0.56619E-06
         0.53185E-06
         0.41252E-06
         0.33536E-06
         0.43225E-06
         0.57696E-06
         0.63509E-06
         0.60820E-06
         0.54708E-06
         0.49646E-06
         0.40310E-06
         0.33875E-06
         0.44329E-06
         0.58740E-06
         0.60700E-06
         0.48897E-06
         0.39687E-06
         0.48906E-06
         0.57710E-06
  
SCALARS                 Poissons_ratio  double 1
LOOKUP_TABLE default
         0.30000E+00
         0.30000E+00
         0.30000E+00
         0.30000E+00
         0.30000E+00
         0.30000E+00
         0.30000E+00
         0.30000E+00
         0.30000E+00
         0.30000E+00
         0.30000E+00
         0.30000E+00
         0.30000E+00
         0.30000E+00
         0.30000E+00
         0.30000E+00
         0.30000E+00
         0.30000E+00
         0.30000E+00
         0.30000E+00
         0.30000E+00
         0.30000E+00
         0.30000E+00
         0.30000E+00
         0.30000E+00
         0.30000E+00
         0.30000E+00
         0.30000E+00
         0.30000E+00
         0.30000E+00
         0.30000E+00
         0.30000E+00
         0.30000E+00
         0.30000E+00
         0.30000E+00
         0.30000E+00
         0.30000E+00
         0.30000E+00
         0.30000E+00
         0.30000E+00
         0.30000E+00
         0.30000E+00
         0.30000E+00
         0.30000E+00
         0.30000E+00
         0.30000E+00
         0.30000E+00
         0.30000E+00
         0.30000E+00
         0.30000E+00
         0.30000E+00
         0.30000E+00
         0.30000E+00
         0.30000E+00
         0.30000E+00
         0.30000E+00
         0.30000E+00
         0.30000E+00
         0.30000E+00
         0.30000E+00
         0.30000E+00
         0.30000E+00
         0.30000E+00
         0.30000E+00
         0.30000E+00
         0.30000E+00
         0.30000E+00
         0.30000E+00
         0.30000E+00
         0.30000E+00
         0.30000E+00
         0.30000E+00
         0.30000E+00
         0.30000E+00
         0.30000E+00
         0.30000E+00
         0.30000E+00
         0.30000E+00
         0.30000E+00
         0.30000E+00
         0.30000E+00
         0.30000E+00
         0.30000E+00
         0.30000E+00
         0.30000E+00
         0.30000E+00
         0.30000E+00
         0.30000E+00
         0.30000E+00
         0.30000E+00
         0.30000E+00
         0.30000E+00
         0.30000E+00
         0.30000E+00
         0.30000E+00
         0.30000E+00
         0.30000E+00
         0.30000E+00
         0.30000E+00
         0.30000E+00
         0.30000E+00
         0.30000E+00
         0.30000E+00
         0.30000E+00
         0.30000E+00
         0.30000E+00
         0.30000E+00
         0.30000E+00
         0.30000E+00
         0.30000E+00
         0.30000E+00
         0.30000E+00
         0.30000E+00
         0.30000E+00
         0.30000E+00
         0.30000E+00
         0.30000E+00
         0.30000E+00
         0.30000E+00
         0.30000E+00
         0.30000E+00
         0.30000E+00
         0.30000E+00
         0.30000E+00
         0.30000E+00
         0.30000E+00
         0.30000E+00
         0.30000E+00
         0.30000E+00
         0.30000E+00
         0.30000E+00
         0.30000E+00
         0.30000E+00
         0.30000E+00
         0.30000E+00
         0.30000E+00
         0.30000E+00
         0.30000E+00
         0.30000E+00
         0.30000E+00
         0.30000E+00
         0.30000E+00
         0.30000E+00
         0.30000E+00
         0.30000E+00
         0.30000E+00
         0.30000E+00
         0.30000E+00
         0.30000E+00
         0.30000E+00
         0.30000E+00
         0.30000E+00
         0.30000E+00
         0.30000E+00
         0.30000E+00
         0.30000E+00
         0.30000E+00
         0.30000E+00
         0.30000E+00
         0.30000E+00
         0.30000E+00
         0.30000E+00
         0.30000E+00
         0.30000E+00
         0.30000E+00
         0.30000E+00
         0.30000E+00
         0.30000E+00
         0.30000E+00
         0.30000E+00
         0.30000E+00
         0.30000E+00
         0.30000E+00
         0.30000E+00
         0.30000E+00
         0.30000E+00
         0.30000E+00
         0.30000E+00
         0.30000E+00
         0.30000E+00
         0.30000E+00
         0.30000E+00
         0.30000E+00
         0.30000E+00
         0.30000E+00
         0.30000E+00
         0.30000E+00
         0.30000E+00
         0.30000E+00
         0.30000E+00
         0.30000E+00
         0.30000E+00
         0.30000E+00
         0.30000E+00
         0.30000E+00
         0.30000E+00
         0.30000E+00
         0.30000E+00
         0.30000E+00
         0.30000E+00
         0.30000E+00
         0.30000E+00
         0.30000E+00
         0.30000E+00
         0.30000E+00
         0.30000E+00
         0.30000E+00
         0.30000E+00
         0.30000E+00
         0.30000E+00
         0.30000E+00
         0.30000E+00
         0.30000E+00
         0.30000E+00
         0.30000E+00
         0.30000E+00
         0.30000E+00
         0.30000E+00
         0.30000E+00
         0.30000E+00
         0.30000E+00
         0.30000E+00
         0.30000E+00
         0.30000E+00
         0.30000E+00
         0.30000E+00
         0.30000E+00
         0.30000E+00
         0.30000E+00
         0.30000E+00
         0.30000E+00
         0.30000E+00
         0.30000E+00
         0.30000E+00
         0.30000E+00
         0.30000E+00
         0.30000E+00
         0.30000E+00
         0.30000E+00
         0.30000E+00
         0.30000E+00
         0.30000E+00
         0.30000E+00
         0.30000E+00
         0.30000E+00
         0.30000E+00
         0.30000E+00
         0.30000E+00
         0.30000E+00
         0.30000E+00
         0.30000E+00
         0.30000E+00
         0.30000E+00
         0.30000E+00
         0.30000E+00
         0.30000E+00
         0.30000E+00
         0.30000E+00
         0.30000E+00
         0.30000E+00
         0.30000E+00
         0.30000E+00
         0.30000E+00
         0.30000E+00
         0.30000E+00
         0.30000E+00
         0.30000E+00
         0.30000E+00
         0.30000E+00
         0.30000E+00
         0.30000E+00
         0.30000E+00
         0.30000E+00
         0.30000E+00
         0.30000E+00
         0.30000E+00
         0.30000E+00
         0.30000E+00
         0.30000E+00
         0.30000E+00
         0.30000E+00
         0.30000E+00
         0.30000E+00
         0.30000E+00
         0.30000E+00
         0.30000E+00
         0.30000E+00
         0.30000E+00
         0.30000E+00
         0.30000E+00
         0.30000E+00
         0.30000E+00
         0.30000E+00
         0.30000E+00
         0.30000E+00
         0.30000E+00
         0.30000E+00
         0.30000E+00
         0.30000E+00
         0.30000E+00
         0.30000E+00
         0.30000E+00
         0.30000E+00
         0.30000E+00
         0.30000E+00
         0.30000E+00
         0.30000E+00
         0.30000E+00
         0.30000E+00
         0.30000E+00
         0.30000E+00
         0.30000E+00
         0.30000E+00
         0.30000E+00
         0.30000E+00
         0.30000E+00
         0.30000E+00
         0.30000E+00
         0.30000E+00
         0.30000E+00
         0.30000E+00
         0.30000E+00
         0.30000E+00
         0.30000E+00
         0.30000E+00
         0.30000E+00
         0.30000E+00
         0.30000E+00
         0.30000E+00
         0.30000E+00
         0.30000E+00
         0.30000E+00
         0.30000E+00
         0.30000E+00
         0.30000E+00
         0.30000E+00
         0.30000E+00
         0.30000E+00
         0.30000E+00
         0.30000E+00
         0.30000E+00
         0.30000E+00
         0.30000E+00
         0.30000E+00
         0.30000E+00
         0.30000E+00
         0.30000E+00
         0.30000E+00
         0.30000E+00
         0.30000E+00
         0.30000E+00
         0.30000E+00
         0.30000E+00
         0.30000E+00
         0.30000E+00
         0.30000E+00
         0.30000E+00
         0.30000E+00
         0.30000E+00
         0.30000E+00
         0.30000E+00
         0.30000E+00
         0.30000E+00
         0.30000E+00
         0.30000E+00
         0.30000E+00
         0.30000E+00
         0.30000E+00
         0.30000E+00
         0.30000E+00
         0.30000E+00
         0.30000E+00
         0.30000E+00
         0.30000E+00
         0.30000E+00
         0.30000E+00
         0.30000E+00
         0.30000E+00
         0.30000E+00
         0.30000E+00
         0.30000E+00
         0.30000E+00
         0.30000E+00
         0.30000E+00
         0.30000E+00
         0.30000E+00
         0.30000E+00
         0.30000E+00
         0.30000E+00
         0.30000E+00
         0.30000E+00
         0.30000E+00
         0.30000E+00
         0.30000E+00
         0.30000E+00
         0.30000E+00
         0.30000E+00
         0.30000E+00
         0.30000E+00
         0.30000E+00
         0.30000E+00
         0.30000E+00
         0.30000E+00
         0.30000E+00
         0.30000E+00
         0.30000E+00
         0.30000E+00
         0.30000E+00
         0.30000E+00
         0.30000E+00
         0.30000E+00
         0.30000E+00
         0.30000E+00
         0.30000E+00
         0.30000E+00
         0.30000E+00
         0.30000E+00
         0.30000E+00
         0.30000E+00
         0.30000E+00
         0.30000E+00
         0.30000E+00
         0.30000E+00
         0.30000E+00
         0.30000E+00
         0.30000E+00
         0.30000E+00
         0.30000E+00
         0.30000E+00
         0.30000E+00
         0.30000E+00
         0.30000E+00
         0.30000E+00
         0.30000E+00
         0.30000E+00
         0.30000E+00
         0.30000E+00
         0.30000E+00
         0.30000E+00
         0.30000E+00
         0.30000E+00
         0.30000E+00
         0.30000E+00
         0.30000E+00
         0.30000E+00
         0.30000E+00
         0.30000E+00
         0.30000E+00
         0.30000E+00
         0.30000E+00
         0.30000E+00
         0.30000E+00
         0.30000E+00
         0.30000E+00
         0.30000E+00
         0.30000E+00
         0.30000E+00
         0.30000E+00
         0.30000E+00
         0.30000E+00
         0.30000E+00
         0.30000E+00
         0.30000E+00
         0.30000E+00
         0.30000E+00
         0.30000E+00
         0.30000E+00
         0.30000E+00
         0.30000E+00
         0.30000E+00
         0.30000E+00
         0.30000E+00
         0.30000E+00
         0.30000E+00
         0.30000E+00
         0.30000E+00
         0.30000E+00
         0.30000E+00
         0.30000E+00
         0.30000E+00
         0.30000E+00
         0.30000E+00
         0.30000E+00
         0.30000E+00
         0.30000E+00
         0.30000E+00
         0.30000E+00
         0.30000E+00
         0.30000E+00
         0.30000E+00
         0.30000E+00
         0.30000E+00
         0.30000E+00
         0.30000E+00
         0.30000E+00
         0.30000E+00
         0.30000E+00
         0.30000E+00
         0.30000E+00
         0.30000E+00
         0.30000E+00
         0.30000E+00
         0.30000E+00
         0.30000E+00
         0.30000E+00
         0.30000E+00
         0.30000E+00
         0.30000E+00
         0.30000E+00
         0.30000E+00
         0.30000E+00
         0.30000E+00
         0.30000E+00
         0.30000E+00
         0.30000E+00
         0.30000E+00
         0.30000E+00
         0.30000E+00
         0.30000E+00
         0.30000E+00
         0.30000E+00
         0.30000E+00
         0.30000E+00
         0.30000E+00
         0.30000E+00
         0.30000E+00
         0.30000E+00
         0.30000E+00
         0.30000E+00
         0.30000E+00
         0.30000E+00
         0.30000E+00
         0.30000E+00
         0.30000E+00
         0.30000E+00
         0.30000E+00
         0.30000E+00
         0.30000E+00
         0.30000E+00
         0.30000E+00
         0.30000E+00
         0.30000E+00
         0.30000E+00
         0.30000E+00
         0.30000E+00
         0.30000E+00
         0.30000E+00
         0.30000E+00
         0.30000E+00
         0.30000E+00
         0.30000E+00
         0.30000E+00
         0.30000E+00
         0.30000E+00
         0.30000E+00
         0.30000E+00
         0.30000E+00
         0.30000E+00
         0.30000E+00
         0.30000E+00
         0.30000E+00
         0.30000E+00
         0.30000E+00
         0.30000E+00
         0.30000E+00
         0.30000E+00
         0.30000E+00
         0.30000E+00
         0.30000E+00
         0.30000E+00
         0.30000E+00
         0.30000E+00
         0.30000E+00
         0.30000E+00
         0.30000E+00
         0.30000E+00
         0.30000E+00
         0.30000E+00
         0.30000E+00
         0.30000E+00
         0.30000E+00
         0.30000E+00
         0.30000E+00
         0.30000E+00
         0.30000E+00
         0.30000E+00
         0.30000E+00
         0.30000E+00
         0.30000E+00
         0.30000E+00
         0.30000E+00
         0.30000E+00
         0.30000E+00
         0.30000E+00
         0.30000E+00
         0.30000E+00
         0.30000E+00
         0.30000E+00
         0.30000E+00
         0.30000E+00
         0.30000E+00
         0.30000E+00
         0.30000E+00
         0.30000E+00
         0.30000E+00
         0.30000E+00
         0.30000E+00
         0.30000E+00
         0.30000E+00
         0.30000E+00
         0.30000E+00
         0.30000E+00
         0.30000E+00
         0.30000E+00
         0.30000E+00
         0.30000E+00
         0.30000E+00
         0.30000E+00
         0.30000E+00
         0.30000E+00
         0.30000E+00
         0.30000E+00
         0.30000E+00
         0.30000E+00
         0.30000E+00
         0.30000E+00
         0.30000E+00
         0.30000E+00
         0.30000E+00
         0.30000E+00
         0.30000E+00
         0.30000E+00
         0.30000E+00
         0.30000E+00
         0.30000E+00
         0.30000E+00
         0.30000E+00
         0.30000E+00
         0.30000E+00
         0.30000E+00
         0.30000E+00
         0.30000E+00
         0.30000E+00
         0.30000E+00
         0.30000E+00
         0.30000E+00
         0.30000E+00
         0.30000E+00
         0.30000E+00
         0.30000E+00
         0.30000E+00
         0.30000E+00
         0.30000E+00
         0.30000E+00
         0.30000E+00
         0.30000E+00
         0.30000E+00
         0.30000E+00
         0.30000E+00
         0.30000E+00
         0.30000E+00
         0.30000E+00
         0.30000E+00
         0.30000E+00
         0.30000E+00
         0.30000E+00
         0.30000E+00
         0.30000E+00
         0.30000E+00
         0.30000E+00
         0.30000E+00
         0.30000E+00
         0.30000E+00
         0.30000E+00
         0.30000E+00
         0.30000E+00
         0.30000E+00
         0.30000E+00
         0.30000E+00
         0.30000E+00
         0.30000E+00
         0.30000E+00
         0.30000E+00
         0.30000E+00
         0.30000E+00
         0.30000E+00
         0.30000E+00
         0.30000E+00
         0.30000E+00
         0.30000E+00
         0.30000E+00
         0.30000E+00
         0.30000E+00
         0.30000E+00
         0.30000E+00
         0.30000E+00
         0.30000E+00
         0.30000E+00
         0.30000E+00
         0.30000E+00
         0.30000E+00
         0.30000E+00
         0.30000E+00
         0.30000E+00
         0.30000E+00
         0.30000E+00
         0.30000E+00
         0.30000E+00
         0.30000E+00
         0.30000E+00
         0.30000E+00
         0.30000E+00
         0.30000E+00
         0.30000E+00
         0.30000E+00
         0.30000E+00
         0.30000E+00
         0.30000E+00
         0.30000E+00
         0.30000E+00
         0.30000E+00
         0.30000E+00
         0.30000E+00
         0.30000E+00
         0.30000E+00
         0.30000E+00
         0.30000E+00
         0.30000E+00
         0.30000E+00
         0.30000E+00
         0.30000E+00
         0.30000E+00
         0.30000E+00
         0.30000E+00
         0.30000E+00
         0.30000E+00
         0.30000E+00
         0.30000E+00
         0.30000E+00
         0.30000E+00
         0.30000E+00
         0.30000E+00
         0.30000E+00
         0.30000E+00
         0.30000E+00
         0.30000E+00
         0.30000E+00
         0.30000E+00
         0.30000E+00
         0.30000E+00
         0.30000E+00
         0.30000E+00
         0.30000E+00
         0.30000E+00
         0.30000E+00
         0.30000E+00
         0.30000E+00
         0.30000E+00
         0.30000E+00
         0.30000E+00
         0.30000E+00
         0.30000E+00
         0.30000E+00
         0.30000E+00
         0.30000E+00
         0.30000E+00
         0.30000E+00
         0.30000E+00
         0.30000E+00
         0.30000E+00
         0.30000E+00
         0.30000E+00
         0.30000E+00
         0.30000E+00
         0.30000E+00
         0.30000E+00
         0.30000E+00
         0.30000E+00
         0.30000E+00
         0.30000E+00
         0.30000E+00
         0.30000E+00
         0.30000E+00
         0.30000E+00
         0.30000E+00
         0.30000E+00
         0.30000E+00
         0.30000E+00
         0.30000E+00
         0.30000E+00
         0.30000E+00
         0.30000E+00
         0.30000E+00
         0.30000E+00
         0.30000E+00
         0.30000E+00
         0.30000E+00
         0.30000E+00
         0.30000E+00
         0.30000E+00
         0.30000E+00
         0.30000E+00
         0.30000E+00
         0.30000E+00
         0.30000E+00
         0.30000E+00
         0.30000E+00
         0.30000E+00
         0.30000E+00
         0.30000E+00
         0.30000E+00
         0.30000E+00
         0.30000E+00
         0.30000E+00
         0.30000E+00
         0.30000E+00
         0.30000E+00
         0.30000E+00
         0.30000E+00
         0.30000E+00
         0.30000E+00
         0.30000E+00
         0.30000E+00
         0.30000E+00
         0.30000E+00
         0.30000E+00
         0.30000E+00
         0.30000E+00
         0.30000E+00
         0.30000E+00
         0.30000E+00
         0.30000E+00
         0.30000E+00
         0.30000E+00
         0.30000E+00
         0.30000E+00
         0.30000E+00
         0.30000E+00
         0.30000E+00
         0.30000E+00
         0.30000E+00
         0.30000E+00
         0.30000E+00
         0.30000E+00
         0.30000E+00
         0.30000E+00
         0.30000E+00
         0.30000E+00
         0.30000E+00
         0.30000E+00
         0.30000E+00
         0.30000E+00
         0.30000E+00
         0.30000E+00
         0.30000E+00
         0.30000E+00
         0.30000E+00
         0.30000E+00
         0.30000E+00
         0.30000E+00
         0.30000E+00
         0.30000E+00
         0.30000E+00
         0.30000E+00
         0.30000E+00
         0.30000E+00
         0.30000E+00
         0.30000E+00
         0.30000E+00
         0.30000E+00
         0.30000E+00
         0.30000E+00
         0.30000E+00
         0.30000E+00
         0.30000E+00
         0.30000E+00
         0.30000E+00
         0.30000E+00
         0.30000E+00
         0.30000E+00
         0.30000E+00
         0.30000E+00
         0.30000E+00
         0.30000E+00
         0.30000E+00
         0.30000E+00
         0.30000E+00
         0.30000E+00
         0.30000E+00
         0.30000E+00
         0.30000E+00
         0.30000E+00
         0.30000E+00
         0.30000E+00
         0.30000E+00
         0.30000E+00
         0.30000E+00
         0.30000E+00
         0.30000E+00
         0.30000E+00
         0.30000E+00
         0.30000E+00
         0.30000E+00
         0.30000E+00
         0.30000E+00
         0.30000E+00
         0.30000E+00
         0.30000E+00
         0.30000E+00
         0.30000E+00
         0.30000E+00
         0.30000E+00
         0.30000E+00
         0.30000E+00
         0.30000E+00
         0.30000E+00
         0.30000E+00
         0.30000E+00
         0.30000E+00
         0.30000E+00
         0.30000E+00
         0.30000E+00
         0.30000E+00
         0.30000E+00
         0.30000E+00
         0.30000E+00
         0.30000E+00
         0.30000E+00
         0.30000E+00
         0.30000E+00
         0.30000E+00
         0.30000E+00
         0.30000E+00
         0.30000E+00
         0.30000E+00
         0.30000E+00
         0.30000E+00
         0.30000E+00
         0.30000E+00
         0.30000E+00
         0.30000E+00
         0.30000E+00
         0.30000E+00
         0.30000E+00
         0.30000E+00
         0.30000E+00
         0.30000E+00
         0.30000E+00
         0.30000E+00
         0.30000E+00
         0.30000E+00
         0.30000E+00
         0.30000E+00
         0.30000E+00
         0.30000E+00
         0.30000E+00
         0.30000E+00
         0.30000E+00
         0.30000E+00
         0.30000E+00
         0.30000E+00
         0.30000E+00
         0.30000E+00
         0.30000E+00
         0.30000E+00
         0.30000E+00
         0.30000E+00
         0.30000E+00
         0.30000E+00
         0.30000E+00
         0.30000E+00
         0.30000E+00
         0.30000E+00
         0.30000E+00
         0.30000E+00
         0.30000E+00
         0.30000E+00
         0.30000E+00
         0.30000E+00
         0.30000E+00
         0.30000E+00
         0.30000E+00
         0.30000E+00
         0.30000E+00
         0.30000E+00
         0.30000E+00
         0.30000E+00
         0.30000E+00
         0.30000E+00
         0.30000E+00
         0.30000E+00
         0.30000E+00
         0.30000E+00
         0.30000E+00
         0.30000E+00
         0.30000E+00
         0.30000E+00
         0.30000E+00
         0.30000E+00
         0.30000E+00
         0.30000E+00
         0.30000E+00
         0.30000E+00
         0.30000E+00
         0.30000E+00
         0.30000E+00
         0.30000E+00
         0.30000E+00
         0.30000E+00
         0.30000E+00
         0.30000E+00
         0.30000E+00
         0.30000E+00
         0.30000E+00
         0.30000E+00
         0.30000E+00
         0.30000E+00
         0.30000E+00
         0.30000E+00
         0.30000E+00
         0.30000E+00
         0.30000E+00
         0.30000E+00
         0.30000E+00
         0.30000E+00
         0.30000E+00
         0.30000E+00
         0.30000E+00
         0.30000E+00
         0.30000E+00
         0.30000E+00
         0.30000E+00
         0.30000E+00
         0.30000E+00
         0.30000E+00
         0.30000E+00
         0.30000E+00
         0.30000E+00
         0.30000E+00
         0.30000E+00
         0.30000E+00
         0.30000E+00
         0.30000E+00
         0.30000E+00
         0.30000E+00
         0.30000E+00
         0.30000E+00
         0.30000E+00
         0.30000E+00
         0.30000E+00
         0.30000E+00
         0.30000E+00
         0.30000E+00
         0.30000E+00
         0.30000E+00
         0.30000E+00
         0.30000E+00
         0.30000E+00
         0.30000E+00
         0.30000E+00
         0.30000E+00
         0.30000E+00
         0.30000E+00
         0.30000E+00
         0.30000E+00
         0.30000E+00
         0.30000E+00
         0.30000E+00
         0.30000E+00
         0.30000E+00
         0.30000E+00
         0.30000E+00
         0.30000E+00
         0.30000E+00
         0.30000E+00
         0.30000E+00
         0.30000E+00
         0.30000E+00
         0.30000E+00
         0.30000E+00
         0.30000E+00
         0.30000E+00
         0.30000E+00
         0.30000E+00
         0.30000E+00
         0.30000E+00
         0.30000E+00
         0.30000E+00
         0.30000E+00
         0.30000E+00
         0.30000E+00
         0.30000E+00
         0.30000E+00
         0.30000E+00
         0.30000E+00
         0.30000E+00
         0.30000E+00
         0.30000E+00
         0.30000E+00
         0.30000E+00
         0.30000E+00
         0.30000E+00
         0.30000E+00
         0.30000E+00
         0.30000E+00
         0.30000E+00
         0.30000E+00
         0.30000E+00
         0.30000E+00
         0.30000E+00
         0.30000E+00
         0.30000E+00
         0.30000E+00
         0.30000E+00
         0.30000E+00
         0.30000E+00
         0.30000E+00
         0.30000E+00
         0.30000E+00
         0.30000E+00
         0.30000E+00
         0.30000E+00
         0.30000E+00
         0.30000E+00
         0.30000E+00
         0.30000E+00
         0.30000E+00
         0.30000E+00
         0.30000E+00
         0.30000E+00
         0.30000E+00
         0.30000E+00
         0.30000E+00
         0.30000E+00
         0.30000E+00
         0.30000E+00
         0.30000E+00
         0.30000E+00
         0.30000E+00
         0.30000E+00
         0.30000E+00
         0.30000E+00
         0.30000E+00
         0.30000E+00
         0.30000E+00
         0.30000E+00
         0.30000E+00
         0.30000E+00
         0.30000E+00
         0.30000E+00
         0.30000E+00
         0.30000E+00
         0.30000E+00
         0.30000E+00
         0.30000E+00
         0.30000E+00
         0.30000E+00
         0.30000E+00
         0.30000E+00
         0.30000E+00
         0.30000E+00
         0.30000E+00
         0.30000E+00
         0.30000E+00
         0.30000E+00
         0.30000E+00
         0.30000E+00
         0.30000E+00
         0.30000E+00
         0.30000E+00
         0.30000E+00
         0.30000E+00
         0.30000E+00
         0.30000E+00
         0.30000E+00
         0.30000E+00
         0.30000E+00
         0.30000E+00
         0.30000E+00
         0.30000E+00
         0.30000E+00
         0.30000E+00
         0.30000E+00
         0.30000E+00
         0.30000E+00
         0.30000E+00
         0.30000E+00
         0.30000E+00
         0.30000E+00
         0.30000E+00
         0.30000E+00
         0.30000E+00
         0.30000E+00
         0.30000E+00
         0.30000E+00
         0.30000E+00
         0.30000E+00
         0.30000E+00
         0.30000E+00
         0.30000E+00
         0.30000E+00
         0.30000E+00
         0.30000E+00
         0.30000E+00
         0.30000E+00
         0.30000E+00
         0.30000E+00
         0.30000E+00
         0.30000E+00
         0.30000E+00
         0.30000E+00
         0.30000E+00
         0.30000E+00
         0.30000E+00
         0.30000E+00
         0.30000E+00
         0.30000E+00
         0.30000E+00
         0.30000E+00
         0.30000E+00
         0.30000E+00
         0.30000E+00
         0.30000E+00
         0.30000E+00
         0.30000E+00
         0.30000E+00
         0.30000E+00
         0.30000E+00
         0.30000E+00
         0.30000E+00
         0.30000E+00
         0.30000E+00
         0.30000E+00
         0.30000E+00
         0.30000E+00
         0.30000E+00
         0.30000E+00
         0.30000E+00
         0.30000E+00
         0.30000E+00
         0.30000E+00
         0.30000E+00
         0.30000E+00
         0.30000E+00
         0.30000E+00
         0.30000E+00
         0.30000E+00
         0.30000E+00
         0.30000E+00
         0.30000E+00
         0.30000E+00
         0.30000E+00
         0.30000E+00
         0.30000E+00
         0.30000E+00
         0.30000E+00
         0.30000E+00
         0.30000E+00
         0.30000E+00
         0.30000E+00
         0.30000E+00
         0.30000E+00
         0.30000E+00
         0.30000E+00
         0.30000E+00
         0.30000E+00
         0.30000E+00
         0.30000E+00
         0.30000E+00
         0.30000E+00
         0.30000E+00
         0.30000E+00
         0.30000E+00
         0.30000E+00
         0.30000E+00
         0.30000E+00
         0.30000E+00
         0.30000E+00
         0.30000E+00
         0.30000E+00
         0.30000E+00
         0.30000E+00
         0.30000E+00
         0.30000E+00
         0.30000E+00
         0.30000E+00
         0.30000E+00
         0.30000E+00
         0.30000E+00
         0.30000E+00
         0.30000E+00
         0.30000E+00
         0.30000E+00
         0.30000E+00
         0.30000E+00
         0.30000E+00
         0.30000E+00
         0.30000E+00
         0.30000E+00
         0.30000E+00
         0.30000E+00
         0.30000E+00
         0.30000E+00
         0.30000E+00
         0.30000E+00
         0.30000E+00
         0.30000E+00
         0.30000E+00
         0.30000E+00
         0.30000E+00
         0.30000E+00
         0.30000E+00
         0.30000E+00
         0.30000E+00
         0.30000E+00
         0.30000E+00
         0.30000E+00
         0.30000E+00
         0.30000E+00
         0.30000E+00
         0.30000E+00
         0.30000E+00
         0.30000E+00
         0.30000E+00
         0.30000E+00
         0.30000E+00
         0.30000E+00
         0.30000E+00
         0.30000E+00
         0.30000E+00
         0.30000E+00
         0.30000E+00
         0.30000E+00
         0.30000E+00
         0.30000E+00
         0.30000E+00
         0.30000E+00
         0.30000E+00
         0.30000E+00
         0.30000E+00
         0.30000E+00
         0.30000E+00
         0.30000E+00
         0.30000E+00
         0.30000E+00
         0.30000E+00
         0.30000E+00
         0.30000E+00
         0.30000E+00
         0.30000E+00
         0.30000E+00
         0.30000E+00
         0.30000E+00
         0.30000E+00
         0.30000E+00
         0.30000E+00
         0.30000E+00
         0.30000E+00
         0.30000E+00
         0.30000E+00
         0.30000E+00
         0.30000E+00
         0.30000E+00
         0.30000E+00
         0.30000E+00
         0.30000E+00
         0.30000E+00
         0.30000E+00
         0.30000E+00
         0.30000E+00
         0.30000E+00
         0.30000E+00
         0.30000E+00
         0.30000E+00
         0.30000E+00
         0.30000E+00
         0.30000E+00
         0.30000E+00
         0.30000E+00
         0.30000E+00
         0.30000E+00
         0.30000E+00
         0.30000E+00
         0.30000E+00
         0.30000E+00
         0.30000E+00
         0.30000E+00
         0.30000E+00
         0.30000E+00
         0.30000E+00
         0.30000E+00
         0.30000E+00
         0.30000E+00
         0.30000E+00
         0.30000E+00
         0.30000E+00
         0.30000E+00
         0.30000E+00
         0.30000E+00
         0.30000E+00
         0.30000E+00
         0.30000E+00
         0.30000E+00
         0.30000E+00
         0.30000E+00
         0.30000E+00
         0.30000E+00
         0.30000E+00
         0.30000E+00
         0.30000E+00
         0.30000E+00
         0.30000E+00
         0.30000E+00
         0.30000E+00
         0.30000E+00
         0.30000E+00
         0.30000E+00
         0.30000E+00
         0.30000E+00
         0.30000E+00
         0.30000E+00
         0.30000E+00
         0.30000E+00
         0.30000E+00
         0.30000E+00
         0.30000E+00
         0.30000E+00
         0.30000E+00
         0.30000E+00
         0.30000E+00
         0.30000E+00
         0.30000E+00
         0.30000E+00
         0.30000E+00
         0.30000E+00
         0.30000E+00
         0.30000E+00
         0.30000E+00
         0.30000E+00
         0.30000E+00
         0.30000E+00
         0.30000E+00
         0.30000E+00
         0.30000E+00
         0.30000E+00
         0.30000E+00
         0.30000E+00
         0.30000E+00
         0.30000E+00
         0.30000E+00
         0.30000E+00
         0.30000E+00
         0.30000E+00
         0.30000E+00
         0.30000E+00
         0.30000E+00
         0.30000E+00
         0.30000E+00
         0.30000E+00
         0.30000E+00
         0.30000E+00
         0.30000E+00
         0.30000E+00
         0.30000E+00
         0.30000E+00
         0.30000E+00
         0.30000E+00
         0.30000E+00
         0.30000E+00
         0.30000E+00
         0.30000E+00
         0.30000E+00
         0.30000E+00
         0.30000E+00
         0.30000E+00
         0.30000E+00
         0.30000E+00
         0.30000E+00
         0.30000E+00
         0.30000E+00
         0.30000E+00
         0.30000E+00
         0.30000E+00
         0.30000E+00
         0.30000E+00
         0.30000E+00
         0.30000E+00
         0.30000E+00
         0.30000E+00
         0.30000E+00
         0.30000E+00
         0.30000E+00
         0.30000E+00
         0.30000E+00
         0.30000E+00
         0.30000E+00
         0.30000E+00
         0.30000E+00
         0.30000E+00
         0.30000E+00
         0.30000E+00
         0.30000E+00
         0.30000E+00
         0.30000E+00
         0.30000E+00
         0.30000E+00
         0.30000E+00
         0.30000E+00
         0.30000E+00
         0.30000E+00
         0.30000E+00
         0.30000E+00
         0.30000E+00
         0.30000E+00
         0.30000E+00
         0.30000E+00
         0.30000E+00
         0.30000E+00
         0.30000E+00
         0.30000E+00
         0.30000E+00
         0.30000E+00
         0.30000E+00
         0.30000E+00
         0.30000E+00
         0.30000E+00
         0.30000E+00
         0.30000E+00
         0.30000E+00
         0.30000E+00
         0.30000E+00
         0.30000E+00
         0.30000E+00
         0.30000E+00
         0.30000E+00
         0.30000E+00
         0.30000E+00
         0.30000E+00
         0.30000E+00
         0.30000E+00
         0.30000E+00
         0.30000E+00
         0.30000E+00
         0.30000E+00
         0.30000E+00
         0.30000E+00
         0.30000E+00
         0.30000E+00
         0.30000E+00
         0.30000E+00
         0.30000E+00
         0.30000E+00
         0.30000E+00
         0.30000E+00
         0.30000E+00
         0.30000E+00
         0.30000E+00
         0.30000E+00
         0.30000E+00
         0.30000E+00
         0.30000E+00
         0.30000E+00
         0.30000E+00
         0.30000E+00
         0.30000E+00
         0.30000E+00
         0.30000E+00
         0.30000E+00
         0.30000E+00
         0.30000E+00
         0.30000E+00
         0.30000E+00
         0.30000E+00
         0.30000E+00
         0.30000E+00
         0.30000E+00
         0.30000E+00
         0.30000E+00
         0.30000E+00
         0.30000E+00
         0.30000E+00
         0.30000E+00
         0.30000E+00
         0.30000E+00
         0.30000E+00
         0.30000E+00
         0.30000E+00
         0.30000E+00
         0.30000E+00
         0.30000E+00
         0.30000E+00
         0.30000E+00
         0.30000E+00
         0.30000E+00
         0.30000E+00
         0.30000E+00
         0.30000E+00
         0.30000E+00
         0.30000E+00
         0.30000E+00
         0.30000E+00
         0.30000E+00
         0.30000E+00
         0.30000E+00
         0.30000E+00
         0.30000E+00
         0.30000E+00
         0.30000E+00
         0.30000E+00
         0.30000E+00
         0.30000E+00
         0.30000E+00
         0.30000E+00
         0.30000E+00
         0.30000E+00
         0.30000E+00
         0.30000E+00
         0.30000E+00
         0.30000E+00
         0.30000E+00
         0.30000E+00
         0.30000E+00
         0.30000E+00
         0.30000E+00
         0.30000E+00
         0.30000E+00
         0.30000E+00
         0.30000E+00
         0.30000E+00
         0.30000E+00
         0.30000E+00
         0.30000E+00
         0.30000E+00
         0.30000E+00
         0.30000E+00
         0.30000E+00
         0.30000E+00
         0.30000E+00
         0.30000E+00
         0.30000E+00
         0.30000E+00
         0.30000E+00
         0.30000E+00
         0.30000E+00
         0.30000E+00
         0.30000E+00
         0.30000E+00
         0.30000E+00
         0.30000E+00
         0.30000E+00
         0.30000E+00
         0.30000E+00
         0.30000E+00
         0.30000E+00
         0.30000E+00
         0.30000E+00
         0.30000E+00
         0.30000E+00
         0.30000E+00
         0.30000E+00
         0.30000E+00
         0.30000E+00
         0.30000E+00
         0.30000E+00
         0.30000E+00
         0.30000E+00
         0.30000E+00
         0.30000E+00
         0.30000E+00
         0.30000E+00
         0.30000E+00
         0.30000E+00
         0.30000E+00
         0.30000E+00
         0.30000E+00
         0.30000E+00
         0.30000E+00
         0.30000E+00
         0.30000E+00
         0.30000E+00
         0.30000E+00
         0.30000E+00
         0.30000E+00
         0.30000E+00
         0.30000E+00
         0.30000E+00
         0.30000E+00
         0.30000E+00
         0.30000E+00
         0.30000E+00
         0.30000E+00
         0.30000E+00
         0.30000E+00
         0.30000E+00
         0.30000E+00
         0.30000E+00
         0.30000E+00
         0.30000E+00
         0.30000E+00
         0.30000E+00
         0.30000E+00
         0.30000E+00
         0.30000E+00
         0.30000E+00
         0.30000E+00
         0.30000E+00
         0.30000E+00
         0.30000E+00
         0.30000E+00
         0.30000E+00
         0.30000E+00
         0.30000E+00
         0.30000E+00
         0.30000E+00
         0.30000E+00
         0.30000E+00
         0.30000E+00
         0.30000E+00
         0.30000E+00
         0.30000E+00
         0.30000E+00
         0.30000E+00
         0.30000E+00
         0.30000E+00
         0.30000E+00
         0.30000E+00
         0.30000E+00
         0.30000E+00
         0.30000E+00
         0.30000E+00
         0.30000E+00
         0.30000E+00
         0.30000E+00
         0.30000E+00
         0.30000E+00
         0.30000E+00
         0.30000E+00
         0.30000E+00
         0.30000E+00
         0.30000E+00
         0.30000E+00
         0.30000E+00
         0.30000E+00
         0.30000E+00
         0.30000E+00
         0.30000E+00
         0.30000E+00
         0.30000E+00
         0.30000E+00
         0.30000E+00
         0.30000E+00
         0.30000E+00
         0.30000E+00
         0.30000E+00
         0.30000E+00
         0.30000E+00
         0.30000E+00
         0.30000E+00
         0.30000E+00
         0.30000E+00
         0.30000E+00
         0.30000E+00
         0.30000E+00
         0.30000E+00
         0.30000E+00
         0.30000E+00
         0.30000E+00
         0.30000E+00
         0.30000E+00
         0.30000E+00
         0.30000E+00
         0.30000E+00
         0.30000E+00
         0.30000E+00
         0.30000E+00
         0.30000E+00
         0.30000E+00
         0.30000E+00
         0.30000E+00
         0.30000E+00
         0.30000E+00
         0.30000E+00
         0.30000E+00
         0.30000E+00
         0.30000E+00
         0.30000E+00
         0.30000E+00
         0.30000E+00
         0.30000E+00
         0.30000E+00
         0.30000E+00
         0.30000E+00
         0.30000E+00
         0.30000E+00
         0.30000E+00
         0.30000E+00
         0.30000E+00
         0.30000E+00
         0.30000E+00
         0.30000E+00
         0.30000E+00
         0.30000E+00
         0.30000E+00
         0.30000E+00
         0.30000E+00
         0.30000E+00
         0.30000E+00
         0.30000E+00
         0.30000E+00
         0.30000E+00
         0.30000E+00
         0.30000E+00
         0.30000E+00
         0.30000E+00
         0.30000E+00
         0.30000E+00
         0.30000E+00
         0.30000E+00
         0.30000E+00
         0.30000E+00
         0.30000E+00
         0.30000E+00
         0.30000E+00
         0.30000E+00
         0.30000E+00
         0.30000E+00
         0.30000E+00
         0.30000E+00
         0.30000E+00
         0.30000E+00
         0.30000E+00
         0.30000E+00
         0.30000E+00
         0.30000E+00
         0.30000E+00
         0.30000E+00
         0.30000E+00
         0.30000E+00
         0.30000E+00
         0.30000E+00
         0.30000E+00
         0.30000E+00
         0.30000E+00
         0.30000E+00
         0.30000E+00
         0.30000E+00
         0.30000E+00
         0.30000E+00
         0.30000E+00
         0.30000E+00
         0.30000E+00
         0.30000E+00
         0.30000E+00
         0.30000E+00
         0.30000E+00
         0.30000E+00
         0.30000E+00
         0.30000E+00
         0.30000E+00
         0.30000E+00
         0.30000E+00
         0.30000E+00
         0.30000E+00
         0.30000E+00
         0.30000E+00
         0.30000E+00
         0.30000E+00
         0.30000E+00
         0.30000E+00
         0.30000E+00
         0.30000E+00
         0.30000E+00
         0.30000E+00
         0.30000E+00
         0.30000E+00
         0.30000E+00
         0.30000E+00
         0.30000E+00
         0.30000E+00
         0.30000E+00
         0.30000E+00
         0.30000E+00
         0.30000E+00
         0.30000E+00
         0.30000E+00
         0.30000E+00
         0.30000E+00
         0.30000E+00
         0.30000E+00
         0.30000E+00
         0.30000E+00
         0.30000E+00
         0.30000E+00
         0.30000E+00
         0.30000E+00
         0.30000E+00
         0.30000E+00
         0.30000E+00
         0.30000E+00
         0.30000E+00
         0.30000E+00
         0.30000E+00
         0.30000E+00
         0.30000E+00
         0.30000E+00
         0.30000E+00
         0.30000E+00
         0.30000E+00
         0.30000E+00
         0.30000E+00
         0.30000E+00
         0.30000E+00
         0.30000E+00
         0.30000E+00
         0.30000E+00
         0.30000E+00
         0.30000E+00
         0.30000E+00
         0.30000E+00
         0.30000E+00
         0.30000E+00
         0.30000E+00
         0.30000E+00
         0.30000E+00
         0.30000E+00
         0.30000E+00
         0.30000E+00
         0.30000E+00
         0.30000E+00
         0.30000E+00
         0.30000E+00
         0.30000E+00
         0.30000E+00
         0.30000E+00
         0.30000E+00
         0.30000E+00
         0.30000E+00
         0.30000E+00
         0.30000E+00
         0.30000E+00
         0.30000E+00
         0.30000E+00
         0.30000E+00
         0.30000E+00
         0.30000E+00
         0.30000E+00
         0.30000E+00
         0.30000E+00
         0.30000E+00
         0.30000E+00
  
SCALARS                 Youngs_modulus  double 1
LOOKUP_TABLE default
         0.78200E+11
         0.78200E+11
         0.78200E+11
         0.78200E+11
         0.78200E+11
         0.78200E+11
         0.78200E+11
         0.78200E+11
         0.78200E+11
         0.78200E+11
         0.78200E+11
         0.78200E+11
         0.78200E+11
         0.78200E+11
         0.78200E+11
         0.78200E+11
         0.78200E+11
         0.78200E+11
         0.78200E+11
         0.78200E+11
         0.78200E+11
         0.78200E+11
         0.78200E+11
         0.78200E+11
         0.78200E+11
         0.78200E+11
         0.78200E+11
         0.78200E+11
         0.78200E+11
         0.78200E+11
         0.78200E+11
         0.78200E+11
         0.78200E+11
         0.78200E+11
         0.78200E+11
         0.78200E+11
         0.78200E+11
         0.78200E+11
         0.78200E+11
         0.78200E+11
         0.78200E+11
         0.78200E+11
         0.78200E+11
         0.78200E+11
         0.78200E+11
         0.78200E+11
         0.78200E+11
         0.78200E+11
         0.78200E+11
         0.78200E+11
         0.78200E+11
         0.78200E+11
         0.78200E+11
         0.78200E+11
         0.78200E+11
         0.78200E+11
         0.78200E+11
         0.78200E+11
         0.78200E+11
         0.78200E+11
         0.78200E+11
         0.78200E+11
         0.78200E+11
         0.78200E+11
         0.78200E+11
         0.78200E+11
         0.78200E+11
         0.78200E+11
         0.78200E+11
         0.78200E+11
         0.78200E+11
         0.78200E+11
         0.78200E+11
         0.78200E+11
         0.78200E+11
         0.78200E+11
         0.78200E+11
         0.78200E+11
         0.78200E+11
         0.78200E+11
         0.78200E+11
         0.78200E+11
         0.78200E+11
         0.78200E+11
         0.78200E+11
         0.78200E+11
         0.78200E+11
         0.78200E+11
         0.78200E+11
         0.78200E+11
         0.78200E+11
         0.78200E+11
         0.78200E+11
         0.78200E+11
         0.78200E+11
         0.78200E+11
         0.78200E+11
         0.78200E+11
         0.78200E+11
         0.78200E+11
         0.78200E+11
         0.78200E+11
         0.78200E+11
         0.78200E+11
         0.78200E+11
         0.78200E+11
         0.78200E+11
         0.78200E+11
         0.78200E+11
         0.78200E+11
         0.78200E+11
         0.78200E+11
         0.78200E+11
         0.78200E+11
         0.78200E+11
         0.78200E+11
         0.78200E+11
         0.78200E+11
         0.78200E+11
         0.78200E+11
         0.78200E+11
         0.78200E+11
         0.78200E+11
         0.78200E+11
         0.78200E+11
         0.78200E+11
         0.78200E+11
         0.78200E+11
         0.78200E+11
         0.78200E+11
         0.78200E+11
         0.78200E+11
         0.78200E+11
         0.78200E+11
         0.78200E+11
         0.78200E+11
         0.78200E+11
         0.78200E+11
         0.78200E+11
         0.78200E+11
         0.78200E+11
         0.78200E+11
         0.78200E+11
         0.78200E+11
         0.78200E+11
         0.78200E+11
         0.78200E+11
         0.78200E+11
         0.78200E+11
         0.78200E+11
         0.78200E+11
         0.78200E+11
         0.78200E+11
         0.78200E+11
         0.78200E+11
         0.78200E+11
         0.78200E+11
         0.78200E+11
         0.78200E+11
         0.78200E+11
         0.78200E+11
         0.78200E+11
         0.78200E+11
         0.78200E+11
         0.78200E+11
         0.78200E+11
         0.78200E+11
         0.78200E+11
         0.78200E+11
         0.78200E+11
         0.78200E+11
         0.78200E+11
         0.78200E+11
         0.78200E+11
         0.78200E+11
         0.78200E+11
         0.78200E+11
         0.78200E+11
         0.78200E+11
         0.78200E+11
         0.78200E+11
         0.78200E+11
         0.78200E+11
         0.78200E+11
         0.78200E+11
         0.78200E+11
         0.78200E+11
         0.78200E+11
         0.78200E+11
         0.78200E+11
         0.78200E+11
         0.78200E+11
         0.78200E+11
         0.78200E+11
         0.78200E+11
         0.78200E+11
         0.78200E+11
         0.78200E+11
         0.78200E+11
         0.78200E+11
         0.78200E+11
         0.78200E+11
         0.78200E+11
         0.78200E+11
         0.78200E+11
         0.78200E+11
         0.78200E+11
         0.78200E+11
         0.78200E+11
         0.78200E+11
         0.78200E+11
         0.78200E+11
         0.78200E+11
         0.78200E+11
         0.78200E+11
         0.78200E+11
         0.78200E+11
         0.78200E+11
         0.78200E+11
         0.78200E+11
         0.78200E+11
         0.78200E+11
         0.78200E+11
         0.78200E+11
         0.78200E+11
         0.78200E+11
         0.78200E+11
         0.78200E+11
         0.78200E+11
         0.78200E+11
         0.78200E+11
         0.78200E+11
         0.78200E+11
         0.78200E+11
         0.78200E+11
         0.78200E+11
         0.78200E+11
         0.78200E+11
         0.78200E+11
         0.78200E+11
         0.78200E+11
         0.78200E+11
         0.78200E+11
         0.78200E+11
         0.78200E+11
         0.78200E+11
         0.78200E+11
         0.78200E+11
         0.78200E+11
         0.78200E+11
         0.78200E+11
         0.78200E+11
         0.78200E+11
         0.78200E+11
         0.78200E+11
         0.78200E+11
         0.78200E+11
         0.78200E+11
         0.78200E+11
         0.78200E+11
         0.78200E+11
         0.78200E+11
         0.78200E+11
         0.78200E+11
         0.78200E+11
         0.78200E+11
         0.78200E+11
         0.78200E+11
         0.78200E+11
         0.78200E+11
         0.78200E+11
         0.78200E+11
         0.78200E+11
         0.78200E+11
         0.78200E+11
         0.78200E+11
         0.78200E+11
         0.78200E+11
         0.78200E+11
         0.78200E+11
         0.78200E+11
         0.78200E+11
         0.78200E+11
         0.78200E+11
         0.78200E+11
         0.78200E+11
         0.78200E+11
         0.78200E+11
         0.78200E+11
         0.78200E+11
         0.78200E+11
         0.78200E+11
         0.78200E+11
         0.78200E+11
         0.78200E+11
         0.78200E+11
         0.78200E+11
         0.78200E+11
         0.78200E+11
         0.78200E+11
         0.78200E+11
         0.78200E+11
         0.78200E+11
         0.78200E+11
         0.78200E+11
         0.78200E+11
         0.78200E+11
         0.78200E+11
         0.78200E+11
         0.78200E+11
         0.78200E+11
         0.78200E+11
         0.78200E+11
         0.78200E+11
         0.78200E+11
         0.78200E+11
         0.78200E+11
         0.78200E+11
         0.78200E+11
         0.78200E+11
         0.78200E+11
         0.78200E+11
         0.78200E+11
         0.78200E+11
         0.78200E+11
         0.78200E+11
         0.78200E+11
         0.78200E+11
         0.78200E+11
         0.78200E+11
         0.78200E+11
         0.78200E+11
         0.78200E+11
         0.78200E+11
         0.78200E+11
         0.78200E+11
         0.78200E+11
         0.78200E+11
         0.78200E+11
         0.78200E+11
         0.78200E+11
         0.78200E+11
         0.78200E+11
         0.78200E+11
         0.78200E+11
         0.78200E+11
         0.78200E+11
         0.78200E+11
         0.78200E+11
         0.78200E+11
         0.78200E+11
         0.78200E+11
         0.78200E+11
         0.78200E+11
         0.78200E+11
         0.78200E+11
         0.78200E+11
         0.78200E+11
         0.78200E+11
         0.78200E+11
         0.78200E+11
         0.78200E+11
         0.78200E+11
         0.78200E+11
         0.78200E+11
         0.78200E+11
         0.78200E+11
         0.78200E+11
         0.78200E+11
         0.78200E+11
         0.78200E+11
         0.78200E+11
         0.78200E+11
         0.78200E+11
         0.78200E+11
         0.78200E+11
         0.78200E+11
         0.78200E+11
         0.78200E+11
         0.78200E+11
         0.78200E+11
         0.78200E+11
         0.78200E+11
         0.78200E+11
         0.78200E+11
         0.78200E+11
         0.78200E+11
         0.78200E+11
         0.78200E+11
         0.78200E+11
         0.78200E+11
         0.78200E+11
         0.78200E+11
         0.78200E+11
         0.78200E+11
         0.78200E+11
         0.78200E+11
         0.78200E+11
         0.78200E+11
         0.78200E+11
         0.78200E+11
         0.78200E+11
         0.78200E+11
         0.78200E+11
         0.78200E+11
         0.78200E+11
         0.78200E+11
         0.78200E+11
         0.78200E+11
         0.78200E+11
         0.78200E+11
         0.78200E+11
         0.78200E+11
         0.78200E+11
         0.78200E+11
         0.78200E+11
         0.78200E+11
         0.78200E+11
         0.78200E+11
         0.78200E+11
         0.78200E+11
         0.78200E+11
         0.78200E+11
         0.78200E+11
         0.78200E+11
         0.78200E+11
         0.78200E+11
         0.78200E+11
         0.78200E+11
         0.78200E+11
         0.78200E+11
         0.78200E+11
         0.78200E+11
         0.78200E+11
         0.78200E+11
         0.78200E+11
         0.78200E+11
         0.78200E+11
         0.78200E+11
         0.78200E+11
         0.78200E+11
         0.78200E+11
         0.78200E+11
         0.78200E+11
         0.78200E+11
         0.78200E+11
         0.78200E+11
         0.78200E+11
         0.78200E+11
         0.78200E+11
         0.78200E+11
         0.78200E+11
         0.78200E+11
         0.78200E+11
         0.78200E+11
         0.78200E+11
         0.78200E+11
         0.78200E+11
         0.78200E+11
         0.78200E+11
         0.78200E+11
         0.78200E+11
         0.78200E+11
         0.78200E+11
         0.78200E+11
         0.78200E+11
         0.78200E+11
         0.78200E+11
         0.78200E+11
         0.78200E+11
         0.78200E+11
         0.78200E+11
         0.78200E+11
         0.78200E+11
         0.78200E+11
         0.78200E+11
         0.78200E+11
         0.78200E+11
         0.78200E+11
         0.78200E+11
         0.78200E+11
         0.78200E+11
         0.78200E+11
         0.78200E+11
         0.78200E+11
         0.78200E+11
         0.78200E+11
         0.78200E+11
         0.78200E+11
         0.78200E+11
         0.78200E+11
         0.78200E+11
         0.78200E+11
         0.78200E+11
         0.78200E+11
         0.78200E+11
         0.78200E+11
         0.78200E+11
         0.78200E+11
         0.78200E+11
         0.78200E+11
         0.78200E+11
         0.78200E+11
         0.78200E+11
         0.78200E+11
         0.78200E+11
         0.78200E+11
         0.78200E+11
         0.78200E+11
         0.78200E+11
         0.78200E+11
         0.78200E+11
         0.78200E+11
         0.78200E+11
         0.78200E+11
         0.78200E+11
         0.78200E+11
         0.78200E+11
         0.78200E+11
         0.78200E+11
         0.78200E+11
         0.78200E+11
         0.78200E+11
         0.78200E+11
         0.78200E+11
         0.78200E+11
         0.78200E+11
         0.78200E+11
         0.78200E+11
         0.78200E+11
         0.78200E+11
         0.78200E+11
         0.78200E+11
         0.78200E+11
         0.78200E+11
         0.78200E+11
         0.78200E+11
         0.78200E+11
         0.78200E+11
         0.78200E+11
         0.78200E+11
         0.78200E+11
         0.78200E+11
         0.78200E+11
         0.78200E+11
         0.78200E+11
         0.78200E+11
         0.78200E+11
         0.78200E+11
         0.78200E+11
         0.78200E+11
         0.78200E+11
         0.78200E+11
         0.78200E+11
         0.78200E+11
         0.78200E+11
         0.78200E+11
         0.78200E+11
         0.78200E+11
         0.78200E+11
         0.78200E+11
         0.78200E+11
         0.78200E+11
         0.78200E+11
         0.78200E+11
         0.78200E+11
         0.78200E+11
         0.78200E+11
         0.78200E+11
         0.78200E+11
         0.78200E+11
         0.78200E+11
         0.78200E+11
         0.78200E+11
         0.78200E+11
         0.78200E+11
         0.78200E+11
         0.78200E+11
         0.78200E+11
         0.78200E+11
         0.78200E+11
         0.78200E+11
         0.78200E+11
         0.78200E+11
         0.78200E+11
         0.78200E+11
         0.78200E+11
         0.78200E+11
         0.78200E+11
         0.78200E+11
         0.78200E+11
         0.78200E+11
         0.78200E+11
         0.78200E+11
         0.78200E+11
         0.78200E+11
         0.78200E+11
         0.78200E+11
         0.78200E+11
         0.78200E+11
         0.78200E+11
         0.78200E+11
         0.78200E+11
         0.78200E+11
         0.78200E+11
         0.78200E+11
         0.78200E+11
         0.78200E+11
         0.78200E+11
         0.78200E+11
         0.78200E+11
         0.78200E+11
         0.78200E+11
         0.78200E+11
         0.78200E+11
         0.78200E+11
         0.78200E+11
         0.78200E+11
         0.78200E+11
         0.78200E+11
         0.78200E+11
         0.78200E+11
         0.78200E+11
         0.78200E+11
         0.78200E+11
         0.78200E+11
         0.78200E+11
         0.78200E+11
         0.78200E+11
         0.78200E+11
         0.78200E+11
         0.78200E+11
         0.78200E+11
         0.78200E+11
         0.78200E+11
         0.78200E+11
         0.78200E+11
         0.78200E+11
         0.78200E+11
         0.78200E+11
         0.78200E+11
         0.78200E+11
         0.78200E+11
         0.78200E+11
         0.78200E+11
         0.78200E+11
         0.78200E+11
         0.78200E+11
         0.78200E+11
         0.78200E+11
         0.78200E+11
         0.78200E+11
         0.78200E+11
         0.78200E+11
         0.78200E+11
         0.78200E+11
         0.78200E+11
         0.78200E+11
         0.78200E+11
         0.78200E+11
         0.78200E+11
         0.78200E+11
         0.78200E+11
         0.78200E+11
         0.78200E+11
         0.78200E+11
         0.78200E+11
         0.78200E+11
         0.78200E+11
         0.78200E+11
         0.78200E+11
         0.78200E+11
         0.78200E+11
         0.78200E+11
         0.78200E+11
         0.78200E+11
         0.78200E+11
         0.78200E+11
         0.78200E+11
         0.78200E+11
         0.78200E+11
         0.78200E+11
         0.78200E+11
         0.78200E+11
         0.78200E+11
         0.78200E+11
         0.78200E+11
         0.78200E+11
         0.78200E+11
         0.78200E+11
         0.78200E+11
         0.78200E+11
         0.78200E+11
         0.78200E+11
         0.78200E+11
         0.78200E+11
         0.78200E+11
         0.78200E+11
         0.78200E+11
         0.78200E+11
         0.78200E+11
         0.78200E+11
         0.78200E+11
         0.78200E+11
         0.78200E+11
         0.78200E+11
         0.78200E+11
         0.78200E+11
         0.78200E+11
         0.78200E+11
         0.78200E+11
         0.78200E+11
         0.78200E+11
         0.78200E+11
         0.78200E+11
         0.78200E+11
         0.78200E+11
         0.78200E+11
         0.78200E+11
         0.78200E+11
         0.78200E+11
         0.78200E+11
         0.78200E+11
         0.78200E+11
         0.78200E+11
         0.78200E+11
         0.78200E+11
         0.78200E+11
         0.78200E+11
         0.78200E+11
         0.78200E+11
         0.78200E+11
         0.78200E+11
         0.78200E+11
         0.78200E+11
         0.78200E+11
         0.78200E+11
         0.78200E+11
         0.78200E+11
         0.78200E+11
         0.78200E+11
         0.78200E+11
         0.78200E+11
         0.78200E+11
         0.78200E+11
         0.78200E+11
         0.78200E+11
         0.78200E+11
         0.78200E+11
         0.78200E+11
         0.78200E+11
         0.78200E+11
         0.78200E+11
         0.78200E+11
         0.78200E+11
         0.78200E+11
         0.78200E+11
         0.78200E+11
         0.78200E+11
         0.78200E+11
         0.78200E+11
         0.78200E+11
         0.78200E+11
         0.78200E+11
         0.78200E+11
         0.78200E+11
         0.78200E+11
         0.78200E+11
         0.78200E+11
         0.78200E+11
         0.78200E+11
         0.78200E+11
         0.78200E+11
         0.78200E+11
         0.78200E+11
         0.78200E+11
         0.78200E+11
         0.78200E+11
         0.78200E+11
         0.78200E+11
         0.78200E+11
         0.78200E+11
         0.78200E+11
         0.78200E+11
         0.78200E+11
         0.78200E+11
         0.78200E+11
         0.78200E+11
         0.78200E+11
         0.78200E+11
         0.78200E+11
         0.78200E+11
         0.78200E+11
         0.78200E+11
         0.78200E+11
         0.78200E+11
         0.78200E+11
         0.78200E+11
         0.78200E+11
         0.78200E+11
         0.78200E+11
         0.78200E+11
         0.78200E+11
         0.78200E+11
         0.78200E+11
         0.78200E+11
         0.78200E+11
         0.78200E+11
         0.78200E+11
         0.78200E+11
         0.78200E+11
         0.78200E+11
         0.78200E+11
         0.78200E+11
         0.78200E+11
         0.78200E+11
         0.78200E+11
         0.78200E+11
         0.78200E+11
         0.78200E+11
         0.78200E+11
         0.78200E+11
         0.78200E+11
         0.78200E+11
         0.78200E+11
         0.78200E+11
         0.78200E+11
         0.78200E+11
         0.78200E+11
         0.78200E+11
         0.78200E+11
         0.78200E+11
         0.78200E+11
         0.78200E+11
         0.78200E+11
         0.78200E+11
         0.78200E+11
         0.78200E+11
         0.78200E+11
         0.78200E+11
         0.78200E+11
         0.78200E+11
         0.78200E+11
         0.78200E+11
         0.78200E+11
         0.78200E+11
         0.78200E+11
         0.78200E+11
         0.78200E+11
         0.78200E+11
         0.78200E+11
         0.78200E+11
         0.78200E+11
         0.78200E+11
         0.78200E+11
         0.78200E+11
         0.78200E+11
         0.78200E+11
         0.78200E+11
         0.78200E+11
         0.78200E+11
         0.78200E+11
         0.78200E+11
         0.78200E+11
         0.78200E+11
         0.78200E+11
         0.78200E+11
         0.78200E+11
         0.78200E+11
         0.78200E+11
         0.78200E+11
         0.78200E+11
         0.78200E+11
         0.78200E+11
         0.78200E+11
         0.78200E+11
         0.78200E+11
         0.78200E+11
         0.78200E+11
         0.78200E+11
         0.78200E+11
         0.78200E+11
         0.78200E+11
         0.78200E+11
         0.78200E+11
         0.78200E+11
         0.78200E+11
         0.78200E+11
         0.78200E+11
         0.78200E+11
         0.78200E+11
         0.78200E+11
         0.78200E+11
         0.78200E+11
         0.78200E+11
         0.78200E+11
         0.78200E+11
         0.78200E+11
         0.78200E+11
         0.78200E+11
         0.78200E+11
         0.78200E+11
         0.78200E+11
         0.78200E+11
         0.78200E+11
         0.78200E+11
         0.78200E+11
         0.78200E+11
         0.78200E+11
         0.78200E+11
         0.78200E+11
         0.78200E+11
         0.78200E+11
         0.78200E+11
         0.78200E+11
         0.78200E+11
         0.78200E+11
         0.78200E+11
         0.78200E+11
         0.78200E+11
         0.78200E+11
         0.78200E+11
         0.78200E+11
         0.78200E+11
         0.78200E+11
         0.78200E+11
         0.78200E+11
         0.78200E+11
         0.78200E+11
         0.78200E+11
         0.78200E+11
         0.78200E+11
         0.78200E+11
         0.78200E+11
         0.78200E+11
         0.78200E+11
         0.78200E+11
         0.78200E+11
         0.78200E+11
         0.78200E+11
         0.78200E+11
         0.78200E+11
         0.78200E+11
         0.78200E+11
         0.78200E+11
         0.78200E+11
         0.78200E+11
         0.78200E+11
         0.78200E+11
         0.78200E+11
         0.78200E+11
         0.78200E+11
         0.78200E+11
         0.78200E+11
         0.78200E+11
         0.78200E+11
         0.78200E+11
         0.78200E+11
         0.78200E+11
         0.78200E+11
         0.78200E+11
         0.78200E+11
         0.78200E+11
         0.78200E+11
         0.78200E+11
         0.78200E+11
         0.78200E+11
         0.78200E+11
         0.78200E+11
         0.78200E+11
         0.78200E+11
         0.78200E+11
         0.78200E+11
         0.78200E+11
         0.78200E+11
         0.78200E+11
         0.78200E+11
         0.78200E+11
         0.78200E+11
         0.78200E+11
         0.78200E+11
         0.78200E+11
         0.78200E+11
         0.78200E+11
         0.78200E+11
         0.78200E+11
         0.78200E+11
         0.78200E+11
         0.78200E+11
         0.78200E+11
         0.78200E+11
         0.78200E+11
         0.78200E+11
         0.78200E+11
         0.78200E+11
         0.78200E+11
         0.78200E+11
         0.78200E+11
         0.78200E+11
         0.78200E+11
         0.78200E+11
         0.78200E+11
         0.78200E+11
         0.78200E+11
         0.78200E+11
         0.78200E+11
         0.78200E+11
         0.78200E+11
         0.78200E+11
         0.78200E+11
         0.78200E+11
         0.78200E+11
         0.78200E+11
         0.78200E+11
         0.78200E+11
         0.78200E+11
         0.78200E+11
         0.78200E+11
         0.78200E+11
         0.78200E+11
         0.78200E+11
         0.78200E+11
         0.78200E+11
         0.78200E+11
         0.78200E+11
         0.78200E+11
         0.78200E+11
         0.78200E+11
         0.78200E+11
         0.78200E+11
         0.78200E+11
         0.78200E+11
         0.78200E+11
         0.78200E+11
         0.78200E+11
         0.78200E+11
         0.78200E+11
         0.78200E+11
         0.78200E+11
         0.78200E+11
         0.78200E+11
         0.78200E+11
         0.78200E+11
         0.78200E+11
         0.78200E+11
         0.78200E+11
         0.78200E+11
         0.78200E+11
         0.78200E+11
         0.78200E+11
         0.78200E+11
         0.78200E+11
         0.78200E+11
         0.78200E+11
         0.78200E+11
         0.78200E+11
         0.78200E+11
         0.78200E+11
         0.78200E+11
         0.78200E+11
         0.78200E+11
         0.78200E+11
         0.78200E+11
         0.78200E+11
         0.78200E+11
         0.78200E+11
         0.78200E+11
         0.78200E+11
         0.78200E+11
         0.78200E+11
         0.78200E+11
         0.78200E+11
         0.78200E+11
         0.78200E+11
         0.78200E+11
         0.78200E+11
         0.78200E+11
         0.78200E+11
         0.78200E+11
         0.78200E+11
         0.78200E+11
         0.78200E+11
         0.78200E+11
         0.78200E+11
         0.78200E+11
         0.78200E+11
         0.78200E+11
         0.78200E+11
         0.78200E+11
         0.78200E+11
         0.78200E+11
         0.78200E+11
         0.78200E+11
         0.78200E+11
         0.78200E+11
         0.78200E+11
         0.78200E+11
         0.78200E+11
         0.78200E+11
         0.78200E+11
         0.78200E+11
         0.78200E+11
         0.78200E+11
         0.78200E+11
         0.78200E+11
         0.78200E+11
         0.78200E+11
         0.78200E+11
         0.78200E+11
         0.78200E+11
         0.78200E+11
         0.78200E+11
         0.78200E+11
         0.78200E+11
         0.78200E+11
         0.78200E+11
         0.78200E+11
         0.78200E+11
         0.78200E+11
         0.78200E+11
         0.78200E+11
         0.78200E+11
         0.78200E+11
         0.78200E+11
         0.78200E+11
         0.78200E+11
         0.78200E+11
         0.78200E+11
         0.78200E+11
         0.78200E+11
         0.78200E+11
         0.78200E+11
         0.78200E+11
         0.78200E+11
         0.78200E+11
         0.78200E+11
         0.78200E+11
         0.78200E+11
         0.78200E+11
         0.78200E+11
         0.78200E+11
         0.78200E+11
         0.78200E+11
         0.78200E+11
         0.78200E+11
         0.78200E+11
         0.78200E+11
         0.78200E+11
         0.78200E+11
         0.78200E+11
         0.78200E+11
         0.78200E+11
         0.78200E+11
         0.78200E+11
         0.78200E+11
         0.78200E+11
         0.78200E+11
         0.78200E+11
         0.78200E+11
         0.78200E+11
         0.78200E+11
         0.78200E+11
         0.78200E+11
         0.78200E+11
         0.78200E+11
         0.78200E+11
         0.78200E+11
         0.78200E+11
         0.78200E+11
         0.78200E+11
         0.78200E+11
         0.78200E+11
         0.78200E+11
         0.78200E+11
         0.78200E+11
         0.78200E+11
         0.78200E+11
         0.78200E+11
         0.78200E+11
         0.78200E+11
         0.78200E+11
         0.78200E+11
         0.78200E+11
         0.78200E+11
         0.78200E+11
         0.78200E+11
         0.78200E+11
         0.78200E+11
         0.78200E+11
         0.78200E+11
         0.78200E+11
         0.78200E+11
         0.78200E+11
         0.78200E+11
         0.78200E+11
         0.78200E+11
         0.78200E+11
         0.78200E+11
         0.78200E+11
         0.78200E+11
         0.78200E+11
         0.78200E+11
         0.78200E+11
         0.78200E+11
         0.78200E+11
         0.78200E+11
         0.78200E+11
         0.78200E+11
         0.78200E+11
         0.78200E+11
         0.78200E+11
         0.78200E+11
         0.78200E+11
         0.78200E+11
         0.78200E+11
         0.78200E+11
         0.78200E+11
         0.78200E+11
         0.78200E+11
         0.78200E+11
         0.78200E+11
         0.78200E+11
         0.78200E+11
         0.78200E+11
         0.78200E+11
         0.78200E+11
         0.78200E+11
         0.78200E+11
         0.78200E+11
         0.78200E+11
         0.78200E+11
         0.78200E+11
         0.78200E+11
         0.78200E+11
         0.78200E+11
         0.78200E+11
         0.78200E+11
         0.78200E+11
         0.78200E+11
         0.78200E+11
         0.78200E+11
         0.78200E+11
         0.78200E+11
         0.78200E+11
         0.78200E+11
         0.78200E+11
         0.78200E+11
         0.78200E+11
         0.78200E+11
         0.78200E+11
         0.78200E+11
         0.78200E+11
         0.78200E+11
         0.78200E+11
         0.78200E+11
         0.78200E+11
         0.78200E+11
         0.78200E+11
         0.78200E+11
         0.78200E+11
         0.78200E+11
         0.78200E+11
         0.78200E+11
         0.78200E+11
         0.78200E+11
         0.78200E+11
         0.78200E+11
         0.78200E+11
         0.78200E+11
         0.78200E+11
         0.78200E+11
         0.78200E+11
         0.78200E+11
         0.78200E+11
         0.78200E+11
         0.78200E+11
         0.78200E+11
         0.78200E+11
         0.78200E+11
         0.78200E+11
         0.78200E+11
         0.78200E+11
         0.78200E+11
         0.78200E+11
         0.78200E+11
         0.78200E+11
         0.78200E+11
         0.78200E+11
         0.78200E+11
         0.78200E+11
         0.78200E+11
         0.78200E+11
         0.78200E+11
         0.78200E+11
         0.78200E+11
         0.78200E+11
         0.78200E+11
         0.78200E+11
         0.78200E+11
         0.78200E+11
         0.78200E+11
         0.78200E+11
         0.78200E+11
         0.78200E+11
         0.78200E+11
         0.78200E+11
         0.78200E+11
         0.78200E+11
         0.78200E+11
         0.78200E+11
         0.78200E+11
         0.78200E+11
         0.78200E+11
         0.78200E+11
         0.78200E+11
         0.78200E+11
         0.78200E+11
         0.78200E+11
         0.78200E+11
         0.78200E+11
         0.78200E+11
         0.78200E+11
         0.78200E+11
         0.78200E+11
         0.78200E+11
         0.78200E+11
         0.78200E+11
         0.78200E+11
         0.78200E+11
         0.78200E+11
         0.78200E+11
         0.78200E+11
         0.78200E+11
         0.78200E+11
         0.78200E+11
         0.78200E+11
         0.78200E+11
         0.78200E+11
         0.78200E+11
         0.78200E+11
         0.78200E+11
         0.78200E+11
         0.78200E+11
         0.78200E+11
         0.78200E+11
         0.78200E+11
         0.78200E+11
         0.78200E+11
         0.78200E+11
         0.78200E+11
         0.78200E+11
         0.78200E+11
         0.78200E+11
         0.78200E+11
         0.78200E+11
         0.78200E+11
         0.78200E+11
         0.78200E+11
         0.78200E+11
         0.78200E+11
         0.78200E+11
         0.78200E+11
         0.78200E+11
         0.78200E+11
         0.78200E+11
         0.78200E+11
         0.78200E+11
         0.78200E+11
         0.78200E+11
         0.78200E+11
         0.78200E+11
         0.78200E+11
         0.78200E+11
         0.78200E+11
         0.78200E+11
         0.78200E+11
         0.78200E+11
         0.78200E+11
         0.78200E+11
         0.78200E+11
         0.78200E+11
         0.78200E+11
         0.78200E+11
         0.78200E+11
         0.78200E+11
         0.78200E+11
         0.78200E+11
         0.78200E+11
         0.78200E+11
         0.78200E+11
         0.78200E+11
         0.78200E+11
         0.78200E+11
         0.78200E+11
         0.78200E+11
         0.78200E+11
         0.78200E+11
         0.78200E+11
         0.78200E+11
         0.78200E+11
         0.78200E+11
         0.78200E+11
         0.78200E+11
         0.78200E+11
         0.78200E+11
         0.78200E+11
         0.78200E+11
         0.78200E+11
         0.78200E+11
         0.78200E+11
         0.78200E+11
         0.78200E+11
         0.78200E+11
         0.78200E+11
         0.78200E+11
         0.78200E+11
         0.78200E+11
         0.78200E+11
         0.78200E+11
         0.78200E+11
         0.78200E+11
         0.78200E+11
         0.78200E+11
         0.78200E+11
         0.78200E+11
         0.78200E+11
         0.78200E+11
         0.78200E+11
         0.78200E+11
         0.78200E+11
         0.78200E+11
         0.78200E+11
         0.78200E+11
         0.78200E+11
         0.78200E+11
         0.78200E+11
         0.78200E+11
         0.78200E+11
         0.78200E+11
         0.78200E+11
         0.78200E+11
         0.78200E+11
         0.78200E+11
         0.78200E+11
         0.78200E+11
         0.78200E+11
         0.78200E+11
         0.78200E+11
         0.78200E+11
         0.78200E+11
         0.78200E+11
         0.78200E+11
         0.78200E+11
         0.78200E+11
         0.78200E+11
         0.78200E+11
         0.78200E+11
         0.78200E+11
         0.78200E+11
         0.78200E+11
         0.78200E+11
         0.78200E+11
         0.78200E+11
         0.78200E+11
         0.78200E+11
         0.78200E+11
         0.78200E+11
         0.78200E+11
         0.78200E+11
         0.78200E+11
         0.78200E+11
         0.78200E+11
         0.78200E+11
         0.78200E+11
         0.78200E+11
         0.78200E+11
         0.78200E+11
         0.78200E+11
         0.78200E+11
         0.78200E+11
         0.78200E+11
         0.78200E+11
         0.78200E+11
         0.78200E+11
         0.78200E+11
         0.78200E+11
         0.78200E+11
         0.78200E+11
         0.78200E+11
         0.78200E+11
         0.78200E+11
         0.78200E+11
         0.78200E+11
         0.78200E+11
         0.78200E+11
         0.78200E+11
         0.78200E+11
         0.78200E+11
         0.78200E+11
         0.78200E+11
         0.78200E+11
         0.78200E+11
         0.78200E+11
         0.78200E+11
         0.78200E+11
         0.78200E+11
         0.78200E+11
         0.78200E+11
         0.78200E+11
         0.78200E+11
         0.78200E+11
         0.78200E+11
         0.78200E+11
         0.78200E+11
         0.78200E+11
         0.78200E+11
         0.78200E+11
         0.78200E+11
         0.78200E+11
         0.78200E+11
         0.78200E+11
         0.78200E+11
         0.78200E+11
         0.78200E+11
         0.78200E+11
         0.78200E+11
         0.78200E+11
         0.78200E+11
         0.78200E+11
         0.78200E+11
         0.78200E+11
         0.78200E+11
         0.78200E+11
         0.78200E+11
         0.78200E+11
         0.78200E+11
         0.78200E+11
         0.78200E+11
         0.78200E+11
         0.78200E+11
         0.78200E+11
         0.78200E+11
         0.78200E+11
         0.78200E+11
         0.78200E+11
         0.78200E+11
         0.78200E+11
         0.78200E+11
         0.78200E+11
         0.78200E+11
         0.78200E+11
         0.78200E+11
         0.78200E+11
         0.78200E+11
         0.78200E+11
         0.78200E+11
         0.78200E+11
         0.78200E+11
         0.78200E+11
         0.78200E+11
         0.78200E+11
         0.78200E+11
         0.78200E+11
         0.78200E+11
         0.78200E+11
         0.78200E+11
         0.78200E+11
         0.78200E+11
         0.78200E+11
         0.78200E+11
         0.78200E+11
         0.78200E+11
         0.78200E+11
         0.78200E+11
         0.78200E+11
         0.78200E+11
         0.78200E+11
         0.78200E+11
         0.78200E+11
         0.78200E+11
         0.78200E+11
         0.78200E+11
         0.78200E+11
         0.78200E+11
         0.78200E+11
         0.78200E+11
         0.78200E+11
         0.78200E+11
         0.78200E+11
         0.78200E+11
         0.78200E+11
         0.78200E+11
         0.78200E+11
         0.78200E+11
         0.78200E+11
         0.78200E+11
         0.78200E+11
         0.78200E+11
         0.78200E+11
         0.78200E+11
         0.78200E+11
         0.78200E+11
         0.78200E+11
         0.78200E+11
         0.78200E+11
         0.78200E+11
         0.78200E+11
         0.78200E+11
         0.78200E+11
         0.78200E+11
         0.78200E+11
         0.78200E+11
         0.78200E+11
         0.78200E+11
         0.78200E+11
         0.78200E+11
         0.78200E+11
         0.78200E+11
         0.78200E+11
         0.78200E+11
         0.78200E+11
         0.78200E+11
         0.78200E+11
         0.78200E+11
         0.78200E+11
         0.78200E+11
         0.78200E+11
         0.78200E+11
         0.78200E+11
         0.78200E+11
         0.78200E+11
         0.78200E+11
         0.78200E+11
         0.78200E+11
         0.78200E+11
         0.78200E+11
         0.78200E+11
         0.78200E+11
         0.78200E+11
         0.78200E+11
         0.78200E+11
         0.78200E+11
         0.78200E+11
         0.78200E+11
         0.78200E+11
         0.78200E+11
         0.78200E+11
         0.78200E+11
         0.78200E+11
         0.78200E+11
         0.78200E+11
         0.78200E+11
         0.78200E+11
         0.78200E+11
         0.78200E+11
         0.78200E+11
         0.78200E+11
         0.78200E+11
         0.78200E+11
         0.78200E+11
         0.78200E+11
         0.78200E+11
         0.78200E+11
         0.78200E+11
         0.78200E+11
         0.78200E+11
         0.78200E+11
         0.78200E+11
         0.78200E+11
         0.78200E+11
         0.78200E+11
         0.78200E+11
         0.78200E+11
         0.78200E+11
         0.78200E+11
         0.78200E+11
         0.78200E+11
         0.78200E+11
         0.78200E+11
         0.78200E+11
         0.78200E+11
         0.78200E+11
         0.78200E+11
         0.78200E+11
         0.78200E+11
         0.78200E+11
         0.78200E+11
         0.78200E+11
         0.78200E+11
         0.78200E+11
         0.78200E+11
         0.78200E+11
         0.78200E+11
         0.78200E+11
         0.78200E+11
         0.78200E+11
         0.78200E+11
         0.78200E+11
         0.78200E+11
         0.78200E+11
         0.78200E+11
         0.78200E+11
         0.78200E+11
         0.78200E+11
         0.78200E+11
         0.78200E+11
         0.78200E+11
         0.78200E+11
         0.78200E+11
         0.78200E+11
         0.78200E+11
         0.78200E+11
         0.78200E+11
         0.78200E+11
         0.78200E+11
         0.78200E+11
         0.78200E+11
         0.78200E+11
         0.78200E+11
         0.78200E+11
         0.78200E+11
         0.78200E+11
         0.78200E+11
         0.78200E+11
         0.78200E+11
         0.78200E+11
         0.78200E+11
         0.78200E+11
         0.78200E+11
         0.78200E+11
         0.78200E+11
         0.78200E+11
         0.78200E+11
         0.78200E+11
         0.78200E+11
         0.78200E+11
         0.78200E+11
         0.78200E+11
         0.78200E+11
         0.78200E+11
         0.78200E+11
         0.78200E+11
         0.78200E+11
         0.78200E+11
         0.78200E+11
         0.78200E+11
         0.78200E+11
         0.78200E+11
         0.78200E+11
         0.78200E+11
         0.78200E+11
         0.78200E+11
         0.78200E+11
         0.78200E+11
         0.78200E+11
         0.78200E+11
         0.78200E+11
         0.78200E+11
         0.78200E+11
         0.78200E+11
         0.78200E+11
         0.78200E+11
         0.78200E+11
         0.78200E+11
         0.78200E+11
         0.78200E+11
         0.78200E+11
         0.78200E+11
         0.78200E+11
         0.78200E+11
         0.78200E+11
         0.78200E+11
         0.78200E+11
         0.78200E+11
         0.78200E+11
         0.78200E+11
         0.78200E+11
         0.78200E+11
         0.78200E+11
         0.78200E+11
         0.78200E+11
         0.78200E+11
         0.78200E+11
         0.78200E+11
         0.78200E+11
         0.78200E+11
         0.78200E+11
         0.78200E+11
         0.78200E+11
         0.78200E+11
         0.78200E+11
         0.78200E+11
         0.78200E+11
         0.78200E+11
         0.78200E+11
         0.78200E+11
         0.78200E+11
         0.78200E+11
         0.78200E+11
         0.78200E+11
         0.78200E+11
         0.78200E+11
         0.78200E+11
         0.78200E+11
         0.78200E+11
         0.78200E+11
         0.78200E+11
         0.78200E+11
         0.78200E+11
         0.78200E+11
         0.78200E+11
         0.78200E+11
         0.78200E+11
         0.78200E+11
         0.78200E+11
         0.78200E+11
         0.78200E+11
         0.78200E+11
         0.78200E+11
         0.78200E+11
         0.78200E+11
         0.78200E+11
         0.78200E+11
         0.78200E+11
         0.78200E+11
         0.78200E+11
         0.78200E+11
         0.78200E+11
         0.78200E+11
         0.78200E+11
         0.78200E+11
         0.78200E+11
         0.78200E+11
         0.78200E+11
         0.78200E+11
         0.78200E+11
         0.78200E+11
         0.78200E+11
         0.78200E+11
         0.78200E+11
         0.78200E+11
         0.78200E+11
         0.78200E+11
         0.78200E+11
         0.78200E+11
         0.78200E+11
         0.78200E+11
         0.78200E+11
         0.78200E+11
         0.78200E+11
         0.78200E+11
         0.78200E+11
         0.78200E+11
         0.78200E+11
         0.78200E+11
         0.78200E+11
         0.78200E+11
         0.78200E+11
         0.78200E+11
         0.78200E+11
         0.78200E+11
         0.78200E+11
         0.78200E+11
         0.78200E+11
         0.78200E+11
         0.78200E+11
         0.78200E+11
         0.78200E+11
         0.78200E+11
         0.78200E+11
         0.78200E+11
         0.78200E+11
         0.78200E+11
         0.78200E+11
         0.78200E+11
         0.78200E+11
         0.78200E+11
         0.78200E+11
         0.78200E+11
         0.78200E+11
         0.78200E+11
         0.78200E+11
         0.78200E+11
         0.78200E+11
         0.78200E+11
         0.78200E+11
         0.78200E+11
         0.78200E+11
         0.78200E+11
         0.78200E+11
         0.78200E+11
         0.78200E+11
         0.78200E+11
         0.78200E+11
         0.78200E+11
         0.78200E+11
         0.78200E+11
         0.78200E+11
         0.78200E+11
         0.78200E+11
         0.78200E+11
         0.78200E+11
         0.78200E+11
         0.78200E+11
         0.78200E+11
         0.78200E+11
         0.78200E+11
         0.78200E+11
         0.78200E+11
         0.78200E+11
         0.78200E+11
         0.78200E+11
         0.78200E+11
         0.78200E+11
         0.78200E+11
         0.78200E+11
         0.78200E+11
         0.78200E+11
         0.78200E+11
         0.78200E+11
         0.78200E+11
         0.78200E+11
         0.78200E+11
         0.78200E+11
         0.78200E+11
         0.78200E+11
         0.78200E+11
         0.78200E+11
         0.78200E+11
         0.78200E+11
         0.78200E+11
         0.78200E+11
         0.78200E+11
         0.78200E+11
         0.78200E+11
         0.78200E+11
         0.78200E+11
         0.78200E+11
         0.78200E+11
         0.78200E+11
         0.78200E+11
         0.78200E+11
         0.78200E+11
         0.78200E+11
         0.78200E+11
         0.78200E+11
         0.78200E+11
         0.78200E+11
         0.78200E+11
         0.78200E+11
  
SCALARS                        density  double 1
LOOKUP_TABLE default
         0.27000E+04
         0.27000E+04
         0.27000E+04
         0.27000E+04
         0.27000E+04
         0.27000E+04
         0.27000E+04
         0.27000E+04
         0.27000E+04
         0.27000E+04
         0.27000E+04
         0.27000E+04
         0.27000E+04
         0.27000E+04
         0.27000E+04
         0.27000E+04
         0.27000E+04
         0.27000E+04
         0.27000E+04
         0.27000E+04
         0.27000E+04
         0.27000E+04
         0.27000E+04
         0.27000E+04
         0.27000E+04
         0.27000E+04
         0.27000E+04
         0.27000E+04
         0.27000E+04
         0.27000E+04
         0.27000E+04
         0.27000E+04
         0.27000E+04
         0.27000E+04
         0.27000E+04
         0.27000E+04
         0.27000E+04
         0.27000E+04
         0.27000E+04
         0.27000E+04
         0.27000E+04
         0.27000E+04
         0.27000E+04
         0.27000E+04
         0.27000E+04
         0.27000E+04
         0.27000E+04
         0.27000E+04
         0.27000E+04
         0.27000E+04
         0.27000E+04
         0.27000E+04
         0.27000E+04
         0.27000E+04
         0.27000E+04
         0.27000E+04
         0.27000E+04
         0.27000E+04
         0.27000E+04
         0.27000E+04
         0.27000E+04
         0.27000E+04
         0.27000E+04
         0.27000E+04
         0.27000E+04
         0.27000E+04
         0.27000E+04
         0.27000E+04
         0.27000E+04
         0.27000E+04
         0.27000E+04
         0.27000E+04
         0.27000E+04
         0.27000E+04
         0.27000E+04
         0.27000E+04
         0.27000E+04
         0.27000E+04
         0.27000E+04
         0.27000E+04
         0.27000E+04
         0.27000E+04
         0.27000E+04
         0.27000E+04
         0.27000E+04
         0.27000E+04
         0.27000E+04
         0.27000E+04
         0.27000E+04
         0.27000E+04
         0.27000E+04
         0.27000E+04
         0.27000E+04
         0.27000E+04
         0.27000E+04
         0.27000E+04
         0.27000E+04
         0.27000E+04
         0.27000E+04
         0.27000E+04
         0.27000E+04
         0.27000E+04
         0.27000E+04
         0.27000E+04
         0.27000E+04
         0.27000E+04
         0.27000E+04
         0.27000E+04
         0.27000E+04
         0.27000E+04
         0.27000E+04
         0.27000E+04
         0.27000E+04
         0.27000E+04
         0.27000E+04
         0.27000E+04
         0.27000E+04
         0.27000E+04
         0.27000E+04
         0.27000E+04
         0.27000E+04
         0.27000E+04
         0.27000E+04
         0.27000E+04
         0.27000E+04
         0.27000E+04
         0.27000E+04
         0.27000E+04
         0.27000E+04
         0.27000E+04
         0.27000E+04
         0.27000E+04
         0.27000E+04
         0.27000E+04
         0.27000E+04
         0.27000E+04
         0.27000E+04
         0.27000E+04
         0.27000E+04
         0.27000E+04
         0.27000E+04
         0.27000E+04
         0.27000E+04
         0.27000E+04
         0.27000E+04
         0.27000E+04
         0.27000E+04
         0.27000E+04
         0.27000E+04
         0.27000E+04
         0.27000E+04
         0.27000E+04
         0.27000E+04
         0.27000E+04
         0.27000E+04
         0.27000E+04
         0.27000E+04
         0.27000E+04
         0.27000E+04
         0.27000E+04
         0.27000E+04
         0.27000E+04
         0.27000E+04
         0.27000E+04
         0.27000E+04
         0.27000E+04
         0.27000E+04
         0.27000E+04
         0.27000E+04
         0.27000E+04
         0.27000E+04
         0.27000E+04
         0.27000E+04
         0.27000E+04
         0.27000E+04
         0.27000E+04
         0.27000E+04
         0.27000E+04
         0.27000E+04
         0.27000E+04
         0.27000E+04
         0.27000E+04
         0.27000E+04
         0.27000E+04
         0.27000E+04
         0.27000E+04
         0.27000E+04
         0.27000E+04
         0.27000E+04
         0.27000E+04
         0.27000E+04
         0.27000E+04
         0.27000E+04
         0.27000E+04
         0.27000E+04
         0.27000E+04
         0.27000E+04
         0.27000E+04
         0.27000E+04
         0.27000E+04
         0.27000E+04
         0.27000E+04
         0.27000E+04
         0.27000E+04
         0.27000E+04
         0.27000E+04
         0.27000E+04
         0.27000E+04
         0.27000E+04
         0.27000E+04
         0.27000E+04
         0.27000E+04
         0.27000E+04
         0.27000E+04
         0.27000E+04
         0.27000E+04
         0.27000E+04
         0.27000E+04
         0.27000E+04
         0.27000E+04
         0.27000E+04
         0.27000E+04
         0.27000E+04
         0.27000E+04
         0.27000E+04
         0.27000E+04
         0.27000E+04
         0.27000E+04
         0.27000E+04
         0.27000E+04
         0.27000E+04
         0.27000E+04
         0.27000E+04
         0.27000E+04
         0.27000E+04
         0.27000E+04
         0.27000E+04
         0.27000E+04
         0.27000E+04
         0.27000E+04
         0.27000E+04
         0.27000E+04
         0.27000E+04
         0.27000E+04
         0.27000E+04
         0.27000E+04
         0.27000E+04
         0.27000E+04
         0.27000E+04
         0.27000E+04
         0.27000E+04
         0.27000E+04
         0.27000E+04
         0.27000E+04
         0.27000E+04
         0.27000E+04
         0.27000E+04
         0.27000E+04
         0.27000E+04
         0.27000E+04
         0.27000E+04
         0.27000E+04
         0.27000E+04
         0.27000E+04
         0.27000E+04
         0.27000E+04
         0.27000E+04
         0.27000E+04
         0.27000E+04
         0.27000E+04
         0.27000E+04
         0.27000E+04
         0.27000E+04
         0.27000E+04
         0.27000E+04
         0.27000E+04
         0.27000E+04
         0.27000E+04
         0.27000E+04
         0.27000E+04
         0.27000E+04
         0.27000E+04
         0.27000E+04
         0.27000E+04
         0.27000E+04
         0.27000E+04
         0.27000E+04
         0.27000E+04
         0.27000E+04
         0.27000E+04
         0.27000E+04
         0.27000E+04
         0.27000E+04
         0.27000E+04
         0.27000E+04
         0.27000E+04
         0.27000E+04
         0.27000E+04
         0.27000E+04
         0.27000E+04
         0.27000E+04
         0.27000E+04
         0.27000E+04
         0.27000E+04
         0.27000E+04
         0.27000E+04
         0.27000E+04
         0.27000E+04
         0.27000E+04
         0.27000E+04
         0.27000E+04
         0.27000E+04
         0.27000E+04
         0.27000E+04
         0.27000E+04
         0.27000E+04
         0.27000E+04
         0.27000E+04
         0.27000E+04
         0.27000E+04
         0.27000E+04
         0.27000E+04
         0.27000E+04
         0.27000E+04
         0.27000E+04
         0.27000E+04
         0.27000E+04
         0.27000E+04
         0.27000E+04
         0.27000E+04
         0.27000E+04
         0.27000E+04
         0.27000E+04
         0.27000E+04
         0.27000E+04
         0.27000E+04
         0.27000E+04
         0.27000E+04
         0.27000E+04
         0.27000E+04
         0.27000E+04
         0.27000E+04
         0.27000E+04
         0.27000E+04
         0.27000E+04
         0.27000E+04
         0.27000E+04
         0.27000E+04
         0.27000E+04
         0.27000E+04
         0.27000E+04
         0.27000E+04
         0.27000E+04
         0.27000E+04
         0.27000E+04
         0.27000E+04
         0.27000E+04
         0.27000E+04
         0.27000E+04
         0.27000E+04
         0.27000E+04
         0.27000E+04
         0.27000E+04
         0.27000E+04
         0.27000E+04
         0.27000E+04
         0.27000E+04
         0.27000E+04
         0.27000E+04
         0.27000E+04
         0.27000E+04
         0.27000E+04
         0.27000E+04
         0.27000E+04
         0.27000E+04
         0.27000E+04
         0.27000E+04
         0.27000E+04
         0.27000E+04
         0.27000E+04
         0.27000E+04
         0.27000E+04
         0.27000E+04
         0.27000E+04
         0.27000E+04
         0.27000E+04
         0.27000E+04
         0.27000E+04
         0.27000E+04
         0.27000E+04
         0.27000E+04
         0.27000E+04
         0.27000E+04
         0.27000E+04
         0.27000E+04
         0.27000E+04
         0.27000E+04
         0.27000E+04
         0.27000E+04
         0.27000E+04
         0.27000E+04
         0.27000E+04
         0.27000E+04
         0.27000E+04
         0.27000E+04
         0.27000E+04
         0.27000E+04
         0.27000E+04
         0.27000E+04
         0.27000E+04
         0.27000E+04
         0.27000E+04
         0.27000E+04
         0.27000E+04
         0.27000E+04
         0.27000E+04
         0.27000E+04
         0.27000E+04
         0.27000E+04
         0.27000E+04
         0.27000E+04
         0.27000E+04
         0.27000E+04
         0.27000E+04
         0.27000E+04
         0.27000E+04
         0.27000E+04
         0.27000E+04
         0.27000E+04
         0.27000E+04
         0.27000E+04
         0.27000E+04
         0.27000E+04
         0.27000E+04
         0.27000E+04
         0.27000E+04
         0.27000E+04
         0.27000E+04
         0.27000E+04
         0.27000E+04
         0.27000E+04
         0.27000E+04
         0.27000E+04
         0.27000E+04
         0.27000E+04
         0.27000E+04
         0.27000E+04
         0.27000E+04
         0.27000E+04
         0.27000E+04
         0.27000E+04
         0.27000E+04
         0.27000E+04
         0.27000E+04
         0.27000E+04
         0.27000E+04
         0.27000E+04
         0.27000E+04
         0.27000E+04
         0.27000E+04
         0.27000E+04
         0.27000E+04
         0.27000E+04
         0.27000E+04
         0.27000E+04
         0.27000E+04
         0.27000E+04
         0.27000E+04
         0.27000E+04
         0.27000E+04
         0.27000E+04
         0.27000E+04
         0.27000E+04
         0.27000E+04
         0.27000E+04
         0.27000E+04
         0.27000E+04
         0.27000E+04
         0.27000E+04
         0.27000E+04
         0.27000E+04
         0.27000E+04
         0.27000E+04
         0.27000E+04
         0.27000E+04
         0.27000E+04
         0.27000E+04
         0.27000E+04
         0.27000E+04
         0.27000E+04
         0.27000E+04
         0.27000E+04
         0.27000E+04
         0.27000E+04
         0.27000E+04
         0.27000E+04
         0.27000E+04
         0.27000E+04
         0.27000E+04
         0.27000E+04
         0.27000E+04
         0.27000E+04
         0.27000E+04
         0.27000E+04
         0.27000E+04
         0.27000E+04
         0.27000E+04
         0.27000E+04
         0.27000E+04
         0.27000E+04
         0.27000E+04
         0.27000E+04
         0.27000E+04
         0.27000E+04
         0.27000E+04
         0.27000E+04
         0.27000E+04
         0.27000E+04
         0.27000E+04
         0.27000E+04
         0.27000E+04
         0.27000E+04
         0.27000E+04
         0.27000E+04
         0.27000E+04
         0.27000E+04
         0.27000E+04
         0.27000E+04
         0.27000E+04
         0.27000E+04
         0.27000E+04
         0.27000E+04
         0.27000E+04
         0.27000E+04
         0.27000E+04
         0.27000E+04
         0.27000E+04
         0.27000E+04
         0.27000E+04
         0.27000E+04
         0.27000E+04
         0.27000E+04
         0.27000E+04
         0.27000E+04
         0.27000E+04
         0.27000E+04
         0.27000E+04
         0.27000E+04
         0.27000E+04
         0.27000E+04
         0.27000E+04
         0.27000E+04
         0.27000E+04
         0.27000E+04
         0.27000E+04
         0.27000E+04
         0.27000E+04
         0.27000E+04
         0.27000E+04
         0.27000E+04
         0.27000E+04
         0.27000E+04
         0.27000E+04
         0.27000E+04
         0.27000E+04
         0.27000E+04
         0.27000E+04
         0.27000E+04
         0.27000E+04
         0.27000E+04
         0.27000E+04
         0.27000E+04
         0.27000E+04
         0.27000E+04
         0.27000E+04
         0.27000E+04
         0.27000E+04
         0.27000E+04
         0.27000E+04
         0.27000E+04
         0.27000E+04
         0.27000E+04
         0.27000E+04
         0.27000E+04
         0.27000E+04
         0.27000E+04
         0.27000E+04
         0.27000E+04
         0.27000E+04
         0.27000E+04
         0.27000E+04
         0.27000E+04
         0.27000E+04
         0.27000E+04
         0.27000E+04
         0.27000E+04
         0.27000E+04
         0.27000E+04
         0.27000E+04
         0.27000E+04
         0.27000E+04
         0.27000E+04
         0.27000E+04
         0.27000E+04
         0.27000E+04
         0.27000E+04
         0.27000E+04
         0.27000E+04
         0.27000E+04
         0.27000E+04
         0.27000E+04
         0.27000E+04
         0.27000E+04
         0.27000E+04
         0.27000E+04
         0.27000E+04
         0.27000E+04
         0.27000E+04
         0.27000E+04
         0.27000E+04
         0.27000E+04
         0.27000E+04
         0.27000E+04
         0.27000E+04
         0.27000E+04
         0.27000E+04
         0.27000E+04
         0.27000E+04
         0.27000E+04
         0.27000E+04
         0.27000E+04
         0.27000E+04
         0.27000E+04
         0.27000E+04
         0.27000E+04
         0.27000E+04
         0.27000E+04
         0.27000E+04
         0.27000E+04
         0.27000E+04
         0.27000E+04
         0.27000E+04
         0.27000E+04
         0.27000E+04
         0.27000E+04
         0.27000E+04
         0.27000E+04
         0.27000E+04
         0.27000E+04
         0.27000E+04
         0.27000E+04
         0.27000E+04
         0.27000E+04
         0.27000E+04
         0.27000E+04
         0.27000E+04
         0.27000E+04
         0.27000E+04
         0.27000E+04
         0.27000E+04
         0.27000E+04
         0.27000E+04
         0.27000E+04
         0.27000E+04
         0.27000E+04
         0.27000E+04
         0.27000E+04
         0.27000E+04
         0.27000E+04
         0.27000E+04
         0.27000E+04
         0.27000E+04
         0.27000E+04
         0.27000E+04
         0.27000E+04
         0.27000E+04
         0.27000E+04
         0.27000E+04
         0.27000E+04
         0.27000E+04
         0.27000E+04
         0.27000E+04
         0.27000E+04
         0.27000E+04
         0.27000E+04
         0.27000E+04
         0.27000E+04
         0.27000E+04
         0.27000E+04
         0.27000E+04
         0.27000E+04
         0.27000E+04
         0.27000E+04
         0.27000E+04
         0.27000E+04
         0.27000E+04
         0.27000E+04
         0.27000E+04
         0.27000E+04
         0.27000E+04
         0.27000E+04
         0.27000E+04
         0.27000E+04
         0.27000E+04
         0.27000E+04
         0.27000E+04
         0.27000E+04
         0.27000E+04
         0.27000E+04
         0.27000E+04
         0.27000E+04
         0.27000E+04
         0.27000E+04
         0.27000E+04
         0.27000E+04
         0.27000E+04
         0.27000E+04
         0.27000E+04
         0.27000E+04
         0.27000E+04
         0.27000E+04
         0.27000E+04
         0.27000E+04
         0.27000E+04
         0.27000E+04
         0.27000E+04
         0.27000E+04
         0.27000E+04
         0.27000E+04
         0.27000E+04
         0.27000E+04
         0.27000E+04
         0.27000E+04
         0.27000E+04
         0.27000E+04
         0.27000E+04
         0.27000E+04
         0.27000E+04
         0.27000E+04
         0.27000E+04
         0.27000E+04
         0.27000E+04
         0.27000E+04
         0.27000E+04
         0.27000E+04
         0.27000E+04
         0.27000E+04
         0.27000E+04
         0.27000E+04
         0.27000E+04
         0.27000E+04
         0.27000E+04
         0.27000E+04
         0.27000E+04
         0.27000E+04
         0.27000E+04
         0.27000E+04
         0.27000E+04
         0.27000E+04
         0.27000E+04
         0.27000E+04
         0.27000E+04
         0.27000E+04
         0.27000E+04
         0.27000E+04
         0.27000E+04
         0.27000E+04
         0.27000E+04
         0.27000E+04
         0.27000E+04
         0.27000E+04
         0.27000E+04
         0.27000E+04
         0.27000E+04
         0.27000E+04
         0.27000E+04
         0.27000E+04
         0.27000E+04
         0.27000E+04
         0.27000E+04
         0.27000E+04
         0.27000E+04
         0.27000E+04
         0.27000E+04
         0.27000E+04
         0.27000E+04
         0.27000E+04
         0.27000E+04
         0.27000E+04
         0.27000E+04
         0.27000E+04
         0.27000E+04
         0.27000E+04
         0.27000E+04
         0.27000E+04
         0.27000E+04
         0.27000E+04
         0.27000E+04
         0.27000E+04
         0.27000E+04
         0.27000E+04
         0.27000E+04
         0.27000E+04
         0.27000E+04
         0.27000E+04
         0.27000E+04
         0.27000E+04
         0.27000E+04
         0.27000E+04
         0.27000E+04
         0.27000E+04
         0.27000E+04
         0.27000E+04
         0.27000E+04
         0.27000E+04
         0.27000E+04
         0.27000E+04
         0.27000E+04
         0.27000E+04
         0.27000E+04
         0.27000E+04
         0.27000E+04
         0.27000E+04
         0.27000E+04
         0.27000E+04
         0.27000E+04
         0.27000E+04
         0.27000E+04
         0.27000E+04
         0.27000E+04
         0.27000E+04
         0.27000E+04
         0.27000E+04
         0.27000E+04
         0.27000E+04
         0.27000E+04
         0.27000E+04
         0.27000E+04
         0.27000E+04
         0.27000E+04
         0.27000E+04
         0.27000E+04
         0.27000E+04
         0.27000E+04
         0.27000E+04
         0.27000E+04
         0.27000E+04
         0.27000E+04
         0.27000E+04
         0.27000E+04
         0.27000E+04
         0.27000E+04
         0.27000E+04
         0.27000E+04
         0.27000E+04
         0.27000E+04
         0.27000E+04
         0.27000E+04
         0.27000E+04
         0.27000E+04
         0.27000E+04
         0.27000E+04
         0.27000E+04
         0.27000E+04
         0.27000E+04
         0.27000E+04
         0.27000E+04
         0.27000E+04
         0.27000E+04
         0.27000E+04
         0.27000E+04
         0.27000E+04
         0.27000E+04
         0.27000E+04
         0.27000E+04
         0.27000E+04
         0.27000E+04
         0.27000E+04
         0.27000E+04
         0.27000E+04
         0.27000E+04
         0.27000E+04
         0.27000E+04
         0.27000E+04
         0.27000E+04
         0.27000E+04
         0.27000E+04
         0.27000E+04
         0.27000E+04
         0.27000E+04
         0.27000E+04
         0.27000E+04
         0.27000E+04
         0.27000E+04
         0.27000E+04
         0.27000E+04
         0.27000E+04
         0.27000E+04
         0.27000E+04
         0.27000E+04
         0.27000E+04
         0.27000E+04
         0.27000E+04
         0.27000E+04
         0.27000E+04
         0.27000E+04
         0.27000E+04
         0.27000E+04
         0.27000E+04
         0.27000E+04
         0.27000E+04
         0.27000E+04
         0.27000E+04
         0.27000E+04
         0.27000E+04
         0.27000E+04
         0.27000E+04
         0.27000E+04
         0.27000E+04
         0.27000E+04
         0.27000E+04
         0.27000E+04
         0.27000E+04
         0.27000E+04
         0.27000E+04
         0.27000E+04
         0.27000E+04
         0.27000E+04
         0.27000E+04
         0.27000E+04
         0.27000E+04
         0.27000E+04
         0.27000E+04
         0.27000E+04
         0.27000E+04
         0.27000E+04
         0.27000E+04
         0.27000E+04
         0.27000E+04
         0.27000E+04
         0.27000E+04
         0.27000E+04
         0.27000E+04
         0.27000E+04
         0.27000E+04
         0.27000E+04
         0.27000E+04
         0.27000E+04
         0.27000E+04
         0.27000E+04
         0.27000E+04
         0.27000E+04
         0.27000E+04
         0.27000E+04
         0.27000E+04
         0.27000E+04
         0.27000E+04
         0.27000E+04
         0.27000E+04
         0.27000E+04
         0.27000E+04
         0.27000E+04
         0.27000E+04
         0.27000E+04
         0.27000E+04
         0.27000E+04
         0.27000E+04
         0.27000E+04
         0.27000E+04
         0.27000E+04
         0.27000E+04
         0.27000E+04
         0.27000E+04
         0.27000E+04
         0.27000E+04
         0.27000E+04
         0.27000E+04
         0.27000E+04
         0.27000E+04
         0.27000E+04
         0.27000E+04
         0.27000E+04
         0.27000E+04
         0.27000E+04
         0.27000E+04
         0.27000E+04
         0.27000E+04
         0.27000E+04
         0.27000E+04
         0.27000E+04
         0.27000E+04
         0.27000E+04
         0.27000E+04
         0.27000E+04
         0.27000E+04
         0.27000E+04
         0.27000E+04
         0.27000E+04
         0.27000E+04
         0.27000E+04
         0.27000E+04
         0.27000E+04
         0.27000E+04
         0.27000E+04
         0.27000E+04
         0.27000E+04
         0.27000E+04
         0.27000E+04
         0.27000E+04
         0.27000E+04
         0.27000E+04
         0.27000E+04
         0.27000E+04
         0.27000E+04
         0.27000E+04
         0.27000E+04
         0.27000E+04
         0.27000E+04
         0.27000E+04
         0.27000E+04
         0.27000E+04
         0.27000E+04
         0.27000E+04
         0.27000E+04
         0.27000E+04
         0.27000E+04
         0.27000E+04
         0.27000E+04
         0.27000E+04
         0.27000E+04
         0.27000E+04
         0.27000E+04
         0.27000E+04
         0.27000E+04
         0.27000E+04
         0.27000E+04
         0.27000E+04
         0.27000E+04
         0.27000E+04
         0.27000E+04
         0.27000E+04
         0.27000E+04
         0.27000E+04
         0.27000E+04
         0.27000E+04
         0.27000E+04
         0.27000E+04
         0.27000E+04
         0.27000E+04
         0.27000E+04
         0.27000E+04
         0.27000E+04
         0.27000E+04
         0.27000E+04
         0.27000E+04
         0.27000E+04
         0.27000E+04
         0.27000E+04
         0.27000E+04
         0.27000E+04
         0.27000E+04
         0.27000E+04
         0.27000E+04
         0.27000E+04
         0.27000E+04
         0.27000E+04
         0.27000E+04
         0.27000E+04
         0.27000E+04
         0.27000E+04
         0.27000E+04
         0.27000E+04
         0.27000E+04
         0.27000E+04
         0.27000E+04
         0.27000E+04
         0.27000E+04
         0.27000E+04
         0.27000E+04
         0.27000E+04
         0.27000E+04
         0.27000E+04
         0.27000E+04
         0.27000E+04
         0.27000E+04
         0.27000E+04
         0.27000E+04
         0.27000E+04
         0.27000E+04
         0.27000E+04
         0.27000E+04
         0.27000E+04
         0.27000E+04
         0.27000E+04
         0.27000E+04
         0.27000E+04
         0.27000E+04
         0.27000E+04
         0.27000E+04
         0.27000E+04
         0.27000E+04
         0.27000E+04
         0.27000E+04
         0.27000E+04
         0.27000E+04
         0.27000E+04
         0.27000E+04
         0.27000E+04
         0.27000E+04
         0.27000E+04
         0.27000E+04
         0.27000E+04
         0.27000E+04
         0.27000E+04
         0.27000E+04
         0.27000E+04
         0.27000E+04
         0.27000E+04
         0.27000E+04
         0.27000E+04
         0.27000E+04
         0.27000E+04
         0.27000E+04
         0.27000E+04
         0.27000E+04
         0.27000E+04
         0.27000E+04
         0.27000E+04
         0.27000E+04
         0.27000E+04
         0.27000E+04
         0.27000E+04
         0.27000E+04
         0.27000E+04
         0.27000E+04
         0.27000E+04
         0.27000E+04
         0.27000E+04
         0.27000E+04
         0.27000E+04
         0.27000E+04
         0.27000E+04
         0.27000E+04
         0.27000E+04
         0.27000E+04
         0.27000E+04
         0.27000E+04
         0.27000E+04
         0.27000E+04
         0.27000E+04
         0.27000E+04
         0.27000E+04
         0.27000E+04
         0.27000E+04
         0.27000E+04
         0.27000E+04
         0.27000E+04
         0.27000E+04
         0.27000E+04
         0.27000E+04
         0.27000E+04
         0.27000E+04
         0.27000E+04
         0.27000E+04
         0.27000E+04
         0.27000E+04
         0.27000E+04
         0.27000E+04
         0.27000E+04
         0.27000E+04
         0.27000E+04
         0.27000E+04
         0.27000E+04
         0.27000E+04
         0.27000E+04
         0.27000E+04
         0.27000E+04
         0.27000E+04
         0.27000E+04
         0.27000E+04
         0.27000E+04
         0.27000E+04
         0.27000E+04
         0.27000E+04
         0.27000E+04
         0.27000E+04
         0.27000E+04
         0.27000E+04
         0.27000E+04
         0.27000E+04
         0.27000E+04
         0.27000E+04
         0.27000E+04
         0.27000E+04
         0.27000E+04
         0.27000E+04
         0.27000E+04
         0.27000E+04
         0.27000E+04
         0.27000E+04
         0.27000E+04
         0.27000E+04
         0.27000E+04
         0.27000E+04
         0.27000E+04
         0.27000E+04
         0.27000E+04
         0.27000E+04
         0.27000E+04
         0.27000E+04
         0.27000E+04
         0.27000E+04
         0.27000E+04
         0.27000E+04
         0.27000E+04
         0.27000E+04
         0.27000E+04
         0.27000E+04
         0.27000E+04
         0.27000E+04
         0.27000E+04
         0.27000E+04
         0.27000E+04
         0.27000E+04
         0.27000E+04
         0.27000E+04
         0.27000E+04
         0.27000E+04
         0.27000E+04
         0.27000E+04
         0.27000E+04
         0.27000E+04
         0.27000E+04
         0.27000E+04
         0.27000E+04
         0.27000E+04
         0.27000E+04
         0.27000E+04
         0.27000E+04
         0.27000E+04
         0.27000E+04
         0.27000E+04
         0.27000E+04
         0.27000E+04
         0.27000E+04
         0.27000E+04
         0.27000E+04
         0.27000E+04
         0.27000E+04
         0.27000E+04
         0.27000E+04
         0.27000E+04
         0.27000E+04
         0.27000E+04
         0.27000E+04
         0.27000E+04
         0.27000E+04
         0.27000E+04
         0.27000E+04
         0.27000E+04
         0.27000E+04
         0.27000E+04
         0.27000E+04
         0.27000E+04
         0.27000E+04
         0.27000E+04
         0.27000E+04
         0.27000E+04
         0.27000E+04
         0.27000E+04
         0.27000E+04
         0.27000E+04
         0.27000E+04
         0.27000E+04
         0.27000E+04
         0.27000E+04
         0.27000E+04
         0.27000E+04
         0.27000E+04
         0.27000E+04
         0.27000E+04
         0.27000E+04
         0.27000E+04
         0.27000E+04
         0.27000E+04
         0.27000E+04
         0.27000E+04
         0.27000E+04
         0.27000E+04
         0.27000E+04
         0.27000E+04
         0.27000E+04
         0.27000E+04
         0.27000E+04
         0.27000E+04
         0.27000E+04
         0.27000E+04
         0.27000E+04
         0.27000E+04
         0.27000E+04
         0.27000E+04
         0.27000E+04
         0.27000E+04
         0.27000E+04
         0.27000E+04
         0.27000E+04
         0.27000E+04
         0.27000E+04
         0.27000E+04
         0.27000E+04
         0.27000E+04
         0.27000E+04
         0.27000E+04
         0.27000E+04
         0.27000E+04
         0.27000E+04
         0.27000E+04
         0.27000E+04
         0.27000E+04
         0.27000E+04
         0.27000E+04
         0.27000E+04
         0.27000E+04
         0.27000E+04
         0.27000E+04
         0.27000E+04
         0.27000E+04
         0.27000E+04
         0.27000E+04
         0.27000E+04
         0.27000E+04
         0.27000E+04
         0.27000E+04
         0.27000E+04
         0.27000E+04
         0.27000E+04
         0.27000E+04
         0.27000E+04
         0.27000E+04
         0.27000E+04
         0.27000E+04
         0.27000E+04
         0.27000E+04
         0.27000E+04
         0.27000E+04
         0.27000E+04
         0.27000E+04
         0.27000E+04
         0.27000E+04
         0.27000E+04
         0.27000E+04
         0.27000E+04
         0.27000E+04
         0.27000E+04
         0.27000E+04
         0.27000E+04
         0.27000E+04
         0.27000E+04
         0.27000E+04
         0.27000E+04
         0.27000E+04
         0.27000E+04
         0.27000E+04
         0.27000E+04
         0.27000E+04
         0.27000E+04
         0.27000E+04
         0.27000E+04
         0.27000E+04
         0.27000E+04
         0.27000E+04
         0.27000E+04
         0.27000E+04
         0.27000E+04
         0.27000E+04
         0.27000E+04
         0.27000E+04
         0.27000E+04
         0.27000E+04
         0.27000E+04
         0.27000E+04
         0.27000E+04
         0.27000E+04
         0.27000E+04
         0.27000E+04
         0.27000E+04
         0.27000E+04
         0.27000E+04
         0.27000E+04
         0.27000E+04
         0.27000E+04
         0.27000E+04
         0.27000E+04
         0.27000E+04
         0.27000E+04
         0.27000E+04
         0.27000E+04
         0.27000E+04
         0.27000E+04
         0.27000E+04
         0.27000E+04
         0.27000E+04
         0.27000E+04
         0.27000E+04
         0.27000E+04
         0.27000E+04
         0.27000E+04
         0.27000E+04
         0.27000E+04
         0.27000E+04
         0.27000E+04
         0.27000E+04
         0.27000E+04
         0.27000E+04
         0.27000E+04
         0.27000E+04
         0.27000E+04
         0.27000E+04
         0.27000E+04
         0.27000E+04
         0.27000E+04
         0.27000E+04
         0.27000E+04
         0.27000E+04
         0.27000E+04
         0.27000E+04
         0.27000E+04
         0.27000E+04
         0.27000E+04
         0.27000E+04
         0.27000E+04
         0.27000E+04
         0.27000E+04
         0.27000E+04
         0.27000E+04
         0.27000E+04
         0.27000E+04
         0.27000E+04
         0.27000E+04
         0.27000E+04
         0.27000E+04
         0.27000E+04
         0.27000E+04
         0.27000E+04
         0.27000E+04
         0.27000E+04
         0.27000E+04
         0.27000E+04
         0.27000E+04
         0.27000E+04
         0.27000E+04
         0.27000E+04
         0.27000E+04
         0.27000E+04
         0.27000E+04
         0.27000E+04
         0.27000E+04
         0.27000E+04
         0.27000E+04
         0.27000E+04
         0.27000E+04
         0.27000E+04
         0.27000E+04
         0.27000E+04
         0.27000E+04
         0.27000E+04
         0.27000E+04
         0.27000E+04
         0.27000E+04
         0.27000E+04
         0.27000E+04
         0.27000E+04
         0.27000E+04
         0.27000E+04
         0.27000E+04
         0.27000E+04
         0.27000E+04
         0.27000E+04
         0.27000E+04
         0.27000E+04
         0.27000E+04
         0.27000E+04
         0.27000E+04
         0.27000E+04
         0.27000E+04
         0.27000E+04
         0.27000E+04
         0.27000E+04
         0.27000E+04
         0.27000E+04
         0.27000E+04
         0.27000E+04
         0.27000E+04
         0.27000E+04
         0.27000E+04
         0.27000E+04
         0.27000E+04
         0.27000E+04
         0.27000E+04
         0.27000E+04
         0.27000E+04
         0.27000E+04
         0.27000E+04
         0.27000E+04
         0.27000E+04
         0.27000E+04
         0.27000E+04
         0.27000E+04
         0.27000E+04
         0.27000E+04
         0.27000E+04
         0.27000E+04
         0.27000E+04
         0.27000E+04
         0.27000E+04
         0.27000E+04
         0.27000E+04
         0.27000E+04
         0.27000E+04
         0.27000E+04
         0.27000E+04
         0.27000E+04
         0.27000E+04
         0.27000E+04
         0.27000E+04
         0.27000E+04
         0.27000E+04
         0.27000E+04
         0.27000E+04
         0.27000E+04
         0.27000E+04
         0.27000E+04
         0.27000E+04
         0.27000E+04
         0.27000E+04
         0.27000E+04
         0.27000E+04
         0.27000E+04
         0.27000E+04
         0.27000E+04
         0.27000E+04
         0.27000E+04
         0.27000E+04
         0.27000E+04
         0.27000E+04
         0.27000E+04
         0.27000E+04
         0.27000E+04
         0.27000E+04
         0.27000E+04
         0.27000E+04
         0.27000E+04
         0.27000E+04
         0.27000E+04
         0.27000E+04
         0.27000E+04
         0.27000E+04
         0.27000E+04
         0.27000E+04
         0.27000E+04
         0.27000E+04
         0.27000E+04
         0.27000E+04
         0.27000E+04
         0.27000E+04
         0.27000E+04
         0.27000E+04
         0.27000E+04
         0.27000E+04
         0.27000E+04
         0.27000E+04
         0.27000E+04
         0.27000E+04
         0.27000E+04
         0.27000E+04
         0.27000E+04
         0.27000E+04
         0.27000E+04
         0.27000E+04
         0.27000E+04
         0.27000E+04
         0.27000E+04
         0.27000E+04
         0.27000E+04
         0.27000E+04
         0.27000E+04
         0.27000E+04
         0.27000E+04
         0.27000E+04
         0.27000E+04
         0.27000E+04
         0.27000E+04
         0.27000E+04
         0.27000E+04
         0.27000E+04
         0.27000E+04
         0.27000E+04
         0.27000E+04
         0.27000E+04
         0.27000E+04
         0.27000E+04
         0.27000E+04
         0.27000E+04
         0.27000E+04
         0.27000E+04
         0.27000E+04
         0.27000E+04
         0.27000E+04
         0.27000E+04
         0.27000E+04
         0.27000E+04
         0.27000E+04
         0.27000E+04
         0.27000E+04
         0.27000E+04
         0.27000E+04
         0.27000E+04
         0.27000E+04
         0.27000E+04
         0.27000E+04
         0.27000E+04
         0.27000E+04
         0.27000E+04
         0.27000E+04
         0.27000E+04
         0.27000E+04
         0.27000E+04
         0.27000E+04
         0.27000E+04
         0.27000E+04
         0.27000E+04
         0.27000E+04
         0.27000E+04
         0.27000E+04
         0.27000E+04
         0.27000E+04
         0.27000E+04
         0.27000E+04
         0.27000E+04
         0.27000E+04
         0.27000E+04
         0.27000E+04
         0.27000E+04
         0.27000E+04
         0.27000E+04
         0.27000E+04
         0.27000E+04
         0.27000E+04
         0.27000E+04
         0.27000E+04
         0.27000E+04
         0.27000E+04
         0.27000E+04
         0.27000E+04
         0.27000E+04
         0.27000E+04
         0.27000E+04
         0.27000E+04
         0.27000E+04
         0.27000E+04
         0.27000E+04
         0.27000E+04
         0.27000E+04
         0.27000E+04
         0.27000E+04
         0.27000E+04
         0.27000E+04
         0.27000E+04
         0.27000E+04
         0.27000E+04
         0.27000E+04
         0.27000E+04
         0.27000E+04
         0.27000E+04
         0.27000E+04
         0.27000E+04
         0.27000E+04
         0.27000E+04
         0.27000E+04
         0.27000E+04
         0.27000E+04
         0.27000E+04
         0.27000E+04
         0.27000E+04
         0.27000E+04
         0.27000E+04
         0.27000E+04
         0.27000E+04
         0.27000E+04
         0.27000E+04
         0.27000E+04
         0.27000E+04
         0.27000E+04
         0.27000E+04
         0.27000E+04
         0.27000E+04
         0.27000E+04
         0.27000E+04
         0.27000E+04
         0.27000E+04
         0.27000E+04
         0.27000E+04
         0.27000E+04
         0.27000E+04
         0.27000E+04
         0.27000E+04
         0.27000E+04
         0.27000E+04
         0.27000E+04
         0.27000E+04
         0.27000E+04
         0.27000E+04
         0.27000E+04
         0.27000E+04
         0.27000E+04
         0.27000E+04
         0.27000E+04
         0.27000E+04
         0.27000E+04
         0.27000E+04
         0.27000E+04
         0.27000E+04
         0.27000E+04
         0.27000E+04
         0.27000E+04
         0.27000E+04
         0.27000E+04
         0.27000E+04
         0.27000E+04
         0.27000E+04
         0.27000E+04
         0.27000E+04
         0.27000E+04
         0.27000E+04
         0.27000E+04
         0.27000E+04
         0.27000E+04
         0.27000E+04
         0.27000E+04
         0.27000E+04
         0.27000E+04
         0.27000E+04
         0.27000E+04
         0.27000E+04
         0.27000E+04
         0.27000E+04
         0.27000E+04
         0.27000E+04
         0.27000E+04
         0.27000E+04
         0.27000E+04
         0.27000E+04
         0.27000E+04
         0.27000E+04
         0.27000E+04
         0.27000E+04
         0.27000E+04
         0.27000E+04
         0.27000E+04
         0.27000E+04
         0.27000E+04
         0.27000E+04
         0.27000E+04
         0.27000E+04
         0.27000E+04
         0.27000E+04
         0.27000E+04
         0.27000E+04
         0.27000E+04
         0.27000E+04
         0.27000E+04
         0.27000E+04
         0.27000E+04
         0.27000E+04
         0.27000E+04
         0.27000E+04
         0.27000E+04
         0.27000E+04
         0.27000E+04
         0.27000E+04
         0.27000E+04
         0.27000E+04
         0.27000E+04
         0.27000E+04
         0.27000E+04
         0.27000E+04
         0.27000E+04
         0.27000E+04
         0.27000E+04
         0.27000E+04
         0.27000E+04
         0.27000E+04
         0.27000E+04
         0.27000E+04
         0.27000E+04
         0.27000E+04
         0.27000E+04
         0.27000E+04
         0.27000E+04
         0.27000E+04
         0.27000E+04
         0.27000E+04
         0.27000E+04
         0.27000E+04
         0.27000E+04
         0.27000E+04
         0.27000E+04
         0.27000E+04
         0.27000E+04
         0.27000E+04
         0.27000E+04
         0.27000E+04
         0.27000E+04
         0.27000E+04
         0.27000E+04
         0.27000E+04
         0.27000E+04
         0.27000E+04
         0.27000E+04
         0.27000E+04
         0.27000E+04
         0.27000E+04
         0.27000E+04
         0.27000E+04
         0.27000E+04
         0.27000E+04
         0.27000E+04
         0.27000E+04
         0.27000E+04
         0.27000E+04
         0.27000E+04
         0.27000E+04
         0.27000E+04
         0.27000E+04
         0.27000E+04
         0.27000E+04
         0.27000E+04
         0.27000E+04
         0.27000E+04
         0.27000E+04
         0.27000E+04
         0.27000E+04
         0.27000E+04
         0.27000E+04
         0.27000E+04
         0.27000E+04
         0.27000E+04
         0.27000E+04
         0.27000E+04
         0.27000E+04
         0.27000E+04
         0.27000E+04
         0.27000E+04
         0.27000E+04
         0.27000E+04
         0.27000E+04
         0.27000E+04
         0.27000E+04
         0.27000E+04
         0.27000E+04
         0.27000E+04
         0.27000E+04
         0.27000E+04
         0.27000E+04
         0.27000E+04
         0.27000E+04
         0.27000E+04
         0.27000E+04
         0.27000E+04
         0.27000E+04
         0.27000E+04
         0.27000E+04
         0.27000E+04
         0.27000E+04
         0.27000E+04
         0.27000E+04
         0.27000E+04
         0.27000E+04
         0.27000E+04
         0.27000E+04
         0.27000E+04
         0.27000E+04
         0.27000E+04
         0.27000E+04
         0.27000E+04
         0.27000E+04
         0.27000E+04
         0.27000E+04
         0.27000E+04
         0.27000E+04
         0.27000E+04
         0.27000E+04
         0.27000E+04
         0.27000E+04
         0.27000E+04
         0.27000E+04
         0.27000E+04
         0.27000E+04
         0.27000E+04
         0.27000E+04
         0.27000E+04
         0.27000E+04
         0.27000E+04
         0.27000E+04
         0.27000E+04
         0.27000E+04
         0.27000E+04
         0.27000E+04
         0.27000E+04
         0.27000E+04
         0.27000E+04
         0.27000E+04
         0.27000E+04
         0.27000E+04
         0.27000E+04
         0.27000E+04
         0.27000E+04
         0.27000E+04
         0.27000E+04
         0.27000E+04
         0.27000E+04
         0.27000E+04
         0.27000E+04
         0.27000E+04
         0.27000E+04
         0.27000E+04
         0.27000E+04
         0.27000E+04
         0.27000E+04
         0.27000E+04
         0.27000E+04
         0.27000E+04
         0.27000E+04
         0.27000E+04
         0.27000E+04
         0.27000E+04
         0.27000E+04
         0.27000E+04
         0.27000E+04
         0.27000E+04
         0.27000E+04
         0.27000E+04
         0.27000E+04
         0.27000E+04
         0.27000E+04
         0.27000E+04
         0.27000E+04
         0.27000E+04
         0.27000E+04
         0.27000E+04
